<?xml version="1.0"?>
<VTKFile type="UnstructuredGrid" version="0.1" byte_order="LittleEndian">
<UnstructuredGrid>
<Piece NumberOfPoints="30045" NumberOfCells="10572">
<Points>
<DataArray type="Float64" NumberOfComponents="3" format="ascii">
-0.5 -0.5 0 -0.4634671666352253 -0.44982838100205952 0 -0.43135881676793209 -0.5 0 -0.5 -0.5 0 -0.4634671666352253 -0.44982838100205952 0 -0.5 -0.41236866247181359 0 -0.4634671666352253 -0.44982838100205952 0 -0.44845164944057869 -0.42843387413040129 0 -0.42787214779242039 -0.45397278142230552 0 -0.4634671666352253 -0.44982838100205952 0 -0.43135881676793209 -0.5 0 -0.42787214779242039 -0.45397278142230552 0 -0.5 -0.41236866247181359 0 -0.5 -0.34619889210400012 0 -0.46830564138245429 -0.37405977383715833 0 -0.4634671666352253 -0.44982838100205952 0 -0.5 -0.41236866247181359 0 -0.46866313715475583 -0.40195023975172128 0 -0.5 -0.41236866247181359 0 -0.46866313715475583 -0.40195023975172128 0 -0.46830564138245429 -0.37405977383715833 0 -0.45014442940217447 -0.4013185625992165 0 -0.44237042933033438 -0.38196934837481322 0 -0.46830564138245429 -0.37405977383715833 0 -0.46866313715475583 -0.40195023975172128 0 -0.45014442940217447 -0.4013185625992165 0 -0.46830564138245429 -0.37405977383715833 0 -0.45014442940217447 -0.4013185625992165 0 -0.43877358317869503 -0.39495758247990898 0 -0.44237042933033438 -0.38196934837481322 0 -0.45014442940217447 -0.4013185625992165 0 -0.43877358317869503 -0.39495758247990898 0 -0.43574731497708252 -0.40461316207953718 0 -0.4634671666352253 -0.44982838100205952 0 -0.46866313715475583 -0.40195023975172128 0 -0.44845164944057869 -0.42843387413040129 0 -0.46866313715475583 -0.40195023975172128 0 -0.45014442940217447 -0.4013185625992165 0 -0.44845164944057869 -0.42843387413040129 0 -0.45014442940217447 -0.4013185625992165 0 -0.44845164944057869 -0.42843387413040129 0 -0.43527036971826921 -0.41432199580611179 0 -0.45014442940217447 -0.4013185625992165 0 -0.43527036971826921 -0.41432199580611179 0 -0.43574731497708252 -0.40461316207953718 0 -0.44845164944057869 -0.42843387413040129 0 -0.42269405879196881 -0.4299652991457677 0 -0.42787214779242039 -0.45397278142230552 0 -0.44845164944057869 -0.42843387413040129 0 -0.42269405879196881 -0.4299652991457677 0 -0.43527036971826921 -0.41432199580611179 0 -0.43272409345465118 -0.40649143991083281 0 -0.4218606722431596 -0.41510963697091602 0 -0.41535231610346118 -0.40340386211647927 0 -0.42269405879196881 -0.4299652991457677 0 -0.43527036971826921 -0.41432199580611179 0 -0.4218606722431596 -0.41510963697091602 0 -0.43527036971826921 -0.41432199580611179 0 -0.43272409345465118 -0.40649143991083281 0 -0.43574731497708252 -0.40461316207953718 0 -0.43527036971826921 -0.41432199580611179 0 -0.43272409345465118 -0.40649143991083281 0 -0.4218606722431596 -0.41510963697091602 0 -0.4218606722431596 -0.41510963697091602 0 -0.41535231610346118 -0.40340386211647927 0 -0.39694450630356382 -0.41800748927566189 0 -0.42269405879196881 -0.4299652991457677 0 -0.4218606722431596 -0.41510963697091602 0 -0.39694450630356382 -0.41800748927566189 0 -0.42269405879196881 -0.4299652991457677 0 -0.39694450630356382 -0.41800748927566189 0 -0.40140307788713869 -0.44345915097682193 0 -0.42953637925293531 -0.3789970899339139 0 -0.42622966209021679 -0.39477444302758252 0 -0.41869962375579017 -0.38699038822924992 0 -0.43877358317869503 -0.39495758247990898 0 -0.44237042933033438 -0.38196934837481322 0 -0.42622966209021679 -0.39477444302758252 0 -0.44237042933033438 -0.38196934837481322 0 -0.42622966209021679 -0.39477444302758252 0 -0.44237042933033438 -0.38196934837481322 0 -0.42953637925293531 -0.3789970899339139 0 -0.42622966209021679 -0.39477444302758252 0 -0.44237042933033438 -0.38196934837481322 0 -0.42953637925293531 -0.3789970899339139 0 -0.43845461566448929 -0.36632022719094198 0 -0.42953637925293531 -0.3789970899339139 0 -0.41869962375579017 -0.38699038822924992 0 -0.42300441447708698 -0.36755678409028453 0 -0.43272409345465118 -0.40649143991083281 0 -0.42622966209021679 -0.39477444302758252 0 -0.41535231610346118 -0.40340386211647927 0 -0.43272409345465118 -0.40649143991083281 0 -0.41535231610346118 -0.40340386211647927 0 -0.42622966209021679 -0.39477444302758252 0 -0.41869962375579017 -0.38699038822924992 0 -0.43877358317869503 -0.39495758247990898 0 -0.42622966209021679 -0.39477444302758252 0 -0.43574731497708252 -0.40461316207953718 0 -0.43272409345465118 -0.40649143991083281 0 -0.42622966209021679 -0.39477444302758252 0 -0.43574731497708252 -0.40461316207953718 0 -0.42622966209021679 -0.39477444302758252 0 -0.43574731497708252 -0.40461316207953718 0 -0.42622966209021679 -0.39477444302758252 0 -0.41535231610346118 -0.40340386211647927 0 -0.41535231610346118 -0.40340386211647927 0 -0.41391400598243439 -0.39127880851499391 0 -0.40298414627967288 -0.3878129695567461 0 -0.42622966209021679 -0.39477444302758252 0 -0.41391400598243439 -0.39127880851499391 0 -0.41869962375579017 -0.38699038822924992 0 -0.42622966209021679 -0.39477444302758252 0 -0.41535231610346118 -0.40340386211647927 0 -0.41391400598243439 -0.39127880851499391 0 -0.41869962375579017 -0.38699038822924992 0 -0.41221174667866239 -0.36592784423694852 0 -0.41869962375579017 -0.38699038822924992 0 -0.4110898994563868 -0.37912395935916782 0 -0.41221174667866239 -0.36592784423694852 0 -0.41869962375579017 -0.38699038822924992 0 -0.4110898994563868 -0.37912395935916782 0 -0.41391400598243439 -0.39127880851499391 0 -0.41869962375579017 -0.38699038822924992 0 -0.4110898994563868 -0.37912395935916782 0 -0.41391400598243439 -0.39127880851499391 0 -0.4110898994563868 -0.37912395935916782 0 -0.40298414627967288 -0.3878129695567461 0 -0.3928313723333472 -0.38163856157133952 0 -0.40298414627967288 -0.3878129695567461 0 -0.39549940799503103 -0.39987529984045461 0 -0.3928313723333472 -0.38163856157133952 0 -0.39891048992789918 -0.37682849517642669 0 -0.40298414627967288 -0.3878129695567461 0 -0.3928313723333472 -0.38163856157133952 0 -0.39891048992789918 -0.37682849517642669 0 -0.39169689474753228 -0.37209350970412708 0 -0.4110898994563868 -0.37912395935916782 0 -0.39891048992789918 -0.37682849517642669 0 -0.40298414627967288 -0.3878129695567461 0 -0.41535231610346118 -0.40340386211647927 0 -0.39549940799503103 -0.39987529984045461 0 -0.41535231610346118 -0.40340386211647927 0 -0.40298414627967288 -0.3878129695567461 0 -0.39549940799503103 -0.39987529984045461 0 -0.39549940799503103 -0.39987529984045461 0 -0.37564649988660093 -0.3963467375644294 0 -0.39549940799503103 -0.39987529984045461 0 -0.37564649988660093 -0.3963467375644294 0 -0.37902612999574631 -0.41432474878288822 0 -0.39549940799503103 -0.39987529984045461 0 -0.37564649988660093 -0.3963467375644294 0 -0.37960362824264998 -0.38357680640087449 0 -0.3928313723333472 -0.38163856157133952 0 -0.39549940799503103 -0.39987529984045461 0 -0.37960362824264998 -0.38357680640087449 0 -0.37960362824264998 -0.38357680640087449 0 -0.38222327521494581 -0.37046698350013652 0 -0.36753041268072872 -0.37730783582517319 0 -0.3928313723333472 -0.38163856157133952 0 -0.37960362824264998 -0.38357680640087449 0 -0.38222327521494581 -0.37046698350013652 0 -0.39694450630356382 -0.41800748927566189 0 -0.37853669650366678 -0.43261111643484501 0 -0.40140307788713869 -0.44345915097682193 0 -0.41535231610346118 -0.40340386211647927 0 -0.39694450630356382 -0.41800748927566189 0 -0.41535231610346118 -0.40340386211647927 0 -0.39549940799503103 -0.39987529984045461 0 -0.39694450630356382 -0.41800748927566189 0 -0.39694450630356382 -0.41800748927566189 0 -0.37902612999574631 -0.41432474878288822 0 -0.37853669650366678 -0.43261111643484501 0 -0.39549940799503103 -0.39987529984045461 0 -0.39694450630356382 -0.41800748927566189 0 -0.37902612999574631 -0.41432474878288822 0 -0.39694450630356382 -0.41800748927566189 0 -0.37853669650366678 -0.43261111643484501 0 -0.37853669650366678 -0.43261111643484501 0 -0.40140307788713869 -0.44345915097682193 0 -0.37756091119068341 -0.45547083511181269 0 -0.40140307788713869 -0.44345915097682193 0 -0.37756091119068341 -0.45547083511181269 0 -0.39985811723167958 -0.47214998327878283 0 -0.37756091119068341 -0.45547083511181269 0 -0.39985811723167958 -0.47214998327878283 0 -0.37451570269174711 -0.47737193454193311 0 -0.37979862866570641 -0.5 0 -0.39985811723167958 -0.47214998327878283 0 -0.37451570269174711 -0.47737193454193311 0 -0.37979862866570641 -0.5 0 -0.39985811723167958 -0.47214998327878283 0 -0.43135881676793209 -0.5 0 -0.39985811723167958 -0.47214998327878283 0 -0.43135881676793209 -0.5 0 -0.42787214779242039 -0.45397278142230552 0 -0.42269405879196881 -0.4299652991457677 0 -0.40140307788713869 -0.44345915097682193 0 -0.42787214779242039 -0.45397278142230552 0 -0.40140307788713869 -0.44345915097682193 0 -0.39985811723167958 -0.47214998327878283 0 -0.42787214779242039 -0.45397278142230552 0 -0.5 -0.29624040081863412 0 -0.49999999999999872 -0.23003002556286931 0 -0.4827187744681663 -0.24337415047728311 0 -0.4481563234045024 -0.27006240030611189 0 -0.4319575720331516 -0.26179597195830667 0 -0.4441751168952755 -0.24878028328113941 0 -0.4481563234045024 -0.27006240030611189 0 -0.46543754893633432 -0.2567182753916975 0 -0.4441751168952755 -0.24878028328113941 0 -0.4481563234045024 -0.27006240030611189 0 -0.43387500380453348 -0.28253257577139501 0 -0.4319575720331516 -0.26179597195830667 0 -0.4481563234045024 -0.27006240030611189 0 -0.47163858447348939 -0.27270757708508869 0 -0.46188027555844419 -0.29714265843171728 0 -0.4481563234045024 -0.27006240030611189 0 -0.46543754893633432 -0.2567182753916975 0 -0.47163858447348939 -0.27270757708508869 0 -0.4481563234045024 -0.27006240030611189 0 -0.46543754893633432 -0.2567182753916975 0 -0.47163858447348939 -0.27270757708508869 0 -0.5 -0.29624040081863412 0 -0.4827187744681663 -0.24337415047728311 0 -0.46543754893633432 -0.2567182753916975 0 -0.47163858447348939 -0.27270757708508869 0 -0.4827187744681663 -0.24337415047728311 0 -0.46543754893633432 -0.2567182753916975 0 -0.4827187744681663 -0.24337415047728311 0 -0.47163858447348939 -0.27270757708508869 0 -0.5 -0.29624040081863412 0 -0.46188027555844419 -0.29714265843171728 0 -0.5 -0.29624040081863412 0 -0.46188027555844419 -0.29714265843171728 0 -0.47680038599610491 -0.32082291521225897 0 -0.46188027555844419 -0.29714265843171728 0 -0.43375114270991372 -0.30264629030096102 0 -0.43387500380453348 -0.28253257577139501 0 -0.4481563234045024 -0.27006240030611189 0 -0.46188027555844419 -0.29714265843171728 0 -0.43387500380453348 -0.28253257577139501 0 -0.46188027555844419 -0.29714265843171728 0 -0.44809331504006339 -0.32636616191720552 0 -0.43375114270991372 -0.30264629030096102 0 -0.44809331504006339 -0.32636616191720552 0 -0.44998827607879022 -0.35159552260715538 0 -0.4204267186931257 -0.34806720792222651 0 -0.44809331504006339 -0.32636616191720552 0 -0.47097830259533818 -0.34369320911008011 0 -0.44998827607879022 -0.35159552260715538 0 -0.44809331504006339 -0.32636616191720552 0 -0.47680038599610491 -0.32082291521225897 0 -0.47097830259533818 -0.34369320911008011 0 -0.46188027555844419 -0.29714265843171728 0 -0.44809331504006339 -0.32636616191720552 0 -0.47680038599610491 -0.32082291521225897 0 -0.5 -0.29624040081863412 0 -0.47680038599610491 -0.32082291521225897 0 -0.5 -0.34619889210400012 0 -0.47680038599610491 -0.32082291521225897 0 -0.47097830259533818 -0.34369320911008011 0 -0.5 -0.34619889210400012 0 -0.47097830259533818 -0.34369320911008011 0 -0.5 -0.34619889210400012 0 -0.46830564138245429 -0.37405977383715833 0 -0.47097830259533818 -0.34369320911008011 0 -0.46830564138245429 -0.37405977383715833 0 -0.44998827607879022 -0.35159552260715538 0 -0.44237042933033438 -0.38196934837481322 0 -0.46830564138245429 -0.37405977383715833 0 -0.43845461566448929 -0.36632022719094198 0 -0.46830564138245429 -0.37405977383715833 0 -0.44998827607879022 -0.35159552260715538 0 -0.43845461566448929 -0.36632022719094198 0 -0.43845461566448929 -0.36632022719094198 0 -0.42300441447708698 -0.36755678409028453 0 -0.4204267186931257 -0.34806720792222651 0 -0.42953637925293531 -0.3789970899339139 0 -0.43845461566448929 -0.36632022719094198 0 -0.42300441447708698 -0.36755678409028453 0 -0.44998827607879022 -0.35159552260715538 0 -0.43845461566448929 -0.36632022719094198 0 -0.4204267186931257 -0.34806720792222651 0 -0.4204267186931257 -0.34806720792222651 0 -0.41221174667866239 -0.36592784423694852 0 -0.40334742226057002 -0.33833141169726022 0 -0.41221174667866239 -0.36592784423694852 0 -0.40334742226057002 -0.33833141169726022 0 -0.41869962375579017 -0.38699038822924992 0 -0.42300441447708698 -0.36755678409028453 0 -0.41221174667866239 -0.36592784423694852 0 -0.4110898994563868 -0.37912395935916782 0 -0.41221174667866239 -0.36592784423694852 0 -0.3959501368225572 -0.36347347569075278 0 -0.42300441447708698 -0.36755678409028453 0 -0.4204267186931257 -0.34806720792222651 0 -0.41221174667866239 -0.36592784423694852 0 -0.42300441447708698 -0.36755678409028453 0 -0.41221174667866239 -0.36592784423694852 0 -0.4110898994563868 -0.37912395935916782 0 -0.39891048992789918 -0.37682849517642669 0 -0.3959501368225572 -0.36347347569075278 0 -0.4110898994563868 -0.37912395935916782 0 -0.3959501368225572 -0.36347347569075278 0 -0.41221174667866239 -0.36592784423694852 0 -0.3959501368225572 -0.36347347569075278 0 -0.3959501368225572 -0.36347347569075278 0 -0.39368290935800582 -0.36112976613171027 0 -0.39891048992789918 -0.37682849517642669 0 -0.3959501368225572 -0.36347347569075278 0 -0.39169689474753228 -0.37209350970412708 0 -0.3959501368225572 -0.36347347569075278 0 -0.37117192321071812 -0.35973369416493922 0 -0.3959501368225572 -0.36347347569075278 0 -0.39169689474753228 -0.37209350970412708 0 -0.38222327521494581 -0.37046698350013652 0 -0.3928313723333472 -0.38163856157133952 0 -0.39169689474753228 -0.37209350970412708 0 -0.38222327521494581 -0.37046698350013652 0 -0.3959501368225572 -0.36347347569075278 0 -0.39368290935800582 -0.36112976613171027 0 -0.37117192321071812 -0.35973369416493922 0 -0.3959501368225572 -0.36347347569075278 0 -0.38222327521494581 -0.37046698350013652 0 -0.37117192321071812 -0.35973369416493922 0 -0.39368290935800582 -0.36112976613171027 0 -0.38420813245869972 -0.35133536943535049 0 -0.37117192321071812 -0.35973369416493922 0 -0.38070411687640038 -0.3475198755229767 0 -0.38420813245869972 -0.35133536943535049 0 -0.38070411687640038 -0.3475198755229767 0 -0.38420813245869972 -0.35133536943535049 0 -0.37117192321071812 -0.35973369416493922 0 -0.39368290935800582 -0.36112976613171027 0 -0.38420813245869972 -0.35133536943535049 0 -0.41221174667866239 -0.36592784423694852 0 -0.3959501368225572 -0.36347347569075278 0 -0.40334742226057002 -0.33833141169726022 0 -0.3959501368225572 -0.36347347569075278 0 -0.39368290935800582 -0.36112976613171027 0 -0.40334742226057002 -0.33833141169726022 0 -0.39368290935800582 -0.36112976613171027 0 -0.38420813245869972 -0.35133536943535049 0 -0.40334742226057002 -0.33833141169726022 0 -0.38420813245869972 -0.35133536943535049 0 -0.40334742226057002 -0.33833141169726022 0 -0.38461734176063689 -0.33046219120790532 0 -0.38070411687640038 -0.3475198755229767 0 -0.38420813245869972 -0.35133536943535049 0 -0.38461734176063689 -0.33046219120790532 0 -0.38070411687640038 -0.3475198755229767 0 -0.38461734176063689 -0.33046219120790532 0 -0.36551616770500228 -0.33098184187448287 0 -0.38461734176063689 -0.33046219120790532 0 -0.39448309784247643 -0.3107349791575722 0 -0.3724353611942533 -0.30861931903875378 0 -0.40334742226057002 -0.33833141169726022 0 -0.38461734176063689 -0.33046219120790532 0 -0.39448309784247643 -0.3107349791575722 0 -0.40334742226057002 -0.33833141169726022 0 -0.41941613285897128 -0.32064366553159701 0 -0.39448309784247643 -0.3107349791575722 0 -0.40334742226057002 -0.33833141169726022 0 -0.39448309784247643 -0.3107349791575722 0 -0.4204267186931257 -0.34806720792222651 0 -0.40334742226057002 -0.33833141169726022 0 -0.41941613285897128 -0.32064366553159701 0 -0.44809331504006339 -0.32636616191720552 0 -0.4204267186931257 -0.34806720792222651 0 -0.41941613285897128 -0.32064366553159701 0 -0.44809331504006339 -0.32636616191720552 0 -0.41941613285897128 -0.32064366553159701 0 -0.43375114270991372 -0.30264629030096102 0 -0.41941613285897128 -0.32064366553159701 0 -0.43375114270991372 -0.30264629030096102 0 -0.41333596813995671 -0.2945060699872396 0 -0.43375114270991372 -0.30264629030096102 0 -0.43387500380453348 -0.28253257577139501 0 -0.41333596813995671 -0.2945060699872396 0 -0.43387500380453348 -0.28253257577139501 0 -0.41333596813995671 -0.2945060699872396 0 -0.41416874098123241 -0.26904206364403371 0 -0.41941613285897128 -0.32064366553159701 0 -0.41333596813995671 -0.2945060699872396 0 -0.39448309784247643 -0.3107349791575722 0 -0.39448309784247643 -0.3107349791575722 0 -0.38561877342438278 -0.28313854661788429 0 -0.3724353611942533 -0.30861931903875378 0 -0.39448309784247643 -0.3107349791575722 0 -0.38561877342438278 -0.28313854661788429 0 -0.41333596813995671 -0.2945060699872396 0 -0.39448309784247643 -0.3107349791575722 0 -0.38561877342438278 -0.28313854661788429 0 -0.41333596813995671 -0.2945060699872396 0 -0.38561877342438278 -0.28313854661788429 0 -0.41416874098123241 -0.26904206364403371 0 -0.38561877342438278 -0.28313854661788429 0 -0.39950759601989028 -0.25196956936905751 0 -0.41416874098123241 -0.26904206364403371 0 -0.38561877342438278 -0.28313854661788429 0 -0.37675444900628913 -0.25554211407819633 0 -0.38561877342438278 -0.28313854661788429 0 -0.37675444900628913 -0.25554211407819633 0 -0.39950759601989028 -0.25196956936905751 0 -0.39950759601989028 -0.25196956936905751 0 -0.41416874098123241 -0.26904206364403371 0 -0.42070975786198422 -0.24026423788885851 0 -0.43387500380453348 -0.28253257577139501 0 -0.41416874098123241 -0.26904206364403371 0 -0.4319575720331516 -0.26179597195830667 0 -0.4319575720331516 -0.26179597195830667 0 -0.42070975786198422 -0.24026423788885851 0 -0.4441751168952755 -0.24878028328113941 0 -0.41416874098123241 -0.26904206364403371 0 -0.4319575720331516 -0.26179597195830667 0 -0.42070975786198422 -0.24026423788885851 0 -0.32794106350806229 -0.25425010934707432 0 -0.3179350758170062 -0.2659905698784385 0 -0.30977662691497149 -0.24278181837787119 0 -0.3179350758170062 -0.2659905698784385 0 -0.32806510429681152 -0.27762417319643018 0 -0.32268161197640438 -0.28433964443469351 0 -0.32268161197640438 -0.28433964443469351 0 -0.3028535983378392 -0.26274908253349039 0 -0.32794106350806229 -0.25425010934707432 0 -0.3179350758170062 -0.2659905698784385 0 -0.32806510429681152 -0.27762417319643018 0 -0.3179350758170062 -0.2659905698784385 0 -0.32268161197640438 -0.28433964443469351 0 -0.3028535983378392 -0.26274908253349039 0 -0.32794106350806229 -0.25425010934707432 0 -0.32806510429681152 -0.27762417319643018 0 -0.32806510429681152 -0.27762417319643018 0 -0.32268161197640438 -0.28433964443469351 0 -0.32806510429681152 -0.27762417319643018 0 -0.34134011106060608 -0.26106467597712318 0 -0.32806510429681152 -0.27762417319643018 0 -0.34134011106060608 -0.26106467597712318 0 -0.34031182672829319 -0.28479010388322101 0 -0.32794106350806229 -0.25425010934707432 0 -0.34134011106060608 -0.26106467597712318 0 -0.33952536286022228 -0.2441061424397552 0 -0.32794106350806229 -0.25425010934707432 0 -0.32806510429681152 -0.27762417319643018 0 -0.34134011106060608 -0.26106467597712318 0 -0.34134011106060608 -0.26106467597712318 0 -0.36097198288596372 -0.26580320810785169 0 -0.35461511782439997 -0.24450517875781561 0 -0.34134011106060608 -0.26106467597712318 0 -0.35461511782439997 -0.24450517875781561 0 -0.37675444900628913 -0.25554211407819633 0 -0.36097198288596372 -0.26580320810785169 0 -0.35461511782439997 -0.24450517875781561 0 -0.38561877342438278 -0.28313854661788429 0 -0.36097198288596372 -0.26580320810785169 0 -0.35719747713513611 -0.28435856917618829 0 -0.38561877342438278 -0.28313854661788429 0 -0.37675444900628913 -0.25554211407819633 0 -0.36097198288596372 -0.26580320810785169 0 -0.34134011106060608 -0.26106467597712318 0 -0.35719747713513611 -0.28435856917618829 0 -0.34031182672829319 -0.28479010388322101 0 -0.34134011106060608 -0.26106467597712318 0 -0.36097198288596372 -0.26580320810785169 0 -0.35719747713513611 -0.28435856917618829 0 -0.35719747713513611 -0.28435856917618829 0 -0.34682420295130512 -0.31062831431361521 0 -0.34031182672829319 -0.28479010388322101 0 -0.38561877342438278 -0.28313854661788429 0 -0.35719747713513611 -0.28435856917618829 0 -0.3724353611942533 -0.30861931903875378 0 -0.35719747713513611 -0.28435856917618829 0 -0.3724353611942533 -0.30861931903875378 0 -0.34682420295130512 -0.31062831431361521 0 -0.34682420295130512 -0.31062831431361521 0 -0.32813223819760767 -0.2902747867527477 0 -0.32822652653886952 -0.30804234314406148 0 -0.32813223819760767 -0.2902747867527477 0 -0.34682420295130512 -0.31062831431361521 0 -0.32822652653886952 -0.30804234314406148 0 -0.32813223819760767 -0.2902747867527477 0 -0.34682420295130512 -0.31062831431361521 0 -0.34031182672829319 -0.28479010388322101 0 -0.32813223819760767 -0.2902747867527477 0 -0.32806510429681152 -0.27762417319643018 0 -0.34031182672829319 -0.28479010388322101 0 -0.32813223819760767 -0.2902747867527477 0 -0.32813223819760767 -0.2902747867527477 0 -0.32268161197640438 -0.28433964443469351 0 -0.30839299228861811 -0.30216354179291782 0 -0.32268161197640438 -0.28433964443469351 0 -0.30839299228861811 -0.30216354179291782 0 -0.32806510429681152 -0.27762417319643018 0 -0.32813223819760767 -0.2902747867527477 0 -0.32268161197640438 -0.28433964443469351 0 -0.32806510429681152 -0.27762417319643018 0 -0.32813223819760767 -0.2902747867527477 0 -0.32813223819760767 -0.2902747867527477 0 -0.32268161197640438 -0.28433964443469351 0 -0.32822652653886952 -0.30804234314406148 0 -0.31472630678960722 -0.32418677408030039 0 -0.30839299228861811 -0.30216354179291782 0 -0.32822652653886952 -0.30804234314406148 0 -0.32813223819760767 -0.2902747867527477 0 -0.30839299228861811 -0.30216354179291782 0 -0.32822652653886952 -0.30804234314406148 0 -0.31472630678960722 -0.32418677408030039 0 -0.33443358448792249 -0.3315706612174964 0 -0.31472630678960722 -0.32418677408030039 0 -0.33443358448792249 -0.3315706612174964 0 -0.3216154959870397 -0.35225413111331322 0 -0.33443358448792249 -0.3315706612174964 0 -0.35011649807793399 -0.33875218975468258 0 -0.34639370959887877 -0.35599391263912622 0 -0.34682420295130512 -0.31062831431361521 0 -0.32822652653886952 -0.30804234314406148 0 -0.33443358448792249 -0.3315706612174964 0 -0.34682420295130512 -0.31062831431361521 0 -0.36551616770500228 -0.33098184187448287 0 -0.34682420295130512 -0.31062831431361521 0 -0.36551616770500228 -0.33098184187448287 0 -0.35011649807793399 -0.33875218975468258 0 -0.34682420295130512 -0.31062831431361521 0 -0.33443358448792249 -0.3315706612174964 0 -0.35011649807793399 -0.33875218975468258 0 -0.38461734176063689 -0.33046219120790532 0 -0.3724353611942533 -0.30861931903875378 0 -0.36551616770500228 -0.33098184187448287 0 -0.3724353611942533 -0.30861931903875378 0 -0.34682420295130512 -0.31062831431361521 0 -0.36551616770500228 -0.33098184187448287 0 -0.36551616770500228 -0.33098184187448287 0 -0.35011649807793399 -0.33875218975468258 0 -0.36276068135567352 -0.34661448801194911 0 -0.38070411687640038 -0.3475198755229767 0 -0.36551616770500228 -0.33098184187448287 0 -0.38070411687640038 -0.3475198755229767 0 -0.36551616770500228 -0.33098184187448287 0 -0.36276068135567352 -0.34661448801194911 0 -0.35011649807793399 -0.33875218975468258 0 -0.34639370959887877 -0.35599391263912622 0 -0.36276068135567352 -0.34661448801194911 0 -0.34639370959887877 -0.35599391263912622 0 -0.37117192321071812 -0.35973369416493922 0 -0.34639370959887877 -0.35599391263912622 0 -0.36276068135567352 -0.34661448801194911 0 -0.37117192321071812 -0.35973369416493922 0 -0.38070411687640038 -0.3475198755229767 0 -0.36276068135567352 -0.34661448801194911 0 -0.37117192321071812 -0.35973369416493922 0 -0.37117192321071812 -0.35973369416493922 0 -0.35835124373218519 -0.36697032857371492 0 -0.36753041268072872 -0.37730783582517319 0 -0.38222327521494581 -0.37046698350013652 0 -0.37117192321071812 -0.35973369416493922 0 -0.36753041268072872 -0.37730783582517319 0 -0.35835124373218519 -0.36697032857371492 0 -0.34830892943841518 -0.37484587166562111 0 -0.36753041268072872 -0.37730783582517319 0 -0.34639370959887877 -0.35599391263912622 0 -0.35835124373218519 -0.36697032857371492 0 -0.34830892943841518 -0.37484587166562111 0 -0.34639370959887877 -0.35599391263912622 0 -0.37117192321071812 -0.35973369416493922 0 -0.35835124373218519 -0.36697032857371492 0 -0.34639370959887877 -0.35599391263912622 0 -0.34830892943841518 -0.37484587166562111 0 -0.33314762841626638 -0.36793443058942932 0 -0.33443358448792249 -0.3315706612174964 0 -0.34639370959887877 -0.35599391263912622 0 -0.3216154959870397 -0.35225413111331322 0 -0.34639370959887877 -0.35599391263912622 0 -0.3216154959870397 -0.35225413111331322 0 -0.34639370959887877 -0.35599391263912622 0 -0.33314762841626638 -0.36793443058942932 0 -0.3216154959870397 -0.35225413111331322 0 -0.3216154959870397 -0.35225413111331322 0 -0.32008980810004722 -0.38243870791832729 0 -0.3032322963088428 -0.37611919387273079 0 -0.33314762841626638 -0.36793443058942932 0 -0.3216154959870397 -0.35225413111331322 0 -0.32008980810004722 -0.38243870791832729 0 -0.3216154959870397 -0.35225413111331322 0 -0.29381787679618793 -0.3608856883797194 0 -0.3032322963088428 -0.37611919387273079 0 -0.3216154959870397 -0.35225413111331322 0 -0.29381787679618793 -0.3608856883797194 0 -0.30083437106625011 -0.33967239110587921 0 -0.29381787679618793 -0.3608856883797194 0 -0.27042742181039359 -0.36272516927468218 0 -0.27981575291304878 -0.33781133650936912 0 -0.29381787679618793 -0.3608856883797194 0 -0.27981575291304878 -0.33781133650936912 0 -0.30083437106625011 -0.33967239110587921 0 -0.29381787679618793 -0.3608856883797194 0 -0.3032322963088428 -0.37611919387273079 0 -0.28953892851823981 -0.38535831246180968 0 -0.29381787679618793 -0.3608856883797194 0 -0.28953892851823981 -0.38535831246180968 0 -0.27673848774325521 -0.37676843734247217 0 -0.27042742181039359 -0.36272516927468218 0 -0.27673848774325521 -0.37676843734247217 0 -0.25677780886438151 -0.38069748644772472 0 -0.29381787679618793 -0.3608856883797194 0 -0.27042742181039359 -0.36272516927468218 0 -0.27673848774325521 -0.37676843734247217 0 -0.27042742181039359 -0.36272516927468218 0 -0.25677780886438151 -0.38069748644772472 0 -0.24857884352842069 -0.36511060587579358 0 -0.27042742181039359 -0.36272516927468218 0 -0.25950831936271962 -0.34958227188783342 0 -0.24857884352842069 -0.36511060587579358 0 -0.25950831936271962 -0.34958227188783342 0 -0.24515372645006939 -0.35058755674549108 0 -0.249103770820091 -0.34006668606572749 0 -0.25950831936271962 -0.34958227188783342 0 -0.24857884352842069 -0.36511060587579358 0 -0.24515372645006939 -0.35058755674549108 0 -0.27042742181039359 -0.36272516927468218 0 -0.25950831936271962 -0.34958227188783342 0 -0.27981575291304878 -0.33781133650936912 0 -0.25950831936271962 -0.34958227188783342 0 -0.27981575291304878 -0.33781133650936912 0 -0.26035889704392529 -0.33729809635915059 0 -0.27981575291304878 -0.33781133650936912 0 -0.26035889704392529 -0.33729809635915059 0 -0.26455126125404471 -0.31899187224610581 0 -0.26035889704392529 -0.33729809635915059 0 -0.25538390398187127 -0.32832057615136367 0 -0.26455126125404471 -0.31899187224610581 0 -0.26035889704392529 -0.33729809635915059 0 -0.25538390398187127 -0.32832057615136367 0 -0.2496357303486034 -0.33303072874466361 0 -0.25950831936271962 -0.34958227188783342 0 -0.26035889704392529 -0.33729809635915059 0 -0.249103770820091 -0.34006668606572749 0 -0.26035889704392529 -0.33729809635915059 0 -0.249103770820091 -0.34006668606572749 0 -0.2496357303486034 -0.33303072874466361 0 -0.25538390398187127 -0.32832057615136367 0 -0.26455126125404471 -0.31899187224610581 0 -0.24725180909002359 -0.30202408230195588 0 -0.27981575291304878 -0.33781133650936912 0 -0.26455126125404471 -0.31899187224610581 0 -0.27964104051674371 -0.31019170539079899 0 -0.27981575291304878 -0.33781133650936912 0 -0.29410437260083339 -0.31998743915114353 0 -0.27964104051674371 -0.31019170539079899 0 -0.27981575291304878 -0.33781133650936912 0 -0.29410437260083339 -0.31998743915114353 0 -0.27981575291304878 -0.33781133650936912 0 -0.29410437260083339 -0.31998743915114353 0 -0.30083437106625011 -0.33967239110587921 0 -0.31472630678960722 -0.32418677408030039 0 -0.3216154959870397 -0.35225413111331322 0 -0.30083437106625011 -0.33967239110587921 0 -0.31472630678960722 -0.32418677408030039 0 -0.29410437260083339 -0.31998743915114353 0 -0.30839299228861811 -0.30216354179291782 0 -0.31472630678960722 -0.32418677408030039 0 -0.29410437260083339 -0.31998743915114353 0 -0.30083437106625011 -0.33967239110587921 0 -0.29410437260083339 -0.31998743915114353 0 -0.30839299228861811 -0.30216354179291782 0 -0.30839299228861811 -0.30216354179291782 0 -0.29744441788636922 -0.28701817620597142 0 -0.29159856744479118 -0.30242552320800731 0 -0.29410437260083339 -0.31998743915114353 0 -0.30839299228861811 -0.30216354179291782 0 -0.29159856744479118 -0.30242552320800731 0 -0.32268161197640438 -0.28433964443469351 0 -0.30839299228861811 -0.30216354179291782 0 -0.29744441788636922 -0.28701817620597142 0 -0.29744441788636922 -0.28701817620597142 0 -0.27841001393139192 -0.29276675349920439 0 -0.27988779427973232 -0.27955853749146309 0 -0.29744441788636922 -0.28701817620597142 0 -0.29159856744479118 -0.30242552320800731 0 -0.27841001393139192 -0.29276675349920439 0 -0.29410437260083339 -0.31998743915114353 0 -0.29159856744479118 -0.30242552320800731 0 -0.27964104051674371 -0.31019170539079899 0 -0.29159856744479118 -0.30242552320800731 0 -0.27964104051674371 -0.31019170539079899 0 -0.27841001393139192 -0.29276675349920439 0 -0.2661455542325501 -0.30295641842071142 0 -0.27964104051674371 -0.31019170539079899 0 -0.27841001393139192 -0.29276675349920439 0 -0.26455126125404471 -0.31899187224610581 0 -0.2661455542325501 -0.30295641842071142 0 -0.27964104051674371 -0.31019170539079899 0 -0.26455126125404471 -0.31899187224610581 0 -0.2661455542325501 -0.30295641842071142 0 -0.24725180909002359 -0.30202408230195588 0 -0.2661455542325501 -0.30295641842071142 0 -0.26087364637054689 -0.29080767866549212 0 -0.24725180909002359 -0.30202408230195588 0 -0.26087364637054689 -0.29080767866549212 0 -0.25219581682218922 -0.27544351790862709 0 -0.24725180909002359 -0.30202408230195588 0 -0.26087364637054689 -0.29080767866549212 0 -0.27841001393139192 -0.29276675349920439 0 -0.26678421670294078 -0.27733658799741362 0 -0.2661455542325501 -0.30295641842071142 0 -0.26087364637054689 -0.29080767866549212 0 -0.27841001393139192 -0.29276675349920439 0 -0.27841001393139192 -0.29276675349920439 0 -0.27988779427973232 -0.27955853749146309 0 -0.26678421670294078 -0.27733658799741362 0 -0.27988779427973232 -0.27955853749146309 0 -0.26678421670294078 -0.27733658799741362 0 -0.27514521573197498 -0.26217170668519219 0 -0.26678421670294078 -0.27733658799741362 0 -0.26281626845286499 -0.26595369152663279 0 -0.27514521573197498 -0.26217170668519219 0 -0.25219581682218922 -0.27544351790862709 0 -0.24430152196594071 -0.27424665345342503 0 -0.2571398245543538 -0.24886295351529819 0 -0.26087364637054689 -0.29080767866549212 0 -0.26678421670294078 -0.27733658799741362 0 -0.25219581682218922 -0.27544351790862709 0 -0.26678421670294078 -0.27733658799741362 0 -0.26281626845286499 -0.26595369152663279 0 -0.25219581682218922 -0.27544351790862709 0 -0.26281626845286499 -0.26595369152663279 0 -0.25219581682218922 -0.27544351790862709 0 -0.2571398245543538 -0.24886295351529819 0 -0.25219581682218922 -0.27544351790862709 0 -0.2571398245543538 -0.24886295351529819 0 -0.26281626845286499 -0.26595369152663279 0 -0.27514521573197498 -0.26217170668519219 0 -0.2571398245543538 -0.24886295351529819 0 -0.27514521573197498 -0.26217170668519219 0 -0.28302558469927308 -0.24115852063228821 0 -0.2571398245543538 -0.24886295351529819 0 -0.3028535983378392 -0.26274908253349039 0 -0.28302558469927308 -0.24115852063228821 0 -0.27514521573197498 -0.26217170668519219 0 -0.3028535983378392 -0.26274908253349039 0 -0.28302558469927308 -0.24115852063228821 0 -0.29744441788636922 -0.28701817620597142 0 -0.27988779427973232 -0.27955853749146309 0 -0.3028535983378392 -0.26274908253349039 0 -0.27988779427973232 -0.27955853749146309 0 -0.27514521573197498 -0.26217170668519219 0 -0.3028535983378392 -0.26274908253349039 0 -0.32268161197640438 -0.28433964443469351 0 -0.29744441788636922 -0.28701817620597142 0 -0.3028535983378392 -0.26274908253349039 0 -0.3179350758170062 -0.2659905698784385 0 -0.3028535983378392 -0.26274908253349039 0 -0.30977662691497149 -0.24278181837787119 0 -0.3376222191225482 -0.4597042180113845 0 -0.32860247532931119 -0.43899071853448618 0 -0.35293398103679452 -0.44207211512750932 0 -0.32860247532931119 -0.43899071853448618 0 -0.30842173773238463 -0.42870741165327342 0 -0.30636205722104048 -0.44613359801753377 0 -0.3376222191225482 -0.4597042180113845 0 -0.32860247532931119 -0.43899071853448618 0 -0.31606368356090392 -0.45965397013385212 0 -0.32860247532931119 -0.43899071853448618 0 -0.31606368356090392 -0.45965397013385212 0 -0.30636205722104048 -0.44613359801753377 0 -0.32860247532931119 -0.43899071853448618 0 -0.31606368356090392 -0.45965397013385212 0 -0.3376222191225482 -0.4597042180113845 0 -0.31606368356090392 -0.45965397013385212 0 -0.32610194969957501 -0.47994244235716499 0 -0.31606368356090392 -0.45965397013385212 0 -0.32610194969957501 -0.47994244235716499 0 -0.3035248917924962 -0.48031722173321778 0 -0.32610194969957501 -0.47994244235716499 0 -0.31197769634394579 -0.49999999999999928 0 -0.3035248917924962 -0.48031722173321778 0 -0.32610194969957501 -0.47994244235716499 0 -0.34107012678587417 -0.5 0 -0.31197769634394579 -0.49999999999999928 0 -0.32610194969957501 -0.47994244235716499 0 -0.34107012678587417 -0.5 0 -0.35287108645975412 -0.48036321753691108 0 -0.3376222191225482 -0.4597042180113845 0 -0.32610194969957501 -0.47994244235716499 0 -0.35287108645975412 -0.48036321753691108 0 -0.37979862866570641 -0.5 0 -0.34107012678587417 -0.5 0 -0.35287108645975412 -0.48036321753691108 0 -0.37979862866570641 -0.5 0 -0.35287108645975412 -0.48036321753691108 0 -0.37451570269174711 -0.47737193454193311 0 -0.35287108645975412 -0.48036321753691108 0 -0.37451570269174711 -0.47737193454193311 0 -0.35778688951280152 -0.46412233005120468 0 -0.37756091119068341 -0.45547083511181269 0 -0.35778688951280152 -0.46412233005120468 0 -0.35293398103679452 -0.44207211512750932 0 -0.37756091119068341 -0.45547083511181269 0 -0.37451570269174711 -0.47737193454193311 0 -0.35778688951280152 -0.46412233005120468 0 -0.3376222191225482 -0.4597042180113845 0 -0.35287108645975412 -0.48036321753691108 0 -0.35778688951280152 -0.46412233005120468 0 -0.3376222191225482 -0.4597042180113845 0 -0.35778688951280152 -0.46412233005120468 0 -0.35293398103679452 -0.44207211512750932 0 -0.37853669650366678 -0.43261111643484501 0 -0.37756091119068341 -0.45547083511181269 0 -0.35293398103679452 -0.44207211512750932 0 -0.37902612999574631 -0.41432474878288822 0 -0.37853669650366678 -0.43261111643484501 0 -0.36225329439156773 -0.42154335896809769 0 -0.37853669650366678 -0.43261111643484501 0 -0.35293398103679452 -0.44207211512750932 0 -0.36225329439156773 -0.42154335896809769 0 -0.37902612999574631 -0.41432474878288822 0 -0.3650241821136111 -0.40651119587723489 0 -0.36225329439156773 -0.42154335896809769 0 -0.3650241821136111 -0.40651119587723489 0 -0.36225329439156773 -0.42154335896809769 0 -0.35240139451596991 -0.40752295878235523 0 -0.36225329439156773 -0.42154335896809769 0 -0.35240139451596991 -0.40752295878235523 0 -0.34401248597507977 -0.42526954327064309 0 -0.35293398103679452 -0.44207211512750932 0 -0.36225329439156773 -0.42154335896809769 0 -0.34401248597507977 -0.42526954327064309 0 -0.37564649988660093 -0.3963467375644294 0 -0.37960362824264998 -0.38357680640087449 0 -0.36753041268072872 -0.37730783582517319 0 -0.37564649988660093 -0.3963467375644294 0 -0.36753041268072872 -0.37730783582517319 0 -0.35579359177817083 -0.39281817528840418 0 -0.37564649988660093 -0.3963467375644294 0 -0.35579359177817083 -0.39281817528840418 0 -0.37564649988660093 -0.3963467375644294 0 -0.3650241821136111 -0.40651119587723489 0 -0.35579359177817083 -0.39281817528840418 0 -0.37564649988660093 -0.3963467375644294 0 -0.37902612999574631 -0.41432474878288822 0 -0.3650241821136111 -0.40651119587723489 0 -0.3650241821136111 -0.40651119587723489 0 -0.35240139451596991 -0.40752295878235523 0 -0.35579359177817083 -0.39281817528840418 0 -0.35240139451596991 -0.40752295878235523 0 -0.34782752103128067 -0.39444102776787332 0 -0.35579359177817083 -0.39281817528840418 0 -0.36753041268072872 -0.37730783582517319 0 -0.34782752103128067 -0.39444102776787332 0 -0.34830892943841518 -0.37484587166562111 0 -0.36753041268072872 -0.37730783582517319 0 -0.34782752103128067 -0.39444102776787332 0 -0.36753041268072872 -0.37730783582517319 0 -0.34782752103128067 -0.39444102776787332 0 -0.35579359177817083 -0.39281817528840418 0 -0.34830892943841518 -0.37484587166562111 0 -0.34782752103128067 -0.39444102776787332 0 -0.33541406329138329 -0.38607878765030368 0 -0.33314762841626638 -0.36793443058942932 0 -0.33541406329138329 -0.38607878765030368 0 -0.32008980810004722 -0.38243870791832729 0 -0.34830892943841518 -0.37484587166562111 0 -0.33314762841626638 -0.36793443058942932 0 -0.33541406329138329 -0.38607878765030368 0 -0.34782752103128067 -0.39444102776787332 0 -0.32812462938183262 -0.41157421971057329 0 -0.35240139451596991 -0.40752295878235523 0 -0.34782752103128067 -0.39444102776787332 0 -0.32812462938183262 -0.41157421971057329 0 -0.34782752103128067 -0.39444102776787332 0 -0.33541406329138329 -0.38607878765030368 0 -0.32812462938183262 -0.41157421971057329 0 -0.32008980810004722 -0.38243870791832729 0 -0.32812462938183262 -0.41157421971057329 0 -0.30420015649903231 -0.40036184894326537 0 -0.33541406329138329 -0.38607878765030368 0 -0.32008980810004722 -0.38243870791832729 0 -0.32812462938183262 -0.41157421971057329 0 -0.32860247532931119 -0.43899071853448618 0 -0.35293398103679452 -0.44207211512750932 0 -0.34401248597507977 -0.42526954327064309 0 -0.32860247532931119 -0.43899071853448618 0 -0.34401248597507977 -0.42526954327064309 0 -0.32812462938183262 -0.41157421971057329 0 -0.35240139451596991 -0.40752295878235523 0 -0.34401248597507977 -0.42526954327064309 0 -0.32812462938183262 -0.41157421971057329 0 -0.32812462938183262 -0.41157421971057329 0 -0.30842173773238463 -0.42870741165327342 0 -0.30420015649903231 -0.40036184894326537 0 -0.32812462938183262 -0.41157421971057329 0 -0.30842173773238463 -0.42870741165327342 0 -0.32860247532931119 -0.43899071853448618 0 -0.32812462938183262 -0.41157421971057329 0 -0.30842173773238463 -0.42870741165327342 0 -0.30842173773238463 -0.42870741165327342 0 -0.28871884608293619 -0.445840603595973 0 -0.30842173773238463 -0.42870741165327342 0 -0.28953551364108598 -0.41651999122253103 0 -0.30420015649903231 -0.40036184894326537 0 -0.28953551364108598 -0.41651999122253103 0 -0.28741276563804952 -0.40068134662375621 0 -0.27781538743148398 -0.40861829062191918 0 -0.30842173773238463 -0.42870741165327342 0 -0.28953551364108598 -0.41651999122253103 0 -0.28321573036656261 -0.43302632334585189 0 -0.30842173773238463 -0.42870741165327342 0 -0.28321573036656261 -0.43302632334585189 0 -0.28871884608293619 -0.445840603595973 0 -0.3032322963088428 -0.37611919387273079 0 -0.30420015649903231 -0.40036184894326537 0 -0.28953892851823981 -0.38535831246180968 0 -0.32008980810004722 -0.38243870791832729 0 -0.3032322963088428 -0.37611919387273079 0 -0.30420015649903231 -0.40036184894326537 0 -0.28741276563804952 -0.40068134662375621 0 -0.28953892851823981 -0.38535831246180968 0 -0.2731304027270734 -0.3941755301484251 0 -0.28953551364108598 -0.41651999122253103 0 -0.30420015649903231 -0.40036184894326537 0 -0.28741276563804952 -0.40068134662375621 0 -0.30420015649903231 -0.40036184894326537 0 -0.28741276563804952 -0.40068134662375621 0 -0.28953892851823981 -0.38535831246180968 0 -0.27673848774325521 -0.37676843734247217 0 -0.2731304027270734 -0.3941755301484251 0 -0.25677780886438151 -0.38069748644772472 0 -0.28953892851823981 -0.38535831246180968 0 -0.27673848774325521 -0.37676843734247217 0 -0.2731304027270734 -0.3941755301484251 0 -0.28741276563804952 -0.40068134662375621 0 -0.2731304027270734 -0.3941755301484251 0 -0.27781538743148398 -0.40861829062191918 0 -0.2731304027270734 -0.3941755301484251 0 -0.27781538743148398 -0.40861829062191918 0 -0.26415789593991318 -0.4091244037145873 0 -0.2731304027270734 -0.3941755301484251 0 -0.25732351049334662 -0.39615601392414213 0 -0.26415789593991318 -0.4091244037145873 0 -0.25732351049334662 -0.39615601392414213 0 -0.26415789593991318 -0.4091244037145873 0 -0.25055907960274432 -0.40701107551929683 0 -0.2731304027270734 -0.3941755301484251 0 -0.25732351049334662 -0.39615601392414213 0 -0.25677780886438151 -0.38069748644772472 0 -0.25732351049334662 -0.39615601392414213 0 -0.25677780886438151 -0.38069748644772472 0 -0.2388714250906154 -0.39501007003579758 0 -0.28953551364108598 -0.41651999122253103 0 -0.28321573036656261 -0.43302632334585189 0 -0.27082871292575161 -0.42386463601604579 0 -0.27082871292575161 -0.42386463601604579 0 -0.25781157612200351 -0.43353549619873338 0 -0.26853593923398528 -0.44277783645220897 0 -0.28321573036656261 -0.43302632334585189 0 -0.27082871292575161 -0.42386463601604579 0 -0.26853593923398528 -0.44277783645220897 0 -0.28953551364108598 -0.41651999122253103 0 -0.27082871292575161 -0.42386463601604579 0 -0.27781538743148398 -0.40861829062191918 0 -0.27082871292575161 -0.42386463601604579 0 -0.27781538743148398 -0.40861829062191918 0 -0.26415789593991318 -0.4091244037145873 0 -0.27082871292575161 -0.42386463601604579 0 -0.26415789593991318 -0.4091244037145873 0 -0.251859142259238 -0.42076630788338742 0 -0.26415789593991318 -0.4091244037145873 0 -0.25055907960274432 -0.40701107551929683 0 -0.251859142259238 -0.42076630788338742 0 -0.27082871292575161 -0.42386463601604579 0 -0.251859142259238 -0.42076630788338742 0 -0.25781157612200351 -0.43353549619873338 0 -0.251859142259238 -0.42076630788338742 0 -0.25781157612200351 -0.43353549619873338 0 -0.24627214542761561 -0.43370860220831309 0 -0.25781157612200351 -0.43353549619873338 0 -0.25155585722769341 -0.44353161391675089 0 -0.24627214542761561 -0.43370860220831309 0 -0.25781157612200351 -0.43353549619873338 0 -0.25155585722769341 -0.44353161391675089 0 -0.26853593923398528 -0.44277783645220897 0 -0.25155585722769341 -0.44353161391675089 0 -0.25303595582526139 -0.46003484764649699 0 -0.26853593923398528 -0.44277783645220897 0 -0.25303595582526139 -0.46003484764649699 0 -0.27189768449287938 -0.47721185798204491 0 -0.25303595582526139 -0.46003484764649699 0 -0.27561017490170958 -0.45723960956208459 0 -0.27189768449287938 -0.47721185798204491 0 -0.25303595582526139 -0.46003484764649699 0 -0.27561017490170958 -0.45723960956208459 0 -0.26853593923398528 -0.44277783645220897 0 -0.28321573036656261 -0.43302632334585189 0 -0.26853593923398528 -0.44277783645220897 0 -0.28871884608293619 -0.445840603595973 0 -0.27561017490170958 -0.45723960956208459 0 -0.26853593923398528 -0.44277783645220897 0 -0.28871884608293619 -0.445840603595973 0 -0.28321573036656261 -0.43302632334585189 0 -0.28871884608293619 -0.445840603595973 0 -0.27561017490170958 -0.45723960956208459 0 -0.28871884608293619 -0.445840603595973 0 -0.27561017490170958 -0.45723960956208459 0 -0.28871884608293619 -0.445840603595973 0 -0.29612186893771508 -0.46307891266459578 0 -0.27561017490170958 -0.45723960956208459 0 -0.29612186893771508 -0.46307891266459578 0 -0.28790245829602151 -0.47681752863657978 0 -0.28871884608293619 -0.445840603595973 0 -0.29612186893771508 -0.46307891266459578 0 -0.31606368356090392 -0.45965397013385212 0 -0.29612186893771508 -0.46307891266459578 0 -0.3035248917924962 -0.48031722173321778 0 -0.31606368356090392 -0.45965397013385212 0 -0.29612186893771508 -0.46307891266459578 0 -0.30636205722104048 -0.44613359801753377 0 -0.28871884608293619 -0.445840603595973 0 -0.29612186893771508 -0.46307891266459578 0 -0.30636205722104048 -0.44613359801753377 0 -0.30842173773238463 -0.42870741165327342 0 -0.28871884608293619 -0.445840603595973 0 -0.30636205722104048 -0.44613359801753377 0 -0.31197769634394579 -0.49999999999999928 0 -0.3035248917924962 -0.48031722173321778 0 -0.29158106693395069 -0.49999999999999911 0 -0.3035248917924962 -0.48031722173321778 0 -0.29158106693395069 -0.49999999999999911 0 -0.31197769634394579 -0.49999999999999928 0 -0.3035248917924962 -0.48031722173321778 0 -0.29612186893771508 -0.46307891266459578 0 -0.3035248917924962 -0.48031722173321778 0 -0.31606368356090392 -0.45965397013385212 0 -0.3035248917924962 -0.48031722173321778 0 -0.29612186893771508 -0.46307891266459578 0 -0.3035248917924962 -0.48031722173321778 0 -0.28790245829602151 -0.47681752863657978 0 -0.28790245829602151 -0.47681752863657978 0 -0.29158106693395069 -0.49999999999999911 0 -0.27892058862820118 -0.48891096051479838 0 -0.3035248917924962 -0.48031722173321778 0 -0.28790245829602151 -0.47681752863657978 0 -0.29158106693395069 -0.49999999999999911 0 -0.29158106693395069 -0.49999999999999911 0 -0.27892058862820118 -0.48891096051479838 0 -0.26222523023024419 -0.5 0 -0.27892058862820118 -0.48891096051479838 0 -0.27189768449287938 -0.47721185798204491 0 -0.26222523023024419 -0.5 0 -0.27561017490170958 -0.45723960956208459 0 -0.28790245829602151 -0.47681752863657978 0 -0.27189768449287938 -0.47721185798204491 0 -0.28790245829602151 -0.47681752863657978 0 -0.27892058862820118 -0.48891096051479838 0 -0.27189768449287938 -0.47721185798204491 0 -0.25303595582526139 -0.46003484764649699 0 -0.27189768449287938 -0.47721185798204491 0 -0.25133826250938751 -0.48097276391242971 0 -0.27189768449287938 -0.47721185798204491 0 -0.25133826250938751 -0.48097276391242971 0 -0.26222523023024419 -0.5 0 -0.25133826250938751 -0.48097276391242971 0 -0.26222523023024419 -0.5 0 -0.23286939352653771 -0.5 0 -0.25133826250938751 -0.48097276391242971 0 -0.2320529652605739 -0.47451739051878661 0 -0.23286939352653771 -0.5 0 -0.25303595582526139 -0.46003484764649699 0 -0.25133826250938751 -0.48097276391242971 0 -0.2320529652605739 -0.47451739051878661 0 -0.2320529652605739 -0.47451739051878661 0 -0.23286939352653771 -0.5 0 -0.20287923332113689 -0.47782026253728171 0 -0.25155585722769341 -0.44353161391675089 0 -0.25303595582526139 -0.46003484764649699 0 -0.23417422715764319 -0.44285783731094919 0 -0.25155585722769341 -0.44353161391675089 0 -0.23417422715764319 -0.44285783731094919 0 -0.24627214542761561 -0.43370860220831309 0 -0.25303595582526139 -0.46003484764649699 0 -0.23417422715764319 -0.44285783731094919 0 -0.25303595582526139 -0.46003484764649699 0 -0.23093800921008159 -0.45854184464975839 0 -0.23417422715764319 -0.44285783731094919 0 -0.25303595582526139 -0.46003484764649699 0 -0.2320529652605739 -0.47451739051878661 0 -0.23093800921008159 -0.45854184464975839 0 -0.2320529652605739 -0.47451739051878661 0 -0.23093800921008159 -0.45854184464975839 0 -0.21269776030822979 -0.45792203025339151 0 -0.23093800921008159 -0.45854184464975839 0 -0.22210635468496001 -0.44719758762010381 0 -0.21269776030822979 -0.45792203025339151 0 -0.23093800921008159 -0.45854184464975839 0 -0.22210635468496001 -0.44719758762010381 0 -0.23417422715764319 -0.44285783731094919 0 -0.22210635468496001 -0.44719758762010381 0 -0.23417422715764319 -0.44285783731094919 0 -0.22156018784864651 -0.43323142646506829 0 -0.2111615889001987 -0.44343479942135122 0 -0.19868147255635479 -0.44634495787357958 0 -0.20311593061457989 -0.43413174413199518 0 -0.22210635468496001 -0.44719758762010381 0 -0.2111615889001987 -0.44343479942135122 0 -0.22156018784864651 -0.43323142646506829 0 -0.22210635468496001 -0.44719758762010381 0 -0.2111615889001987 -0.44343479942135122 0 -0.21269776030822979 -0.45792203025339151 0 -0.2111615889001987 -0.44343479942135122 0 -0.21269776030822979 -0.45792203025339151 0 -0.19868147255635479 -0.44634495787357958 0 -0.21269776030822979 -0.45792203025339151 0 -0.20287923332113689 -0.47782026253728171 0 -0.18686125424787209 -0.46246554122335509 0 -0.21269776030822979 -0.45792203025339151 0 -0.19868147255635479 -0.44634495787357958 0 -0.18686125424787209 -0.46246554122335509 0 -0.19868147255635479 -0.44634495787357958 0 -0.18686125424787209 -0.46246554122335509 0 -0.1842986213652085 -0.43623941501192198 0 -0.19868147255635479 -0.44634495787357958 0 -0.1842986213652085 -0.43623941501192198 0 -0.20311593061457989 -0.43413174413199518 0 -0.23286939352653771 -0.5 0 -0.20351355682283129 -0.5 0 -0.20287923332113689 -0.47782026253728171 0 -0.2320529652605739 -0.47451739051878661 0 -0.21269776030822979 -0.45792203025339151 0 -0.20287923332113689 -0.47782026253728171 0 -0.20287923332113689 -0.47782026253728171 0 -0.17495546156085731 -0.47703562834852942 0 -0.18686125424787209 -0.46246554122335509 0 -0.20351355682283129 -0.5 0 -0.20287923332113689 -0.47782026253728171 0 -0.17415772011912481 -0.5 0 -0.20287923332113689 -0.47782026253728171 0 -0.17415772011912481 -0.5 0 -0.17495546156085731 -0.47703562834852942 0 -0.17415772011912481 -0.5 0 -0.1594768879400672 -0.48702564807701382 0 -0.14480188341541811 -0.5 0 -0.17415772011912481 -0.5 0 -0.1594768879400672 -0.48702564807701382 0 -0.17495546156085731 -0.47703562834852942 0 -0.1594768879400672 -0.48702564807701382 0 -0.17495546156085731 -0.47703562834852942 0 -0.1611057256853845 -0.46429906073708083 0 -0.17495546156085731 -0.47703562834852942 0 -0.18686125424787209 -0.46246554122335509 0 -0.1611057256853845 -0.46429906073708083 0 -0.18686125424787209 -0.46246554122335509 0 -0.1611057256853845 -0.46429906073708083 0 -0.18686125424787209 -0.46246554122335509 0 -0.16798235813626741 -0.44391082370499479 0 -0.1611057256853845 -0.46429906073708083 0 -0.18686125424787209 -0.46246554122335509 0 -0.16798235813626741 -0.44391082370499479 0 -0.1842986213652085 -0.43623941501192198 0 -0.16798235813626741 -0.44391082370499479 0 -0.1473964196126358 -0.44563562534321499 0 -0.15944264210237319 -0.4251386704356217 0 -0.16798235813626741 -0.44391082370499479 0 -0.1611057256853845 -0.46429906073708083 0 -0.1473964196126358 -0.44563562534321499 0 -0.1473964196126358 -0.44563562534321499 0 -0.135350197122897 -0.46613258025080728 0 -0.1611057256853845 -0.46429906073708083 0 -0.135350197122897 -0.46613258025080728 0 -0.1611057256853845 -0.46429906073708083 0 -0.1473964196126358 -0.44563562534321499 0 -0.135350197122897 -0.46613258025080728 0 -0.1473964196126358 -0.44563562534321499 0 -0.12706255314779649 -0.44747355878434342 0 -0.1353071213544835 -0.42432413656536822 0 -0.1473964196126358 -0.44563562534321499 0 -0.12706255314779649 -0.44747355878434342 0 -0.135350197122897 -0.46613258025080728 0 -0.135350197122897 -0.46613258025080728 0 -0.12294285579963909 -0.48724398806704372 0 -0.135350197122897 -0.46613258025080728 0 -0.14232224926263409 -0.48367342872532021 0 -0.12294285579963909 -0.48724398806704372 0 -0.13342618982913179 -0.49870307015037202 0 -0.14480188341541811 -0.5 0 -0.1154460467117113 -0.49999999999999872 0 -0.13342618982913179 -0.49870307015037202 0 -0.14480188341541811 -0.5 0 -0.14232224926263409 -0.48367342872532021 0 -0.13342618982913179 -0.49870307015037202 0 -0.14232224926263409 -0.48367342872532021 0 -0.12294285579963909 -0.48724398806704372 0 -0.13342618982913179 -0.49870307015037202 0 -0.12294285579963909 -0.48724398806704372 0 -0.1594768879400672 -0.48702564807701382 0 -0.14480188341541811 -0.5 0 -0.14232224926263409 -0.48367342872532021 0 -0.1611057256853845 -0.46429906073708083 0 -0.135350197122897 -0.46613258025080728 0 -0.14232224926263409 -0.48367342872532021 0 -0.1594768879400672 -0.48702564807701382 0 -0.1611057256853845 -0.46429906073708083 0 -0.14232224926263409 -0.48367342872532021 0 -0.13977621364134429 -0.39884758287387279 0 -0.15464522603697689 -0.40859149107163462 0 -0.15957145576877971 -0.39242271571381421 0 -0.13977621364134429 -0.39884758287387279 0 -0.15957145576877971 -0.39242271571381421 0 -0.1430313268385914 -0.37375383962527831 0 -0.12525256742274779 -0.38572031826540132 0 -0.13977621364134429 -0.39884758287387279 0 -0.1430313268385914 -0.37375383962527831 0 -0.12525256742274779 -0.38572031826540132 0 -0.13977621364134429 -0.39884758287387279 0 -0.1240366125046861 -0.40870452404512408 0 -0.13977621364134429 -0.39884758287387279 0 -0.1353071213544835 -0.42432413656536822 0 -0.1240366125046861 -0.40870452404512408 0 -0.1353071213544835 -0.42432413656536822 0 -0.1199305845455331 -0.43145266373156899 0 -0.1240366125046861 -0.40870452404512408 0 -0.12706255314779649 -0.44747355878434342 0 -0.1353071213544835 -0.42432413656536822 0 -0.1199305845455331 -0.43145266373156899 0 -0.1473964196126358 -0.44563562534321499 0 -0.15944264210237319 -0.4251386704356217 0 -0.1473964196126358 -0.44563562534321499 0 -0.1353071213544835 -0.42432413656536822 0 -0.15944264210237319 -0.4251386704356217 0 -0.13977621364134429 -0.39884758287387279 0 -0.1353071213544835 -0.42432413656536822 0 -0.15464522603697689 -0.40859149107163462 0 -0.1353071213544835 -0.42432413656536822 0 -0.15464522603697689 -0.40859149107163462 0 -0.15944264210237319 -0.4251386704356217 0 -0.15944264210237319 -0.4251386704356217 0 -0.17399055427967711 -0.42221336223382783 0 -0.1714888645921106 -0.40464171552802841 0 -0.15464522603697689 -0.40859149107163462 0 -0.15944264210237319 -0.4251386704356217 0 -0.1714888645921106 -0.40464171552802841 0 -0.15944264210237319 -0.4251386704356217 0 -0.1714888645921106 -0.40464171552802841 0 -0.16798235813626741 -0.44391082370499479 0 -0.15944264210237319 -0.4251386704356217 0 -0.17399055427967711 -0.42221336223382783 0 -0.17399055427967711 -0.42221336223382783 0 -0.1842986213652085 -0.43623941501192198 0 -0.18536866759525689 -0.411432842356245 0 -0.16798235813626741 -0.44391082370499479 0 -0.17399055427967711 -0.42221336223382783 0 -0.1842986213652085 -0.43623941501192198 0 -0.17399055427967711 -0.42221336223382783 0 -0.18536866759525689 -0.411432842356245 0 -0.1714888645921106 -0.40464171552802841 0 -0.18536866759525689 -0.411432842356245 0 -0.18502840544463181 -0.39429723848236742 0 -0.1714888645921106 -0.40464171552802841 0 -0.18502840544463181 -0.39429723848236742 0 -0.15957145576877971 -0.39242271571381421 0 -0.1714888645921106 -0.40464171552802841 0 -0.15464522603697689 -0.40859149107163462 0 -0.15957145576877971 -0.39242271571381421 0 -0.1714888645921106 -0.40464171552802841 0 -0.18502840544463181 -0.39429723848236742 0 -0.15957145576877971 -0.39242271571381421 0 -0.16781513215961541 -0.37595198473962149 0 -0.15957145576877971 -0.39242271571381421 0 -0.16781513215961541 -0.37595198473962149 0 -0.1430313268385914 -0.37375383962527831 0 -0.18502840544463181 -0.39429723848236742 0 -0.16781513215961541 -0.37595198473962149 0 -0.19225708182115561 -0.36938787559331798 0 -0.18502840544463181 -0.39429723848236742 0 -0.16781513215961541 -0.37595198473962149 0 -0.18502840544463181 -0.39429723848236742 0 -0.20074981272207329 -0.38581575551590408 0 -0.19225708182115561 -0.36938787559331798 0 -0.20074981272207329 -0.38581575551590408 0 -0.19225708182115561 -0.36938787559331798 0 -0.21224745135889761 -0.37047279671687788 0 -0.18536866759525689 -0.411432842356245 0 -0.18502840544463181 -0.39429723848236742 0 -0.20224167872964841 -0.41264249222511318 0 -0.18502840544463181 -0.39429723848236742 0 -0.20074981272207329 -0.38581575551590408 0 -0.20224167872964841 -0.41264249222511318 0 -0.18502840544463181 -0.39429723848236742 0 -0.20224167872964841 -0.41264249222511318 0 -0.20074981272207329 -0.38581575551590408 0 -0.21700015187578861 -0.39323361757196967 0 -0.20224167872964841 -0.41264249222511318 0 -0.21700015187578861 -0.39323361757196967 0 -0.20224167872964841 -0.41264249222511318 0 -0.216170859382189 -0.4125783122320395 0 -0.21700015187578861 -0.39323361757196967 0 -0.20224167872964841 -0.41264249222511318 0 -0.20074981272207329 -0.38581575551590408 0 -0.21700015187578861 -0.39323361757196967 0 -0.21224745135889761 -0.37047279671687788 0 -0.1842986213652085 -0.43623941501192198 0 -0.20311593061457989 -0.43413174413199518 0 -0.20224167872964841 -0.41264249222511318 0 -0.1842986213652085 -0.43623941501192198 0 -0.20224167872964841 -0.41264249222511318 0 -0.1842986213652085 -0.43623941501192198 0 -0.18536866759525689 -0.411432842356245 0 -0.20224167872964841 -0.41264249222511318 0 -0.20224167872964841 -0.41264249222511318 0 -0.216170859382189 -0.4125783122320395 0 -0.21486737701946321 -0.42609848255134758 0 -0.20224167872964841 -0.41264249222511318 0 -0.21486737701946321 -0.42609848255134758 0 -0.20311593061457989 -0.43413174413199518 0 -0.21486737701946321 -0.42609848255134758 0 -0.22156018784864651 -0.43323142646506829 0 -0.20311593061457989 -0.43413174413199518 0 -0.20224167872964841 -0.41264249222511318 0 -0.21486737701946321 -0.42609848255134758 0 -0.2111615889001987 -0.44343479942135122 0 -0.20311593061457989 -0.43413174413199518 0 -0.22156018784864651 -0.43323142646506829 0 -0.21486737701946321 -0.42609848255134758 0 -0.22156018784864651 -0.43323142646506829 0 -0.23417422715764319 -0.44285783731094919 0 -0.21486737701946321 -0.42609848255134758 0 -0.22652251476479879 -0.42049391095581828 0 -0.23417422715764319 -0.44285783731094919 0 -0.21486737701946321 -0.42609848255134758 0 -0.23417422715764319 -0.44285783731094919 0 -0.22652251476479879 -0.42049391095581828 0 -0.23760359225838629 -0.4243509778300702 0 -0.23417422715764319 -0.44285783731094919 0 -0.21486737701946321 -0.42609848255134758 0 -0.22156018784864651 -0.43323142646506829 0 -0.22652251476479879 -0.42049391095581828 0 -0.23791390474688509 -0.41122541516686362 0 -0.23760359225838629 -0.4243509778300702 0 -0.216170859382189 -0.4125783122320395 0 -0.21486737701946321 -0.42609848255134758 0 -0.22652251476479879 -0.42049391095581828 0 -0.216170859382189 -0.4125783122320395 0 -0.22652251476479879 -0.42049391095581828 0 -0.22581203115268131 -0.40644879014595059 0 -0.22652251476479879 -0.42049391095581828 0 -0.22581203115268131 -0.40644879014595059 0 -0.23791390474688509 -0.41122541516686362 0 -0.25055907960274432 -0.40701107551929683 0 -0.251859142259238 -0.42076630788338742 0 -0.23791390474688509 -0.41122541516686362 0 -0.251859142259238 -0.42076630788338742 0 -0.23791390474688509 -0.41122541516686362 0 -0.23760359225838629 -0.4243509778300702 0 -0.23417422715764319 -0.44285783731094919 0 -0.23760359225838629 -0.4243509778300702 0 -0.24627214542761561 -0.43370860220831309 0 -0.251859142259238 -0.42076630788338742 0 -0.23760359225838629 -0.4243509778300702 0 -0.24627214542761561 -0.43370860220831309 0 -0.21700015187578861 -0.39323361757196967 0 -0.23175862502192759 -0.37382474291882528 0 -0.21224745135889761 -0.37047279671687788 0 -0.21700015187578861 -0.39323361757196967 0 -0.23175862502192759 -0.37382474291882528 0 -0.21700015187578861 -0.39323361757196967 0 -0.2388714250906154 -0.39501007003579758 0 -0.23175862502192759 -0.37382474291882528 0 -0.21700015187578861 -0.39323361757196967 0 -0.22581203115268131 -0.40644879014595059 0 -0.2388714250906154 -0.39501007003579758 0 -0.22581203115268131 -0.40644879014595059 0 -0.23791390474688509 -0.41122541516686362 0 -0.2388714250906154 -0.39501007003579758 0 -0.21700015187578861 -0.39323361757196967 0 -0.216170859382189 -0.4125783122320395 0 -0.22581203115268131 -0.40644879014595059 0 -0.25055907960274432 -0.40701107551929683 0 -0.23791390474688509 -0.41122541516686362 0 -0.2388714250906154 -0.39501007003579758 0 -0.25732351049334662 -0.39615601392414213 0 -0.25055907960274432 -0.40701107551929683 0 -0.2388714250906154 -0.39501007003579758 0 -0.25677780886438151 -0.38069748644772472 0 -0.2388714250906154 -0.39501007003579758 0 -0.23175862502192759 -0.37382474291882528 0 -0.25677780886438151 -0.38069748644772472 0 -0.24857884352842069 -0.36511060587579358 0 -0.23175862502192759 -0.37382474291882528 0 -0.24857884352842069 -0.36511060587579358 0 -0.23175862502192759 -0.37382474291882528 0 -0.23031525036059919 -0.35377378272445298 0 -0.23175862502192759 -0.37382474291882528 0 -0.23031525036059919 -0.35377378272445298 0 -0.21224745135889761 -0.37047279671687788 0 -0.23031525036059919 -0.35377378272445298 0 -0.22460131840284939 -0.33886034207668531 0 -0.2101124977514523 -0.3512023470906333 0 -0.23031525036059919 -0.35377378272445298 0 -0.239104242810802 -0.34089055435734678 0 -0.22460131840284939 -0.33886034207668531 0 -0.23031525036059919 -0.35377378272445298 0 -0.24515372645006939 -0.35058755674549108 0 -0.239104242810802 -0.34089055435734678 0 -0.24857884352842069 -0.36511060587579358 0 -0.23031525036059919 -0.35377378272445298 0 -0.24515372645006939 -0.35058755674549108 0 -0.24515372645006939 -0.35058755674549108 0 -0.249103770820091 -0.34006668606572749 0 -0.239104242810802 -0.34089055435734678 0 -0.249103770820091 -0.34006668606572749 0 -0.24401803014463269 -0.3339839846044963 0 -0.239104242810802 -0.34089055435734678 0 -0.249103770820091 -0.34006668606572749 0 -0.2496357303486034 -0.33303072874466361 0 -0.24401803014463269 -0.3339839846044963 0 -0.25538390398187127 -0.32832057615136367 0 -0.2496357303486034 -0.33303072874466361 0 -0.24230780135785801 -0.32860464669528472 0 -0.2496357303486034 -0.33303072874466361 0 -0.24230780135785801 -0.32860464669528472 0 -0.24401803014463269 -0.3339839846044963 0 -0.24401803014463269 -0.3339839846044963 0 -0.239885953574002 -0.33048131183750912 0 -0.239104242810802 -0.34089055435734678 0 -0.24230780135785801 -0.32860464669528472 0 -0.24401803014463269 -0.3339839846044963 0 -0.239885953574002 -0.33048131183750912 0 -0.239885953574002 -0.33048131183750912 0 -0.239104242810802 -0.34089055435734678 0 -0.22460131840284939 -0.33886034207668531 0 -0.24230780135785801 -0.32860464669528472 0 -0.24725180909002359 -0.30202408230195588 0 -0.24230780135785801 -0.32860464669528472 0 -0.2305804156120132 -0.31597142126073058 0 -0.24725180909002359 -0.30202408230195588 0 -0.25538390398187127 -0.32832057615136367 0 -0.24230780135785801 -0.32860464669528472 0 -0.24725180909002359 -0.30202408230195588 0 -0.24230780135785801 -0.32860464669528472 0 -0.239885953574002 -0.33048131183750912 0 -0.2305804156120132 -0.31597142126073058 0 -0.239885953574002 -0.33048131183750912 0 -0.2305804156120132 -0.31597142126073058 0 -0.2175506292839702 -0.32725657210410192 0 -0.2305804156120132 -0.31597142126073058 0 -0.2175506292839702 -0.32725657210410192 0 -0.2115773773179388 -0.30743677273160391 0 -0.239885953574002 -0.33048131183750912 0 -0.22460131840284939 -0.33886034207668531 0 -0.2175506292839702 -0.32725657210410192 0 -0.239885953574002 -0.33048131183750912 0 -0.2175506292839702 -0.32725657210410192 0 -0.22460131840284939 -0.33886034207668531 0 -0.2067201988759679 -0.33473241670262621 0 -0.2175506292839702 -0.32725657210410192 0 -0.22460131840284939 -0.33886034207668531 0 -0.2067201988759679 -0.33473241670262621 0 -0.2101124977514523 -0.3512023470906333 0 -0.2067201988759679 -0.33473241670262621 0 -0.2175506292839702 -0.32725657210410192 0 -0.1952153049939386 -0.324031832370694 0 -0.2175506292839702 -0.32725657210410192 0 -0.1952153049939386 -0.324031832370694 0 -0.2175506292839702 -0.32725657210410192 0 -0.19866194389327399 -0.32053611514391078 0 -0.1952153049939386 -0.324031832370694 0 -0.2175506292839702 -0.32725657210410192 0 -0.19866194389327399 -0.32053611514391078 0 -0.2115773773179388 -0.30743677273160391 0 -0.19866194389327399 -0.32053611514391078 0 -0.2115773773179388 -0.30743677273160391 0 -0.1952153049939386 -0.324031832370694 0 -0.1895719070929052 -0.31756853221003212 0 -0.17794274510267261 -0.32153804676652142 0 -0.19866194389327399 -0.32053611514391078 0 -0.1952153049939386 -0.324031832370694 0 -0.19866194389327399 -0.32053611514391078 0 -0.1952153049939386 -0.324031832370694 0 -0.1895719070929052 -0.31756853221003212 0 -0.1952153049939386 -0.324031832370694 0 -0.18827776866825141 -0.33106815556945079 0 -0.19866194389327399 -0.32053611514391078 0 -0.1895719070929052 -0.31756853221003212 0 -0.18748150597094909 -0.30925578767023038 0 -0.2067201988759679 -0.33473241670262621 0 -0.1952153049939386 -0.324031832370694 0 -0.18827776866825141 -0.33106815556945079 0 -0.18827776866825141 -0.33106815556945079 0 -0.2101124977514523 -0.3512023470906333 0 -0.2067201988759679 -0.33473241670262621 0 -0.18827776866825141 -0.33106815556945079 0 -0.2101124977514523 -0.3512023470906333 0 -0.19073479579583949 -0.35015722481420219 0 -0.19225708182115561 -0.36938787559331798 0 -0.2101124977514523 -0.3512023470906333 0 -0.18827776866825141 -0.33106815556945079 0 -0.19073479579583949 -0.35015722481420219 0 -0.2101124977514523 -0.3512023470906333 0 -0.19225708182115561 -0.36938787559331798 0 -0.21224745135889761 -0.37047279671687788 0 -0.2101124977514523 -0.3512023470906333 0 -0.23031525036059919 -0.35377378272445298 0 -0.21224745135889761 -0.37047279671687788 0 -0.2101124977514523 -0.3512023470906333 0 -0.23162115875709 -0.25645812734052548 0 -0.22439368152425551 -0.27415104523646822 0 -0.20610249295982691 -0.26405330116575509 0 -0.23162115875709 -0.25645812734052548 0 -0.20610249295982691 -0.26405330116575509 0 -0.22257854236532851 -0.2409875018895089 0 -0.23162115875709 -0.25645812734052548 0 -0.20610249295982691 -0.26405330116575509 0 -0.23162115875709 -0.25645812734052548 0 -0.24430152196594071 -0.27424665345342503 0 -0.2571398245543538 -0.24886295351529819 0 -0.23162115875709 -0.25645812734052548 0 -0.2571398245543538 -0.24886295351529819 0 -0.25219581682218922 -0.27544351790862709 0 -0.24430152196594071 -0.27424665345342503 0 -0.24244973586879409 -0.28746847914309281 0 -0.23162115875709 -0.25645812734052548 0 -0.24430152196594071 -0.27424665345342503 0 -0.22439368152425551 -0.27415104523646822 0 -0.24430152196594071 -0.27424665345342503 0 -0.22439368152425551 -0.27415104523646822 0 -0.22793944964193971 -0.29084171309251439 0 -0.22439368152425551 -0.27415104523646822 0 -0.22793944964193971 -0.29084171309251439 0 -0.20724520766356369 -0.2868017169841392 0 -0.25219581682218922 -0.27544351790862709 0 -0.24244973586879409 -0.28746847914309281 0 -0.24725180909002359 -0.30202408230195588 0 -0.25219581682218922 -0.27544351790862709 0 -0.24725180909002359 -0.30202408230195588 0 -0.22793944964193971 -0.29084171309251439 0 -0.24244973586879409 -0.28746847914309281 0 -0.24725180909002359 -0.30202408230195588 0 -0.24430152196594071 -0.27424665345342503 0 -0.22793944964193971 -0.29084171309251439 0 -0.24244973586879409 -0.28746847914309281 0 -0.24430152196594071 -0.27424665345342503 0 -0.22793944964193971 -0.29084171309251439 0 -0.2305804156120132 -0.31597142126073058 0 -0.22793944964193971 -0.29084171309251439 0 -0.24725180909002359 -0.30202408230195588 0 -0.22793944964193971 -0.29084171309251439 0 -0.2115773773179388 -0.30743677273160391 0 -0.2305804156120132 -0.31597142126073058 0 -0.22793944964193971 -0.29084171309251439 0 -0.2115773773179388 -0.30743677273160391 0 -0.19866194389327399 -0.32053611514391078 0 -0.2115773773179388 -0.30743677273160391 0 -0.1995222586273554 -0.30472387617986391 0 -0.2115773773179388 -0.30743677273160391 0 -0.200762941734275 -0.29744972544829951 0 -0.20724520766356369 -0.2868017169841392 0 -0.2115773773179388 -0.30743677273160391 0 -0.1995222586273554 -0.30472387617986391 0 -0.200762941734275 -0.29744972544829951 0 -0.19866194389327399 -0.32053611514391078 0 -0.18732252522948059 -0.29370533518374542 0 -0.19866194389327399 -0.32053611514391078 0 -0.1995222586273554 -0.30472387617986391 0 -0.18732252522948059 -0.29370533518374542 0 -0.19866194389327399 -0.32053611514391078 0 -0.18732252522948059 -0.29370533518374542 0 -0.18748150597094909 -0.30925578767023038 0 -0.1995222586273554 -0.30472387617986391 0 -0.200762941734275 -0.29744972544829951 0 -0.18732252522948059 -0.29370533518374542 0 -0.200762941734275 -0.29744972544829951 0 -0.19631771237153489 -0.28898739584543448 0 -0.20724520766356369 -0.2868017169841392 0 -0.200762941734275 -0.29744972544829951 0 -0.19631771237153489 -0.28898739584543448 0 -0.18732252522948059 -0.29370533518374542 0 -0.190063836652449 -0.2835005878159198 0 -0.19631771237153489 -0.28898739584543448 0 -0.1960312818462166 -0.27966114524351449 0 -0.190063836652449 -0.2835005878159198 0 -0.19631771237153489 -0.28898739584543448 0 -0.18732252522948059 -0.29370533518374542 0 -0.19631771237153489 -0.28898739584543448 0 -0.20724520766356369 -0.2868017169841392 0 -0.1960312818462166 -0.27966114524351449 0 -0.22793944964193971 -0.29084171309251439 0 -0.2115773773179388 -0.30743677273160391 0 -0.20724520766356369 -0.2868017169841392 0 -0.22439368152425551 -0.27415104523646822 0 -0.20724520766356369 -0.2868017169841392 0 -0.20610249295982691 -0.26405330116575509 0 -0.20724520766356369 -0.2868017169841392 0 -0.1960312818462166 -0.27966114524351449 0 -0.20610249295982691 -0.26405330116575509 0 -0.20610249295982691 -0.26405330116575509 0 -0.18058382716256369 -0.27164847499098471 0 -0.1960312818462166 -0.27966114524351449 0 -0.20610249295982691 -0.26405330116575509 0 -0.18058382716256369 -0.27164847499098471 0 -0.190063836652449 -0.2835005878159198 0 -0.1960312818462166 -0.27966114524351449 0 -0.18058382716256369 -0.27164847499098471 0 -0.1903729499252837 -0.25787141933281083 0 -0.20610249295982691 -0.26405330116575509 0 -0.18058382716256369 -0.27164847499098471 0 -0.1903729499252837 -0.25787141933281083 0 -0.20610249295982691 -0.26405330116575509 0 -0.20408675364639919 -0.24363351439930539 0 -0.1620228679778897 -0.2580548489557617 0 -0.1436734184865279 -0.25243675804208338 0 -0.16511519523298709 -0.2405086628396228 0 -0.1620228679778897 -0.2580548489557617 0 -0.1762188602312339 -0.26710699901168422 0 -0.16511519523298709 -0.2405086628396228 0 -0.1762188602312339 -0.26710699901168422 0 -0.16511519523298709 -0.2405086628396228 0 -0.1903729499252837 -0.25787141933281083 0 -0.1762188602312339 -0.26710699901168422 0 -0.16511519523298709 -0.2405086628396228 0 -0.1903729499252837 -0.25787141933281083 0 -0.1762188602312339 -0.26710699901168422 0 -0.18058382716256369 -0.27164847499098471 0 -0.1762188602312339 -0.26710699901168422 0 -0.18058382716256369 -0.27164847499098471 0 -0.18732252522948059 -0.29370533518374542 0 -0.1762188602312339 -0.26710699901168422 0 -0.18732252522948059 -0.29370533518374542 0 -0.1762188602312339 -0.26710699901168422 0 -0.16175064217812909 -0.27374511789948119 0 -0.1798278658697304 -0.29505347775687912 0 -0.1620228679778897 -0.2580548489557617 0 -0.1762188602312339 -0.26710699901168422 0 -0.16175064217812909 -0.27374511789948119 0 -0.16175064217812909 -0.27374511789948119 0 -0.1798278658697304 -0.29505347775687912 0 -0.16175064217812909 -0.27374511789948119 0 -0.16419434695993801 -0.28926215417662487 0 -0.1798278658697304 -0.29505347775687912 0 -0.16419434695993801 -0.28926215417662487 0 -0.1798278658697304 -0.29505347775687912 0 -0.17004733725287091 -0.29808442798017531 0 -0.16419434695993801 -0.28926215417662487 0 -0.17004733725287091 -0.29808442798017531 0 -0.1565678836228486 -0.30182790733068571 0 -0.190063836652449 -0.2835005878159198 0 -0.18058382716256369 -0.27164847499098471 0 -0.18732252522948059 -0.29370533518374542 0 -0.1762188602312339 -0.26710699901168422 0 -0.18732252522948059 -0.29370533518374542 0 -0.1798278658697304 -0.29505347775687912 0 -0.18732252522948059 -0.29370533518374542 0 -0.1798278658697304 -0.29505347775687912 0 -0.1830369687814466 -0.30001408140739039 0 -0.1798278658697304 -0.29505347775687912 0 -0.17751597805562641 -0.30204172501870707 0 -0.17004733725287091 -0.29808442798017531 0 -0.17751597805562641 -0.30204172501870707 0 -0.17543883548097641 -0.30807143688188149 0 -0.17004733725287091 -0.29808442798017531 0 -0.18732252522948059 -0.29370533518374542 0 -0.1830369687814466 -0.30001408140739039 0 -0.18748150597094909 -0.30925578767023038 0 -0.1798278658697304 -0.29505347775687912 0 -0.17751597805562641 -0.30204172501870707 0 -0.1830369687814466 -0.30001408140739039 0 -0.17751597805562641 -0.30204172501870707 0 -0.1830369687814466 -0.30001408140739039 0 -0.18748150597094909 -0.30925578767023038 0 -0.17751597805562641 -0.30204172501870707 0 -0.18748150597094909 -0.30925578767023038 0 -0.17543883548097641 -0.30807143688188149 0 -0.18748150597094909 -0.30925578767023038 0 -0.17543883548097641 -0.30807143688188149 0 -0.1827426954030231 -0.31455767249439592 0 -0.1565678836228486 -0.30182790733068571 0 -0.17794274510267261 -0.32153804676652142 0 -0.17543883548097641 -0.30807143688188149 0 -0.1565678836228486 -0.30182790733068571 0 -0.17794274510267261 -0.32153804676652142 0 -0.17543883548097641 -0.30807143688188149 0 -0.17004733725287091 -0.29808442798017531 0 -0.1565678836228486 -0.30182790733068571 0 -0.1565678836228486 -0.30182790733068571 0 -0.13765815627565739 -0.30584426760662742 0 -0.1547557492792121 -0.31819034400835589 0 -0.13765815627565739 -0.30584426760662742 0 -0.1217900494862706 -0.31272728726098292 0 -0.11926839234514711 -0.29021325300445661 0 -0.13765815627565739 -0.30584426760662742 0 -0.1351930221430245 -0.28211776789484988 0 -0.11926839234514711 -0.29021325300445661 0 -0.1565678836228486 -0.30182790733068571 0 -0.13765815627565739 -0.30584426760662742 0 -0.1351930221430245 -0.28211776789484988 0 -0.16175064217812909 -0.27374511789948119 0 -0.16419434695993801 -0.28926215417662487 0 -0.1351930221430245 -0.28211776789484988 0 -0.16419434695993801 -0.28926215417662487 0 -0.1565678836228486 -0.30182790733068571 0 -0.1351930221430245 -0.28211776789484988 0 -0.1565678836228486 -0.30182790733068571 0 -0.1351930221430245 -0.28211776789484988 0 -0.16175064217812909 -0.27374511789948119 0 -0.1351930221430245 -0.28211776789484988 0 -0.14567521403780029 -0.26906071242006852 0 -0.1351930221430245 -0.28211776789484988 0 -0.14567521403780029 -0.26906071242006852 0 -0.12393504992672739 -0.26419689580498451 0 -0.1351930221430245 -0.28211776789484988 0 -0.12393504992672739 -0.26419689580498451 0 -0.11926839234514711 -0.29021325300445661 0 -0.14567521403780029 -0.26906071242006852 0 -0.1436734184865279 -0.25243675804208338 0 -0.12393504992672739 -0.26419689580498451 0 -0.16175064217812909 -0.27374511789948119 0 -0.1436734184865279 -0.25243675804208338 0 -0.16175064217812909 -0.27374511789948119 0 -0.14567521403780029 -0.26906071242006852 0 -0.1436734184865279 -0.25243675804208338 0 -0.1620228679778897 -0.2580548489557617 0 -0.16175064217812909 -0.27374511789948119 0 -0.1436734184865279 -0.25243675804208338 0 -0.17158815148533291 -0.34799542413419332 0 -0.16272449895331451 -0.33368865973046641 0 -0.156023671965757 -0.35855400113080399 0 -0.16781513215961541 -0.37595198473962149 0 -0.17158815148533291 -0.34799542413419332 0 -0.156023671965757 -0.35855400113080399 0 -0.16781513215961541 -0.37595198473962149 0 -0.19225708182115561 -0.36938787559331798 0 -0.17158815148533291 -0.34799542413419332 0 -0.19073479579583949 -0.35015722481420219 0 -0.19225708182115561 -0.36938787559331798 0 -0.17158815148533291 -0.34799542413419332 0 -0.18827776866825141 -0.33106815556945079 0 -0.19073479579583949 -0.35015722481420219 0 -0.17158815148533291 -0.34799542413419332 0 -0.18827776866825141 -0.33106815556945079 0 -0.17158815148533291 -0.34799542413419332 0 -0.17513329105239281 -0.33357257155015801 0 -0.18827776866825141 -0.33106815556945079 0 -0.17158815148533291 -0.34799542413419332 0 -0.18827776866825141 -0.33106815556945079 0 -0.17513329105239281 -0.33357257155015801 0 -0.17794274510267261 -0.32153804676652142 0 -0.17513329105239281 -0.33357257155015801 0 -0.17794274510267261 -0.32153804676652142 0 -0.16272449895331451 -0.33368865973046641 0 -0.1952153049939386 -0.324031832370694 0 -0.18827776866825141 -0.33106815556945079 0 -0.17794274510267261 -0.32153804676652142 0 -0.1952153049939386 -0.324031832370694 0 -0.17794274510267261 -0.32153804676652142 0 -0.1895719070929052 -0.31756853221003212 0 -0.18748150597094909 -0.30925578767023038 0 -0.1827426954030231 -0.31455767249439592 0 -0.1895719070929052 -0.31756853221003212 0 -0.1827426954030231 -0.31455767249439592 0 -0.17794274510267261 -0.32153804676652142 0 -0.18827776866825141 -0.33106815556945079 0 -0.17794274510267261 -0.32153804676652142 0 -0.17543883548097641 -0.30807143688188149 0 -0.1827426954030231 -0.31455767249439592 0 -0.17794274510267261 -0.32153804676652142 0 -0.1565678836228486 -0.30182790733068571 0 -0.17794274510267261 -0.32153804676652142 0 -0.1547557492792121 -0.31819034400835589 0 -0.17794274510267261 -0.32153804676652142 0 -0.1547557492792121 -0.31819034400835589 0 -0.17794274510267261 -0.32153804676652142 0 -0.16272449895331451 -0.33368865973046641 0 -0.1547557492792121 -0.31819034400835589 0 -0.17158815148533291 -0.34799542413419332 0 -0.17513329105239281 -0.33357257155015801 0 -0.16272449895331451 -0.33368865973046641 0 -0.16272449895331451 -0.33368865973046641 0 -0.1392301162326286 -0.32631066458066688 0 -0.14219363284556141 -0.34494037707900288 0 -0.13765815627565739 -0.30584426760662742 0 -0.1547557492792121 -0.31819034400835589 0 -0.1392301162326286 -0.32631066458066688 0 -0.16272449895331451 -0.33368865973046641 0 -0.1547557492792121 -0.31819034400835589 0 -0.1392301162326286 -0.32631066458066688 0 -0.1392301162326286 -0.32631066458066688 0 -0.12134961859610589 -0.3367794668739319 0 -0.1217900494862706 -0.31272728726098292 0 -0.13765815627565739 -0.30584426760662742 0 -0.1392301162326286 -0.32631066458066688 0 -0.1217900494862706 -0.31272728726098292 0 -0.1392301162326286 -0.32631066458066688 0 -0.14219363284556141 -0.34494037707900288 0 -0.12134961859610589 -0.3367794668739319 0 -0.14219363284556141 -0.34494037707900288 0 -0.11690194317861891 -0.36022767482465989 0 -0.12134961859610589 -0.3367794668739319 0 -0.14219363284556141 -0.34494037707900288 0 -0.156023671965757 -0.35855400113080399 0 -0.1430313268385914 -0.37375383962527831 0 -0.16272449895331451 -0.33368865973046641 0 -0.14219363284556141 -0.34494037707900288 0 -0.156023671965757 -0.35855400113080399 0 -0.16781513215961541 -0.37595198473962149 0 -0.156023671965757 -0.35855400113080399 0 -0.1430313268385914 -0.37375383962527831 0 -0.14219363284556141 -0.34494037707900288 0 -0.1430313268385914 -0.37375383962527831 0 -0.11690194317861891 -0.36022767482465989 0 -0.12525256742274779 -0.38572031826540132 0 -0.1430313268385914 -0.37375383962527831 0 -0.11690194317861891 -0.36022767482465989 0 -0.12525256742274779 -0.38572031826540132 0 -0.11690194317861891 -0.36022767482465989 0 -0.1034945547065021 -0.37467718954803059 0 -0.11690194317861891 -0.36022767482465989 0 -0.1008654778512315 -0.33878001559706089 0 -0.085181667854938886 -0.36738440430883662 0 -0.11690194317861891 -0.36022767482465989 0 -0.1034945547065021 -0.37467718954803059 0 -0.085181667854938886 -0.36738440430883662 0 -0.11690194317861891 -0.36022767482465989 0 -0.1008654778512315 -0.33878001559706089 0 -0.11690194317861891 -0.36022767482465989 0 -0.12134961859610589 -0.3367794668739319 0 -0.1008654778512315 -0.33878001559706089 0 -0.12134961859610589 -0.3367794668739319 0 -0.1217900494862706 -0.31272728726098292 0 -0.1042859102542122 -0.32009789958932239 0 -0.1042859102542122 -0.32009789958932239 0 -0.084829012523844144 -0.31733235636946172 0 -0.1004169212079785 -0.30182883497111618 0 -0.1042859102542122 -0.32009789958932239 0 -0.1008654778512315 -0.33878001559706089 0 -0.084829012523844144 -0.31733235636946172 0 -0.12134961859610589 -0.3367794668739319 0 -0.1042859102542122 -0.32009789958932239 0 -0.1008654778512315 -0.33878001559706089 0 -0.1008654778512315 -0.33878001559706089 0 -0.084829012523844144 -0.31733235636946172 0 -0.07557600192831343 -0.3380441274027513 0 -0.1008654778512315 -0.33878001559706089 0 -0.084829012523844144 -0.31733235636946172 0 -0.084829012523844144 -0.31733235636946172 0 -0.07557600192831343 -0.3380441274027513 0 -0.055252141575579942 -0.32381735514143623 0 -0.084829012523844144 -0.31733235636946172 0 -0.059039636247905938 -0.30682553336757989 0 -0.055252141575579942 -0.32381735514143623 0 -0.07557600192831343 -0.3380441274027513 0 -0.062443180758179187 -0.35433981749864912 0 -0.055252141575579942 -0.32381735514143623 0 -0.07557600192831343 -0.3380441274027513 0 -0.085181667854938886 -0.36738440430883662 0 -0.062443180758179187 -0.35433981749864912 0 -0.06424716476895985 -0.37448132022989872 0 -0.085181667854938886 -0.36738440430883662 0 -0.062443180758179187 -0.35433981749864912 0 -0.085181667854938886 -0.36738440430883662 0 -0.062443180758179187 -0.35433981749864912 0 -0.1008654778512315 -0.33878001559706089 0 -0.07557600192831343 -0.3380441274027513 0 -0.085181667854938886 -0.36738440430883662 0 -0.096617155031224283 -0.27456446448817862 0 -0.082904006473783876 -0.24672916707275031 0 -0.1049422681983621 -0.2489166415742726 0 -0.12393504992672739 -0.26419689580498451 0 -0.096617155031224283 -0.27456446448817862 0 -0.1049422681983621 -0.2489166415742726 0 -0.12393504992672739 -0.26419689580498451 0 -0.096617155031224283 -0.27456446448817862 0 -0.11926839234514711 -0.29021325300445661 0 -0.096617155031224283 -0.27456446448817862 0 -0.11926839234514711 -0.29021325300445661 0 -0.1004169212079785 -0.30182883497111618 0 -0.1217900494862706 -0.31272728726098292 0 -0.11926839234514711 -0.29021325300445661 0 -0.1004169212079785 -0.30182883497111618 0 -0.1217900494862706 -0.31272728726098292 0 -0.1042859102542122 -0.32009789958932239 0 -0.1004169212079785 -0.30182883497111618 0 -0.084829012523844144 -0.31733235636946172 0 -0.1004169212079785 -0.30182883497111618 0 -0.068792547196456763 -0.29588469714186261 0 -0.096617155031224283 -0.27456446448817862 0 -0.1004169212079785 -0.30182883497111618 0 -0.068792547196456763 -0.29588469714186261 0 -0.084829012523844144 -0.31733235636946172 0 -0.068792547196456763 -0.29588469714186261 0 -0.059039636247905938 -0.30682553336757989 0 -0.084829012523844144 -0.31733235636946172 0 -0.068792547196456763 -0.29588469714186261 0 -0.096617155031224283 -0.27456446448817862 0 -0.068792547196456763 -0.29588469714186261 0 -0.073023174789677306 -0.26945450375113411 0 -0.068792547196456763 -0.29588469714186261 0 -0.073023174789677306 -0.26945450375113411 0 -0.052756081869069382 -0.27443703791426338 0 -0.073023174789677306 -0.26945450375113411 0 -0.056742535117983689 -0.25263266827344388 0 -0.082904006473783876 -0.24672916707275031 0 -0.096617155031224283 -0.27456446448817862 0 -0.073023174789677306 -0.26945450375113411 0 -0.082904006473783876 -0.24672916707275031 0 -0.033806567994711267 -0.26519044918961132 0 -0.056742535117983689 -0.25263266827344388 0 -0.034125957531782769 -0.2471094194730768 0 -0.033806567994711267 -0.26519044918961132 0 -0.056742535117983689 -0.25263266827344388 0 -0.052756081869069382 -0.27443703791426338 0 -0.073023174789677306 -0.26945450375113411 0 -0.056742535117983689 -0.25263266827344388 0 -0.052756081869069382 -0.27443703791426338 0 -0.033806567994711267 -0.26519044918961132 0 -0.052756081869069382 -0.27443703791426338 0 -0.036884928709155419 -0.27932414021624508 0 -0.04650444461966572 -0.29085570301185559 0 -0.03982003532398317 -0.3062375551732836 0 -0.028160804253567089 -0.29159366292609029 0 -0.052756081869069382 -0.27443703791426338 0 -0.036884928709155419 -0.27932414021624508 0 -0.04650444461966572 -0.29085570301185559 0 -0.036884928709155419 -0.27932414021624508 0 -0.04650444461966572 -0.29085570301185559 0 -0.028160804253567089 -0.29159366292609029 0 -0.068792547196456763 -0.29588469714186261 0 -0.052756081869069382 -0.27443703791426338 0 -0.068792547196456763 -0.29588469714186261 0 -0.052756081869069382 -0.27443703791426338 0 -0.04650444461966572 -0.29085570301185559 0 -0.04650444461966572 -0.29085570301185559 0 -0.059039636247905938 -0.30682553336757989 0 -0.03982003532398317 -0.3062375551732836 0 -0.059039636247905938 -0.30682553336757989 0 -0.03982003532398317 -0.3062375551732836 0 -0.055252141575579942 -0.32381735514143623 0 -0.068792547196456763 -0.29588469714186261 0 -0.04650444461966572 -0.29085570301185559 0 -0.059039636247905938 -0.30682553336757989 0 -0.03982003532398317 -0.3062375551732836 0 -0.028275869710389329 -0.30336703247604763 0 -0.028160804253567089 -0.29159366292609029 0 -0.03982003532398317 -0.3062375551732836 0 -0.026065778647049589 -0.31229443141871388 0 -0.028275869710389329 -0.30336703247604763 0 -0.03982003532398317 -0.3062375551732836 0 -0.026065778647049589 -0.31229443141871388 0 -0.037216336604836767 -0.31754257504241168 0 -0.026065778647049589 -0.31229443141871388 0 -0.028275869710389329 -0.30336703247604763 0 -0.017709216694891922 -0.30499309386809248 0 -0.028275869710389329 -0.30336703247604763 0 -0.017709216694891922 -0.30499309386809248 0 -0.028160804253567089 -0.29159366292609029 0 -0.026065778647049589 -0.31229443141871388 0 -0.017709216694891922 -0.30499309386809248 0 -0.016834573323911931 -0.3121020790407103 0 -0.016834573323911931 -0.3121020790407103 0 -0.01088168797725299 -0.3096279274965959 0 -0.01051188619922884 -0.31561426950938132 0 -0.017709216694891922 -0.30499309386809248 0 -0.016834573323911931 -0.3121020790407103 0 -0.01088168797725299 -0.3096279274965959 0 -0.017709216694891922 -0.30499309386809248 0 -0.01088168797725299 -0.3096279274965959 0 -0.0060526000906228547 -0.3042521106822923 0 -0.0060526000906228547 -0.3042521106822923 0 -0.011075297296106609 -0.29329327651378179 0 0.0063357997597688256 -0.29969944912374907 0 -0.01088168797725299 -0.3096279274965959 0 -0.003720110744566919 -0.31110313005453483 0 -0.01051188619922884 -0.31561426950938132 0 -0.01088168797725299 -0.3096279274965959 0 -0.003720110744566919 -0.31110313005453483 0 -0.0060526000906228547 -0.3042521106822923 0 -0.00018652873610240761 -0.30712312460195812 0 -0.003720110744566919 -0.31110313005453483 0 -0.0060526000906228547 -0.3042521106822923 0 -0.00018652873610240761 -0.30712312460195812 0 -0.003720110744566919 -0.31110313005453483 0 0.0026907961310110879 -0.31343780854725622 0 -0.017709216694891922 -0.30499309386809248 0 -0.0060526000906228547 -0.3042521106822923 0 -0.011075297296106609 -0.29329327651378179 0 -0.011075297296106609 -0.29329327651378179 0 0.0063357997597688256 -0.29969944912374907 0 -0.011075297296106609 -0.29329327651378179 0 -0.00069059069152978833 -0.28679115666807747 0 0.0063357997597688256 -0.29969944912374907 0 -0.00069059069152978833 -0.28679115666807747 0 -0.015165617615972149 -0.28352903576023131 0 -0.006914791174482203 -0.27623753065143941 0 -0.011075297296106609 -0.29329327651378179 0 -0.00069059069152978833 -0.28679115666807747 0 -0.015165617615972149 -0.28352903576023131 0 -0.036884928709155419 -0.27932414021624508 0 -0.028160804253567089 -0.29159366292609029 0 -0.021415460642226401 -0.27392084563756303 0 -0.015165617615972149 -0.28352903576023131 0 -0.028160804253567089 -0.29159366292609029 0 -0.021415460642226401 -0.27392084563756303 0 -0.011075297296106609 -0.29329327651378179 0 -0.015165617615972149 -0.28352903576023131 0 -0.028160804253567089 -0.29159366292609029 0 -0.017709216694891922 -0.30499309386809248 0 -0.011075297296106609 -0.29329327651378179 0 -0.028160804253567089 -0.29159366292609029 0 -0.033806567994711267 -0.26519044918961132 0 -0.021415460642226401 -0.27392084563756303 0 -0.0090383860005128977 -0.26474152416329522 0 -0.033806567994711267 -0.26519044918961132 0 -0.036884928709155419 -0.27932414021624508 0 -0.021415460642226401 -0.27392084563756303 0 -0.015165617615972149 -0.28352903576023131 0 -0.021415460642226401 -0.27392084563756303 0 -0.006914791174482203 -0.27623753065143941 0 -0.006914791174482203 -0.27623753065143941 0 -0.0090383860005128977 -0.26474152416329522 0 0.0033086062813970571 -0.27178278322227301 0 -0.021415460642226401 -0.27392084563756303 0 -0.006914791174482203 -0.27623753065143941 0 -0.0090383860005128977 -0.26474152416329522 0 -0.0090383860005128977 -0.26474152416329522 0 -0.01026036677478962 -0.2502006321798948 0 0.003850180098302871 -0.25648338442345447 0 -0.0090383860005128977 -0.26474152416329522 0 -0.01026036677478962 -0.2502006321798948 0 -0.02115187817932182 -0.25528742927313208 0 -0.033806567994711267 -0.26519044918961132 0 -0.0090383860005128977 -0.26474152416329522 0 -0.033806567994711267 -0.26519044918961132 0 -0.02115187817932182 -0.25528742927313208 0 -0.034125957531782769 -0.2471094194730768 0 -0.033806567994711267 -0.26519044918961132 0 -0.0090383860005128977 -0.26474152416329522 0 -0.02115187817932182 -0.25528742927313208 0 -0.042121734596653491 -0.3557309328916472 0 -0.02718985764999645 -0.34787894146541509 0 -0.03014477477189249 -0.36414425674953632 0 -0.042121734596653491 -0.3557309328916472 0 -0.039704693661419439 -0.34129523068846152 0 -0.02718985764999645 -0.34787894146541509 0 -0.045289826446918063 -0.37002060675111498 0 -0.03014477477189249 -0.36414425674953632 0 -0.045289826446918063 -0.37002060675111498 0 -0.03014477477189249 -0.36414425674953632 0 -0.035044179462907492 -0.37539817930208469 0 -0.042121734596653491 -0.3557309328916472 0 -0.045289826446918063 -0.37002060675111498 0 -0.03014477477189249 -0.36414425674953632 0 -0.042121734596653491 -0.3557309328916472 0 -0.045289826446918063 -0.37002060675111498 0 -0.062443180758179187 -0.35433981749864912 0 -0.06424716476895985 -0.37448132022989872 0 -0.045289826446918063 -0.37002060675111498 0 -0.062443180758179187 -0.35433981749864912 0 -0.042121734596653491 -0.3557309328916472 0 -0.062443180758179187 -0.35433981749864912 0 -0.039704693661419439 -0.34129523068846152 0 -0.062443180758179187 -0.35433981749864912 0 -0.039704693661419439 -0.34129523068846152 0 -0.062443180758179187 -0.35433981749864912 0 -0.055252141575579942 -0.32381735514143623 0 -0.039704693661419439 -0.34129523068846152 0 -0.03982003532398317 -0.3062375551732836 0 -0.055252141575579942 -0.32381735514143623 0 -0.037216336604836767 -0.31754257504241168 0 -0.055252141575579942 -0.32381735514143623 0 -0.032240918567720107 -0.32802245751395698 0 -0.037216336604836767 -0.31754257504241168 0 -0.032240918567720107 -0.32802245751395698 0 -0.037216336604836767 -0.31754257504241168 0 -0.024976559406988921 -0.32288626923629221 0 -0.055252141575579942 -0.32381735514143623 0 -0.032240918567720107 -0.32802245751395698 0 -0.039704693661419439 -0.34129523068846152 0 -0.039704693661419439 -0.34129523068846152 0 -0.016966206564657062 -0.32825064387827868 0 -0.039704693661419439 -0.34129523068846152 0 -0.016966206564657062 -0.32825064387827868 0 -0.02718985764999645 -0.34787894146541509 0 -0.032240918567720107 -0.32802245751395698 0 -0.039704693661419439 -0.34129523068846152 0 -0.016966206564657062 -0.32825064387827868 0 -0.016966206564657062 -0.32825064387827868 0 -0.01499972309686735 -0.3582679067479565 0 -0.026065778647049589 -0.31229443141871388 0 -0.037216336604836767 -0.31754257504241168 0 -0.024976559406988921 -0.32288626923629221 0 -0.032240918567720107 -0.32802245751395698 0 -0.016966206564657062 -0.32825064387827868 0 -0.024976559406988921 -0.32288626923629221 0 -0.016966206564657062 -0.32825064387827868 0 -0.024976559406988921 -0.32288626923629221 0 -0.019004297101136311 -0.31798067291076798 0 -0.026065778647049589 -0.31229443141871388 0 -0.016834573323911931 -0.3121020790407103 0 -0.019004297101136311 -0.31798067291076798 0 -0.026065778647049589 -0.31229443141871388 0 -0.024976559406988921 -0.32288626923629221 0 -0.019004297101136311 -0.31798067291076798 0 -0.016966206564657062 -0.32825064387827868 0 0.00084205002565354136 -0.3319988658419315 0 0.0027471841099788378 -0.31694149059625498 0 -0.016966206564657062 -0.32825064387827868 0 0.0027471841099788378 -0.31694149059625498 0 -0.016966206564657062 -0.32825064387827868 0 -0.01051188619922884 -0.31561426950938132 0 0.0027471841099788378 -0.31694149059625498 0 -0.016834573323911931 -0.3121020790407103 0 -0.019004297101136311 -0.31798067291076798 0 -0.01051188619922884 -0.31561426950938132 0 -0.016966206564657062 -0.32825064387827868 0 -0.019004297101136311 -0.31798067291076798 0 -0.01051188619922884 -0.31561426950938132 0 -0.003720110744566919 -0.31110313005453483 0 -0.01051188619922884 -0.31561426950938132 0 0.0027471841099788378 -0.31694149059625498 0 -0.016966206564657062 -0.32825064387827868 0 -0.0044980580436576201 -0.34192025809804982 0 -0.01499972309686735 -0.3582679067479565 0 -0.016966206564657062 -0.32825064387827868 0 -0.0044980580436576201 -0.34192025809804982 0 0.00084205002565354136 -0.3319988658419315 0 -0.0044980580436576201 -0.34192025809804982 0 -0.01499972309686735 -0.3582679067479565 0 0.00058170467569445975 -0.35222224080501291 0 -0.01499972309686735 -0.3582679067479565 0 0.00058170467569445975 -0.35222224080501291 0 -0.016966206564657062 -0.32825064387827868 0 -0.01499972309686735 -0.3582679067479565 0 -0.02718985764999645 -0.34787894146541509 0 -0.01499972309686735 -0.3582679067479565 0 -0.02718985764999645 -0.34787894146541509 0 -0.03014477477189249 -0.36414425674953632 0 -0.017171684672003751 -0.36746158240526711 0 -0.014328103845621189 -0.36851979645017258 0 -0.03257557113983673 -0.38846566719596559 0 -0.03014477477189249 -0.36414425674953632 0 -0.017171684672003751 -0.36746158240526711 0 -0.035044179462907492 -0.37539817930208469 0 -0.01499972309686735 -0.3582679067479565 0 -0.03014477477189249 -0.36414425674953632 0 -0.01499972309686735 -0.3582679067479565 0 -0.03014477477189249 -0.36414425674953632 0 -0.017171684672003751 -0.36746158240526711 0 -0.017171684672003751 -0.36746158240526711 0 -0.014328103845621189 -0.36851979645017258 0 -0.01499972309686735 -0.3582679067479565 0 -0.014328103845621189 -0.36851979645017258 0 0.00058170467569445975 -0.35222224080501291 0 -0.014328103845621189 -0.36851979645017258 0 0.00058170467569445975 -0.35222224080501291 0 -0.01499972309686735 -0.3582679067479565 0 -0.014328103845621189 -0.36851979645017258 0 -0.01499972309686735 -0.3582679067479565 0 -0.017171684672003751 -0.36746158240526711 0 -0.014328103845621189 -0.36851979645017258 0 -0.014328103845621189 -0.36851979645017258 0 -0.01260540415948099 -0.3948158371601389 0 -0.014328103845621189 -0.36851979645017258 0 -0.01260540415948099 -0.3948158371601389 0 0.00045703181057857539 -0.38075564520811789 0 -0.01260540415948099 -0.3948158371601389 0 0.00045703181057857539 -0.38075564520811789 0 0.0027727943578457529 -0.4070150055845157 0 -0.01260540415948099 -0.3948158371601389 0 -0.03257557113983673 -0.38846566719596559 0 -0.027075542782071839 -0.40814243075724249 0 -0.014328103845621189 -0.36851979645017258 0 -0.03257557113983673 -0.38846566719596559 0 -0.014328103845621189 -0.36851979645017258 0 -0.01260540415948099 -0.3948158371601389 0 -0.03257557113983673 -0.38846566719596559 0 -0.017171684672003751 -0.36746158240526711 0 -0.03257557113983673 -0.38846566719596559 0 -0.035044179462907492 -0.37539817930208469 0 -0.045289826446918063 -0.37002060675111498 0 -0.035044179462907492 -0.37539817930208469 0 -0.050039040283886449 -0.38689878340853961 0 -0.03257557113983673 -0.38846566719596559 0 -0.035044179462907492 -0.37539817930208469 0 -0.050039040283886449 -0.38689878340853961 0 -0.03257557113983673 -0.38846566719596559 0 -0.050823038434052982 -0.40841153794175789 0 -0.03257557113983673 -0.38846566719596559 0 -0.050039040283886449 -0.38689878340853961 0 -0.050823038434052982 -0.40841153794175789 0 -0.03257557113983673 -0.38846566719596559 0 -0.050823038434052982 -0.40841153794175789 0 -0.027075542782071839 -0.40814243075724249 0 -0.050039040283886449 -0.38689878340853961 0 -0.050823038434052982 -0.40841153794175789 0 -0.078282108500876663 -0.39376298918235331 0 -0.06424716476895985 -0.37448132022989872 0 -0.045289826446918063 -0.37002060675111498 0 -0.050039040283886449 -0.38689878340853961 0 -0.050823038434052982 -0.40841153794175789 0 -0.046225935538111732 -0.44112447167346808 0 -0.069070505728269227 -0.42835740868755018 0 -0.050823038434052982 -0.40841153794175789 0 -0.028490995703648318 -0.42790723361824479 0 -0.046225935538111732 -0.44112447167346808 0 -0.050823038434052982 -0.40841153794175789 0 -0.069070505728269227 -0.42835740868755018 0 -0.050823038434052982 -0.40841153794175789 0 -0.028490995703648318 -0.42790723361824479 0 -0.027075542782071839 -0.40814243075724249 0 -0.028490995703648318 -0.42790723361824479 0 -0.01088270447334016 -0.42111187787010512 0 -0.0091600047871993294 -0.44740791858007117 0 -0.028490995703648318 -0.42790723361824479 0 -0.027075542782071839 -0.40814243075724249 0 -0.01088270447334016 -0.42111187787010512 0 -0.01260540415948099 -0.3948158371601389 0 -0.027075542782071839 -0.40814243075724249 0 -0.01088270447334016 -0.42111187787010512 0 -0.01260540415948099 -0.3948158371601389 0 -0.01088270447334016 -0.42111187787010512 0 -0.01088270447334016 -0.42111187787010512 0 0.0027727943578457529 -0.4070150055845157 0 0.0038571219342519768 -0.42988645953386467 0 -0.01260540415948099 -0.3948158371601389 0 -0.01088270447334016 -0.42111187787010512 0 0.0027727943578457529 -0.4070150055845157 0 -0.01088270447334016 -0.42111187787010512 0 -0.0091600047871993294 -0.44740791858007117 0 -0.01088270447334016 -0.42111187787010512 0 -0.0091600047871993294 -0.44740791858007117 0 0.0038571219342519768 -0.42988645953386467 0 -0.0091600047871993294 -0.44740791858007117 0 -0.028108468956938509 -0.45602903162730962 0 -0.0074373051010584914 -0.4737039592900375 0 -0.0091600047871993294 -0.44740791858007117 0 -0.0074373051010584914 -0.4737039592900375 0 0.0081396403685838926 -0.46055270310767887 0 -0.0091600047871993294 -0.44740791858007117 0 -0.0074373051010584914 -0.4737039592900375 0 -0.028108468956938509 -0.45602903162730962 0 -0.0074373051010584914 -0.4737039592900375 0 -0.025289097242230111 -0.47396775916564438 0 -0.028490995703648318 -0.42790723361824479 0 -0.0091600047871993294 -0.44740791858007117 0 -0.028108468956938509 -0.45602903162730962 0 -0.0057146054149174227 -0.50000000000000355 0 -0.0074373051010584914 -0.4737039592900375 0 0.011847289821028249 -0.4812589191785262 0 -0.0057146054149174227 -0.50000000000000355 0 -0.0074373051010584914 -0.4737039592900375 0 -0.0057146054149174227 -0.50000000000000355 0 -0.0074373051010584914 -0.4737039592900375 0 -0.02006583467866712 -0.48677141402676821 0 -0.025289097242230111 -0.47396775916564438 0 -0.02006583467866712 -0.48677141402676821 0 -0.040031681645890917 -0.4851764779577436 0 -0.0074373051010584914 -0.4737039592900375 0 -0.025289097242230111 -0.47396775916564438 0 -0.02006583467866712 -0.48677141402676821 0 -0.02006583467866712 -0.48677141402676821 0 -0.030191703112144749 -0.5 0 -0.040031681645890917 -0.4851764779577436 0 -0.0057146054149174227 -0.50000000000000355 0 -0.02006583467866712 -0.48677141402676821 0 -0.030191703112144749 -0.5 0 -0.030191703112144749 -0.5 0 -0.040031681645890917 -0.4851764779577436 0 -0.054668800809372031 -0.5 0 -0.025289097242230111 -0.47396775916564438 0 -0.052047475369383048 -0.47206284743639182 0 -0.025289097242230111 -0.47396775916564438 0 -0.040031681645890917 -0.4851764779577436 0 -0.052047475369383048 -0.47206284743639182 0 -0.040031681645890917 -0.4851764779577436 0 -0.052047475369383048 -0.47206284743639182 0 -0.066907349657985712 -0.48521648656278749 0 -0.040031681645890917 -0.4851764779577436 0 -0.054668800809372031 -0.5 0 -0.066907349657985712 -0.48521648656278749 0 -0.028490995703648318 -0.42790723361824479 0 -0.028108468956938509 -0.45602903162730962 0 -0.046225935538111732 -0.44112447167346808 0 -0.028108468956938509 -0.45602903162730962 0 -0.052047475369383048 -0.47206284743639182 0 -0.046225935538111732 -0.44112447167346808 0 -0.028108468956938509 -0.45602903162730962 0 -0.025289097242230111 -0.47396775916564438 0 -0.052047475369383048 -0.47206284743639182 0 -0.052047475369383048 -0.47206284743639182 0 -0.046225935538111732 -0.44112447167346808 0 -0.066693548630957097 -0.45200118858757837 0 -0.046225935538111732 -0.44112447167346808 0 -0.066693548630957097 -0.45200118858757837 0 -0.069070505728269227 -0.42835740868755018 0 -0.066693548630957097 -0.45200118858757837 0 -0.087317973022485493 -0.44830327943334258 0 -0.069070505728269227 -0.42835740868755018 0 -0.066693548630957097 -0.45200118858757837 0 -0.087317973022485493 -0.44830327943334258 0 -0.078805853496536002 -0.4701579357071391 0 -0.052047475369383048 -0.47206284743639182 0 -0.066693548630957097 -0.45200118858757837 0 -0.078805853496536002 -0.4701579357071391 0 -0.087317973022485493 -0.44830327943334258 0 -0.078805853496536002 -0.4701579357071391 0 -0.10556404661857539 -0.46825042520298837 0 -0.087317973022485493 -0.44830327943334258 0 -0.069070505728269227 -0.42835740868755018 0 -0.054668800809372031 -0.5 0 -0.066907349657985712 -0.48521648656278749 0 -0.079145898506599366 -0.5 0 -0.066907349657985712 -0.48521648656278749 0 -0.087977617407099445 -0.48886727431591231 0 -0.079145898506599366 -0.5 0 -0.052047475369383048 -0.47206284743639182 0 -0.078805853496536002 -0.4701579357071391 0 -0.066907349657985712 -0.48521648656278749 0 -0.078805853496536002 -0.4701579357071391 0 -0.087977617407099445 -0.48886727431591231 0 -0.052047475369383048 -0.47206284743639182 0 -0.066907349657985712 -0.48521648656278749 0 -0.078805853496536002 -0.4701579357071391 0 -0.078805853496536002 -0.4701579357071391 0 -0.087977617407099445 -0.48886727431591231 0 -0.10459232927432 -0.48412513980855798 0 -0.078805853496536002 -0.4701579357071391 0 -0.10556404661857539 -0.46825042520298837 0 -0.087977617407099445 -0.48886727431591231 0 -0.079145898506599366 -0.5 0 -0.1036229962038268 -0.50000000000000244 0 -0.1036229962038268 -0.50000000000000244 0 -0.10459232927432 -0.48412513980855798 0 -0.1036229962038268 -0.50000000000000244 0 -0.10459232927432 -0.48412513980855798 0 -0.1154460467117113 -0.49999999999999872 0 -0.087977617407099445 -0.48886727431591231 0 -0.1036229962038268 -0.50000000000000244 0 -0.10459232927432 -0.48412513980855798 0 -0.078805853496536002 -0.4701579357071391 0 -0.10459232927432 -0.48412513980855798 0 -0.10556404661857539 -0.46825042520298837 0 -0.10459232927432 -0.48412513980855798 0 -0.10556404661857539 -0.46825042520298837 0 -0.135350197122897 -0.46613258025080728 0 -0.12294285579963909 -0.48724398806704372 0 -0.10556404661857539 -0.46825042520298837 0 -0.12294285579963909 -0.48724398806704372 0 -0.10556404661857539 -0.46825042520298837 0 -0.10459232927432 -0.48412513980855798 0 -0.12294285579963909 -0.48724398806704372 0 -0.10556404661857539 -0.46825042520298837 0 -0.10459232927432 -0.48412513980855798 0 -0.12294285579963909 -0.48724398806704372 0 -0.1154460467117113 -0.49999999999999872 0 -0.13342618982913179 -0.49870307015037202 0 -0.12294285579963909 -0.48724398806704372 0 -0.1154460467117113 -0.49999999999999872 0 -0.12294285579963909 -0.48724398806704372 0 -0.1154460467117113 -0.49999999999999872 0 -0.087317973022485493 -0.44830327943334258 0 -0.1070885160040398 -0.44324485154409071 0 -0.092729313341214828 -0.42995000132658417 0 -0.1070885160040398 -0.44324485154409071 0 -0.10556404661857539 -0.46825042520298837 0 -0.087317973022485493 -0.44830327943334258 0 -0.1070885160040398 -0.44324485154409071 0 -0.10556404661857539 -0.46825042520298837 0 -0.087317973022485493 -0.44830327943334258 0 -0.10556404661857539 -0.46825042520298837 0 -0.135350197122897 -0.46613258025080728 0 -0.10556404661857539 -0.46825042520298837 0 -0.12706255314779649 -0.44747355878434342 0 -0.135350197122897 -0.46613258025080728 0 -0.10556404661857539 -0.46825042520298837 0 -0.12706255314779649 -0.44747355878434342 0 -0.1070885160040398 -0.44324485154409071 0 -0.1199305845455331 -0.43145266373156899 0 -0.12706255314779649 -0.44747355878434342 0 -0.1070885160040398 -0.44324485154409071 0 -0.10556404661857539 -0.46825042520298837 0 -0.1070885160040398 -0.44324485154409071 0 -0.1199305845455331 -0.43145266373156899 0 -0.1086153696632664 -0.41823942347106779 0 -0.1070885160040398 -0.44324485154409071 0 -0.1086153696632664 -0.41823942347106779 0 -0.1070885160040398 -0.44324485154409071 0 -0.1086153696632664 -0.41823942347106779 0 -0.092729313341214828 -0.42995000132658417 0 -0.1086153696632664 -0.41823942347106779 0 -0.092729313341214828 -0.42995000132658417 0 -0.091663233830467691 -0.41216816600516049 0 -0.1086153696632664 -0.41823942347106779 0 -0.1101422233224931 -0.39323399539804482 0 -0.091663233830467691 -0.41216816600516049 0 -0.1086153696632664 -0.41823942347106779 0 -0.1240366125046861 -0.40870452404512408 0 -0.1101422233224931 -0.39323399539804482 0 -0.1199305845455331 -0.43145266373156899 0 -0.1086153696632664 -0.41823942347106779 0 -0.1240366125046861 -0.40870452404512408 0 -0.12525256742274779 -0.38572031826540132 0 -0.1240366125046861 -0.40870452404512408 0 -0.1101422233224931 -0.39323399539804482 0 -0.1034945547065021 -0.37467718954803059 0 -0.1101422233224931 -0.39323399539804482 0 -0.078282108500876663 -0.39376298918235331 0 -0.1086153696632664 -0.41823942347106779 0 -0.1101422233224931 -0.39323399539804482 0 -0.12525256742274779 -0.38572031826540132 0 -0.1034945547065021 -0.37467718954803059 0 -0.1101422233224931 -0.39323399539804482 0 -0.1101422233224931 -0.39323399539804482 0 -0.078282108500876663 -0.39376298918235331 0 -0.091663233830467691 -0.41216816600516049 0 -0.1034945547065021 -0.37467718954803059 0 -0.085181667854938886 -0.36738440430883662 0 -0.078282108500876663 -0.39376298918235331 0 -0.06424716476895985 -0.37448132022989872 0 -0.050039040283886449 -0.38689878340853961 0 -0.078282108500876663 -0.39376298918235331 0 -0.06424716476895985 -0.37448132022989872 0 -0.085181667854938886 -0.36738440430883662 0 -0.078282108500876663 -0.39376298918235331 0 -0.078282108500876663 -0.39376298918235331 0 -0.069070505728269227 -0.42835740868755018 0 -0.091663233830467691 -0.41216816600516049 0 -0.050823038434052982 -0.40841153794175789 0 -0.078282108500876663 -0.39376298918235331 0 -0.069070505728269227 -0.42835740868755018 0 -0.069070505728269227 -0.42835740868755018 0 -0.092729313341214828 -0.42995000132658417 0 -0.091663233830467691 -0.41216816600516049 0 -0.087317973022485493 -0.44830327943334258 0 -0.069070505728269227 -0.42835740868755018 0 -0.092729313341214828 -0.42995000132658417 0 -0.072368844491603801 -0.091715751553179931 0 -0.084542095004886228 -0.1056899783880455 0 -0.094288560877860417 -0.076990235131702223 0 -0.072368844491603801 -0.091715751553179931 0 -0.094288560877860417 -0.076990235131702223 0 -0.077969130722897517 -0.07411610054830664 0 -0.072368844491603801 -0.091715751553179931 0 -0.094288560877860417 -0.076990235131702223 0 -0.077969130722897517 -0.07411610054830664 0 -0.094288560877860417 -0.076990235131702223 0 -0.097351024278912901 -0.059790339489991663 0 -0.077969130722897517 -0.07411610054830664 0 -0.062848666680967002 -0.072714028139120479 0 -0.072752349582540635 -0.051809847936531178 0 -0.062848666680967002 -0.072714028139120479 0 -0.072368844491603801 -0.091715751553179931 0 -0.05683819846797887 -0.095892685945417805 0 -0.077969130722897517 -0.07411610054830664 0 -0.062848666680967002 -0.072714028139120479 0 -0.072368844491603801 -0.091715751553179931 0 -0.072368844491603801 -0.091715751553179931 0 -0.067103538476664656 -0.1082867070540007 0 -0.050449128105347109 -0.10644126797465769 0 -0.072368844491603801 -0.091715751553179931 0 -0.067103538476664656 -0.1082867070540007 0 -0.084542095004886228 -0.1056899783880455 0 -0.067103538476664656 -0.1082867070540007 0 -0.071018939724817057 -0.120327053616837 0 -0.084542095004886228 -0.1056899783880455 0 -0.067103538476664656 -0.1082867070540007 0 -0.071018939724817057 -0.120327053616837 0 -0.057207660493194049 -0.11996964599388819 0 -0.071018939724817057 -0.120327053616837 0 -0.084542095004886228 -0.1056899783880455 0 -0.083827638756718448 -0.12816011309694941 0 -0.084542095004886228 -0.1056899783880455 0 -0.096099959927718803 -0.1176890780277375 0 -0.083827638756718448 -0.12816011309694941 0 -0.1068324443982084 -0.095830318463699826 0 -0.096099959927718803 -0.1176890780277375 0 -0.084542095004886228 -0.1056899783880455 0 -0.1068324443982084 -0.095830318463699826 0 -0.096099959927718803 -0.1176890780277375 0 -0.1068324443982084 -0.095830318463699826 0 -0.096099959927718803 -0.1176890780277375 0 -0.1144874392660474 -0.115859426201677 0 -0.096099959927718803 -0.1176890780277375 0 -0.1144874392660474 -0.115859426201677 0 -0.10045002387298289 -0.132311429751099 0 -0.1144874392660474 -0.115859426201677 0 -0.1251984158892441 -0.13342063862331929 0 -0.13458899324498791 -0.117934631473347 0 -0.1068324443982084 -0.095830318463699826 0 -0.1226224220115264 -0.08700842642779763 0 -0.1280775557021952 -0.098606912797632701 0 -0.1068324443982084 -0.095830318463699826 0 -0.1144874392660474 -0.115859426201677 0 -0.1280775557021952 -0.098606912797632701 0 -0.1068324443982084 -0.095830318463699826 0 -0.1175649288686981 -0.073971558899662129 0 -0.1068324443982084 -0.095830318463699826 0 -0.1226224220115264 -0.08700842642779763 0 -0.1175649288686981 -0.073971558899662129 0 -0.084542095004886228 -0.1056899783880455 0 -0.1068324443982084 -0.095830318463699826 0 -0.094288560877860417 -0.076990235131702223 0 -0.1068324443982084 -0.095830318463699826 0 -0.094288560877860417 -0.076990235131702223 0 -0.1175649288686981 -0.073971558899662129 0 -0.094288560877860417 -0.076990235131702223 0 -0.1162082772641172 -0.062264718710224418 0 -0.094288560877860417 -0.076990235131702223 0 -0.1175649288686981 -0.073971558899662129 0 -0.1162082772641172 -0.062264718710224418 0 -0.094288560877860417 -0.076990235131702223 0 -0.1162082772641172 -0.062264718710224418 0 -0.097351024278912901 -0.059790339489991663 0 -0.1175649288686981 -0.073971558899662129 0 -0.1162082772641172 -0.062264718710224418 0 -0.1282974133391882 -0.052112799335624627 0 -0.1175649288686981 -0.073971558899662129 0 -0.1282974133391882 -0.052112799335624627 0 -0.1162082772641172 -0.062264718710224418 0 -0.11964335503712981 -0.052830604509801218 0 -0.1282974133391882 -0.052112799335624627 0 -0.1162082772641172 -0.062264718710224418 0 -0.1117183460586801 -0.047859176977016603 0 -0.11964335503712981 -0.052830604509801218 0 -0.1117183460586801 -0.047859176977016603 0 -0.11964335503712981 -0.052830604509801218 0 -0.12680734529200741 -0.047894062410165812 0 -0.11964335503712981 -0.052830604509801218 0 -0.1282974133391882 -0.052112799335624627 0 -0.12680734529200741 -0.047894062410165812 0 -0.1052655023887679 -0.034219531694663199 0 -0.12680734529200741 -0.047894062410165812 0 -0.1052655023887679 -0.034219531694663199 0 -0.1215387755862448 -0.028740399220623589 0 -0.12590745863266811 -0.045346269317299882 0 -0.1117183460586801 -0.047859176977016603 0 -0.1052655023887679 -0.034219531694663199 0 -0.12680734529200741 -0.047894062410165812 0 -0.1052655023887679 -0.034219531694663199 0 -0.12590745863266811 -0.045346269317299882 0 -0.12680734529200741 -0.047894062410165812 0 -0.1117183460586801 -0.047859176977016603 0 -0.1052655023887679 -0.034219531694663199 0 -0.091844813683401458 -0.043310015793839099 0 -0.1162082772641172 -0.062264718710224418 0 -0.1117183460586801 -0.047859176977016603 0 -0.097351024278912901 -0.059790339489991663 0 -0.1117183460586801 -0.047859176977016603 0 -0.097351024278912901 -0.059790339489991663 0 -0.091844813683401458 -0.043310015793839099 0 -0.1153821316410879 -0.0010236762665647341 0 -0.12840034748032511 -0.005234898154034457 0 -0.12596177720057869 0.0033279213254498699 0 -0.1153821316410879 -0.0010236762665647341 0 -0.1163376948475926 -0.01594754173137258 0 -0.12840034748032511 -0.005234898154034457 0 -0.1153821316410879 -0.0010236762665647341 0 -0.1163376948475926 -0.01594754173137258 0 -0.10557149648225921 -0.0064916213480605391 0 -0.1052655023887679 -0.034219531694663199 0 -0.1163376948475926 -0.01594754173137258 0 -0.1215387755862448 -0.028740399220623589 0 -0.1163376948475926 -0.01594754173137258 0 -0.1215387755862448 -0.028740399220623589 0 -0.13149699074877291 -0.01913272122285389 0 -0.1052655023887679 -0.034219531694663199 0 -0.1163376948475926 -0.01594754173137258 0 -0.1014295097332166 -0.016847336795147948 0 -0.1052655023887679 -0.034219531694663199 0 -0.083723659485530039 -0.02054500097915811 0 -0.1052655023887679 -0.034219531694663199 0 -0.1014295097332166 -0.016847336795147948 0 -0.083723659485530039 -0.02054500097915811 0 -0.1163376948475926 -0.01594754173137258 0 -0.1014295097332166 -0.016847336795147948 0 -0.10557149648225921 -0.0064916213480605391 0 -0.1014295097332166 -0.016847336795147948 0 -0.093892379325602404 -0.00586628390227204 0 -0.10557149648225921 -0.0064916213480605391 0 -0.093892379325602404 -0.00586628390227204 0 -0.10557149648225921 -0.0064916213480605391 0 -0.09789758606370294 0.0083968355435111476 0 -0.1014295097332166 -0.016847336795147948 0 -0.093892379325602404 -0.00586628390227204 0 -0.083723659485530039 -0.02054500097915811 0 -0.093892379325602404 -0.00586628390227204 0 -0.083723659485530039 -0.02054500097915811 0 -0.079661236795137924 0.0067390562276019028 0 -0.083723659485530039 -0.02054500097915811 0 -0.057821576917211223 -0.031525255222893053 0 -0.062181816582292167 -0.0068704702636530127 0 -0.083723659485530039 -0.02054500097915811 0 -0.062181816582292167 -0.0068704702636530127 0 -0.079661236795137924 0.0067390562276019028 0 -0.083723659485530039 -0.02054500097915811 0 -0.062181816582292167 -0.0068704702636530127 0 -0.083723659485530039 -0.02054500097915811 0 -0.072752349582540635 -0.051809847936531178 0 -0.057821576917211223 -0.031525255222893053 0 -0.083723659485530039 -0.02054500097915811 0 -0.091844813683401458 -0.043310015793839099 0 -0.072752349582540635 -0.051809847936531178 0 -0.077969130722897517 -0.07411610054830664 0 -0.097351024278912901 -0.059790339489991663 0 -0.072752349582540635 -0.051809847936531178 0 -0.097351024278912901 -0.059790339489991663 0 -0.091844813683401458 -0.043310015793839099 0 -0.072752349582540635 -0.051809847936531178 0 -0.1052655023887679 -0.034219531694663199 0 -0.083723659485530039 -0.02054500097915811 0 -0.091844813683401458 -0.043310015793839099 0 -0.062848666680967002 -0.072714028139120479 0 -0.072752349582540635 -0.051809847936531178 0 -0.052868864321642887 -0.051630313898678767 0 -0.072752349582540635 -0.051809847936531178 0 -0.052868864321642887 -0.051630313898678767 0 -0.057821576917211223 -0.031525255222893053 0 -0.052868864321642887 -0.051630313898678767 0 -0.057821576917211223 -0.031525255222893053 0 -0.033125434229818833 -0.043874362814105852 0 -0.033125434229818833 -0.043874362814105852 0 -0.044981816348898841 -0.069883524379761808 0 -0.052868864321642887 -0.051630313898678767 0 -0.033125434229818833 -0.043874362814105852 0 -0.044981816348898841 -0.069883524379761808 0 -0.033125434229818833 -0.043874362814105852 0 -0.022299538141541991 -0.058992739401295548 0 -0.044981816348898841 -0.069883524379761808 0 -0.062181816582292167 -0.0068704702636530127 0 -0.040639973679054281 0.0068040604518520946 0 -0.062181816582292167 -0.0068704702636530127 0 -0.039999486057809987 -0.01457078948934484 0 -0.040639973679054281 0.0068040604518520946 0 -0.057821576917211223 -0.031525255222893053 0 -0.062181816582292167 -0.0068704702636530127 0 -0.039999486057809987 -0.01457078948934484 0 -0.057821576917211223 -0.031525255222893053 0 -0.033125434229818833 -0.043874362814105852 0 -0.039999486057809987 -0.01457078948934484 0 -0.033125434229818833 -0.043874362814105852 0 -0.039999486057809987 -0.01457078948934484 0 -0.021269052110738779 -0.017865201248449779 0 -0.039999486057809987 -0.01457078948934484 0 -0.040639973679054281 0.0068040604518520946 0 -0.02608386252301563 0.00059812423972419666 0 -0.039999486057809987 -0.01457078948934484 0 -0.021269052110738779 -0.017865201248449779 0 -0.02608386252301563 0.00059812423972419666 0 -0.021269052110738779 -0.017865201248449779 0 -0.02608386252301563 0.00059812423972419666 0 -0.009412669991658712 0.0081439603172063085 0 -0.033125434229818833 -0.043874362814105852 0 -0.021269052110738779 -0.017865201248449779 0 -0.021269052110738779 -0.017865201248449779 0 -0.01498712641125078 -0.036007918066280092 0 0.0005842597783277852 -0.02458093061347286 0 -0.021269052110738779 -0.017865201248449779 0 -0.0059468681258598799 -0.0082163695027096424 0 0.0005842597783277852 -0.02458093061347286 0 -0.021269052110738779 -0.017865201248449779 0 -0.0059468681258598799 -0.0082163695027096424 0 -0.009412669991658712 0.0081439603172063085 0 -0.021269052110738779 -0.017865201248449779 0 -0.009412669991658712 0.0081439603172063085 0 -0.033125434229818833 -0.043874362814105852 0 -0.021269052110738779 -0.017865201248449779 0 -0.01498712641125078 -0.036007918066280092 0 -0.033125434229818833 -0.043874362814105852 0 -0.022299538141541991 -0.058992739401295548 0 -0.01498712641125078 -0.036007918066280092 0 -0.0051414702639746134 -0.050598554760823491 0 0.0005842597783277852 -0.02458093061347286 0 -0.01498712641125078 -0.036007918066280092 0 -0.0051414702639746134 -0.050598554760823491 0 0.0005842597783277852 -0.02458093061347286 0 -0.022299538141541991 -0.058992739401295548 0 -0.01498712641125078 -0.036007918066280092 0 -0.0051414702639746134 -0.050598554760823491 0 -0.022299538141541991 -0.058992739401295548 0 -0.0051414702639746134 -0.050598554760823491 0 -0.010867200306277009 -0.076616178908174126 0 -0.010867200306277009 -0.076616178908174126 0 0.0065630423943395114 -0.079352299935663451 0 0.0010486274136207059 -0.067011217515601268 0 -0.0051414702639746134 -0.050598554760823491 0 -0.010867200306277009 -0.076616178908174126 0 0.0010486274136207059 -0.067011217515601268 0 -0.0051414702639746134 -0.050598554760823491 0 -0.010867200306277009 -0.076616178908174126 0 -0.010867200306277009 -0.076616178908174126 0 -0.0050773728597287432 -0.093008683347296964 0 0.0065630423943395114 -0.079352299935663451 0 -0.010867200306277009 -0.076616178908174126 0 -0.016592930348579411 -0.10263380305552471 0 -0.010867200306277009 -0.076616178908174126 0 -0.0050773728597287432 -0.093008683347296964 0 -0.016592930348579411 -0.10263380305552471 0 -0.010867200306277009 -0.076616178908174126 0 -0.022894951815588861 -0.089119332754625441 0 -0.016592930348579411 -0.10263380305552471 0 -0.010867200306277009 -0.076616178908174126 0 -0.022894951815588861 -0.089119332754625441 0 -0.026088633925930551 -0.075687950603534199 0 -0.022894951815588861 -0.089119332754625441 0 -0.026088633925930551 -0.075687950603534199 0 -0.034087410646663811 -0.089174447720229727 0 -0.022894951815588861 -0.089119332754625441 0 -0.034087410646663811 -0.089174447720229727 0 -0.02889604585772693 -0.099355049703835907 0 -0.022299538141541991 -0.058992739401295548 0 -0.026088633925930551 -0.075687950603534199 0 -0.044981816348898841 -0.069883524379761808 0 -0.022299538141541991 -0.058992739401295548 0 -0.010867200306277009 -0.076616178908174126 0 -0.026088633925930551 -0.075687950603534199 0 -0.044981816348898841 -0.069883524379761808 0 -0.034087410646663811 -0.089174447720229727 0 -0.045106853871459567 -0.093068757074187047 0 -0.026088633925930551 -0.075687950603534199 0 -0.044981816348898841 -0.069883524379761808 0 -0.034087410646663811 -0.089174447720229727 0 -0.062848666680967002 -0.072714028139120479 0 -0.044981816348898841 -0.069883524379761808 0 -0.05683819846797887 -0.095892685945417805 0 -0.044981816348898841 -0.069883524379761808 0 -0.045106853871459567 -0.093068757074187047 0 -0.05683819846797887 -0.095892685945417805 0 -0.044981816348898841 -0.069883524379761808 0 -0.05683819846797887 -0.095892685945417805 0 -0.062848666680967002 -0.072714028139120479 0 -0.052868864321642887 -0.051630313898678767 0 -0.044981816348898841 -0.069883524379761808 0 -0.067103538476664656 -0.1082867070540007 0 -0.057207660493194049 -0.11996964599388819 0 -0.050449128105347109 -0.10644126797465769 0 -0.057207660493194049 -0.11996964599388819 0 -0.050449128105347109 -0.10644126797465769 0 -0.043784536975143083 -0.1163356314030341 0 -0.057207660493194049 -0.11996964599388819 0 -0.043784536975143083 -0.1163356314030341 0 -0.047396237809385199 -0.13149412580268199 0 -0.072368844491603801 -0.091715751553179931 0 -0.050449128105347109 -0.10644126797465769 0 -0.072368844491603801 -0.091715751553179931 0 -0.05683819846797887 -0.095892685945417805 0 -0.050449128105347109 -0.10644126797465769 0 -0.045106853871459567 -0.093068757074187047 0 -0.05683819846797887 -0.095892685945417805 0 -0.050449128105347109 -0.10644126797465769 0 -0.050449128105347109 -0.10644126797465769 0 -0.039177715788409173 -0.10395185935086811 0 -0.043784536975143083 -0.1163356314030341 0 -0.045106853871459567 -0.093068757074187047 0 -0.050449128105347109 -0.10644126797465769 0 -0.039177715788409173 -0.10395185935086811 0 -0.034087410646663811 -0.089174447720229727 0 -0.045106853871459567 -0.093068757074187047 0 -0.039177715788409173 -0.10395185935086811 0 -0.034087410646663811 -0.089174447720229727 0 -0.039177715788409173 -0.10395185935086811 0 -0.02889604585772693 -0.099355049703835907 0 -0.039177715788409173 -0.10395185935086811 0 -0.031727220689393411 -0.1118958056379315 0 -0.02889604585772693 -0.099355049703835907 0 -0.039177715788409173 -0.10395185935086811 0 -0.031727220689393411 -0.1118958056379315 0 -0.043784536975143083 -0.1163356314030341 0 -0.043784536975143083 -0.1163356314030341 0 -0.047396237809385199 -0.13149412580268199 0 -0.035342086352776872 -0.12579742764100291 0 -0.031727220689393411 -0.1118958056379315 0 -0.043784536975143083 -0.1163356314030341 0 -0.035342086352776872 -0.12579742764100291 0 -0.016592930348579411 -0.10263380305552471 0 -0.02231866039088181 -0.1286514272028754 0 -0.031727220689393411 -0.1118958056379315 0 -0.026495224445407878 -0.1172446158843336 0 -0.035342086352776872 -0.12579742764100291 0 -0.026495224445407878 -0.1172446158843336 0 -0.016592930348579411 -0.10263380305552471 0 -0.02231866039088181 -0.1286514272028754 0 -0.026495224445407878 -0.1172446158843336 0 -0.02231866039088181 -0.1286514272028754 0 -0.035342086352776872 -0.12579742764100291 0 -0.016592930348579411 -0.10263380305552471 0 -0.0086345649140105746 -0.1183849674591283 0 -0.02231866039088181 -0.1286514272028754 0 -0.031727220689393411 -0.1118958056379315 0 -0.026495224445407878 -0.1172446158843336 0 -0.016592930348579411 -0.10263380305552471 0 -0.031727220689393411 -0.1118958056379315 0 -0.02889604585772693 -0.099355049703835907 0 -0.016592930348579411 -0.10263380305552471 0 -0.022894951815588861 -0.089119332754625441 0 -0.02889604585772693 -0.099355049703835907 0 -0.016592930348579411 -0.10263380305552471 0 -0.0050773728597287432 -0.093008683347296964 0 -0.016592930348579411 -0.10263380305552471 0 0.001467510519420079 -0.1085974737393718 0 -0.016592930348579411 -0.10263380305552471 0 -0.0086345649140105746 -0.1183849674591283 0 0.001467510519420079 -0.1085974737393718 0 -0.0086345649140105746 -0.1183849674591283 0 -0.0040602233222691809 -0.12485705104587071 0 -0.01324677081893672 -0.12983711353467109 0 -0.0086345649140105746 -0.1183849674591283 0 0.0045734576361993089 -0.1188486631618913 0 0.001467510519420079 -0.1085974737393718 0 -0.0086345649140105746 -0.1183849674591283 0 -0.0040602233222691809 -0.12485705104587071 0 0.0045734576361993089 -0.1188486631618913 0 -0.01324677081893672 -0.12983711353467109 0 -0.0099011412181638 -0.14433558411452371 0 0.003046995076066511 -0.13631712994587561 0 -0.0040602233222691809 -0.12485705104587071 0 -0.01324677081893672 -0.12983711353467109 0 0.003046995076066511 -0.13631712994587561 0 -0.0086345649140105746 -0.1183849674591283 0 -0.01324677081893672 -0.12983711353467109 0 -0.02231866039088181 -0.1286514272028754 0 -0.02231866039088181 -0.1286514272028754 0 -0.02804439043318371 -0.1546690513502261 0 -0.035525851189745099 -0.13799665160698199 0 -0.01324677081893672 -0.12983711353467109 0 -0.02231866039088181 -0.1286514272028754 0 -0.02804439043318371 -0.1546690513502261 0 -0.02231866039088181 -0.1286514272028754 0 -0.035342086352776872 -0.12579742764100291 0 -0.035525851189745099 -0.13799665160698199 0 -0.02231866039088181 -0.1286514272028754 0 -0.02804439043318371 -0.1546690513502261 0 -0.01324677081893672 -0.12983711353467109 0 -0.02804439043318371 -0.1546690513502261 0 -0.01324677081893672 -0.12983711353467109 0 -0.02804439043318371 -0.1546690513502261 0 -0.0099011412181638 -0.14433558411452371 0 -0.0099011412181638 -0.14433558411452371 0 -0.0013603986966012731 -0.156519041627322 0 0.003046995076066511 -0.13631712994587561 0 -0.02804439043318371 -0.1546690513502261 0 -0.0099011412181638 -0.14433558411452371 0 -0.0013603986966012731 -0.156519041627322 0 -0.0013603986966012731 -0.156519041627322 0 -0.0154270333595109 -0.1729499267751021 0 0.00068028629314922429 -0.17591475349096641 0 -0.02804439043318371 -0.1546690513502261 0 -0.0013603986966012731 -0.156519041627322 0 -0.0154270333595109 -0.1729499267751021 0 -0.0154270333595109 -0.1729499267751021 0 -0.0078193059117164058 -0.18911379703751391 0 0.00068028629314922429 -0.17591475349096641 0 -0.0154270333595109 -0.1729499267751021 0 -0.032890985266211308 -0.1766918994112717 0 -0.024449054331624 -0.1876307571240319 0 -0.0154270333595109 -0.1729499267751021 0 -0.0078193059117164058 -0.18911379703751391 0 -0.024449054331624 -0.1876307571240319 0 -0.02804439043318371 -0.1546690513502261 0 -0.032890985266211308 -0.1766918994112717 0 -0.02804439043318371 -0.1546690513502261 0 -0.0154270333595109 -0.1729499267751021 0 -0.032890985266211308 -0.1766918994112717 0 -0.02804439043318371 -0.1546690513502261 0 -0.045573242348062933 -0.17091617839305889 0 -0.046927763727468187 -0.16081959304006241 0 -0.02804439043318371 -0.1546690513502261 0 -0.042034986002049843 -0.1781467192606922 0 -0.02804439043318371 -0.1546690513502261 0 -0.045573242348062933 -0.17091617839305889 0 -0.042034986002049843 -0.1781467192606922 0 -0.02804439043318371 -0.1546690513502261 0 -0.032890985266211308 -0.1766918994112717 0 -0.042034986002049843 -0.1781467192606922 0 -0.032890985266211308 -0.1766918994112717 0 -0.042034986002049843 -0.1781467192606922 0 -0.037552837214181553 -0.18779496005028781 0 -0.032890985266211308 -0.1766918994112717 0 -0.024449054331624 -0.1876307571240319 0 -0.037552837214181553 -0.18779496005028781 0 -0.045573242348062933 -0.17091617839305889 0 -0.042034986002049843 -0.1781467192606922 0 -0.044196425065486031 -0.17905130437895639 0 -0.044196425065486031 -0.17905130437895639 0 -0.053270450695922969 -0.17556443949339201 0 -0.066162284157832346 -0.18300729206002159 0 -0.042034986002049843 -0.1781467192606922 0 -0.044196425065486031 -0.17905130437895639 0 -0.056025581570915958 -0.2016243871711583 0 -0.044196425065486031 -0.17905130437895639 0 -0.058087175916427723 -0.1893127153223941 0 -0.066162284157832346 -0.18300729206002159 0 -0.044196425065486031 -0.17905130437895639 0 -0.066162284157832346 -0.18300729206002159 0 -0.045573242348062933 -0.17091617839305889 0 -0.053270450695922969 -0.17556443949339201 0 -0.057149851212310573 -0.16928298314153109 0 -0.045573242348062933 -0.17091617839305889 0 -0.044196425065486031 -0.17905130437895639 0 -0.053270450695922969 -0.17556443949339201 0 -0.053270450695922969 -0.17556443949339201 0 -0.057149851212310573 -0.16928298314153109 0 -0.066162284157832346 -0.18300729206002159 0 -0.046927763727468187 -0.16081959304006241 0 -0.057149851212310573 -0.16928298314153109 0 -0.059743839374638057 -0.15350554465963301 0 -0.045573242348062933 -0.17091617839305889 0 -0.046927763727468187 -0.16081959304006241 0 -0.057149851212310573 -0.16928298314153109 0 -0.059743839374638057 -0.15350554465963301 0 -0.046228103225788811 -0.14670011092124191 0 -0.063811070252210764 -0.1353050227873494 0 -0.046927763727468187 -0.16081959304006241 0 -0.059743839374638057 -0.15350554465963301 0 -0.046228103225788811 -0.14670011092124191 0 -0.057207660493194049 -0.11996964599388819 0 -0.047396237809385199 -0.13149412580268199 0 -0.063811070252210764 -0.1353050227873494 0 -0.047396237809385199 -0.13149412580268199 0 -0.046228103225788811 -0.14670011092124191 0 -0.063811070252210764 -0.1353050227873494 0 -0.047396237809385199 -0.13149412580268199 0 -0.035525851189745099 -0.13799665160698199 0 -0.046228103225788811 -0.14670011092124191 0 -0.047396237809385199 -0.13149412580268199 0 -0.035342086352776872 -0.12579742764100291 0 -0.035525851189745099 -0.13799665160698199 0 -0.02804439043318371 -0.1546690513502261 0 -0.035525851189745099 -0.13799665160698199 0 -0.046228103225788811 -0.14670011092124191 0 -0.02804439043318371 -0.1546690513502261 0 -0.046927763727468187 -0.16081959304006241 0 -0.046228103225788811 -0.14670011092124191 0 -0.019552925470585628 -0.2437159412280954 0 -0.027403980776275441 -0.2293093675510898 0 -0.034125957531782769 -0.2471094194730768 0 -0.019552925470585628 -0.2437159412280954 0 -0.0075699640435386607 -0.23421979761468259 0 -0.027403980776275441 -0.2293093675510898 0 -0.02115187817932182 -0.25528742927313208 0 -0.019552925470585628 -0.2437159412280954 0 -0.034125957531782769 -0.2471094194730768 0 -0.01026036677478962 -0.2502006321798948 0 -0.02115187817932182 -0.25528742927313208 0 -0.019552925470585628 -0.2437159412280954 0 -0.01026036677478962 -0.2502006321798948 0 -0.019552925470585628 -0.2437159412280954 0 -0.0075699640435386607 -0.23421979761468259 0 -0.01026036677478962 -0.2502006321798948 0 -0.0075699640435386607 -0.23421979761468259 0 0.003850180098302871 -0.25648338442345447 0 -0.0075699640435386607 -0.23421979761468259 0 -0.0130054587681524 -0.21850574756699681 0 0.0085046026332297638 -0.2269464277649155 0 -0.0130054587681524 -0.21850574756699681 0 0.0085046026332297638 -0.2269464277649155 0 -0.0075699640435386607 -0.23421979761468259 0 -0.027403980776275441 -0.2293093675510898 0 -0.0130054587681524 -0.21850574756699681 0 -0.027403980776275441 -0.2293093675510898 0 -0.0130054587681524 -0.21850574756699681 0 -0.034515520169534741 -0.21006506736907901 0 -0.0130054587681524 -0.21850574756699681 0 -0.01919549639218358 -0.20235584484748539 0 -0.034515520169534741 -0.21006506736907901 0 -0.0130054587681524 -0.21850574756699681 0 -0.034515520169534741 -0.21006506736907901 0 -0.0035704735440470212 -0.20599808009561321 0 -0.0130054587681524 -0.21850574756699681 0 0.0085046026332297638 -0.2269464277649155 0 -0.0035704735440470212 -0.20599808009561321 0 -0.0130054587681524 -0.21850574756699681 0 -0.01919549639218358 -0.20235584484748539 0 -0.0035704735440470212 -0.20599808009561321 0 -0.0078193059117164058 -0.18911379703751391 0 -0.01919549639218358 -0.20235584484748539 0 -0.0078193059117164058 -0.18911379703751391 0 -0.01919549639218358 -0.20235584484748539 0 -0.024449054331624 -0.1876307571240319 0 -0.01919549639218358 -0.20235584484748539 0 -0.024449054331624 -0.1876307571240319 0 -0.033808667845940298 -0.19687811462253041 0 -0.01919549639218358 -0.20235584484748539 0 -0.033808667845940298 -0.19687811462253041 0 -0.034515520169534741 -0.21006506736907901 0 -0.033808667845940298 -0.19687811462253041 0 -0.056025581570915958 -0.2016243871711583 0 -0.034515520169534741 -0.21006506736907901 0 -0.037552837214181553 -0.18779496005028781 0 -0.033808667845940298 -0.19687811462253041 0 -0.056025581570915958 -0.2016243871711583 0 -0.042034986002049843 -0.1781467192606922 0 -0.037552837214181553 -0.18779496005028781 0 -0.056025581570915958 -0.2016243871711583 0 -0.024449054331624 -0.1876307571240319 0 -0.037552837214181553 -0.18779496005028781 0 -0.033808667845940298 -0.19687811462253041 0 -0.042034986002049843 -0.1781467192606922 0 -0.056025581570915958 -0.2016243871711583 0 -0.044196425065486031 -0.17905130437895639 0 -0.056025581570915958 -0.2016243871711583 0 -0.058087175916427723 -0.1893127153223941 0 -0.056025581570915958 -0.2016243871711583 0 -0.058087175916427723 -0.1893127153223941 0 -0.072733664491320321 -0.1950680328205244 0 -0.056025581570915958 -0.2016243871711583 0 -0.050826391656364281 -0.22000312133836361 0 -0.06946479402235016 -0.22417677712195419 0 -0.056025581570915958 -0.2016243871711583 0 -0.034515520169534741 -0.21006506736907901 0 -0.050826391656364281 -0.22000312133836361 0 -0.056025581570915958 -0.2016243871711583 0 -0.034515520169534741 -0.21006506736907901 0 -0.027403980776275441 -0.2293093675510898 0 -0.050826391656364281 -0.22000312133836361 0 -0.046097857651818772 -0.23652066132308841 0 -0.027403980776275441 -0.2293093675510898 0 -0.034515520169534741 -0.21006506736907901 0 -0.050826391656364281 -0.22000312133836361 0 -0.050826391656364281 -0.22000312133836361 0 -0.046097857651818772 -0.23652066132308841 0 -0.06946479402235016 -0.22417677712195419 0 -0.056742535117983689 -0.25263266827344388 0 -0.046097857651818772 -0.23652066132308841 0 -0.06946479402235016 -0.22417677712195419 0 -0.027403980776275441 -0.2293093675510898 0 -0.046097857651818772 -0.23652066132308841 0 -0.034125957531782769 -0.2471094194730768 0 -0.056742535117983689 -0.25263266827344388 0 -0.046097857651818772 -0.23652066132308841 0 -0.034125957531782769 -0.2471094194730768 0 -0.056742535117983689 -0.25263266827344388 0 -0.082904006473783876 -0.24672916707275031 0 -0.06946479402235016 -0.22417677712195419 0 -0.082904006473783876 -0.24672916707275031 0 -0.06946479402235016 -0.22417677712195419 0 -0.06946479402235016 -0.22417677712195419 0 -0.087060585703859009 -0.2092945724342534 0 -0.09565893476514839 -0.22796428232076399 0 -0.082904006473783876 -0.24672916707275031 0 -0.06946479402235016 -0.22417677712195419 0 -0.09565893476514839 -0.22796428232076399 0 -0.06946479402235016 -0.22417677712195419 0 -0.087060585703859009 -0.2092945724342534 0 -0.072733664491320321 -0.1950680328205244 0 -0.056025581570915958 -0.2016243871711583 0 -0.06946479402235016 -0.22417677712195419 0 -0.072733664491320321 -0.1950680328205244 0 -0.056025581570915958 -0.2016243871711583 0 -0.06946479402235016 -0.22417677712195419 0 -0.072733664491320321 -0.1950680328205244 0 -0.066162284157832346 -0.18300729206002159 0 -0.088128143250178786 -0.18696327974108651 0 -0.056025581570915958 -0.2016243871711583 0 -0.072733664491320321 -0.1950680328205244 0 -0.058087175916427723 -0.1893127153223941 0 -0.072733664491320321 -0.1950680328205244 0 -0.066162284157832346 -0.18300729206002159 0 -0.072733664491320321 -0.1950680328205244 0 -0.089441747411724309 -0.1885116784698892 0 -0.088128143250178786 -0.18696327974108651 0 -0.087060585703859009 -0.2092945724342534 0 -0.072733664491320321 -0.1950680328205244 0 -0.089441747411724309 -0.1885116784698892 0 -0.072733664491320321 -0.1950680328205244 0 -0.089441747411724309 -0.1885116784698892 0 -0.091733127280846274 -0.18761252693673719 0 -0.089441747411724309 -0.1885116784698892 0 -0.091733127280846274 -0.18761252693673719 0 -0.089441747411724309 -0.1885116784698892 0 -0.088128143250178786 -0.18696327974108651 0 -0.089441747411724309 -0.1885116784698892 0 -0.088128143250178786 -0.18696327974108651 0 -0.091733127280846274 -0.18761252693673719 0 -0.11916203867627639 -0.19255239453441109 0 -0.091733127280846274 -0.18761252693673719 0 -0.089441747411724309 -0.1885116784698892 0 -0.1075189711033252 -0.20982003832728749 0 -0.091733127280846274 -0.18761252693673719 0 -0.11916203867627639 -0.19255239453441109 0 -0.1075189711033252 -0.20982003832728749 0 -0.089441747411724309 -0.1885116784698892 0 -0.1075189711033252 -0.20982003832728749 0 -0.087060585703859009 -0.2092945724342534 0 -0.089441747411724309 -0.1885116784698892 0 -0.1075189711033252 -0.20982003832728749 0 -0.1075189711033252 -0.20982003832728749 0 -0.12559619479492659 -0.2311283981846855 0 -0.12584894308146549 -0.20788364706097739 0 -0.11916203867627639 -0.19255239453441109 0 -0.1075189711033252 -0.20982003832728749 0 -0.12584894308146549 -0.20788364706097739 0 -0.087060585703859009 -0.2092945724342534 0 -0.1075189711033252 -0.20982003832728749 0 -0.09565893476514839 -0.22796428232076399 0 -0.12393504992672739 -0.26419689580498451 0 -0.1049422681983621 -0.2489166415742726 0 -0.12559619479492659 -0.2311283981846855 0 -0.1075189711033252 -0.20982003832728749 0 -0.12559619479492659 -0.2311283981846855 0 -0.1075189711033252 -0.20982003832728749 0 -0.09565893476514839 -0.22796428232076399 0 -0.12559619479492659 -0.2311283981846855 0 -0.09565893476514839 -0.22796428232076399 0 -0.1049422681983621 -0.2489166415742726 0 -0.12559619479492659 -0.2311283981846855 0 -0.082904006473783876 -0.24672916707275031 0 -0.09565893476514839 -0.22796428232076399 0 -0.1049422681983621 -0.2489166415742726 0 -0.082700556263612585 -0.14347685853112049 0 -0.083284589442998075 -0.15896992331940629 0 -0.1058622743446917 -0.14884510645167801 0 -0.096099959927718803 -0.1176890780277375 0 -0.083827638756718448 -0.12816011309694941 0 -0.10045002387298289 -0.132311429751099 0 -0.082700556263612585 -0.14347685853112049 0 -0.083827638756718448 -0.12816011309694941 0 -0.10045002387298289 -0.132311429751099 0 -0.071018939724817057 -0.120327053616837 0 -0.083827638756718448 -0.12816011309694941 0 -0.063811070252210764 -0.1353050227873494 0 -0.082700556263612585 -0.14347685853112049 0 -0.083827638756718448 -0.12816011309694941 0 -0.063811070252210764 -0.1353050227873494 0 -0.071018939724817057 -0.120327053616837 0 -0.057207660493194049 -0.11996964599388819 0 -0.063811070252210764 -0.1353050227873494 0 -0.059743839374638057 -0.15350554465963301 0 -0.082700556263612585 -0.14347685853112049 0 -0.063811070252210764 -0.1353050227873494 0 -0.059743839374638057 -0.15350554465963301 0 -0.082700556263612585 -0.14347685853112049 0 -0.083284589442998075 -0.15896992331940629 0 -0.059743839374638057 -0.15350554465963301 0 -0.073935991312408633 -0.17023441220035959 0 -0.083284589442998075 -0.15896992331940629 0 -0.057149851212310573 -0.16928298314153109 0 -0.059743839374638057 -0.15350554465963301 0 -0.073935991312408633 -0.17023441220035959 0 -0.059743839374638057 -0.15350554465963301 0 -0.073935991312408633 -0.17023441220035959 0 -0.057149851212310573 -0.16928298314153109 0 -0.073935991312408633 -0.17023441220035959 0 -0.066162284157832346 -0.18300729206002159 0 -0.066162284157832346 -0.18300729206002159 0 -0.088128143250178786 -0.18696327974108651 0 -0.073935991312408633 -0.17023441220035959 0 -0.066162284157832346 -0.18300729206002159 0 -0.088128143250178786 -0.18696327974108651 0 -0.073935991312408633 -0.17023441220035959 0 -0.086993998535572256 -0.174302609487998 0 -0.088128143250178786 -0.18696327974108651 0 -0.073935991312408633 -0.17023441220035959 0 -0.088128143250178786 -0.18696327974108651 0 -0.091733127280846274 -0.18761252693673719 0 -0.086993998535572256 -0.174302609487998 0 -0.098671876024181426 -0.16818492306327401 0 -0.091733127280846274 -0.18761252693673719 0 -0.086993998535572256 -0.174302609487998 0 -0.088128143250178786 -0.18696327974108651 0 -0.091733127280846274 -0.18761252693673719 0 -0.088128143250178786 -0.18696327974108651 0 -0.073935991312408633 -0.17023441220035959 0 -0.086993998535572256 -0.174302609487998 0 -0.083284589442998075 -0.15896992331940629 0 -0.086993998535572256 -0.174302609487998 0 -0.083284589442998075 -0.15896992331940629 0 -0.098671876024181426 -0.16818492306327401 0 -0.098671876024181426 -0.16818492306327401 0 -0.1223166297638537 -0.16080024500201801 0 -0.1058622743446917 -0.14884510645167801 0 -0.083284589442998075 -0.15896992331940629 0 -0.098671876024181426 -0.16818492306327401 0 -0.1058622743446917 -0.14884510645167801 0 -0.091733127280846274 -0.18761252693673719 0 -0.11916203867627639 -0.19255239453441109 0 -0.1154797633787385 -0.17829420109198821 0 -0.091733127280846274 -0.18761252693673719 0 -0.1154797633787385 -0.17829420109198821 0 -0.091733127280846274 -0.18761252693673719 0 -0.098671876024181426 -0.16818492306327401 0 -0.1154797633787385 -0.17829420109198821 0 -0.11916203867627639 -0.19255239453441109 0 -0.1154797633787385 -0.17829420109198821 0 -0.12825897553727131 -0.18312646439891181 0 -0.098671876024181426 -0.16818492306327401 0 -0.1154797633787385 -0.17829420109198821 0 -0.1223166297638537 -0.16080024500201801 0 -0.1223166297638537 -0.16080024500201801 0 -0.1058622743446917 -0.14884510645167801 0 -0.1251984158892441 -0.13342063862331929 0 -0.082700556263612585 -0.14347685853112049 0 -0.1058622743446917 -0.14884510645167801 0 -0.10045002387298289 -0.132311429751099 0 -0.1058622743446917 -0.14884510645167801 0 -0.10045002387298289 -0.132311429751099 0 -0.1251984158892441 -0.13342063862331929 0 -0.1144874392660474 -0.115859426201677 0 -0.10045002387298289 -0.132311429751099 0 -0.1251984158892441 -0.13342063862331929 0 -0.1251984158892441 -0.13342063862331929 0 -0.15744945055263401 -0.13464914797933861 0 -0.13458899324498791 -0.117934631473347 0 -0.1251984158892441 -0.13342063862331929 0 -0.1409047400707856 -0.1502621056314157 0 -0.15744945055263401 -0.13464914797933861 0 -0.1409047400707856 -0.1502621056314157 0 -0.16297303557452289 -0.15965754940249011 0 -0.15744945055263401 -0.13464914797933861 0 -0.1223166297638537 -0.16080024500201801 0 -0.1251984158892441 -0.13342063862331929 0 -0.1409047400707856 -0.1502621056314157 0 -0.1223166297638537 -0.16080024500201801 0 -0.1409047400707856 -0.1502621056314157 0 -0.1392263994766306 -0.1689758752472392 0 -0.1154797633787385 -0.17829420109198821 0 -0.1223166297638537 -0.16080024500201801 0 -0.1392263994766306 -0.1689758752472392 0 -0.1154797633787385 -0.17829420109198821 0 -0.1392263994766306 -0.1689758752472392 0 -0.1392263994766306 -0.1689758752472392 0 -0.12825897553727131 -0.18312646439891181 0 -0.13916770061743949 -0.19268338672200869 0 -0.1154797633787385 -0.17829420109198821 0 -0.1392263994766306 -0.1689758752472392 0 -0.12825897553727131 -0.18312646439891181 0 -0.1392263994766306 -0.1689758752472392 0 -0.15671274616157069 -0.18103674687109891 0 -0.13916770061743949 -0.19268338672200869 0 -0.1392263994766306 -0.1689758752472392 0 -0.16297303557452289 -0.15965754940249011 0 -0.1392263994766306 -0.1689758752472392 0 -0.16297303557452289 -0.15965754940249011 0 -0.15671274616157069 -0.18103674687109891 0 -0.1409047400707856 -0.1502621056314157 0 -0.1392263994766306 -0.1689758752472392 0 -0.16297303557452289 -0.15965754940249011 0 -0.16297303557452289 -0.15965754940249011 0 -0.15671274616157069 -0.18103674687109891 0 -0.17738204316367359 -0.18310818911281351 0 -0.16297303557452289 -0.15965754940249011 0 -0.18671967167241521 -0.1503392235577411 0 -0.19416771728243309 -0.16904251947253349 0 -0.16297303557452289 -0.15965754940249011 0 -0.17738204316367359 -0.18310818911281351 0 -0.19416771728243309 -0.16904251947253349 0 -0.16297303557452289 -0.15965754940249011 0 -0.18671967167241521 -0.1503392235577411 0 -0.16297303557452289 -0.15965754940249011 0 -0.18671967167241521 -0.1503392235577411 0 -0.1745776718192355 -0.13430801479963561 0 -0.18671967167241521 -0.1503392235577411 0 -0.1745776718192355 -0.13430801479963561 0 -0.19297920335819799 -0.1269280416813495 0 -0.1745776718192355 -0.13430801479963561 0 -0.15744945055263401 -0.13464914797933861 0 -0.1629600328138279 -0.1176653687597812 0 -0.16297303557452289 -0.15965754940249011 0 -0.1745776718192355 -0.13430801479963561 0 -0.15744945055263401 -0.13464914797933861 0 -0.1436734184865279 -0.25243675804208338 0 -0.12393504992672739 -0.26419689580498451 0 -0.12559619479492659 -0.2311283981846855 0 -0.1436734184865279 -0.25243675804208338 0 -0.14607328836337971 -0.23208513109600559 0 -0.16511519523298709 -0.2405086628396228 0 -0.1436734184865279 -0.25243675804208338 0 -0.12559619479492659 -0.2311283981846855 0 -0.14607328836337971 -0.23208513109600559 0 -0.1436734184865279 -0.25243675804208338 0 -0.12559619479492659 -0.2311283981846855 0 -0.12559619479492659 -0.2311283981846855 0 -0.14607328836337971 -0.23208513109600559 0 -0.14183110649287281 -0.2124789154224537 0 -0.14607328836337971 -0.23208513109600559 0 -0.14183110649287281 -0.2124789154224537 0 -0.1579936764590644 -0.2206256099705132 0 -0.14183110649287281 -0.2124789154224537 0 -0.16481455197558659 -0.2007587338709432 0 -0.1579936764590644 -0.2206256099705132 0 -0.12559619479492659 -0.2311283981846855 0 -0.14183110649287281 -0.2124789154224537 0 -0.12584894308146549 -0.20788364706097739 0 -0.14183110649287281 -0.2124789154224537 0 -0.12584894308146549 -0.20788364706097739 0 -0.13916770061743949 -0.19268338672200869 0 -0.11916203867627639 -0.19255239453441109 0 -0.12825897553727131 -0.18312646439891181 0 -0.13916770061743949 -0.19268338672200869 0 -0.11916203867627639 -0.19255239453441109 0 -0.12584894308146549 -0.20788364706097739 0 -0.13916770061743949 -0.19268338672200869 0 -0.14183110649287281 -0.2124789154224537 0 -0.13916770061743949 -0.19268338672200869 0 -0.16481455197558659 -0.2007587338709432 0 -0.15671274616157069 -0.18103674687109891 0 -0.13916770061743949 -0.19268338672200869 0 -0.16481455197558659 -0.2007587338709432 0 -0.15671274616157069 -0.18103674687109891 0 -0.17738204316367359 -0.18310818911281351 0 -0.16481455197558659 -0.2007587338709432 0 -0.17738204316367359 -0.18310818911281351 0 -0.16481455197558659 -0.2007587338709432 0 -0.18724876588619829 -0.20053110819033129 0 -0.16481455197558659 -0.2007587338709432 0 -0.18724876588619829 -0.20053110819033129 0 -0.1768407948994917 -0.21464721387663299 0 -0.16481455197558659 -0.2007587338709432 0 -0.1768407948994917 -0.21464721387663299 0 -0.1579936764590644 -0.2206256099705132 0 -0.1768407948994917 -0.21464721387663299 0 -0.1579936764590644 -0.2206256099705132 0 -0.16511519523298709 -0.2405086628396228 0 -0.14607328836337971 -0.23208513109600559 0 -0.1579936764590644 -0.2206256099705132 0 -0.16511519523298709 -0.2405086628396228 0 -0.1768407948994917 -0.21464721387663299 0 -0.18631364265836289 -0.22857643690262511 0 -0.19852063733967371 -0.2166698272615632 0 -0.1768407948994917 -0.21464721387663299 0 -0.18631364265836289 -0.22857643690262511 0 -0.16511519523298709 -0.2405086628396228 0 -0.1903729499252837 -0.25787141933281083 0 -0.16511519523298709 -0.2405086628396228 0 -0.19030962795316231 -0.2416970870245759 0 -0.18631364265836289 -0.22857643690262511 0 -0.16511519523298709 -0.2405086628396228 0 -0.19030962795316231 -0.2416970870245759 0 -0.20610249295982691 -0.26405330116575509 0 -0.20408675364639919 -0.24363351439930539 0 -0.22257854236532851 -0.2409875018895089 0 -0.20408675364639919 -0.24363351439930539 0 -0.21160793446426959 -0.22779133297050441 0 -0.22257854236532851 -0.2409875018895089 0 -0.1903729499252837 -0.25787141933281083 0 -0.20408675364639919 -0.24363351439930539 0 -0.19030962795316231 -0.2416970870245759 0 -0.20408675364639919 -0.24363351439930539 0 -0.19030962795316231 -0.2416970870245759 0 -0.1987077441200179 -0.23080129230477461 0 -0.18631364265836289 -0.22857643690262511 0 -0.19030962795316231 -0.2416970870245759 0 -0.1987077441200179 -0.23080129230477461 0 -0.18631364265836289 -0.22857643690262511 0 -0.1987077441200179 -0.23080129230477461 0 -0.19852063733967371 -0.2166698272615632 0 -0.1987077441200179 -0.23080129230477461 0 -0.21160793446426959 -0.22779133297050441 0 -0.19852063733967371 -0.2166698272615632 0 -0.20408675364639919 -0.24363351439930539 0 -0.1987077441200179 -0.23080129230477461 0 -0.21160793446426959 -0.22779133297050441 0 -0.21160793446426959 -0.22779133297050441 0 -0.21694780651897169 -0.21385040106289249 0 -0.19852063733967371 -0.2166698272615632 0 -0.21160793446426959 -0.22779133297050441 0 -0.21694780651897169 -0.21385040106289249 0 -0.22620457210281519 -0.22569173892802549 0 -0.21694780651897169 -0.21385040106289249 0 -0.207339035887527 -0.2015897675795672 0 -0.22439225531786061 -0.20165955220016901 0 -0.21694780651897169 -0.21385040106289249 0 -0.19852063733967371 -0.2166698272615632 0 -0.207339035887527 -0.2015897675795672 0 -0.18724876588619829 -0.20053110819033129 0 -0.1768407948994917 -0.21464721387663299 0 -0.19852063733967371 -0.2166698272615632 0 -0.18724876588619829 -0.20053110819033129 0 -0.19852063733967371 -0.2166698272615632 0 -0.207339035887527 -0.2015897675795672 0 -0.17738204316367359 -0.18310818911281351 0 -0.18724876588619829 -0.20053110819033129 0 -0.19929842506548021 -0.1864510931397767 0 -0.18724876588619829 -0.20053110819033129 0 -0.207339035887527 -0.2015897675795672 0 -0.19929842506548021 -0.1864510931397767 0 -0.207339035887527 -0.2015897675795672 0 -0.21651243733653741 -0.1898900594941258 0 -0.19929842506548021 -0.1864510931397767 0 -0.207339035887527 -0.2015897675795672 0 -0.21651243733653741 -0.1898900594941258 0 -0.22439225531786061 -0.20165955220016901 0 -0.21651243733653741 -0.1898900594941258 0 -0.22439225531786061 -0.20165955220016901 0 -0.22987208765794839 -0.1919406798937271 0 -0.22439225531786061 -0.20165955220016901 0 -0.23347197483417559 -0.20051395577467371 0 -0.22987208765794839 -0.1919406798937271 0 -0.23981579162950609 -0.19471852175139251 0 -0.23712138456416201 -0.18722061605340121 0 -0.24503298418899461 -0.186793773735489 0 -0.22987208765794839 -0.1919406798937271 0 -0.23981579162950609 -0.19471852175139251 0 -0.23712138456416201 -0.18722061605340121 0 -0.23981579162950609 -0.19471852175139251 0 -0.24753191738440619 -0.19443554566681609 0 -0.24503298418899461 -0.186793773735489 0 -0.24753191738440619 -0.19443554566681609 0 -0.24503298418899461 -0.186793773735489 0 -0.2529427764534467 -0.1908632989754292 0 -0.24503298418899461 -0.186793773735489 0 -0.2529427764534467 -0.1908632989754292 0 -0.25142254655596152 -0.18495996258759331 0 -0.2495471363597194 -0.20059811288922211 0 -0.2444585493304092 -0.19914299254365381 0 -0.24455344408264709 -0.2048934436058221 0 -0.24753191738440619 -0.19443554566681609 0 -0.2495471363597194 -0.20059811288922211 0 -0.25179347817734438 -0.19493158440777561 0 -0.24753191738440619 -0.19443554566681609 0 -0.2495471363597194 -0.20059811288922211 0 -0.2444585493304092 -0.19914299254365381 0 -0.23981579162950609 -0.19471852175139251 0 -0.24753191738440619 -0.19443554566681609 0 -0.2444585493304092 -0.19914299254365381 0 -0.2444585493304092 -0.19914299254365381 0 -0.24048051885582461 -0.20373148768122529 0 -0.24455344408264709 -0.2048934436058221 0 -0.23347197483417559 -0.20051395577467371 0 -0.22987208765794839 -0.1919406798937271 0 -0.23981579162950609 -0.19471852175139251 0 -0.23347197483417559 -0.20051395577467371 0 -0.23981579162950609 -0.19471852175139251 0 -0.24048051885582461 -0.20373148768122529 0 -0.23981579162950609 -0.19471852175139251 0 -0.2444585493304092 -0.19914299254365381 0 -0.24048051885582461 -0.20373148768122529 0 -0.24083065723550509 -0.21061598594724321 0 -0.24048051885582461 -0.20373148768122529 0 -0.2327992207097381 -0.21051953734685419 0 -0.23347197483417559 -0.20051395577467371 0 -0.24048051885582461 -0.20373148768122529 0 -0.2327992207097381 -0.21051953734685419 0 -0.24083065723550509 -0.21061598594724321 0 -0.24048051885582461 -0.20373148768122529 0 -0.24455344408264709 -0.2048934436058221 0 -0.2495471363597194 -0.20059811288922211 0 -0.24455344408264709 -0.2048934436058221 0 -0.24740862258361859 -0.21068393127008361 0 -0.24083065723550509 -0.21061598594724321 0 -0.24455344408264709 -0.2048934436058221 0 -0.24740862258361859 -0.21068393127008361 0 -0.24740862258361859 -0.21068393127008361 0 -0.24383884011733231 -0.2164662064932879 0 -0.2506244883715199 -0.2168309411693751 0 -0.24083065723550509 -0.21061598594724321 0 -0.24740862258361859 -0.21068393127008361 0 -0.24383884011733231 -0.2164662064932879 0 -0.24083065723550509 -0.21061598594724321 0 -0.24383884011733231 -0.2164662064932879 0 -0.23774301495269759 -0.22019099811165541 0 -0.24083065723550509 -0.21061598594724321 0 -0.2327992207097381 -0.21051953734685419 0 -0.23774301495269759 -0.22019099811165541 0 -0.21694780651897169 -0.21385040106289249 0 -0.22439225531786061 -0.20165955220016901 0 -0.2327992207097381 -0.21051953734685419 0 -0.21694780651897169 -0.21385040106289249 0 -0.2327992207097381 -0.21051953734685419 0 -0.22620457210281519 -0.22569173892802549 0 -0.22439225531786061 -0.20165955220016901 0 -0.23347197483417559 -0.20051395577467371 0 -0.2327992207097381 -0.21051953734685419 0 -0.21160793446426959 -0.22779133297050441 0 -0.22620457210281519 -0.22569173892802549 0 -0.22257854236532851 -0.2409875018895089 0 -0.22620457210281519 -0.22569173892802549 0 -0.2363871543516308 -0.22962097900380851 0 -0.22257854236532851 -0.2409875018895089 0 -0.2327992207097381 -0.21051953734685419 0 -0.22620457210281519 -0.22569173892802549 0 -0.23774301495269759 -0.22019099811165541 0 -0.22620457210281519 -0.22569173892802549 0 -0.23774301495269759 -0.22019099811165541 0 -0.2363871543516308 -0.22962097900380851 0 -0.23774301495269759 -0.22019099811165541 0 -0.2451152803926063 -0.22661684673041829 0 -0.2363871543516308 -0.22962097900380851 0 -0.24383884011733231 -0.2164662064932879 0 -0.23774301495269759 -0.22019099811165541 0 -0.2451152803926063 -0.22661684673041829 0 -0.24383884011733231 -0.2164662064932879 0 -0.2451152803926063 -0.22661684673041829 0 -0.2506244883715199 -0.2168309411693751 0 -0.2451152803926063 -0.22661684673041829 0 -0.2363871543516308 -0.22962097900380851 0 -0.24121654698332121 -0.24048286932796609 0 -0.23162115875709 -0.25645812734052548 0 -0.24121654698332121 -0.24048286932796609 0 -0.2571398245543538 -0.24886295351529819 0 -0.24121654698332121 -0.24048286932796609 0 -0.2571398245543538 -0.24886295351529819 0 -0.25135391495941972 -0.23701316483011919 0 -0.2451152803926063 -0.22661684673041829 0 -0.24121654698332121 -0.24048286932796609 0 -0.25135391495941972 -0.23701316483011919 0 -0.2363871543516308 -0.22962097900380851 0 -0.24121654698332121 -0.24048286932796609 0 -0.22257854236532851 -0.2409875018895089 0 -0.23162115875709 -0.25645812734052548 0 -0.24121654698332121 -0.24048286932796609 0 -0.22257854236532851 -0.2409875018895089 0 -0.20743224418713679 -0.156050838499767 0 -0.22191987445922931 -0.15924942413627161 0 -0.2197379130071335 -0.14849288362361349 0 -0.21046630777030781 -0.141020897712993 0 -0.20743224418713679 -0.156050838499767 0 -0.2197379130071335 -0.14849288362361349 0 -0.21046630777030781 -0.141020897712993 0 -0.2197379130071335 -0.14849288362361349 0 -0.21046630777030781 -0.141020897712993 0 -0.2230375261763447 -0.1198925235234411 0 -0.20625585840545421 -0.1166893501323998 0 -0.21046630777030781 -0.141020897712993 0 -0.19297920335819799 -0.1269280416813495 0 -0.20625585840545421 -0.1166893501323998 0 -0.18671967167241521 -0.1503392235577411 0 -0.21046630777030781 -0.141020897712993 0 -0.19297920335819799 -0.1269280416813495 0 -0.21046630777030781 -0.141020897712993 0 -0.19297920335819799 -0.1269280416813495 0 -0.18671967167241521 -0.1503392235577411 0 -0.21046630777030781 -0.141020897712993 0 -0.18671967167241521 -0.1503392235577411 0 -0.21046630777030781 -0.141020897712993 0 -0.20743224418713679 -0.156050838499767 0 -0.18671967167241521 -0.1503392235577411 0 -0.20743224418713679 -0.156050838499767 0 -0.19416771728243309 -0.16904251947253349 0 -0.19416771728243309 -0.16904251947253349 0 -0.19929842506548021 -0.1864510931397767 0 -0.2092183774200107 -0.17882046467525231 0 -0.17738204316367359 -0.18310818911281351 0 -0.19416771728243309 -0.16904251947253349 0 -0.19929842506548021 -0.1864510931397767 0 -0.21651243733653741 -0.1898900594941258 0 -0.19929842506548021 -0.1864510931397767 0 -0.2092183774200107 -0.17882046467525231 0 -0.19416771728243309 -0.16904251947253349 0 -0.2092183774200107 -0.17882046467525231 0 -0.21445002895374859 -0.1685961532158208 0 -0.2092183774200107 -0.17882046467525231 0 -0.21445002895374859 -0.1685961532158208 0 -0.2216632784618538 -0.1801224980540046 0 -0.21651243733653741 -0.1898900594941258 0 -0.2092183774200107 -0.17882046467525231 0 -0.2216632784618538 -0.1801224980540046 0 -0.20743224418713679 -0.156050838499767 0 -0.19416771728243309 -0.16904251947253349 0 -0.21445002895374859 -0.1685961532158208 0 -0.20743224418713679 -0.156050838499767 0 -0.21445002895374859 -0.1685961532158208 0 -0.22191987445922931 -0.15924942413627161 0 -0.21445002895374859 -0.1685961532158208 0 -0.22191987445922931 -0.15924942413627161 0 -0.2263488564812173 -0.17072045129398619 0 -0.2263488564812173 -0.17072045129398619 0 -0.23228957565271049 -0.16219004145787519 0 -0.2395928220033699 -0.17145071785510499 0 -0.22191987445922931 -0.15924942413627161 0 -0.2263488564812173 -0.17072045129398619 0 -0.23228957565271049 -0.16219004145787519 0 -0.22191987445922931 -0.15924942413627161 0 -0.23228957565271049 -0.16219004145787519 0 -0.23393306873806211 -0.14879437101800039 0 -0.21651243733653741 -0.1898900594941258 0 -0.22987208765794839 -0.1919406798937271 0 -0.2216632784618538 -0.1801224980540046 0 -0.21445002895374859 -0.1685961532158208 0 -0.2263488564812173 -0.17072045129398619 0 -0.2216632784618538 -0.1801224980540046 0 -0.2263488564812173 -0.17072045129398619 0 -0.2216632784618538 -0.1801224980540046 0 -0.23187768798161609 -0.1804930550470428 0 -0.2263488564812173 -0.17072045129398619 0 -0.23187768798161609 -0.1804930550470428 0 -0.2395928220033699 -0.17145071785510499 0 -0.22987208765794839 -0.1919406798937271 0 -0.2216632784618538 -0.1801224980540046 0 -0.23187768798161609 -0.1804930550470428 0 -0.22987208765794839 -0.1919406798937271 0 -0.23187768798161609 -0.1804930550470428 0 -0.23712138456416201 -0.18722061605340121 0 -0.23187768798161609 -0.1804930550470428 0 -0.2405794391503599 -0.18086582785201691 0 -0.23712138456416201 -0.18722061605340121 0 -0.2405794391503599 -0.18086582785201691 0 -0.23712138456416201 -0.18722061605340121 0 -0.24503298418899461 -0.186793773735489 0 -0.23187768798161609 -0.1804930550470428 0 -0.2405794391503599 -0.18086582785201691 0 -0.2395928220033699 -0.17145071785510499 0 -0.2492723170136571 -0.17837097656904671 0 -0.2395928220033699 -0.17145071785510499 0 -0.24971038057011469 -0.1676248478813743 0 -0.2405794391503599 -0.18086582785201691 0 -0.2492723170136571 -0.17837097656904671 0 -0.2395928220033699 -0.17145071785510499 0 -0.2405794391503599 -0.18086582785201691 0 -0.2492723170136571 -0.17837097656904671 0 -0.24503298418899461 -0.186793773735489 0 -0.2492723170136571 -0.17837097656904671 0 -0.24503298418899461 -0.186793773735489 0 -0.25142254655596152 -0.18495996258759331 0 -0.23228957565271049 -0.16219004145787519 0 -0.2424967463168162 -0.1600662352660101 0 -0.23393306873806211 -0.14879437101800039 0 -0.23228957565271049 -0.16219004145787519 0 -0.2395928220033699 -0.17145071785510499 0 -0.2424967463168162 -0.1600662352660101 0 -0.2395928220033699 -0.17145071785510499 0 -0.24971038057011469 -0.1676248478813743 0 -0.2424967463168162 -0.1600662352660101 0 -0.24971038057011469 -0.1676248478813743 0 -0.2424967463168162 -0.1600662352660101 0 -0.25527395952780058 -0.15687885430353959 0 -0.2424967463168162 -0.1600662352660101 0 -0.24753924931579821 -0.14237860347554029 0 -0.25527395952780058 -0.15687885430353959 0 -0.2424967463168162 -0.1600662352660101 0 -0.24753924931579821 -0.14237860347554029 0 -0.23393306873806211 -0.14879437101800039 0 -0.24753924931579821 -0.14237860347554029 0 -0.23393306873806211 -0.14879437101800039 0 -0.23385848231018749 -0.13184166476053219 0 -0.23393306873806211 -0.14879437101800039 0 -0.2197379130071335 -0.14849288362361349 0 -0.23385848231018749 -0.13184166476053219 0 -0.22191987445922931 -0.15924942413627161 0 -0.23393306873806211 -0.14879437101800039 0 -0.2197379130071335 -0.14849288362361349 0 -0.21046630777030781 -0.141020897712993 0 -0.23385848231018749 -0.13184166476053219 0 -0.21046630777030781 -0.141020897712993 0 -0.2197379130071335 -0.14849288362361349 0 -0.23385848231018749 -0.13184166476053219 0 -0.21046630777030781 -0.141020897712993 0 -0.23385848231018749 -0.13184166476053219 0 -0.2230375261763447 -0.1198925235234411 0 -0.23385848231018749 -0.13184166476053219 0 -0.25725065685006759 -0.12266243180807231 0 -0.24753924931579821 -0.14237860347554029 0 -0.23385848231018749 -0.13184166476053219 0 -0.25725065685006759 -0.12266243180807231 0 -0.23385848231018749 -0.13184166476053219 0 -0.24197438912264771 -0.11294296380325181 0 -0.25725065685006759 -0.12266243180807231 0 -0.24197438912264771 -0.11294296380325181 0 -0.2497301343539281 -0.096582009372534555 0 -0.25725065685006759 -0.12266243180807231 0 -0.2497301343539281 -0.096582009372534555 0 -0.23462394587823879 -0.1022657173996019 0 -0.22997976813240351 -0.094765045552900398 0 -0.24197438912264771 -0.11294296380325181 0 -0.2497301343539281 -0.096582009372534555 0 -0.23462394587823879 -0.1022657173996019 0 -0.24197438912264771 -0.11294296380325181 0 -0.23462394587823879 -0.1022657173996019 0 -0.22951330878290169 -0.10893447076438451 0 -0.23462394587823879 -0.1022657173996019 0 -0.22951330878290169 -0.10893447076438451 0 -0.2251472579336255 -0.1003099066018143 0 -0.23462394587823879 -0.1022657173996019 0 -0.22997976813240351 -0.094765045552900398 0 -0.2251472579336255 -0.1003099066018143 0 -0.22997976813240351 -0.094765045552900398 0 -0.2251472579336255 -0.1003099066018143 0 -0.21805368931213001 -0.090067399187969494 0 -0.2251472579336255 -0.1003099066018143 0 -0.21805368931213001 -0.090067399187969494 0 -0.21834288278731001 -0.105070218690214 0 -0.22951330878290169 -0.10893447076438451 0 -0.2251472579336255 -0.1003099066018143 0 -0.21834288278731001 -0.105070218690214 0 -0.23385848231018749 -0.13184166476053219 0 -0.24197438912264771 -0.11294296380325181 0 -0.2230375261763447 -0.1198925235234411 0 -0.24197438912264771 -0.11294296380325181 0 -0.22951330878290169 -0.10893447076438451 0 -0.2230375261763447 -0.1198925235234411 0 -0.22951330878290169 -0.10893447076438451 0 -0.2230375261763447 -0.1198925235234411 0 -0.21834288278731001 -0.105070218690214 0 -0.24038085753749991 -0.070787618535356173 0 -0.22730051817498501 -0.065534472237837316 0 -0.2474667766504991 -0.059126340270049878 0 -0.24038085753749991 -0.070787618535356173 0 -0.2474667766504991 -0.059126340270049878 0 -0.25380595958694108 -0.07402863969783903 0 -0.24038085753749991 -0.070787618535356173 0 -0.24156346602233081 -0.080476609754917272 0 -0.25380595958694108 -0.07402863969783903 0 -0.24038085753749991 -0.070787618535356173 0 -0.24156346602233081 -0.080476609754917272 0 -0.23234389198589889 -0.075066772153145417 0 -0.2497301343539281 -0.096582009372534555 0 -0.2223438131840953 -0.08460019520258176 0 -0.2497301343539281 -0.096582009372534555 0 -0.24156346602233081 -0.080476609754917272 0 -0.25186294833683209 -0.08476366335919984 0 -0.2497301343539281 -0.096582009372534555 0 -0.24156346602233081 -0.080476609754917272 0 -0.2223438131840953 -0.08460019520258176 0 -0.24156346602233081 -0.080476609754917272 0 -0.25380595958694108 -0.07402863969783903 0 -0.25186294833683209 -0.08476366335919984 0 -0.2497301343539281 -0.096582009372534555 0 -0.22997976813240351 -0.094765045552900398 0 -0.2223438131840953 -0.08460019520258176 0 -0.24156346602233081 -0.080476609754917272 0 -0.2223438131840953 -0.08460019520258176 0 -0.23234389198589889 -0.075066772153145417 0 -0.2223438131840953 -0.08460019520258176 0 -0.22730051817498501 -0.065534472237837316 0 -0.21805368931213001 -0.090067399187969494 0 -0.22997976813240351 -0.094765045552900398 0 -0.2223438131840953 -0.08460019520258176 0 -0.21805368931213001 -0.090067399187969494 0 -0.2223438131840953 -0.08460019520258176 0 -0.23234389198589889 -0.075066772153145417 0 -0.22730051817498501 -0.065534472237837316 0 -0.22730051817498501 -0.065534472237837316 0 -0.21805368931213001 -0.090067399187969494 0 -0.22730051817498501 -0.065534472237837316 0 -0.21761384846723 -0.067249274395693573 0 -0.21805368931213001 -0.090067399187969494 0 -0.24038085753749991 -0.070787618535356173 0 -0.23234389198589889 -0.075066772153145417 0 -0.22730051817498501 -0.065534472237837316 0 -0.20353379933699769 -0.067683772463765363 0 -0.21761384846723 -0.067249274395693573 0 -0.20425013601040279 -0.053627828914506057 0 -0.20353379933699769 -0.067683772463765363 0 -0.21761384846723 -0.067249274395693573 0 -0.21061288072265269 -0.075662484907223104 0 -0.21761384846723 -0.067249274395693573 0 -0.21061288072265269 -0.075662484907223104 0 -0.21552390922039591 -0.082777567621335119 0 -0.20353379933699769 -0.067683772463765363 0 -0.21061288072265269 -0.075662484907223104 0 -0.2037154785769546 -0.078372180418805143 0 -0.21761384846723 -0.067249274395693573 0 -0.21805368931213001 -0.090067399187969494 0 -0.21761384846723 -0.067249274395693573 0 -0.21552390922039591 -0.082777567621335119 0 -0.21805368931213001 -0.090067399187969494 0 -0.2037154785769546 -0.078372180418805143 0 -0.20365302327738569 -0.085677980811702498 0 -0.20955216646391239 -0.082639190556750147 0 -0.20955216646391239 -0.082639190556750147 0 -0.21252133439255541 -0.085580876201805975 0 -0.209248588785864 -0.088142226147826214 0 -0.20365302327738569 -0.085677980811702498 0 -0.20955216646391239 -0.082639190556750147 0 -0.209248588785864 -0.088142226147826214 0 -0.21061288072265269 -0.075662484907223104 0 -0.2037154785769546 -0.078372180418805143 0 -0.20955216646391239 -0.082639190556750147 0 -0.21061288072265269 -0.075662484907223104 0 -0.20955216646391239 -0.082639190556750147 0 -0.21552390922039591 -0.082777567621335119 0 -0.21552390922039591 -0.082777567621335119 0 -0.21252133439255541 -0.085580876201805975 0 -0.21506955589736851 -0.087636929243869816 0 -0.20955216646391239 -0.082639190556750147 0 -0.21552390922039591 -0.082777567621335119 0 -0.21252133439255541 -0.085580876201805975 0 -0.21252133439255541 -0.085580876201805975 0 -0.2131885212375636 -0.089383627123223564 0 -0.209248588785864 -0.088142226147826214 0 -0.2131885212375636 -0.089383627123223564 0 -0.21054878591847129 -0.091959068146222955 0 -0.209248588785864 -0.088142226147826214 0 -0.2131885212375636 -0.089383627123223564 0 -0.21506955589736851 -0.087636929243869816 0 -0.21543370613755169 -0.090345197928328097 0 -0.21252133439255541 -0.085580876201805975 0 -0.2131885212375636 -0.089383627123223564 0 -0.21506955589736851 -0.087636929243869816 0 -0.21552390922039591 -0.082777567621335119 0 -0.21506955589736851 -0.087636929243869816 0 -0.21805368931213001 -0.090067399187969494 0 -0.21506955589736851 -0.087636929243869816 0 -0.21805368931213001 -0.090067399187969494 0 -0.21543370613755169 -0.090345197928328097 0 -0.21715143872759191 -0.092461176342220508 0 -0.21805368931213001 -0.090067399187969494 0 -0.21715143872759191 -0.092461176342220508 0 -0.21805368931213001 -0.090067399187969494 0 -0.21543370613755169 -0.090345197928328097 0 -0.21715143872759191 -0.092461176342220508 0 -0.21543370613755169 -0.090345197928328097 0 -0.21370532551310481 -0.092176857744357146 0 -0.21370532551310481 -0.092176857744357146 0 -0.21054878591847129 -0.091959068146222955 0 -0.21158030066477179 -0.096398456657675435 0 -0.21715143872759191 -0.092461176342220508 0 -0.21370532551310481 -0.092176857744357146 0 -0.21158030066477179 -0.096398456657675435 0 -0.2131885212375636 -0.089383627123223564 0 -0.21543370613755169 -0.090345197928328097 0 -0.21370532551310481 -0.092176857744357146 0 -0.2131885212375636 -0.089383627123223564 0 -0.21370532551310481 -0.092176857744357146 0 -0.21054878591847129 -0.091959068146222955 0 -0.21054878591847129 -0.091959068146222955 0 -0.209248588785864 -0.088142226147826214 0 -0.20463368835721379 -0.092808562653257445 0 -0.21054878591847129 -0.091959068146222955 0 -0.20463368835721379 -0.092808562653257445 0 -0.21158030066477179 -0.096398456657675435 0 -0.20365302327738569 -0.085677980811702498 0 -0.209248588785864 -0.088142226147826214 0 -0.20463368835721379 -0.092808562653257445 0 -0.20365302327738569 -0.085677980811702498 0 -0.20463368835721379 -0.092808562653257445 0 -0.19674474862721739 -0.088348837670468749 0 -0.20463368835721379 -0.092808562653257445 0 -0.19674474862721739 -0.088348837670468749 0 -0.1911919382437679 -0.094507992178666927 0 -0.19674474862721739 -0.088348837670468749 0 -0.18856472280782899 -0.080319489014402348 0 -0.1911919382437679 -0.094507992178666927 0 -0.18856472280782899 -0.080319489014402348 0 -0.19771087763982381 -0.081690091611754556 0 -0.19763092824984091 -0.074839743845673448 0 -0.19674474862721739 -0.088348837670468749 0 -0.18856472280782899 -0.080319489014402348 0 -0.19771087763982381 -0.081690091611754556 0 -0.20365302327738569 -0.085677980811702498 0 -0.19674474862721739 -0.088348837670468749 0 -0.19771087763982381 -0.081690091611754556 0 -0.2037154785769546 -0.078372180418805143 0 -0.19771087763982381 -0.081690091611754556 0 -0.19763092824984091 -0.074839743845673448 0 -0.2037154785769546 -0.078372180418805143 0 -0.20365302327738569 -0.085677980811702498 0 -0.19771087763982381 -0.081690091611754556 0 -0.20353379933699769 -0.067683772463765363 0 -0.2037154785769546 -0.078372180418805143 0 -0.19763092824984091 -0.074839743845673448 0 -0.18856472280782899 -0.080319489014402348 0 -0.1925291653475783 -0.067169954297212703 0 -0.18183007996697609 -0.065948740664626457 0 -0.18856472280782899 -0.080319489014402348 0 -0.19763092824984091 -0.074839743845673448 0 -0.1925291653475783 -0.067169954297212703 0 -0.1925291653475783 -0.067169954297212703 0 -0.18183007996697609 -0.065948740664626457 0 -0.19483401871233039 -0.056816773008118243 0 -0.20353379933699769 -0.067683772463765363 0 -0.1925291653475783 -0.067169954297212703 0 -0.19483401871233039 -0.056816773008118243 0 -0.20353379933699769 -0.067683772463765363 0 -0.19763092824984091 -0.074839743845673448 0 -0.1925291653475783 -0.067169954297212703 0 -0.2230375261763447 -0.1198925235234411 0 -0.20625585840545421 -0.1166893501323998 0 -0.21834288278731001 -0.105070218690214 0 -0.21715143872759191 -0.092461176342220508 0 -0.21805368931213001 -0.090067399187969494 0 -0.21834288278731001 -0.105070218690214 0 -0.21834288278731001 -0.105070218690214 0 -0.21158030066477179 -0.096398456657675435 0 -0.20423561078410651 -0.102480116674492 0 -0.21715143872759191 -0.092461176342220508 0 -0.21834288278731001 -0.105070218690214 0 -0.21158030066477179 -0.096398456657675435 0 -0.21805368931213001 -0.090067399187969494 0 -0.21834288278731001 -0.105070218690214 0 -0.20463368835721379 -0.092808562653257445 0 -0.21158030066477179 -0.096398456657675435 0 -0.20423561078410651 -0.102480116674492 0 -0.20625585840545421 -0.1166893501323998 0 -0.21834288278731001 -0.105070218690214 0 -0.20423561078410651 -0.102480116674492 0 -0.20423561078410651 -0.102480116674492 0 -0.1911919382437679 -0.094507992178666927 0 -0.19342588162607979 -0.1092545533731826 0 -0.20463368835721379 -0.092808562653257445 0 -0.20423561078410651 -0.102480116674492 0 -0.1911919382437679 -0.094507992178666927 0 -0.1911919382437679 -0.094507992178666927 0 -0.19342588162607979 -0.1092545533731826 0 -0.18314982509830161 -0.1031338898643472 0 -0.19297920335819799 -0.1269280416813495 0 -0.20625585840545421 -0.1166893501323998 0 -0.19342588162607979 -0.1092545533731826 0 -0.20625585840545421 -0.1166893501323998 0 -0.20423561078410651 -0.102480116674492 0 -0.19342588162607979 -0.1092545533731826 0 -0.19297920335819799 -0.1269280416813495 0 -0.19342588162607979 -0.1092545533731826 0 -0.17549209894608861 -0.1128351856497057 0 -0.19297920335819799 -0.1269280416813495 0 -0.17549209894608861 -0.1128351856497057 0 -0.1745776718192355 -0.13430801479963561 0 -0.19297920335819799 -0.1269280416813495 0 -0.17549209894608861 -0.1128351856497057 0 -0.1745776718192355 -0.13430801479963561 0 -0.17549209894608861 -0.1128351856497057 0 -0.1629600328138279 -0.1176653687597812 0 -0.17549209894608861 -0.1128351856497057 0 -0.1629600328138279 -0.1176653687597812 0 -0.15800499453397929 -0.0987423296180618 0 -0.17549209894608861 -0.1128351856497057 0 -0.15800499453397929 -0.0987423296180618 0 -0.17549209894608861 -0.1128351856497057 0 -0.15800499453397929 -0.0987423296180618 0 -0.17472434890363639 -0.095810403476421654 0 -0.15800499453397929 -0.0987423296180618 0 -0.17472434890363639 -0.095810403476421654 0 -0.1650418966194441 -0.089408911413229541 0 -0.17549209894608861 -0.1128351856497057 0 -0.17472434890363639 -0.095810403476421654 0 -0.18314982509830161 -0.1031338898643472 0 -0.1911919382437679 -0.094507992178666927 0 -0.17472434890363639 -0.095810403476421654 0 -0.18314982509830161 -0.1031338898643472 0 -0.19342588162607979 -0.1092545533731826 0 -0.17549209894608861 -0.1128351856497057 0 -0.18314982509830161 -0.1031338898643472 0 -0.1911919382437679 -0.094507992178666927 0 -0.17472434890363639 -0.095810403476421654 0 -0.17719509731957311 -0.082754832427996292 0 -0.18856472280782899 -0.080319489014402348 0 -0.1911919382437679 -0.094507992178666927 0 -0.17719509731957311 -0.082754832427996292 0 -0.17472434890363639 -0.095810403476421654 0 -0.17719509731957311 -0.082754832427996292 0 -0.1650418966194441 -0.089408911413229541 0 -0.18856472280782899 -0.080319489014402348 0 -0.17719509731957311 -0.082754832427996292 0 -0.18183007996697609 -0.065948740664626457 0 -0.17719509731957311 -0.082754832427996292 0 -0.18183007996697609 -0.065948740664626457 0 -0.1687846388218911 -0.069527389472510609 0 -0.18183007996697609 -0.065948740664626457 0 -0.1687846388218911 -0.069527389472510609 0 -0.16742391071440091 -0.057566753744239883 0 -0.1687846388218911 -0.069527389472510609 0 -0.15189020482372109 -0.063816392483775269 0 -0.16742391071440091 -0.057566753744239883 0 -0.1687846388218911 -0.069527389472510609 0 -0.15189020482372109 -0.063816392483775269 0 -0.15610110622105869 -0.075229085405228061 0 -0.17719509731957311 -0.082754832427996292 0 -0.1687846388218911 -0.069527389472510609 0 -0.16610564611509129 -0.079474988734212604 0 -0.1687846388218911 -0.069527389472510609 0 -0.16610564611509129 -0.079474988734212604 0 -0.15610110622105869 -0.075229085405228061 0 -0.17719509731957311 -0.082754832427996292 0 -0.1650418966194441 -0.089408911413229541 0 -0.16610564611509129 -0.079474988734212604 0 -0.16610564611509129 -0.079474988734212604 0 -0.1539403776411942 -0.08629284957372077 0 -0.15610110622105869 -0.075229085405228061 0 -0.1650418966194441 -0.089408911413229541 0 -0.16610564611509129 -0.079474988734212604 0 -0.1539403776411942 -0.08629284957372077 0 -0.15800499453397929 -0.0987423296180618 0 -0.1650418966194441 -0.089408911413229541 0 -0.1539403776411942 -0.08629284957372077 0 -0.138014759077004 -0.079624915550195935 0 -0.14773210481481899 -0.1071370317647673 0 -0.1539403776411942 -0.08629284957372077 0 -0.138014759077004 -0.079624915550195935 0 -0.14773210481481899 -0.1071370317647673 0 -0.1539403776411942 -0.08629284957372077 0 -0.15610110622105869 -0.075229085405228061 0 -0.138014759077004 -0.079624915550195935 0 -0.15189020482372109 -0.063816392483775269 0 -0.15610110622105869 -0.075229085405228061 0 -0.138014759077004 -0.079624915550195935 0 -0.15189020482372109 -0.063816392483775269 0 -0.138014759077004 -0.079624915550195935 0 -0.1282974133391882 -0.052112799335624627 0 -0.138014759077004 -0.079624915550195935 0 -0.1282974133391882 -0.052112799335624627 0 -0.1175649288686981 -0.073971558899662129 0 -0.138014759077004 -0.079624915550195935 0 -0.1282974133391882 -0.052112799335624627 0 -0.1226224220115264 -0.08700842642779763 0 -0.138014759077004 -0.079624915550195935 0 -0.1280775557021952 -0.098606912797632701 0 -0.1226224220115264 -0.08700842642779763 0 -0.1175649288686981 -0.073971558899662129 0 -0.138014759077004 -0.079624915550195935 0 -0.1280775557021952 -0.098606912797632701 0 -0.13458899324498791 -0.117934631473347 0 -0.14773210481481899 -0.1071370317647673 0 -0.138014759077004 -0.079624915550195935 0 -0.1280775557021952 -0.098606912797632701 0 -0.14773210481481899 -0.1071370317647673 0 -0.1144874392660474 -0.115859426201677 0 -0.1280775557021952 -0.098606912797632701 0 -0.13458899324498791 -0.117934631473347 0 -0.15744945055263401 -0.13464914797933861 0 -0.13458899324498791 -0.117934631473347 0 -0.14773210481481899 -0.1071370317647673 0 -0.15744945055263401 -0.13464914797933861 0 -0.14773210481481899 -0.1071370317647673 0 -0.15744945055263401 -0.13464914797933861 0 -0.1629600328138279 -0.1176653687597812 0 -0.14773210481481899 -0.1071370317647673 0 -0.1629600328138279 -0.1176653687597812 0 -0.15800499453397929 -0.0987423296180618 0 -0.14773210481481899 -0.1071370317647673 0 -0.15800499453397929 -0.0987423296180618 0 -0.1539403776411942 -0.08629284957372077 0 -0.14773210481481899 -0.1071370317647673 0 -0.14751449574162259 -0.01297353154426302 0 -0.13851850953125749 -0.031295579915677732 0 -0.1513212454862439 -0.0262121212206292 0 -0.14751449574162259 -0.01297353154426302 0 -0.13851850953125749 -0.031295579915677732 0 -0.1513212454862439 -0.0262121212206292 0 -0.14751449574162259 -0.01297353154426302 0 -0.16303554130930059 -0.021308545111195881 0 -0.14889658068365019 -0.00069782564997776378 0 -0.14751449574162259 -0.01297353154426302 0 -0.16339151125689591 0.00023796401850834239 0 -0.14889658068365019 -0.00069782564997776378 0 -0.1389813292728462 -0.0041314115048315574 0 -0.14036526582836251 0.0043384128231400447 0 -0.14889658068365019 -0.00069782564997776378 0 -0.14751449574162259 -0.01297353154426302 0 -0.1389813292728462 -0.0041314115048315574 0 -0.1389813292728462 -0.0041314115048315574 0 -0.12840034748032511 -0.005234898154034457 0 -0.13149699074877291 -0.01913272122285389 0 -0.14751449574162259 -0.01297353154426302 0 -0.1389813292728462 -0.0041314115048315574 0 -0.13149699074877291 -0.01913272122285389 0 -0.1389813292728462 -0.0041314115048315574 0 -0.12840034748032511 -0.005234898154034457 0 -0.13332203699051789 0.0022690528673805161 0 -0.1163376948475926 -0.01594754173137258 0 -0.12840034748032511 -0.005234898154034457 0 -0.13149699074877291 -0.01913272122285389 0 -0.14751449574162259 -0.01297353154426302 0 -0.13149699074877291 -0.01913272122285389 0 -0.13851850953125749 -0.031295579915677732 0 -0.13149699074877291 -0.01913272122285389 0 -0.12918778278152199 -0.035605686489174337 0 -0.13851850953125749 -0.031295579915677732 0 -0.1215387755862448 -0.028740399220623589 0 -0.13149699074877291 -0.01913272122285389 0 -0.12918778278152199 -0.035605686489174337 0 -0.1215387755862448 -0.028740399220623589 0 -0.12918778278152199 -0.035605686489174337 0 -0.12590745863266811 -0.045346269317299882 0 -0.13851850953125749 -0.031295579915677732 0 -0.12952252332089351 -0.049617628287092999 0 -0.14774367506190161 -0.046123808762442778 0 -0.13851850953125749 -0.031295579915677732 0 -0.12952252332089351 -0.049617628287092999 0 -0.12918778278152199 -0.035605686489174337 0 -0.13851850953125749 -0.031295579915677732 0 -0.12952252332089351 -0.049617628287092999 0 -0.12918778278152199 -0.035605686489174337 0 -0.12590745863266811 -0.045346269317299882 0 -0.12952252332089351 -0.049617628287092999 0 -0.12590745863266811 -0.045346269317299882 0 -0.12680734529200741 -0.047894062410165812 0 -0.15189020482372109 -0.063816392483775269 0 -0.1282974133391882 -0.052112799335624627 0 -0.12952252332089351 -0.049617628287092999 0 -0.1282974133391882 -0.052112799335624627 0 -0.12952252332089351 -0.049617628287092999 0 -0.1282974133391882 -0.052112799335624627 0 -0.12680734529200741 -0.047894062410165812 0 -0.12952252332089351 -0.049617628287092999 0 -0.1282974133391882 -0.052112799335624627 0 -0.12680734529200741 -0.047894062410165812 0 -0.12590745863266811 -0.045346269317299882 0 -0.12680734529200741 -0.047894062410165812 0 -0.12952252332089351 -0.049617628287092999 0 -0.12680734529200741 -0.047894062410165812 0 -0.12952252332089351 -0.049617628287092999 0 -0.15189020482372109 -0.063816392483775269 0 -0.12952252332089351 -0.049617628287092999 0 -0.14774367506190161 -0.046123808762442778 0 -0.15189020482372109 -0.063816392483775269 0 -0.12952252332089351 -0.049617628287092999 0 -0.15189020482372109 -0.063816392483775269 0 -0.14774367506190161 -0.046123808762442778 0 -0.16742391071440091 -0.057566753744239883 0 -0.1513212454862439 -0.0262121212206292 0 -0.13851850953125749 -0.031295579915677732 0 -0.14774367506190161 -0.046123808762442778 0 -0.1513212454862439 -0.0262121212206292 0 -0.14774367506190161 -0.046123808762442778 0 -0.1614688065270504 -0.037936026315824843 0 -0.1614688065270504 -0.037936026315824843 0 -0.16742391071440091 -0.057566753744239883 0 -0.17781966006340491 -0.038468902740616463 0 -0.1614688065270504 -0.037936026315824843 0 -0.17781966006340491 -0.038468902740616463 0 -0.16303554130930059 -0.021308545111195881 0 -0.14774367506190161 -0.046123808762442778 0 -0.1614688065270504 -0.037936026315824843 0 -0.16742391071440091 -0.057566753744239883 0 -0.16742391071440091 -0.057566753744239883 0 -0.1825746693403793 -0.052586134894031217 0 -0.17781966006340491 -0.038468902740616463 0 -0.16742391071440091 -0.057566753744239883 0 -0.17781966006340491 -0.038468902740616463 0 -0.18183007996697609 -0.065948740664626457 0 -0.16742391071440091 -0.057566753744239883 0 -0.1825746693403793 -0.052586134894031217 0 -0.18183007996697609 -0.065948740664626457 0 -0.1825746693403793 -0.052586134894031217 0 -0.19483401871233039 -0.056816773008118243 0 -0.1825746693403793 -0.052586134894031217 0 -0.17781966006340491 -0.038468902740616463 0 -0.19170142109969529 -0.046113737342933593 0 -0.17781966006340491 -0.038468902740616463 0 -0.19170142109969529 -0.046113737342933593 0 -0.1901560944043694 -0.035634519871747893 0 -0.17781966006340491 -0.038468902740616463 0 -0.19064949569639769 -0.02402706982460413 0 -0.1901560944043694 -0.035634519871747893 0 -0.17781966006340491 -0.038468902740616463 0 -0.17524514516955669 -0.01563765474929182 0 -0.18821540941241019 -0.019371051736993841 0 -0.17781966006340491 -0.038468902740616463 0 -0.17524514516955669 -0.01563765474929182 0 -0.16303554130930059 -0.021308545111195881 0 -0.17781966006340491 -0.038468902740616463 0 -0.18821540941241019 -0.019371051736993841 0 -0.17781966006340491 -0.038468902740616463 0 -0.18821540941241019 -0.019371051736993841 0 -0.19064949569639769 -0.02402706982460413 0 -0.1513212454862439 -0.0262121212206292 0 -0.1614688065270504 -0.037936026315824843 0 -0.16303554130930059 -0.021308545111195881 0 -0.14751449574162259 -0.01297353154426302 0 -0.16303554130930059 -0.021308545111195881 0 -0.16339151125689591 0.00023796401850834239 0 -0.17524514516955669 -0.01563765474929182 0 -0.16303554130930059 -0.021308545111195881 0 -0.16339151125689591 0.00023796401850834239 0 -0.1792959876873628 -0.0023096233249810011 0 -0.18821540941241019 -0.019371051736993841 0 -0.17524514516955669 -0.01563765474929182 0 -0.1792959876873628 -0.0023096233249810011 0 -0.16339151125689591 0.00023796401850834239 0 -0.17524514516955669 -0.01563765474929182 0 -0.1792959876873628 -0.0023096233249810011 0 -0.18821540941241019 -0.019371051736993841 0 -0.1792959876873628 -0.0023096233249810011 0 -0.19812906014281079 -0.0011588557523601951 0 -0.18821540941241019 -0.019371051736993841 0 -0.19812906014281079 -0.0011588557523601951 0 -0.18821540941241019 -0.019371051736993841 0 -0.20067657139865 -0.016550210328404018 0 -0.19812906014281079 -0.0011588557523601951 0 -0.18821540941241019 -0.019371051736993841 0 -0.19812906014281079 -0.0011588557523601951 0 -0.20067657139865 -0.016550210328404018 0 -0.20795853106285461 -0.0095292477276929279 0 -0.18821540941241019 -0.019371051736993841 0 -0.19064949569639769 -0.02402706982460413 0 -0.20067657139865 -0.016550210328404018 0 -0.18821540941241019 -0.019371051736993841 0 -0.19064949569639769 -0.02402706982460413 0 -0.19064949569639769 -0.02402706982460413 0 -0.1901560944043694 -0.035634519871747893 0 -0.19593184569189839 -0.031608459145728053 0 -0.19064949569639769 -0.02402706982460413 0 -0.20234784459954161 -0.02722398225797848 0 -0.19593184569189839 -0.031608459145728053 0 -0.19064949569639769 -0.02402706982460413 0 -0.20234784459954161 -0.02722398225797848 0 -0.20067657139865 -0.016550210328404018 0 -0.20234784459954161 -0.02722398225797848 0 -0.21673416677742899 -0.021613024811141711 0 -0.2171740076223295 -0.044431149603417652 0 -0.20234784459954161 -0.02722398225797848 0 -0.20067657139865 -0.016550210328404018 0 -0.21673416677742899 -0.021613024811141711 0 -0.20067657139865 -0.016550210328404018 0 -0.21673416677742899 -0.021613024811141711 0 -0.20795853106285461 -0.0095292477276929279 0 -0.21673416677742899 -0.021613024811141711 0 -0.20795853106285461 -0.0095292477276929279 0 -0.21629432593252851 0.0012050999811342169 0 -0.19812906014281079 -0.0011588557523601951 0 -0.20795853106285461 -0.0095292477276929279 0 -0.21629432593252851 0.0012050999811342169 0 -0.21673416677742899 -0.021613024811141711 0 -0.21629432593252851 0.0012050999811342169 0 -0.20353379933699769 -0.067683772463765363 0 -0.19483401871233039 -0.056816773008118243 0 -0.20425013601040279 -0.053627828914506057 0 -0.1825746693403793 -0.052586134894031217 0 -0.19483401871233039 -0.056816773008118243 0 -0.19170142109969529 -0.046113737342933593 0 -0.19483401871233039 -0.056816773008118243 0 -0.19170142109969529 -0.046113737342933593 0 -0.20425013601040279 -0.053627828914506057 0 -0.20057394806728501 -0.039548264628581693 0 -0.19170142109969529 -0.046113737342933593 0 -0.20425013601040279 -0.053627828914506057 0 -0.20057394806728501 -0.039548264628581693 0 -0.19170142109969529 -0.046113737342933593 0 -0.1901560944043694 -0.035634519871747893 0 -0.20057394806728501 -0.039548264628581693 0 -0.1901560944043694 -0.035634519871747893 0 -0.19593184569189839 -0.031608459145728053 0 -0.20234784459954161 -0.02722398225797848 0 -0.20057394806728501 -0.039548264628581693 0 -0.19593184569189839 -0.031608459145728053 0 -0.21673416677742899 -0.021613024811141711 0 -0.2171740076223295 -0.044431149603417652 0 -0.20057394806728501 -0.039548264628581693 0 -0.2171740076223295 -0.044431149603417652 0 -0.20425013601040279 -0.053627828914506057 0 -0.20234784459954161 -0.02722398225797848 0 -0.20057394806728501 -0.039548264628581693 0 -0.2171740076223295 -0.044431149603417652 0 -0.21761384846723 -0.067249274395693573 0 -0.2171740076223295 -0.044431149603417652 0 -0.20425013601040279 -0.053627828914506057 0 -0.21761384846723 -0.067249274395693573 0 -0.2171740076223295 -0.044431149603417652 0 -0.22730051817498501 -0.065534472237837316 0 -0.21761384846723 -0.067249274395693573 0 -0.2171740076223295 -0.044431149603417652 0 -0.22730051817498501 -0.065534472237837316 0 -0.2171740076223295 -0.044431149603417652 0 -0.23654734703784061 -0.041001545287705388 0 -0.22730051817498501 -0.065534472237837316 0 -0.23654734703784061 -0.041001545287705388 0 -0.2171740076223295 -0.044431149603417652 0 -0.23654734703784061 -0.041001545287705388 0 -0.23054747934752451 -0.02625046820179934 0 -0.23654734703784061 -0.041001545287705388 0 -0.2457941759007054 -0.016468618337577109 0 -0.26457619451079489 -0.036659400565418637 0 -0.22730051817498501 -0.065534472237837316 0 -0.23654734703784061 -0.041001545287705388 0 -0.2474667766504991 -0.059126340270049878 0 -0.23654734703784061 -0.041001545287705388 0 -0.2474667766504991 -0.059126340270049878 0 -0.25788557548520402 -0.050879917898721663 0 -0.22762082387901419 -0.011689357483243739 0 -0.2457941759007054 -0.016468618337577109 0 -0.2268867057034871 0.0038570250960634038 0 -0.21673416677742899 -0.021613024811141711 0 -0.22762082387901419 -0.011689357483243739 0 -0.21629432593252851 0.0012050999811342169 0 -0.22762082387901419 -0.011689357483243739 0 -0.21629432593252851 0.0012050999811342169 0 -0.2268867057034871 0.0038570250960634038 0 -0.21673416677742899 -0.021613024811141711 0 -0.22762082387901419 -0.011689357483243739 0 -0.23054747934752451 -0.02625046820179934 0 -0.21673416677742899 -0.021613024811141711 0 -0.2171740076223295 -0.044431149603417652 0 -0.23054747934752451 -0.02625046820179934 0 -0.23654734703784061 -0.041001545287705388 0 -0.23054747934752451 -0.02625046820179934 0 -0.2457941759007054 -0.016468618337577109 0 -0.22762082387901419 -0.011689357483243739 0 -0.23054747934752451 -0.02625046820179934 0 -0.2457941759007054 -0.016468618337577109 0 -0.23654734703784061 -0.041001545287705388 0 -0.2457941759007054 -0.016468618337577109 0 -0.2457941759007054 -0.016468618337577109 0 -0.25270553952864971 0.0018680440496249011 0 -0.2457941759007054 -0.016468618337577109 0 -0.2268867057034871 0.0038570250960634038 0 -0.2418181857719659 0.004258266697818266 0 -0.2457941759007054 -0.016468618337577109 0 -0.2268867057034871 0.0038570250960634038 0 -0.2457941759007054 -0.016468618337577109 0 -0.25270553952864971 0.0018680440496249011 0 -0.2418181857719659 0.004258266697818266 0 -0.2457941759007054 -0.016468618337577109 0 -0.26140223826160858 -0.011880702005276869 0 -0.25270553952864971 0.0018680440496249011 0 -0.26140223826160858 -0.011880702005276869 0 -0.26146985654577359 -0.002285695634850132 0 -0.25270553952864971 0.0018680440496249011 0 -0.2457941759007054 -0.016468618337577109 0 -0.26140223826160858 -0.011880702005276869 0 -0.26457619451079489 -0.036659400565418637 0 -0.2457941759007054 -0.016468618337577109 0 -0.26457619451079489 -0.036659400565418637 0 -0.26140223826160858 -0.011880702005276869 0 -0.27621838431425599 -0.020899999645290861 0 -0.26457619451079489 -0.036659400565418637 0 -0.27621838431425599 -0.020899999645290861 0 -0.27537090364544309 -0.0035418187270138519 0 -0.28915279687590018 -0.01395121064287572 0 -0.26140223826160858 -0.011880702005276869 0 -0.27621838431425599 -0.020899999645290861 0 -0.27537090364544309 -0.0035418187270138519 0 -0.26140223826160858 -0.011880702005276869 0 -0.26146985654577359 -0.002285695634850132 0 -0.27537090364544309 -0.0035418187270138519 0 -0.28915279687590018 -0.01395121064287572 0 -0.28794938399896708 0.0065795007126566649 0 -0.28915279687590018 -0.01395121064287572 0 -0.28794938399896708 0.0065795007126566649 0 -0.30037835269216062 0.0037973958614791318 0 -0.27537090364544309 -0.0035418187270138519 0 -0.28915279687590018 -0.01395121064287572 0 -0.28794938399896708 0.0065795007126566649 0 -0.27537090364544309 -0.0035418187270138519 0 -0.28915279687590018 -0.01395121064287572 0 -0.28915279687590018 -0.01395121064287572 0 -0.31048085046759799 -0.0300601780340853 0 -0.29058978827753218 -0.038466866285869289 0 -0.27621838431425599 -0.020899999645290861 0 -0.28915279687590018 -0.01395121064287572 0 -0.29058978827753218 -0.038466866285869289 0 -0.28915279687590018 -0.01395121064287572 0 -0.29058978827753218 -0.038466866285869289 0 -0.28915279687590018 -0.01395121064287572 0 -0.31048085046759799 -0.0300601780340853 0 -0.30747974135746359 -0.0078658640106358257 0 -0.28915279687590018 -0.01395121064287572 0 -0.31048085046759799 -0.0300601780340853 0 -0.28915279687590018 -0.01395121064287572 0 -0.30747974135746359 -0.0078658640106358257 0 -0.30037835269216062 0.0037973958614791318 0 -0.29202677967917079 -0.062982521928862334 0 -0.3130568805635538 -0.055436143648882337 0 -0.3118080685396174 -0.051017437353372441 0 -0.29058978827753218 -0.038466866285869289 0 -0.29202677967917079 -0.062982521928862334 0 -0.3118080685396174 -0.051017437353372441 0 -0.29202677967917079 -0.062982521928862334 0 -0.3130568805635538 -0.055436143648882337 0 -0.31048085046759799 -0.0300601780340853 0 -0.3118080685396174 -0.051017437353372441 0 -0.29058978827753218 -0.038466866285869289 0 -0.29058978827753218 -0.038466866285869289 0 -0.29202677967917079 -0.062982521928862334 0 -0.29058978827753218 -0.038466866285869289 0 -0.28335821312086812 -0.056850182793275431 0 -0.29202677967917079 -0.062982521928862334 0 -0.28335821312086812 -0.056850182793275431 0 -0.29202677967917079 -0.062982521928862334 0 -0.28763287694905398 -0.064559216796340635 0 -0.28335821312086812 -0.056850182793275431 0 -0.28020435489811613 -0.063183682033345304 0 -0.28763287694905398 -0.064559216796340635 0 -0.28335821312086812 -0.056850182793275431 0 -0.27143201105597492 -0.05616418764636677 0 -0.26457619451079489 -0.036659400565418637 0 -0.27143201105597492 -0.05616418764636677 0 -0.27422012680490637 -0.067571824476374442 0 -0.28020435489811613 -0.063183682033345304 0 -0.28335821312086812 -0.056850182793275431 0 -0.27143201105597492 -0.05616418764636677 0 -0.28020435489811613 -0.063183682033345304 0 -0.27143201105597492 -0.05616418764636677 0 -0.26399522349861682 -0.063148913074689644 0 -0.27422012680490637 -0.067571824476374442 0 -0.28335821312086812 -0.056850182793275431 0 -0.26457619451079489 -0.036659400565418637 0 -0.27621838431425599 -0.020899999645290861 0 -0.29058978827753218 -0.038466866285869289 0 -0.26457619451079489 -0.036659400565418637 0 -0.29058978827753218 -0.038466866285869289 0 -0.28335821312086812 -0.056850182793275431 0 -0.26457619451079489 -0.036659400565418637 0 -0.23654734703784061 -0.041001545287705388 0 -0.26457619451079489 -0.036659400565418637 0 -0.25788557548520402 -0.050879917898721663 0 -0.2474667766504991 -0.059126340270049878 0 -0.25788557548520402 -0.050879917898721663 0 -0.26399522349861682 -0.063148913074689644 0 -0.27143201105597492 -0.05616418764636677 0 -0.26457619451079489 -0.036659400565418637 0 -0.25788557548520402 -0.050879917898721663 0 -0.27143201105597492 -0.05616418764636677 0 -0.25788557548520402 -0.050879917898721663 0 -0.26399522349861682 -0.063148913074689644 0 -0.2474667766504991 -0.059126340270049878 0 -0.26399522349861682 -0.063148913074689644 0 -0.25380595958694108 -0.07402863969783903 0 -0.26399522349861682 -0.063148913074689644 0 -0.25380595958694108 -0.07402863969783903 0 -0.26627339307333531 -0.074121258332831938 0 -0.25380595958694108 -0.07402863969783903 0 -0.25186294833683209 -0.08476366335919984 0 -0.26235223338412872 -0.087967394611508543 0 -0.2497301343539281 -0.096582009372534555 0 -0.25186294833683209 -0.08476366335919984 0 -0.26235223338412872 -0.087967394611508543 0 -0.25380595958694108 -0.07402863969783903 0 -0.26235223338412872 -0.087967394611508543 0 -0.26627339307333531 -0.074121258332831938 0 -0.26235223338412872 -0.087967394611508543 0 -0.27591061594666177 -0.098145362638924219 0 -0.28132622088415971 -0.09314842720515272 0 -0.26235223338412872 -0.087967394611508543 0 -0.27699342209208322 -0.077889519803748031 0 -0.26627339307333531 -0.074121258332831938 0 -0.26235223338412872 -0.087967394611508543 0 -0.27699342209208322 -0.077889519803748031 0 -0.28132622088415971 -0.09314842720515272 0 -0.27699342209208322 -0.077889519803748031 0 -0.27422012680490637 -0.067571824476374442 0 -0.28437854655977712 -0.070772998454369268 0 -0.27422012680490637 -0.067571824476374442 0 -0.28020435489811613 -0.063183682033345304 0 -0.28437854655977712 -0.070772998454369268 0 -0.26399522349861682 -0.063148913074689644 0 -0.27422012680490637 -0.067571824476374442 0 -0.26627339307333531 -0.074121258332831938 0 -0.27699342209208322 -0.077889519803748031 0 -0.27422012680490637 -0.067571824476374442 0 -0.26627339307333531 -0.074121258332831938 0 -0.2497301343539281 -0.096582009372534555 0 -0.26235223338412872 -0.087967394611508543 0 -0.27711645552376069 -0.108563823542488 0 -0.2497301343539281 -0.096582009372534555 0 -0.25725065685006759 -0.12266243180807231 0 -0.27711645552376069 -0.108563823542488 0 -0.2497301343539281 -0.096582009372534555 0 -0.27711645552376069 -0.108563823542488 0 -0.26235223338412872 -0.087967394611508543 0 -0.27711645552376069 -0.108563823542488 0 -0.26235223338412872 -0.087967394611508543 0 -0.27591061594666177 -0.098145362638924219 0 -0.27711645552376069 -0.108563823542488 0 -0.27591061594666177 -0.098145362638924219 0 -0.28284755399459782 -0.1029018051965483 0 -0.28132622088415971 -0.09314842720515272 0 -0.27591061594666177 -0.098145362638924219 0 -0.27711645552376069 -0.108563823542488 0 -0.28284755399459782 -0.1029018051965483 0 -0.25725065685006759 -0.12266243180807231 0 -0.28064283138995011 -0.11348319885561819 0 -0.27573781547337589 -0.13065457704028841 0 -0.25725065685006759 -0.12266243180807231 0 -0.27711645552376069 -0.108563823542488 0 -0.28064283138995011 -0.11348319885561819 0 -0.25725065685006759 -0.12266243180807231 0 -0.28064283138995011 -0.11348319885561819 0 -0.27711645552376069 -0.108563823542488 0 -0.28064283138995011 -0.11348319885561819 0 -0.27711645552376069 -0.108563823542488 0 -0.28064283138995011 -0.11348319885561819 0 -0.28471136742967462 -0.1118866803267088 0 -0.27711645552376069 -0.108563823542488 0 -0.28471136742967462 -0.1118866803267088 0 -0.28471136742967462 -0.1118866803267088 0 -0.29322181257468688 -0.1156100928872542 0 -0.30248182070965451 -0.1134263707739996 0 -0.28064283138995011 -0.11348319885561819 0 -0.27573781547337589 -0.13065457704028841 0 -0.2902883042583691 -0.12693885500613539 0 -0.29322181257468688 -0.1156100928872542 0 -0.30094107373446177 -0.12273389833400759 0 -0.2902883042583691 -0.12693885500613539 0 -0.28471136742967462 -0.1118866803267088 0 -0.29322181257468688 -0.1156100928872542 0 -0.2902883042583691 -0.12693885500613539 0 -0.28064283138995011 -0.11348319885561819 0 -0.2902883042583691 -0.12693885500613539 0 -0.28064283138995011 -0.11348319885561819 0 -0.28471136742967462 -0.1118866803267088 0 -0.2902883042583691 -0.12693885500613539 0 -0.28471136742967462 -0.1118866803267088 0 -0.29322181257468688 -0.1156100928872542 0 -0.28064283138995011 -0.11348319885561819 0 -0.28471136742967462 -0.1118866803267088 0 -0.27711645552376069 -0.108563823542488 0 -0.28471136742967462 -0.1118866803267088 0 -0.28284755399459782 -0.1029018051965483 0 -0.28471136742967462 -0.1118866803267088 0 -0.28284755399459782 -0.1029018051965483 0 -0.29417882332699552 -0.099697258662202984 0 -0.28284755399459782 -0.1029018051965483 0 -0.29417882332699552 -0.099697258662202984 0 -0.28132622088415971 -0.09314842720515272 0 -0.29417882332699552 -0.099697258662202984 0 -0.29354650325414439 -0.088909621975857875 0 -0.29417882332699552 -0.099697258662202984 0 -0.28132622088415971 -0.09314842720515272 0 -0.29354650325414439 -0.088909621975857875 0 -0.28471136742967462 -0.1118866803267088 0 -0.29417882332699552 -0.099697258662202984 0 -0.31198444482789661 -0.101184557258089 0 -0.29417882332699552 -0.099697258662202984 0 -0.31198444482789661 -0.101184557258089 0 -0.29354650325414439 -0.088909621975857875 0 -0.28471136742967462 -0.1118866803267088 0 -0.31198444482789661 -0.101184557258089 0 -0.30248182070965451 -0.1134263707739996 0 -0.28471136742967462 -0.1118866803267088 0 -0.31198444482789661 -0.101184557258089 0 -0.31198444482789661 -0.101184557258089 0 -0.29354650325414439 -0.088909621975857875 0 -0.31198444482789661 -0.101184557258089 0 -0.30248182070965451 -0.1134263707739996 0 -0.31600890302403239 -0.1188826986280779 0 -0.30248182070965451 -0.1134263707739996 0 -0.30094107373446177 -0.12273389833400759 0 -0.31600890302403239 -0.1188826986280779 0 -0.29322181257468688 -0.1156100928872542 0 -0.30248182070965451 -0.1134263707739996 0 -0.30094107373446177 -0.12273389833400759 0 -0.29202677967917079 -0.062982521928862334 0 -0.29354650325414439 -0.088909621975857875 0 -0.29202677967917079 -0.062982521928862334 0 -0.28437854655977712 -0.070772998454369268 0 -0.29354650325414439 -0.088909621975857875 0 -0.29202677967917079 -0.062982521928862334 0 -0.28763287694905398 -0.064559216796340635 0 -0.29202677967917079 -0.062982521928862334 0 -0.28763287694905398 -0.064559216796340635 0 -0.28437854655977712 -0.070772998454369268 0 -0.28020435489811613 -0.063183682033345304 0 -0.28763287694905398 -0.064559216796340635 0 -0.28437854655977712 -0.070772998454369268 0 -0.27699342209208322 -0.077889519803748031 0 -0.28437854655977712 -0.070772998454369268 0 -0.29354650325414439 -0.088909621975857875 0 -0.27699342209208322 -0.077889519803748031 0 -0.28132622088415971 -0.09314842720515272 0 -0.29354650325414439 -0.088909621975857875 0 -0.27699342209208322 -0.077889519803748031 0 -0.29354650325414439 -0.088909621975857875 0 -0.31198444482789661 -0.101184557258089 0 -0.29354650325414439 -0.088909621975857875 0 -0.30836113586481989 -0.087131653038003409 0 -0.29354650325414439 -0.088909621975857875 0 -0.30836113586481989 -0.087131653038003409 0 -0.30597355698856898 -0.069099114191657401 0 -0.30836113586481989 -0.087131653038003409 0 -0.30597355698856898 -0.069099114191657401 0 -0.3207991611851001 -0.081341999916716368 0 -0.31198444482789661 -0.101184557258089 0 -0.30836113586481989 -0.087131653038003409 0 -0.31680882338645422 -0.09114109515660157 0 -0.29202677967917079 -0.062982521928862334 0 -0.30597355698856898 -0.069099114191657401 0 -0.3130568805635538 -0.055436143648882337 0 -0.29202677967917079 -0.062982521928862334 0 -0.29354650325414439 -0.088909621975857875 0 -0.30597355698856898 -0.069099114191657401 0 -0.30597355698856898 -0.069099114191657401 0 -0.31718997231562363 -0.067832448740894849 0 -0.3130568805635538 -0.055436143648882337 0 -0.31718997231562363 -0.067832448740894849 0 -0.32783217039704299 -0.064518896693022493 0 -0.3130568805635538 -0.055436143648882337 0 -0.31718997231562363 -0.067832448740894849 0 -0.32783217039704299 -0.064518896693022493 0 -0.32349505468104139 -0.071195088143878052 0 -0.32349505468104139 -0.071195088143878052 0 -0.32785565494760133 -0.077181539574469438 0 -0.31969422325225039 -0.077902104930229699 0 -0.32783217039704299 -0.064518896693022493 0 -0.32349505468104139 -0.071195088143878052 0 -0.32785565494760133 -0.077181539574469438 0 -0.30597355698856898 -0.069099114191657401 0 -0.31969422325225039 -0.077902104930229699 0 -0.3207991611851001 -0.081341999916716368 0 -0.30597355698856898 -0.069099114191657401 0 -0.3207991611851001 -0.081341999916716368 0 -0.31718997231562363 -0.067832448740894849 0 -0.32349505468104139 -0.071195088143878052 0 -0.31969422325225039 -0.077902104930229699 0 -0.30597355698856898 -0.069099114191657401 0 -0.31718997231562363 -0.067832448740894849 0 -0.31969422325225039 -0.077902104930229699 0 -0.31969422325225039 -0.077902104930229699 0 -0.3207991611851001 -0.081341999916716368 0 -0.30836113586481989 -0.087131653038003409 0 -0.31680882338645422 -0.09114109515660157 0 -0.3207991611851001 -0.081341999916716368 0 -0.3207991611851001 -0.081341999916716368 0 -0.33424819665595351 -0.092448124307949048 0 -0.3254727036429923 -0.095891681660920519 0 -0.3207991611851001 -0.081341999916716368 0 -0.33424819665595351 -0.092448124307949048 0 -0.31680882338645422 -0.09114109515660157 0 -0.3207991611851001 -0.081341999916716368 0 -0.3254727036429923 -0.095891681660920519 0 -0.3207991611851001 -0.081341999916716368 0 -0.3254727036429923 -0.095891681660920519 0 -0.32785565494760133 -0.077181539574469438 0 -0.3207991611851001 -0.081341999916716368 0 -0.33424819665595351 -0.092448124307949048 0 -0.32785565494760133 -0.077181539574469438 0 -0.31969422325225039 -0.077902104930229699 0 -0.3207991611851001 -0.081341999916716368 0 -0.32785565494760133 -0.077181539574469438 0 -0.33424819665595351 -0.092448124307949048 0 -0.34106512351422091 -0.075683023455020162 0 -0.33424819665595351 -0.092448124307949048 0 -0.3507498292751382 -0.085972782323423189 0 -0.33424819665595351 -0.092448124307949048 0 -0.34106512351422091 -0.075683023455020162 0 -0.3507498292751382 -0.085972782323423189 0 -0.32783217039704299 -0.064518896693022493 0 -0.34106512351422091 -0.075683023455020162 0 -0.35127966217678219 -0.060875307253335412 0 -0.32783217039704299 -0.064518896693022493 0 -0.32785565494760133 -0.077181539574469438 0 -0.34106512351422091 -0.075683023455020162 0 -0.31198444482789661 -0.101184557258089 0 -0.31600890302403239 -0.1188826986280779 0 -0.33130430059155652 -0.1140466209658496 0 -0.32736367373516712 -0.1226232934073183 0 -0.31600890302403239 -0.1188826986280779 0 -0.33130430059155652 -0.1140466209658496 0 -0.32736367373516712 -0.1226232934073183 0 -0.31600890302403239 -0.1188826986280779 0 -0.32271031057816829 -0.1279356737293795 0 -0.31198444482789661 -0.101184557258089 0 -0.33130430059155652 -0.1140466209658496 0 -0.31198444482789661 -0.101184557258089 0 -0.3254727036429923 -0.095891681660920519 0 -0.33130430059155652 -0.1140466209658496 0 -0.31198444482789661 -0.101184557258089 0 -0.3254727036429923 -0.095891681660920519 0 -0.31198444482789661 -0.101184557258089 0 -0.31680882338645422 -0.09114109515660157 0 -0.3254727036429923 -0.095891681660920519 0 -0.3254727036429923 -0.095891681660920519 0 -0.33436791982747799 -0.102045250948886 0 -0.33130430059155652 -0.1140466209658496 0 -0.3254727036429923 -0.095891681660920519 0 -0.33130430059155652 -0.1140466209658496 0 -0.33436791982747799 -0.102045250948886 0 -0.33130430059155652 -0.1140466209658496 0 -0.34790071265247791 -0.1037222815692149 0 -0.33424819665595351 -0.092448124307949048 0 -0.3254727036429923 -0.095891681660920519 0 -0.33436791982747799 -0.102045250948886 0 -0.33424819665595351 -0.092448124307949048 0 -0.3254727036429923 -0.095891681660920519 0 -0.33424819665595351 -0.092448124307949048 0 -0.34790071265247791 -0.1037222815692149 0 -0.33424819665595351 -0.092448124307949048 0 -0.33436791982747799 -0.102045250948886 0 -0.34790071265247791 -0.1037222815692149 0 -0.33130430059155652 -0.1140466209658496 0 -0.34462381321009439 -0.1229139966829066 0 -0.34790071265247791 -0.1037222815692149 0 -0.33130430059155652 -0.1140466209658496 0 -0.34462381321009439 -0.1229139966829066 0 -0.33130430059155652 -0.1140466209658496 0 -0.34462381321009439 -0.1229139966829066 0 -0.33552020329836652 -0.127171577720014 0 -0.33130430059155652 -0.1140466209658496 0 -0.33552020329836652 -0.127171577720014 0 -0.32736367373516712 -0.1226232934073183 0 -0.33130430059155652 -0.1140466209658496 0 -0.33552020329836652 -0.127171577720014 0 -0.34462381321009439 -0.1229139966829066 0 -0.34790071265247791 -0.1037222815692149 0 -0.36155322864900352 -0.1149964388304794 0 -0.34462381321009439 -0.1229139966829066 0 -0.36155322864900352 -0.1149964388304794 0 -0.36181539951446567 -0.1252855841514445 0 -0.34462381321009439 -0.1229139966829066 0 -0.36155322864900352 -0.1149964388304794 0 -0.34790071265247791 -0.1037222815692149 0 -0.36522320375454959 -0.1000142605869364 0 -0.35943445090329262 -0.091649671330401278 0 -0.33424819665595351 -0.092448124307949048 0 -0.34790071265247791 -0.1037222815692149 0 -0.3507498292751382 -0.085972782323423189 0 -0.34790071265247791 -0.1037222815692149 0 -0.3507498292751382 -0.085972782323423189 0 -0.35943445090329262 -0.091649671330401278 0 -0.34790071265247791 -0.1037222815692149 0 -0.36522320375454959 -0.1000142605869364 0 -0.36155322864900352 -0.1149964388304794 0 -0.34790071265247791 -0.1037222815692149 0 -0.36155322864900352 -0.1149964388304794 0 -0.36522320375454959 -0.1000142605869364 0 -0.36155322864900352 -0.1149964388304794 0 -0.38050764282027327 -0.1061318285135173 0 -0.36522320375454959 -0.1000142605869364 0 -0.35943445090329262 -0.091649671330401278 0 -0.36718438875989451 -0.091462785181361819 0 -0.36522320375454959 -0.1000142605869364 0 -0.37469826202552892 -0.094037243041880561 0 -0.38050764282027327 -0.1061318285135173 0 -0.36522320375454959 -0.1000142605869364 0 -0.37469826202552892 -0.094037243041880561 0 -0.36718438875989451 -0.091462785181361819 0 -0.36155322864900352 -0.1149964388304794 0 -0.3745617993871731 -0.125738830363569 0 -0.38050764282027327 -0.1061318285135173 0 -0.36155322864900352 -0.1149964388304794 0 -0.38050764282027327 -0.1061318285135173 0 -0.36155322864900352 -0.1149964388304794 0 -0.3745617993871731 -0.125738830363569 0 -0.36155322864900352 -0.1149964388304794 0 -0.36181539951446567 -0.1252855841514445 0 -0.3745617993871731 -0.125738830363569 0 -0.3557636839532185 -0.075177880501690039 0 -0.36847234290562708 -0.073860849137771203 0 -0.35127966217678219 -0.060875307253335412 0 -0.34106512351422091 -0.075683023455020162 0 -0.3557636839532185 -0.075177880501690039 0 -0.35127966217678219 -0.060875307253335412 0 -0.34106512351422091 -0.075683023455020162 0 -0.3557636839532185 -0.075177880501690039 0 -0.3507498292751382 -0.085972782323423189 0 -0.3557636839532185 -0.075177880501690039 0 -0.3507498292751382 -0.085972782323423189 0 -0.36725146189432412 -0.079497440338900285 0 -0.3507498292751382 -0.085972782323423189 0 -0.36725146189432412 -0.079497440338900285 0 -0.3507498292751382 -0.085972782323423189 0 -0.36635917644295279 -0.083616964090638471 0 -0.35943445090329262 -0.091649671330401278 0 -0.3507498292751382 -0.085972782323423189 0 -0.36635917644295279 -0.083616964090638471 0 -0.36725146189432412 -0.079497440338900285 0 -0.36635917644295279 -0.083616964090638471 0 -0.36725146189432412 -0.079497440338900285 0 -0.36635917644295279 -0.083616964090638471 0 -0.35943445090329262 -0.091649671330401278 0 -0.36718438875989451 -0.091462785181361819 0 -0.36635917644295279 -0.083616964090638471 0 -0.36718438875989451 -0.091462785181361819 0 -0.37244558248213733 -0.085521750487185522 0 -0.37469826202552892 -0.094037243041880561 0 -0.36718438875989451 -0.091462785181361819 0 -0.37244558248213733 -0.085521750487185522 0 -0.36725146189432412 -0.079497440338900285 0 -0.37244558248213733 -0.085521750487185522 0 -0.37296611818290137 -0.077254974114704833 0 -0.36725146189432412 -0.079497440338900285 0 -0.37296611818290137 -0.077254974114704833 0 -0.36635917644295279 -0.083616964090638471 0 -0.36725146189432412 -0.079497440338900285 0 -0.37244558248213733 -0.085521750487185522 0 -0.36847234290562708 -0.073860849137771203 0 -0.37265336573020669 -0.054557807935055748 0 -0.35127966217678219 -0.060875307253335412 0 -0.37296611818290137 -0.077254974114704833 0 -0.36847234290562708 -0.073860849137771203 0 -0.37806365358151678 -0.065833995478495888 0 -0.36847234290562708 -0.073860849137771203 0 -0.37265336573020669 -0.054557807935055748 0 -0.37806365358151678 -0.065833995478495888 0 -0.36847234290562708 -0.073860849137771203 0 -0.37265336573020669 -0.054557807935055748 0 -0.36847234290562708 -0.073860849137771203 0 -0.35127966217678219 -0.060875307253335412 0 -0.37296611818290137 -0.077254974114704833 0 -0.36847234290562708 -0.073860849137771203 0 -0.36725146189432412 -0.079497440338900285 0 -0.37296611818290137 -0.077254974114704833 0 -0.36847234290562708 -0.073860849137771203 0 -0.36725146189432412 -0.079497440338900285 0 -0.36847234290562708 -0.073860849137771203 0 -0.3557636839532185 -0.075177880501690039 0 -0.36725146189432412 -0.079497440338900285 0 -0.36847234290562708 -0.073860849137771203 0 -0.35127966217678219 -0.060875307253335412 0 -0.35360760947448577 -0.040885041798574343 0 -0.33408698144793642 -0.047889765368900952 0 -0.37265336573020669 -0.054557807935055748 0 -0.35127966217678219 -0.060875307253335412 0 -0.35360760947448577 -0.040885041798574343 0 -0.35360760947448577 -0.040885041798574343 0 -0.33408698144793642 -0.047889765368900952 0 -0.35360760947448577 -0.040885041798574343 0 -0.35788671710584569 -0.020988016679811951 0 -0.37730790453491542 -0.033068627393213278 0 -0.37265336573020669 -0.054557807935055748 0 -0.37683438855478812 -0.035254766732340792 0 -0.35360760947448577 -0.040885041798574343 0 -0.37730790453491542 -0.033068627393213278 0 -0.37683438855478812 -0.035254766732340792 0 -0.35360760947448577 -0.040885041798574343 0 -0.37730790453491542 -0.033068627393213278 0 -0.37265336573020669 -0.054557807935055748 0 -0.35360760947448577 -0.040885041798574343 0 -0.37683438855478812 -0.035254766732340792 0 -0.35360760947448577 -0.040885041798574343 0 -0.37683438855478812 -0.035254766732340792 0 -0.37383326402734102 -0.023546661193598151 0 -0.35788671710584569 -0.020988016679811951 0 -0.37730790453491542 -0.033068627393213278 0 -0.37383326402734102 -0.023546661193598151 0 -0.36825440448363422 -0.01518062835465662 0 -0.35788671710584569 -0.020988016679811951 0 -0.35788671710584569 -0.020988016679811951 0 -0.37730790453491542 -0.033068627393213278 0 -0.37383326402734102 -0.023546661193598151 0 -0.36825440448363422 -0.01518062835465662 0 -0.37715033390166808 -0.013917427240439069 0 -0.37373735965882038 -0.003103147911992342 0 -0.37079217556654631 -0.0097120888318835107 0 -0.3640266042220624 -0.0066471518204460154 0 -0.36825440448363422 -0.01518062835465662 0 -0.37079217556654631 -0.0097120888318835107 0 -0.3640266042220624 -0.0066471518204460154 0 -0.37373735965882038 -0.003103147911992342 0 -0.37079217556654631 -0.0097120888318835107 0 -0.37715033390166808 -0.013917427240439069 0 -0.36825440448363422 -0.01518062835465662 0 -0.37079217556654631 -0.0097120888318835107 0 -0.37715033390166808 -0.013917427240439069 0 -0.36825440448363422 -0.01518062835465662 0 -0.3640266042220624 -0.0066471518204460154 0 -0.35788671710584569 -0.020988016679811951 0 -0.3640266042220624 -0.0066471518204460154 0 -0.34833997553489121 -0.0048979091093295964 0 -0.35788671710584569 -0.020988016679811951 0 -0.35360760947448577 -0.040885041798574343 0 -0.35788671710584569 -0.020988016679811951 0 -0.33807518618906579 -0.02473971449707427 0 -0.34833997553489121 -0.0048979091093295964 0 -0.35788671710584569 -0.020988016679811951 0 -0.33807518618906579 -0.02473971449707427 0 -0.34833997553489121 -0.0048979091093295964 0 -0.33807518618906579 -0.02473971449707427 0 -0.3263270604922775 -0.0054379959353509462 0 -0.34833997553489121 -0.0048979091093295964 0 -0.3263270604922775 -0.0054379959353509462 0 -0.34209020327304929 0.0072251783341636278 0 -0.30747974135746359 -0.0078658640106358257 0 -0.3263270604922775 -0.0054379959353509462 0 -0.31409655406502862 0.0042757496412910616 0 -0.31048085046759799 -0.0300601780340853 0 -0.30747974135746359 -0.0078658640106358257 0 -0.3263270604922775 -0.0054379959353509462 0 -0.31048085046759799 -0.0300601780340853 0 -0.33807518618906579 -0.02473971449707427 0 -0.3263270604922775 -0.0054379959353509462 0 -0.31048085046759799 -0.0300601780340853 0 -0.3118080685396174 -0.051017437353372441 0 -0.33180890405929631 -0.046169145425294149 0 -0.31048085046759799 -0.0300601780340853 0 -0.33807518618906579 -0.02473971449707427 0 -0.33180890405929631 -0.046169145425294149 0 -0.31048085046759799 -0.0300601780340853 0 -0.33180890405929631 -0.046169145425294149 0 -0.3118080685396174 -0.051017437353372441 0 -0.33180890405929631 -0.046169145425294149 0 -0.3130568805635538 -0.055436143648882337 0 -0.33408698144793642 -0.047889765368900952 0 -0.32783217039704299 -0.064518896693022493 0 -0.3130568805635538 -0.055436143648882337 0 -0.33408698144793642 -0.047889765368900952 0 -0.3130568805635538 -0.055436143648882337 0 -0.33408698144793642 -0.047889765368900952 0 -0.33180890405929631 -0.046169145425294149 0 -0.3118080685396174 -0.051017437353372441 0 -0.3130568805635538 -0.055436143648882337 0 -0.33180890405929631 -0.046169145425294149 0 -0.35127966217678219 -0.060875307253335412 0 -0.33408698144793642 -0.047889765368900952 0 -0.32783217039704299 -0.064518896693022493 0 -0.35127966217678219 -0.060875307253335412 0 -0.33408698144793642 -0.047889765368900952 0 -0.33408698144793642 -0.047889765368900952 0 -0.33180890405929631 -0.046169145425294149 0 -0.35360760947448577 -0.040885041798574343 0 -0.33180890405929631 -0.046169145425294149 0 -0.35360760947448577 -0.040885041798574343 0 -0.33408698144793642 -0.047889765368900952 0 -0.33180890405929631 -0.046169145425294149 0 -0.35360760947448577 -0.040885041798574343 0 -0.33807518618906579 -0.02473971449707427 0 -0.33180890405929631 -0.046169145425294149 0 -0.30977662691497149 -0.24278181837787119 0 -0.29506071713234272 -0.2297966571935901 0 -0.29042278834916863 -0.2389568754527211 0 -0.3028535983378392 -0.26274908253349039 0 -0.30977662691497149 -0.24278181837787119 0 -0.29042278834916863 -0.2389568754527211 0 -0.30977662691497149 -0.24278181837787119 0 -0.30441627084329997 -0.22556657484047921 0 -0.31758200663377167 -0.2217629408644585 0 -0.30977662691497149 -0.24278181837787119 0 -0.30441627084329997 -0.22556657484047921 0 -0.29506071713234272 -0.2297966571935901 0 -0.29506071713234272 -0.2297966571935901 0 -0.28446932559243998 -0.22625011357213209 0 -0.29042278834916863 -0.2389568754527211 0 -0.30441627084329997 -0.22556657484047921 0 -0.29506071713234272 -0.2297966571935901 0 -0.28949238571093178 -0.21166993149875349 0 -0.29506071713234272 -0.2297966571935901 0 -0.28446932559243998 -0.22625011357213209 0 -0.28949238571093178 -0.21166993149875349 0 -0.28446932559243998 -0.22625011357213209 0 -0.28302558469927308 -0.24115852063228821 0 -0.29042278834916863 -0.2389568754527211 0 -0.3028535983378392 -0.26274908253349039 0 -0.28302558469927308 -0.24115852063228821 0 -0.29042278834916863 -0.2389568754527211 0 -0.28302558469927308 -0.24115852063228821 0 -0.29042278834916863 -0.2389568754527211 0 -0.28302558469927308 -0.24115852063228821 0 -0.2571398245543538 -0.24886295351529819 0 -0.28302558469927308 -0.24115852063228821 0 -0.2571398245543538 -0.24886295351529819 0 -0.27194086700295478 -0.22908846218153869 0 -0.28302558469927308 -0.24115852063228821 0 -0.27194086700295478 -0.22908846218153869 0 -0.2571398245543538 -0.24886295351529819 0 -0.26027674786183053 -0.2319978520655547 0 -0.27194086700295478 -0.22908846218153869 0 -0.2571398245543538 -0.24886295351529819 0 -0.26027674786183053 -0.2319978520655547 0 -0.2571398245543538 -0.24886295351529819 0 -0.25135391495941972 -0.23701316483011919 0 -0.26027674786183053 -0.2319978520655547 0 -0.26027674786183053 -0.2319978520655547 0 -0.27194086700295478 -0.22908846218153869 0 -0.26341367116930592 -0.21513275061581091 0 -0.25476579435146129 -0.22485022015016881 0 -0.26027674786183053 -0.2319978520655547 0 -0.26341367116930592 -0.21513275061581091 0 -0.26027674786183053 -0.2319978520655547 0 -0.26341367116930592 -0.21513275061581091 0 -0.2451152803926063 -0.22661684673041829 0 -0.25476579435146129 -0.22485022015016881 0 -0.2506244883715199 -0.2168309411693751 0 -0.25476579435146129 -0.22485022015016881 0 -0.26341367116930592 -0.21513275061581091 0 -0.2506244883715199 -0.2168309411693751 0 -0.2451152803926063 -0.22661684673041829 0 -0.25135391495941972 -0.23701316483011919 0 -0.25476579435146129 -0.22485022015016881 0 -0.25135391495941972 -0.23701316483011919 0 -0.25476579435146129 -0.22485022015016881 0 -0.26027674786183053 -0.2319978520655547 0 -0.28446932559243998 -0.22625011357213209 0 -0.27194086700295478 -0.22908846218153869 0 -0.26341367116930592 -0.21513275061581091 0 -0.28446932559243998 -0.22625011357213209 0 -0.28302558469927308 -0.24115852063228821 0 -0.27194086700295478 -0.22908846218153869 0 -0.26341367116930592 -0.21513275061581091 0 -0.27264991363487551 -0.19893151142611509 0 -0.27697317796460053 -0.20293384074211651 0 -0.28446932559243998 -0.22625011357213209 0 -0.26341367116930592 -0.21513275061581091 0 -0.28949238571093178 -0.21166993149875349 0 -0.26341367116930592 -0.21513275061581091 0 -0.28949238571093178 -0.21166993149875349 0 -0.26341367116930592 -0.21513275061581091 0 -0.27697317796460053 -0.20293384074211651 0 -0.28949238571093178 -0.21166993149875349 0 -0.26341367116930592 -0.21513275061581091 0 -0.25609420950513129 -0.20997848455702639 0 -0.26015189505788289 -0.20189068387631071 0 -0.24740862258361859 -0.21068393127008361 0 -0.25609420950513129 -0.20997848455702639 0 -0.26015189505788289 -0.20189068387631071 0 -0.26341367116930592 -0.21513275061581091 0 -0.2506244883715199 -0.2168309411693751 0 -0.26341367116930592 -0.21513275061581091 0 -0.25609420950513129 -0.20997848455702639 0 -0.2506244883715199 -0.2168309411693751 0 -0.24740862258361859 -0.21068393127008361 0 -0.25609420950513129 -0.20997848455702639 0 -0.2506244883715199 -0.2168309411693751 0 -0.2495471363597194 -0.20059811288922211 0 -0.24740862258361859 -0.21068393127008361 0 -0.254815487911492 -0.19491904435648999 0 -0.26341367116930592 -0.21513275061581091 0 -0.26015189505788289 -0.20189068387631071 0 -0.26868154588888071 -0.18681097387411011 0 -0.24740862258361859 -0.21068393127008361 0 -0.26491700743134727 -0.1872541245656022 0 -0.24740862258361859 -0.21068393127008361 0 -0.26015189505788289 -0.20189068387631071 0 -0.26491700743134727 -0.1872541245656022 0 -0.24740862258361859 -0.21068393127008361 0 -0.254815487911492 -0.19491904435648999 0 -0.26491700743134727 -0.1872541245656022 0 -0.254815487911492 -0.19491904435648999 0 -0.25667607942272308 -0.18779840824727881 0 -0.2529427764534467 -0.1908632989754292 0 -0.25667607942272308 -0.18779840824727881 0 -0.2529427764534467 -0.1908632989754292 0 -0.25142254655596152 -0.18495996258759331 0 -0.24753191738440619 -0.19443554566681609 0 -0.2529427764534467 -0.1908632989754292 0 -0.25179347817734438 -0.19493158440777561 0 -0.254815487911492 -0.19491904435648999 0 -0.2529427764534467 -0.1908632989754292 0 -0.25179347817734438 -0.19493158440777561 0 -0.2495471363597194 -0.20059811288922211 0 -0.254815487911492 -0.19491904435648999 0 -0.25179347817734438 -0.19493158440777561 0 -0.26015189505788289 -0.20189068387631071 0 -0.26868154588888071 -0.18681097387411011 0 -0.26491700743134727 -0.1872541245656022 0 -0.254815487911492 -0.19491904435648999 0 -0.25667607942272308 -0.18779840824727881 0 -0.26491700743134727 -0.1872541245656022 0 -0.26341367116930592 -0.21513275061581091 0 -0.26868154588888071 -0.18681097387411011 0 -0.26341367116930592 -0.21513275061581091 0 -0.27264991363487551 -0.19893151142611509 0 -0.26868154588888071 -0.18681097387411011 0 -0.27264991363487551 -0.19893151142611509 0 -0.27697317796460053 -0.20293384074211651 0 -0.28153125951671493 -0.19084848047242289 0 -0.27264991363487551 -0.19893151142611509 0 -0.28153125951671493 -0.19084848047242289 0 -0.26868154588888071 -0.18681097387411011 0 -0.28153125951671493 -0.19084848047242289 0 -0.28949238571093178 -0.21166993149875349 0 -0.29715887794286672 -0.18769881969784849 0 -0.27697317796460053 -0.20293384074211651 0 -0.28153125951671493 -0.19084848047242289 0 -0.28949238571093178 -0.21166993149875349 0 -0.30441627084329997 -0.22556657484047921 0 -0.31557110025255808 -0.2082071123816969 0 -0.30441627084329997 -0.22556657484047921 0 -0.28949238571093178 -0.21166993149875349 0 -0.31557110025255808 -0.2082071123816969 0 -0.28949238571093178 -0.21166993149875349 0 -0.31557110025255808 -0.2082071123816969 0 -0.28949238571093178 -0.21166993149875349 0 -0.29715887794286672 -0.18769881969784849 0 -0.31557110025255808 -0.2082071123816969 0 -0.29715887794286672 -0.18769881969784849 0 -0.31264669694236707 -0.1829964666962324 0 -0.31557110025255808 -0.2082071123816969 0 -0.30128643295555257 -0.16864660927686459 0 -0.31740071646641732 -0.1675759722109085 0 -0.31264669694236707 -0.1829964666962324 0 -0.29715887794286672 -0.18769881969784849 0 -0.30128643295555257 -0.16864660927686459 0 -0.31264669694236707 -0.1829964666962324 0 -0.30128643295555257 -0.16864660927686459 0 -0.28242539227907598 -0.16382431786112081 0 -0.30706604140407301 -0.15034418360902679 0 -0.30128643295555257 -0.16864660927686459 0 -0.31066803189480208 -0.1601522285311637 0 -0.30706604140407301 -0.15034418360902679 0 -0.30128643295555257 -0.16864660927686459 0 -0.31066803189480208 -0.1601522285311637 0 -0.31740071646641732 -0.1675759722109085 0 -0.28153125951671493 -0.19084848047242289 0 -0.29715887794286672 -0.18769881969784849 0 -0.28242539227907598 -0.16382431786112081 0 -0.29715887794286672 -0.18769881969784849 0 -0.30128643295555257 -0.16864660927686459 0 -0.28242539227907598 -0.16382431786112081 0 -0.28242539227907598 -0.16382431786112081 0 -0.26491700743134727 -0.1872541245656022 0 -0.26191605798892992 -0.17135745541316991 0 -0.28242539227907598 -0.16382431786112081 0 -0.26868154588888071 -0.18681097387411011 0 -0.26491700743134727 -0.1872541245656022 0 -0.28153125951671493 -0.19084848047242289 0 -0.28242539227907598 -0.16382431786112081 0 -0.26868154588888071 -0.18681097387411011 0 -0.28242539227907598 -0.16382431786112081 0 -0.26491700743134727 -0.1872541245656022 0 -0.25667607942272308 -0.18779840824727881 0 -0.26491700743134727 -0.1872541245656022 0 -0.25723046390515381 -0.1821694603198705 0 -0.26491700743134727 -0.1872541245656022 0 -0.25723046390515381 -0.1821694603198705 0 -0.26191605798892992 -0.17135745541316991 0 -0.2492723170136571 -0.17837097656904671 0 -0.25723046390515381 -0.1821694603198705 0 -0.26191605798892992 -0.17135745541316991 0 -0.2492723170136571 -0.17837097656904671 0 -0.24971038057011469 -0.1676248478813743 0 -0.26191605798892992 -0.17135745541316991 0 -0.2492723170136571 -0.17837097656904671 0 -0.25142254655596152 -0.18495996258759331 0 -0.25723046390515381 -0.1821694603198705 0 -0.25667607942272308 -0.18779840824727881 0 -0.25142254655596152 -0.18495996258759331 0 -0.25723046390515381 -0.1821694603198705 0 -0.24971038057011469 -0.1676248478813743 0 -0.25527395952780058 -0.15687885430353959 0 -0.26191605798892992 -0.17135745541316991 0 -0.25527395952780058 -0.15687885430353959 0 -0.26191605798892992 -0.17135745541316991 0 -0.26860680818699989 -0.15574753988076659 0 -0.28242539227907598 -0.16382431786112081 0 -0.26191605798892992 -0.17135745541316991 0 -0.26860680818699989 -0.15574753988076659 0 -0.28050784822187702 -0.14413474908971199 0 -0.26860680818699989 -0.15574753988076659 0 -0.26291078291731612 -0.14254232273629089 0 -0.28242539227907598 -0.16382431786112081 0 -0.28050784822187702 -0.14413474908971199 0 -0.26860680818699989 -0.15574753988076659 0 -0.25527395952780058 -0.15687885430353959 0 -0.26860680818699989 -0.15574753988076659 0 -0.26291078291731612 -0.14254232273629089 0 -0.24753924931579821 -0.14237860347554029 0 -0.25527395952780058 -0.15687885430353959 0 -0.26291078291731612 -0.14254232273629089 0 -0.25725065685006759 -0.12266243180807231 0 -0.26291078291731612 -0.14254232273629089 0 -0.27573781547337589 -0.13065457704028841 0 -0.24753924931579821 -0.14237860347554029 0 -0.25725065685006759 -0.12266243180807231 0 -0.26291078291731612 -0.14254232273629089 0 -0.28050784822187702 -0.14413474908971199 0 -0.26291078291731612 -0.14254232273629089 0 -0.27573781547337589 -0.13065457704028841 0 -0.28050784822187702 -0.14413474908971199 0 -0.27573781547337589 -0.13065457704028841 0 -0.28661693627010698 -0.135530673073194 0 -0.28050784822187702 -0.14413474908971199 0 -0.28661693627010698 -0.135530673073194 0 -0.29993377712680569 -0.14039451115664001 0 -0.27573781547337589 -0.13065457704028841 0 -0.2902883042583691 -0.12693885500613539 0 -0.28661693627010698 -0.135530673073194 0 -0.2902883042583691 -0.12693885500613539 0 -0.28661693627010698 -0.135530673073194 0 -0.29993377712680569 -0.14039451115664001 0 -0.2902883042583691 -0.12693885500613539 0 -0.29993377712680569 -0.14039451115664001 0 -0.28242539227907598 -0.16382431786112081 0 -0.30706604140407301 -0.15034418360902679 0 -0.29993377712680569 -0.14039451115664001 0 -0.28242539227907598 -0.16382431786112081 0 -0.28050784822187702 -0.14413474908971199 0 -0.29993377712680569 -0.14039451115664001 0 -0.28242539227907598 -0.16382431786112081 0 -0.29993377712680569 -0.14039451115664001 0 -0.30706604140407301 -0.15034418360902679 0 -0.29993377712680569 -0.14039451115664001 0 -0.31066803189480208 -0.1601522285311637 0 -0.30706604140407301 -0.15034418360902679 0 -0.31691893675316563 -0.1540421490278549 0 -0.30706604140407301 -0.15034418360902679 0 -0.29993377712680569 -0.14039451115664001 0 -0.31410298387753399 -0.14330529857780061 0 -0.31600890302403239 -0.1188826986280779 0 -0.29993377712680569 -0.14039451115664001 0 -0.31585962648416283 -0.1335084282300722 0 -0.30094107373446177 -0.12273389833400759 0 -0.31600890302403239 -0.1188826986280779 0 -0.29993377712680569 -0.14039451115664001 0 -0.29993377712680569 -0.14039451115664001 0 -0.31585962648416283 -0.1335084282300722 0 -0.31410298387753399 -0.14330529857780061 0 -0.31600890302403239 -0.1188826986280779 0 -0.29993377712680569 -0.14039451115664001 0 -0.30094107373446177 -0.12273389833400759 0 -0.2902883042583691 -0.12693885500613539 0 -0.29993377712680569 -0.14039451115664001 0 -0.32405671437801348 -0.135882934282964 0 -0.3239370451097503 -0.14555449288104169 0 -0.33169889396099722 -0.13968130500686049 0 -0.32405671437801348 -0.135882934282964 0 -0.32271031057816829 -0.1279356737293795 0 -0.32999631529203283 -0.12975499254720019 0 -0.32405671437801348 -0.135882934282964 0 -0.32271031057816829 -0.1279356737293795 0 -0.31585962648416283 -0.1335084282300722 0 -0.32736367373516712 -0.1226232934073183 0 -0.32271031057816829 -0.1279356737293795 0 -0.32999631529203283 -0.12975499254720019 0 -0.31600890302403239 -0.1188826986280779 0 -0.32271031057816829 -0.1279356737293795 0 -0.31585962648416283 -0.1335084282300722 0 -0.32405671437801348 -0.135882934282964 0 -0.31585962648416283 -0.1335084282300722 0 -0.31410298387753399 -0.14330529857780061 0 -0.31410298387753399 -0.14330529857780061 0 -0.31691893675316563 -0.1540421490278549 0 -0.3239370451097503 -0.14555449288104169 0 -0.30706604140407301 -0.15034418360902679 0 -0.31410298387753399 -0.14330529857780061 0 -0.31691893675316563 -0.1540421490278549 0 -0.31691893675316563 -0.1540421490278549 0 -0.3239370451097503 -0.14555449288104169 0 -0.32967796064423349 -0.15635043182423841 0 -0.32405671437801348 -0.135882934282964 0 -0.31410298387753399 -0.14330529857780061 0 -0.3239370451097503 -0.14555449288104169 0 -0.3239370451097503 -0.14555449288104169 0 -0.33169889396099722 -0.13968130500686049 0 -0.32967796064423349 -0.15635043182423841 0 -0.34087312316810392 -0.14383629858402519 0 -0.34622604303783988 -0.16050101944803691 0 -0.32967796064423349 -0.15635043182423841 0 -0.34087312316810392 -0.14383629858402519 0 -0.34622604303783988 -0.16050101944803691 0 -0.34087312316810392 -0.14383629858402519 0 -0.33169889396099722 -0.13968130500686049 0 -0.32967796064423349 -0.15635043182423841 0 -0.34087312316810392 -0.14383629858402519 0 -0.33552020329836652 -0.127171577720014 0 -0.34087312316810392 -0.14383629858402519 0 -0.33552020329836652 -0.127171577720014 0 -0.34597158566761532 -0.1341107380980083 0 -0.34087312316810392 -0.14383629858402519 0 -0.33169889396099722 -0.13968130500686049 0 -0.33552020329836652 -0.127171577720014 0 -0.32405671437801348 -0.135882934282964 0 -0.33169889396099722 -0.13968130500686049 0 -0.32999631529203283 -0.12975499254720019 0 -0.33169889396099722 -0.13968130500686049 0 -0.32999631529203283 -0.12975499254720019 0 -0.33552020329836652 -0.127171577720014 0 -0.32736367373516712 -0.1226232934073183 0 -0.32999631529203283 -0.12975499254720019 0 -0.33552020329836652 -0.127171577720014 0 -0.32999631529203283 -0.12975499254720019 0 -0.33552020329836652 -0.127171577720014 0 -0.34462381321009439 -0.1229139966829066 0 -0.33552020329836652 -0.127171577720014 0 -0.34462381321009439 -0.1229139966829066 0 -0.33552020329836652 -0.127171577720014 0 -0.34597158566761532 -0.1341107380980083 0 -0.34462381321009439 -0.1229139966829066 0 -0.36652275681159252 -0.13749307072882411 0 -0.34462381321009439 -0.1229139966829066 0 -0.36181539951446567 -0.1252855841514445 0 -0.36652275681159252 -0.13749307072882411 0 -0.34597158566761532 -0.1341107380980083 0 -0.36652275681159252 -0.13749307072882411 0 -0.35281981606573831 -0.1438455658757373 0 -0.34462381321009439 -0.1229139966829066 0 -0.34597158566761532 -0.1341107380980083 0 -0.36652275681159252 -0.13749307072882411 0 -0.34087312316810392 -0.14383629858402519 0 -0.34597158566761532 -0.1341107380980083 0 -0.35281981606573831 -0.1438455658757373 0 -0.36181539951446567 -0.1252855841514445 0 -0.36652275681159252 -0.13749307072882411 0 -0.3745617993871731 -0.125738830363569 0 -0.36652275681159252 -0.13749307072882411 0 -0.36208294126414448 -0.15613638941888339 0 -0.35281981606573831 -0.1438455658757373 0 -0.36652275681159252 -0.13749307072882411 0 -0.36208294126414448 -0.15613638941888339 0 -0.38842170041309182 -0.15207214477473999 0 -0.36208294126414448 -0.15613638941888339 0 -0.35281981606573831 -0.1438455658757373 0 -0.35149853625466942 -0.15229581570141629 0 -0.34087312316810392 -0.14383629858402519 0 -0.35149853625466942 -0.15229581570141629 0 -0.34622604303783988 -0.16050101944803691 0 -0.34087312316810392 -0.14383629858402519 0 -0.35281981606573831 -0.1438455658757373 0 -0.35149853625466942 -0.15229581570141629 0 -0.35505272888815109 -0.1639443288125628 0 -0.36250860460402751 -0.16936208674142431 0 -0.35294751928007551 -0.18142633275305389 0 -0.34622604303783988 -0.16050101944803691 0 -0.35294751928007551 -0.18142633275305389 0 -0.35149853625466942 -0.15229581570141629 0 -0.34622604303783988 -0.16050101944803691 0 -0.35505272888815109 -0.1639443288125628 0 -0.34622604303783988 -0.16050101944803691 0 -0.35505272888815109 -0.1639443288125628 0 -0.35294751928007551 -0.18142633275305389 0 -0.35149853625466942 -0.15229581570141629 0 -0.34622604303783988 -0.16050101944803691 0 -0.36208294126414448 -0.15613638941888339 0 -0.35149853625466942 -0.15229581570141629 0 -0.35505272888815109 -0.1639443288125628 0 -0.36208294126414448 -0.15613638941888339 0 -0.36250860460402751 -0.16936208674142431 0 -0.37487012125176511 -0.16346660212286901 0 -0.36208294126414448 -0.15613638941888339 0 -0.35505272888815109 -0.1639443288125628 0 -0.36250860460402751 -0.16936208674142431 0 -0.36250860460402751 -0.16936208674142431 0 -0.37487012125176511 -0.16346660212286901 0 -0.37364970938921671 -0.176501837655274 0 -0.36250860460402751 -0.16936208674142431 0 -0.37364970938921671 -0.176501837655274 0 -0.35294751928007551 -0.18142633275305389 0 -0.37364970938921671 -0.176501837655274 0 -0.35294751928007551 -0.18142633275305389 0 -0.37333648066881853 -0.18910378673241951 0 -0.34622604303783988 -0.16050101944803691 0 -0.33089857164519848 -0.18435406591486661 0 -0.34622604303783988 -0.16050101944803691 0 -0.35294751928007551 -0.18142633275305389 0 -0.33089857164519848 -0.18435406591486661 0 -0.34622604303783988 -0.16050101944803691 0 -0.33089857164519848 -0.18435406591486661 0 -0.32967796064423349 -0.15635043182423841 0 -0.33089857164519848 -0.18435406591486661 0 -0.32967796064423349 -0.15635043182423841 0 -0.31740071646641732 -0.1675759722109085 0 -0.31691893675316563 -0.1540421490278549 0 -0.32967796064423349 -0.15635043182423841 0 -0.31740071646641732 -0.1675759722109085 0 -0.31066803189480208 -0.1601522285311637 0 -0.31691893675316563 -0.1540421490278549 0 -0.31740071646641732 -0.1675759722109085 0 -0.33089857164519848 -0.18435406591486661 0 -0.31740071646641732 -0.1675759722109085 0 -0.31264669694236707 -0.1829964666962324 0 -0.33089857164519848 -0.18435406591486661 0 -0.31264669694236707 -0.1829964666962324 0 -0.31557110025255808 -0.2082071123816969 0 -0.33089857164519848 -0.18435406591486661 0 -0.31557110025255808 -0.2082071123816969 0 -0.33762004788743388 -0.20527937921988179 0 -0.33089857164519848 -0.18435406591486661 0 -0.31557110025255808 -0.2082071123816969 0 -0.31557110025255808 -0.2082071123816969 0 -0.33762004788743388 -0.20527937921988179 0 -0.30441627084329997 -0.22556657484047921 0 -0.31557110025255808 -0.2082071123816969 0 -0.31758200663377167 -0.2217629408644585 0 -0.31557110025255808 -0.2082071123816969 0 -0.32769298193056551 -0.20750198164836239 0 -0.33762004788743388 -0.20527937921988179 0 -0.31557110025255808 -0.2082071123816969 0 -0.32769298193056551 -0.20750198164836239 0 -0.31758200663377167 -0.2217629408644585 0 -0.32769298193056551 -0.20750198164836239 0 -0.33772176739973409 -0.2168483903106985 0 -0.33762004788743388 -0.20527937921988179 0 -0.32769298193056551 -0.20750198164836239 0 -0.33772176739973409 -0.2168483903106985 0 -0.3278170227193139 -0.2308760454977184 0 -0.33772176739973409 -0.2168483903106985 0 -0.33762004788743388 -0.20527937921988179 0 -0.34976288691728052 -0.21645195994924099 0 -0.35294751928007551 -0.18142633275305389 0 -0.33089857164519848 -0.18435406591486661 0 -0.33762004788743388 -0.20527937921988179 0 -0.35294751928007551 -0.18142633275305389 0 -0.3596689955223103 -0.20235164605807121 0 -0.35294751928007551 -0.18142633275305389 0 -0.33762004788743388 -0.20527937921988179 0 -0.3596689955223103 -0.20235164605807121 0 -0.35294751928007551 -0.18142633275305389 0 -0.3596689955223103 -0.20235164605807121 0 -0.37333648066881853 -0.18910378673241951 0 -0.3596689955223103 -0.20235164605807121 0 -0.38153507187707841 -0.1994481951576991 0 -0.3596689955223103 -0.20235164605807121 0 -0.37333648066881853 -0.18910378673241951 0 -0.38153507187707841 -0.1994481951576991 0 -0.3596689955223103 -0.20235164605807121 0 -0.36789012458819498 -0.2279456815385088 0 -0.3596689955223103 -0.20235164605807121 0 -0.3715552053966279 -0.20807831825245521 0 -0.36789012458819498 -0.2279456815385088 0 -0.3715552053966279 -0.20807831825245521 0 -0.36789012458819498 -0.2279456815385088 0 -0.38470267240356493 -0.20697338798326601 0 -0.3596689955223103 -0.20235164605807121 0 -0.3715552053966279 -0.20807831825245521 0 -0.38153507187707841 -0.1994481951576991 0 -0.3596689955223103 -0.20235164605807121 0 -0.34976288691728052 -0.21645195994924099 0 -0.36789012458819498 -0.2279456815385088 0 -0.33762004788743388 -0.20527937921988179 0 -0.3596689955223103 -0.20235164605807121 0 -0.33762004788743388 -0.20527937921988179 0 -0.3596689955223103 -0.20235164605807121 0 -0.34976288691728052 -0.21645195994924099 0 -0.33772176739973409 -0.2168483903106985 0 -0.34976288691728052 -0.21645195994924099 0 -0.34591349918872932 -0.22983470261904471 0 -0.34976288691728052 -0.21645195994924099 0 -0.34591349918872932 -0.22983470261904471 0 -0.36789012458819498 -0.2279456815385088 0 -0.34591349918872932 -0.22983470261904471 0 -0.36789012458819498 -0.2279456815385088 0 -0.35461511782439997 -0.24450517875781561 0 -0.36789012458819498 -0.2279456815385088 0 -0.35461511782439997 -0.24450517875781561 0 -0.37675444900628913 -0.25554211407819633 0 -0.36789012458819498 -0.2279456815385088 0 -0.37675444900628913 -0.25554211407819633 0 -0.36789012458819498 -0.2279456815385088 0 -0.35461511782439997 -0.24450517875781561 0 -0.34134011106060608 -0.26106467597712318 0 -0.35461511782439997 -0.24450517875781561 0 -0.33952536286022228 -0.2441061424397552 0 -0.34591349918872932 -0.22983470261904471 0 -0.35461511782439997 -0.24450517875781561 0 -0.33952536286022228 -0.2441061424397552 0 -0.32794106350806229 -0.25425010934707432 0 -0.33952536286022228 -0.2441061424397552 0 -0.3278170227193139 -0.2308760454977184 0 -0.34591349918872932 -0.22983470261904471 0 -0.33952536286022228 -0.2441061424397552 0 -0.3278170227193139 -0.2308760454977184 0 -0.33772176739973409 -0.2168483903106985 0 -0.34591349918872932 -0.22983470261904471 0 -0.3278170227193139 -0.2308760454977184 0 -0.30977662691497149 -0.24278181837787119 0 -0.3278170227193139 -0.2308760454977184 0 -0.31758200663377167 -0.2217629408644585 0 -0.32769298193056551 -0.20750198164836239 0 -0.3278170227193139 -0.2308760454977184 0 -0.31758200663377167 -0.2217629408644585 0 -0.32769298193056551 -0.20750198164836239 0 -0.3278170227193139 -0.2308760454977184 0 -0.32794106350806229 -0.25425010934707432 0 -0.3278170227193139 -0.2308760454977184 0 -0.32794106350806229 -0.25425010934707432 0 -0.30977662691497149 -0.24278181837787119 0 -0.3278170227193139 -0.2308760454977184 0 -0.42070975786198422 -0.24026423788885851 0 -0.44204459198041057 -0.23245459064345861 0 -0.4441751168952755 -0.24878028328113941 0 -0.43269315943890668 -0.22004876006424451 0 -0.42070975786198422 -0.24026423788885851 0 -0.44204459198041057 -0.23245459064345861 0 -0.42070975786198422 -0.24026423788885851 0 -0.39457793991188939 -0.23097840133821579 0 -0.4112723291353193 -0.21210168054886469 0 -0.43269315943890668 -0.22004876006424451 0 -0.42070975786198422 -0.24026423788885851 0 -0.4112723291353193 -0.21210168054886469 0 -0.39950759601989028 -0.25196956936905751 0 -0.42070975786198422 -0.24026423788885851 0 -0.39457793991188939 -0.23097840133821579 0 -0.37675444900628913 -0.25554211407819633 0 -0.39950759601989028 -0.25196956936905751 0 -0.39457793991188939 -0.23097840133821579 0 -0.37675444900628913 -0.25554211407819633 0 -0.36789012458819498 -0.2279456815385088 0 -0.39457793991188939 -0.23097840133821579 0 -0.36789012458819498 -0.2279456815385088 0 -0.39457793991188939 -0.23097840133821579 0 -0.38843586846582911 -0.2186601265925969 0 -0.39457793991188939 -0.23097840133821579 0 -0.39747545430571929 -0.21036539935142831 0 -0.38843586846582911 -0.2186601265925969 0 -0.39457793991188939 -0.23097840133821579 0 -0.39747545430571929 -0.21036539935142831 0 -0.4112723291353193 -0.21210168054886469 0 -0.40375929865874538 -0.20437631216697899 0 -0.39747545430571929 -0.21036539935142831 0 -0.4112723291353193 -0.21210168054886469 0 -0.40375929865874538 -0.20437631216697899 0 -0.39747545430571929 -0.21036539935142831 0 -0.39752700943498209 -0.1983460940845371 0 -0.39747545430571929 -0.21036539935142831 0 -0.38470267240356493 -0.20697338798326601 0 -0.38982654732989369 -0.20038731103589699 0 -0.36789012458819498 -0.2279456815385088 0 -0.38843586846582911 -0.2186601265925969 0 -0.38470267240356493 -0.20697338798326601 0 -0.39747545430571929 -0.21036539935142831 0 -0.38843586846582911 -0.2186601265925969 0 -0.38470267240356493 -0.20697338798326601 0 -0.36789012458819498 -0.2279456815385088 0 -0.38470267240356493 -0.20697338798326601 0 -0.3715552053966279 -0.20807831825245521 0 -0.38470267240356493 -0.20697338798326601 0 -0.38153507187707841 -0.1994481951576991 0 -0.37333648066881853 -0.18910378673241951 0 -0.38153507187707841 -0.1994481951576991 0 -0.3883986041289863 -0.19109042649407479 0 -0.38153507187707841 -0.1994481951576991 0 -0.38982654732989369 -0.20038731103589699 0 -0.3883986041289863 -0.19109042649407479 0 -0.38470267240356493 -0.20697338798326601 0 -0.38153507187707841 -0.1994481951576991 0 -0.38982654732989369 -0.20038731103589699 0 -0.3883986041289863 -0.19109042649407479 0 -0.39752700943498209 -0.1983460940845371 0 -0.39987405917650892 -0.18850858498138329 0 -0.38982654732989369 -0.20038731103589699 0 -0.3883986041289863 -0.19109042649407479 0 -0.39752700943498209 -0.1983460940845371 0 -0.39747545430571929 -0.21036539935142831 0 -0.38982654732989369 -0.20038731103589699 0 -0.39752700943498209 -0.1983460940845371 0 -0.40375929865874538 -0.20437631216697899 0 -0.39752700943498209 -0.1983460940845371 0 -0.408762401758961 -0.19669207468308589 0 -0.39752700943498209 -0.1983460940845371 0 -0.39987405917650892 -0.18850858498138329 0 -0.408762401758961 -0.19669207468308589 0 -0.42060529014525072 -0.1972586811467294 0 -0.408762401758961 -0.19669207468308589 0 -0.41097364898264099 -0.1864129603651177 0 -0.39987405917650892 -0.18850858498138329 0 -0.408762401758961 -0.19669207468308589 0 -0.41097364898264099 -0.1864129603651177 0 -0.42060529014525072 -0.1972586811467294 0 -0.42680109767239971 -0.18460147122761181 0 -0.41097364898264099 -0.1864129603651177 0 -0.42060529014525072 -0.1972586811467294 0 -0.408762401758961 -0.19669207468308589 0 -0.4112723291353193 -0.21210168054886469 0 -0.40375929865874538 -0.20437631216697899 0 -0.408762401758961 -0.19669207468308589 0 -0.4112723291353193 -0.21210168054886469 0 -0.42060529014525072 -0.1972586811467294 0 -0.4112723291353193 -0.21210168054886469 0 -0.42980586377138669 -0.20665949133904851 0 -0.43269315943890668 -0.22004876006424451 0 -0.4112723291353193 -0.21210168054886469 0 -0.42980586377138669 -0.20665949133904851 0 -0.43269315943890668 -0.22004876006424451 0 -0.42980586377138669 -0.20665949133904851 0 -0.44734014705176528 -0.20800950192796441 0 -0.42060529014525072 -0.1972586811467294 0 -0.42980586377138669 -0.20665949133904851 0 -0.43711839308569123 -0.19587883300743919 0 -0.42060529014525072 -0.1972586811467294 0 -0.43711839308569123 -0.19587883300743919 0 -0.42680109767239971 -0.18460147122761181 0 -0.42680109767239971 -0.18460147122761181 0 -0.43104765897365999 -0.17094308349820189 0 -0.44560282762793579 -0.18065873786371331 0 -0.42680109767239971 -0.18460147122761181 0 -0.43104765897365999 -0.17094308349820189 0 -0.4152180410897448 -0.17525772142180121 0 -0.43711839308569123 -0.19587883300743919 0 -0.42680109767239971 -0.18460147122761181 0 -0.44560282762793579 -0.18065873786371331 0 -0.43104765897365999 -0.17094308349820189 0 -0.42925489323537108 -0.15714975353953331 0 -0.41424117073956518 -0.1617953018157447 0 -0.43104765897365999 -0.17094308349820189 0 -0.42925489323537108 -0.15714975353953331 0 -0.44343976890390963 -0.16131901691984851 0 -0.43104765897365999 -0.17094308349820189 0 -0.41424117073956518 -0.1617953018157447 0 -0.4152180410897448 -0.17525772142180121 0 -0.41424117073956518 -0.1617953018157447 0 -0.40536623103644498 -0.16951536252327759 0 -0.40002163867228202 -0.16281035829414101 0 -0.41424117073956518 -0.1617953018157447 0 -0.4152180410897448 -0.17525772142180121 0 -0.40536623103644498 -0.16951536252327759 0 -0.42680109767239971 -0.18460147122761181 0 -0.4152180410897448 -0.17525772142180121 0 -0.41097364898264099 -0.1864129603651177 0 -0.4152180410897448 -0.17525772142180121 0 -0.40128836181677241 -0.17908284387141321 0 -0.40536623103644498 -0.16951536252327759 0 -0.4152180410897448 -0.17525772142180121 0 -0.41097364898264099 -0.1864129603651177 0 -0.40128836181677241 -0.17908284387141321 0 -0.39987405917650892 -0.18850858498138329 0 -0.41097364898264099 -0.1864129603651177 0 -0.40128836181677241 -0.17908284387141321 0 -0.40128836181677241 -0.17908284387141321 0 -0.39676399739188101 -0.17069579662915821 0 -0.40536623103644498 -0.16951536252327759 0 -0.40128836181677241 -0.17908284387141321 0 -0.39229432893671062 -0.17942711039007139 0 -0.39676399739188101 -0.17069579662915821 0 -0.3883986041289863 -0.19109042649407479 0 -0.39987405917650892 -0.18850858498138329 0 -0.39229432893671062 -0.17942711039007139 0 -0.39987405917650892 -0.18850858498138329 0 -0.40128836181677241 -0.17908284387141321 0 -0.39229432893671062 -0.17942711039007139 0 -0.39229432893671062 -0.17942711039007139 0 -0.38307335474241538 -0.17987674265917261 0 -0.38768765058834498 -0.16326055202402329 0 -0.37364970938921671 -0.176501837655274 0 -0.38307335474241538 -0.17987674265917261 0 -0.38768765058834498 -0.16326055202402329 0 -0.3883986041289863 -0.19109042649407479 0 -0.39229432893671062 -0.17942711039007139 0 -0.38307335474241538 -0.17987674265917261 0 -0.37333648066881853 -0.18910378673241951 0 -0.3883986041289863 -0.19109042649407479 0 -0.38307335474241538 -0.17987674265917261 0 -0.37364970938921671 -0.176501837655274 0 -0.37333648066881853 -0.18910378673241951 0 -0.38307335474241538 -0.17987674265917261 0 -0.36208294126414448 -0.15613638941888339 0 -0.37487012125176511 -0.16346660212286901 0 -0.38842170041309182 -0.15207214477473999 0 -0.37364970938921671 -0.176501837655274 0 -0.38768765058834498 -0.16326055202402329 0 -0.37487012125176511 -0.16346660212286901 0 -0.37364970938921671 -0.176501837655274 0 -0.38768765058834498 -0.16326055202402329 0 -0.37487012125176511 -0.16346660212286901 0 -0.38768765058834498 -0.16326055202402329 0 -0.38842170041309182 -0.15207214477473999 0 -0.38768765058834498 -0.16326055202402329 0 -0.39063150877127939 -0.15354330978925229 0 -0.38842170041309182 -0.15207214477473999 0 -0.38768765058834498 -0.16326055202402329 0 -0.40002163867228202 -0.16281035829414101 0 -0.40172559178747469 -0.1500192663927741 0 -0.39229432893671062 -0.17942711039007139 0 -0.38768765058834498 -0.16326055202402329 0 -0.39676399739188101 -0.17069579662915821 0 -0.38768765058834498 -0.16326055202402329 0 -0.40172559178747469 -0.1500192663927741 0 -0.38768765058834498 -0.16326055202402329 0 -0.39676399739188101 -0.17069579662915821 0 -0.40002163867228202 -0.16281035829414101 0 -0.39676399739188101 -0.17069579662915821 0 -0.40536623103644498 -0.16951536252327759 0 -0.40002163867228202 -0.16281035829414101 0 -0.41424117073956518 -0.1617953018157447 0 -0.40002163867228202 -0.16281035829414101 0 -0.40172559178747469 -0.1500192663927741 0 -0.40172559178747469 -0.1500192663927741 0 -0.39556231767470079 -0.14040375699915639 0 -0.40526912507131579 -0.13580338940545569 0 -0.40172559178747469 -0.1500192663927741 0 -0.38842170041309182 -0.15207214477473999 0 -0.39556231767470079 -0.14040375699915639 0 -0.40172559178747469 -0.1500192663927741 0 -0.39063150877127939 -0.15354330978925229 0 -0.38842170041309182 -0.15207214477473999 0 -0.38768765058834498 -0.16326055202402329 0 -0.40172559178747469 -0.1500192663927741 0 -0.39063150877127939 -0.15354330978925229 0 -0.40172559178747469 -0.1500192663927741 0 -0.38842170041309182 -0.15207214477473999 0 -0.38842170041309182 -0.15207214477473999 0 -0.38464817459849598 -0.13593987916925959 0 -0.39556231767470079 -0.14040375699915639 0 -0.36652275681159252 -0.13749307072882411 0 -0.38842170041309182 -0.15207214477473999 0 -0.36208294126414448 -0.15613638941888339 0 -0.38842170041309182 -0.15207214477473999 0 -0.36652275681159252 -0.13749307072882411 0 -0.38842170041309182 -0.15207214477473999 0 -0.38464817459849598 -0.13593987916925959 0 -0.39063150877127939 -0.15354330978925229 0 -0.38842170041309182 -0.15207214477473999 0 -0.36652275681159252 -0.13749307072882411 0 -0.3745617993871731 -0.125738830363569 0 -0.38464817459849598 -0.13593987916925959 0 -0.3745617993871731 -0.125738830363569 0 -0.38464817459849598 -0.13593987916925959 0 -0.38668087209206747 -0.12653486827942681 0 -0.38464817459849598 -0.13593987916925959 0 -0.38668087209206747 -0.12653486827942681 0 -0.39774699650312723 -0.12818410525355409 0 -0.38464817459849598 -0.13593987916925959 0 -0.39774699650312723 -0.12818410525355409 0 -0.39556231767470079 -0.14040375699915639 0 -0.39774699650312723 -0.12818410525355409 0 -0.39556231767470079 -0.14040375699915639 0 -0.40526912507131579 -0.13580338940545569 0 -0.39774699650312723 -0.12818410525355409 0 -0.40526912507131579 -0.13580338940545569 0 -0.41008242803786699 -0.12802240846748031 0 -0.39774699650312723 -0.12818410525355409 0 -0.41008242803786699 -0.12802240846748031 0 -0.40872889919946931 -0.1207728076697011 0 -0.40526912507131579 -0.13580338940545569 0 -0.41008242803786699 -0.12802240846748031 0 -0.42285450410422581 -0.1300894234695707 0 -0.40172559178747469 -0.1500192663927741 0 -0.40526912507131579 -0.13580338940545569 0 -0.42285450410422581 -0.1300894234695707 0 -0.40172559178747469 -0.1500192663927741 0 -0.42285450410422581 -0.1300894234695707 0 -0.41008242803786699 -0.12802240846748031 0 -0.42285450410422581 -0.1300894234695707 0 -0.4161471275566318 -0.12321341695891749 0 -0.41424117073956518 -0.1617953018157447 0 -0.40172559178747469 -0.1500192663927741 0 -0.41975715311573192 -0.14723687728554941 0 -0.40172559178747469 -0.1500192663927741 0 -0.41975715311573192 -0.14723687728554941 0 -0.42285450410422581 -0.1300894234695707 0 -0.40172559178747469 -0.1500192663927741 0 -0.41975715311573192 -0.14723687728554941 0 -0.42925489323537108 -0.15714975353953331 0 -0.41424117073956518 -0.1617953018157447 0 -0.41975715311573192 -0.14723687728554941 0 -0.42925489323537108 -0.15714975353953331 0 -0.41975715311573192 -0.14723687728554941 0 -0.43778871444398859 -0.1444544881783221 0 -0.42925489323537108 -0.15714975353953331 0 -0.43778871444398859 -0.1444544881783221 0 -0.44343976890390963 -0.16131901691984851 0 -0.41975715311573192 -0.14723687728554941 0 -0.43778871444398859 -0.1444544881783221 0 -0.42285450410422581 -0.1300894234695707 0 -0.44877209028994619 -0.13014940148221241 0 -0.43778871444398859 -0.1444544881783221 0 -0.41975715311573192 -0.14723687728554941 0 -0.42285450410422581 -0.1300894234695707 0 -0.43778871444398859 -0.1444544881783221 0 -0.43778871444398859 -0.1444544881783221 0 -0.4564832680245815 -0.14908855345925709 0 -0.44343976890390963 -0.16131901691984851 0 -0.44877209028994619 -0.13014940148221241 0 -0.43778871444398859 -0.1444544881783221 0 -0.4564832680245815 -0.14908855345925709 0 -0.4564832680245815 -0.14908855345925709 0 -0.4694781317186642 -0.13556583492707069 0 -0.47908361732576482 -0.15574039308413881 0 -0.44877209028994619 -0.13014940148221241 0 -0.4694781317186642 -0.13556583492707069 0 -0.46516047725089937 -0.11550435478758619 0 -0.44877209028994619 -0.13014940148221241 0 -0.4564832680245815 -0.14908855345925709 0 -0.4694781317186642 -0.13556583492707069 0 -0.4694781317186642 -0.13556583492707069 0 -0.5 -0.14788017130570999 0 -0.4823590528957365 -0.1232106897563288 0 -0.5 -0.14788017130570999 0 -0.4823590528957365 -0.1232106897563288 0 -0.49999999999999972 -0.12049688655332361 0 -0.4694781317186642 -0.13556583492707069 0 -0.5 -0.14788017130570999 0 -0.47908361732576482 -0.15574039308413881 0 -0.47908361732576482 -0.15574039308413881 0 -0.47984217191219269 -0.1844381337128046 0 -0.46163560639174073 -0.16895461386182589 0 -0.5 -0.14788017130570999 0 -0.47908361732576482 -0.15574039308413881 0 -0.5 -0.17526345605809651 0 -0.47908361732576482 -0.15574039308413881 0 -0.5 -0.17526345605809651 0 -0.47984217191219269 -0.1844381337128046 0 -0.5 -0.17526345605809651 0 -0.47984217191219269 -0.1844381337128046 0 -0.5 -0.20264674081048281 0 -0.47984217191219269 -0.1844381337128046 0 -0.46050563103989273 -0.18540147070151711 0 -0.46163560639174073 -0.16895461386182589 0 -0.46050563103989273 -0.18540147070151711 0 -0.46163560639174073 -0.16895461386182589 0 -0.44560282762793579 -0.18065873786371331 0 -0.4564832680245815 -0.14908855345925709 0 -0.47908361732576482 -0.15574039308413881 0 -0.46163560639174073 -0.16895461386182589 0 -0.4564832680245815 -0.14908855345925709 0 -0.46163560639174073 -0.16895461386182589 0 -0.44343976890390963 -0.16131901691984851 0 -0.46163560639174073 -0.16895461386182589 0 -0.44343976890390963 -0.16131901691984851 0 -0.44560282762793579 -0.18065873786371331 0 -0.43104765897365999 -0.17094308349820189 0 -0.44343976890390963 -0.16131901691984851 0 -0.44560282762793579 -0.18065873786371331 0 -0.46050563103989273 -0.18540147070151711 0 -0.44560282762793579 -0.18065873786371331 0 -0.45104712326853819 -0.1938212996569452 0 -0.43711839308569123 -0.19587883300743919 0 -0.44560282762793579 -0.18065873786371331 0 -0.45104712326853819 -0.1938212996569452 0 -0.43711839308569123 -0.19587883300743919 0 -0.45104712326853819 -0.1938212996569452 0 -0.44734014705176528 -0.20800950192796441 0 -0.42980586377138669 -0.20665949133904851 0 -0.43711839308569123 -0.19587883300743919 0 -0.44734014705176528 -0.20800950192796441 0 -0.43269315943890668 -0.22004876006424451 0 -0.44734014705176528 -0.20800950192796441 0 -0.4548849558455848 -0.22519017170172029 0 -0.44734014705176528 -0.20800950192796441 0 -0.46428958320595709 -0.2124725328124121 0 -0.46440042599905651 -0.19913456841229671 0 -0.44734014705176528 -0.20800950192796441 0 -0.46428958320595709 -0.2124725328124121 0 -0.4548849558455848 -0.22519017170172029 0 -0.47984217191219269 -0.1844381337128046 0 -0.46050563103989273 -0.18540147070151711 0 -0.46440042599905651 -0.19913456841229671 0 -0.45104712326853819 -0.1938212996569452 0 -0.44734014705176528 -0.20800950192796441 0 -0.46440042599905651 -0.19913456841229671 0 -0.46050563103989273 -0.18540147070151711 0 -0.45104712326853819 -0.1938212996569452 0 -0.46440042599905651 -0.19913456841229671 0 -0.47984217191219269 -0.1844381337128046 0 -0.46440042599905651 -0.19913456841229671 0 -0.48044107913331269 -0.20255251577885899 0 -0.47984217191219269 -0.1844381337128046 0 -0.48044107913331269 -0.20255251577885899 0 -0.5 -0.20264674081048281 0 -0.5 -0.20264674081048281 0 -0.4783273567202514 -0.22225999364645069 0 -0.49999999999999872 -0.23003002556286931 0 -0.48044107913331269 -0.20255251577885899 0 -0.5 -0.20264674081048281 0 -0.4783273567202514 -0.22225999364645069 0 -0.46428958320595709 -0.2124725328124121 0 -0.48044107913331269 -0.20255251577885899 0 -0.4783273567202514 -0.22225999364645069 0 -0.46428958320595709 -0.2124725328124121 0 -0.46440042599905651 -0.19913456841229671 0 -0.48044107913331269 -0.20255251577885899 0 -0.4783273567202514 -0.22225999364645069 0 -0.49999999999999872 -0.23003002556286931 0 -0.4827187744681663 -0.24337415047728311 0 -0.49999999999999872 -0.23003002556286931 0 -0.4827187744681663 -0.24337415047728311 0 -0.46543754893633432 -0.2567182753916975 0 -0.4827187744681663 -0.24337415047728311 0 -0.46335378041638797 -0.23851209192302239 0 -0.4783273567202514 -0.22225999364645069 0 -0.4827187744681663 -0.24337415047728311 0 -0.46335378041638797 -0.23851209192302239 0 -0.46543754893633432 -0.2567182753916975 0 -0.46335378041638797 -0.23851209192302239 0 -0.4441751168952755 -0.24878028328113941 0 -0.46335378041638797 -0.23851209192302239 0 -0.4548849558455848 -0.22519017170172029 0 -0.44204459198041057 -0.23245459064345861 0 -0.46428958320595709 -0.2124725328124121 0 -0.4783273567202514 -0.22225999364645069 0 -0.4548849558455848 -0.22519017170172029 0 -0.4783273567202514 -0.22225999364645069 0 -0.46335378041638797 -0.23851209192302239 0 -0.4548849558455848 -0.22519017170172029 0 -0.43269315943890668 -0.22004876006424451 0 -0.4548849558455848 -0.22519017170172029 0 -0.44204459198041057 -0.23245459064345861 0 -0.46335378041638797 -0.23851209192302239 0 -0.44204459198041057 -0.23245459064345861 0 -0.4441751168952755 -0.24878028328113941 0 -0.41205608126636672 -0.044200258274460599 0 -0.43015549415499083 -0.033592877088493678 0 -0.4120129194329053 -0.03022902561110951 0 -0.41205608126636672 -0.044200258274460599 0 -0.4120129194329053 -0.03022902561110951 0 -0.39799572414299578 -0.032002054506001812 0 -0.41918584502200568 -0.059118069444647071 0 -0.3994449707097788 -0.046838603084559727 0 -0.41205608126636672 -0.044200258274460599 0 -0.41918584502200568 -0.059118069444647071 0 -0.3994449707097788 -0.046838603084559727 0 -0.41205608126636672 -0.044200258274460599 0 -0.42611643838973678 -0.056398462042920428 0 -0.41205608126636672 -0.044200258274460599 0 -0.41918584502200568 -0.059118069444647071 0 -0.42611643838973678 -0.056398462042920428 0 -0.41918584502200568 -0.059118069444647071 0 -0.42611643838973678 -0.056398462042920428 0 -0.4369686066574302 -0.070179525985931607 0 -0.41918584502200568 -0.059118069444647071 0 -0.42611643838973678 -0.056398462042920428 0 -0.42611643838973678 -0.056398462042920428 0 -0.43015549415499083 -0.033592877088493678 0 -0.45074429225982598 -0.046734340932361347 0 -0.41205608126636672 -0.044200258274460599 0 -0.42611643838973678 -0.056398462042920428 0 -0.43015549415499083 -0.033592877088493678 0 -0.43015549415499083 -0.033592877088493678 0 -0.42304583330138568 -0.01596803797777966 0 -0.43884607197457631 -0.018346690520704801 0 -0.42304583330138568 -0.01596803797777966 0 -0.44928020230398868 -0.0065541757467477164 0 -0.42304583330138568 -0.01596803797777966 0 -0.44928020230398868 -0.0065541757467477164 0 -0.43884607197457631 -0.018346690520704801 0 -0.42304583330138568 -0.01596803797777966 0 -0.43294040304207121 -0.0054000284565828239 0 -0.44928020230398868 -0.0065541757467477164 0 -0.42304583330138568 -0.01596803797777966 0 -0.43294040304207121 -0.0054000284565828239 0 -0.42145287969950512 0.0042655280708142149 0 -0.42304583330138568 -0.01596803797777966 0 -0.40911967079094741 -0.0075612400179980461 0 -0.42145287969950512 0.0042655280708142149 0 -0.40911967079094741 -0.0075612400179980461 0 -0.42145287969950512 0.0042655280708142149 0 -0.40511678530988571 0.0026854489266496051 0 -0.42304583330138568 -0.01596803797777966 0 -0.40911967079094741 -0.0075612400179980461 0 -0.40582445619088398 -0.01509257048839591 0 -0.42304583330138568 -0.01596803797777966 0 -0.4120129194329053 -0.03022902561110951 0 -0.39681146429878311 -0.02538190020881257 0 -0.42304583330138568 -0.01596803797777966 0 -0.39681146429878311 -0.02538190020881257 0 -0.40582445619088398 -0.01509257048839591 0 -0.43015549415499083 -0.033592877088493678 0 -0.42304583330138568 -0.01596803797777966 0 -0.4120129194329053 -0.03022902561110951 0 -0.42304583330138568 -0.01596803797777966 0 -0.39681146429878311 -0.02538190020881257 0 -0.4120129194329053 -0.03022902561110951 0 -0.39681146429878311 -0.02538190020881257 0 -0.39799572414299578 -0.032002054506001812 0 -0.39681146429878311 -0.02538190020881257 0 -0.40582445619088398 -0.01509257048839591 0 -0.39432085637241449 -0.01145910374899488 0 -0.39681146429878311 -0.02538190020881257 0 -0.39432085637241449 -0.01145910374899488 0 -0.39227611742117557 -0.01991536269593655 0 -0.39681146429878311 -0.02538190020881257 0 -0.39432085637241449 -0.01145910374899488 0 -0.39227611742117557 -0.01991536269593655 0 -0.39323801894981342 -0.012877809916091181 0 -0.39036475238162233 -0.014846600182313929 0 -0.39227611742117557 -0.01991536269593655 0 -0.39225116474362731 -0.027018304413547339 0 -0.39681146429878311 -0.02538190020881257 0 -0.39681146429878311 -0.02538190020881257 0 -0.39799572414299578 -0.032002054506001812 0 -0.39225116474362731 -0.027018304413547339 0 -0.39681146429878311 -0.02538190020881257 0 -0.39799572414299578 -0.032002054506001812 0 -0.39225116474362731 -0.027018304413547339 0 -0.39396832214150868 -0.031101424647059391 0 -0.39799572414299578 -0.032002054506001812 0 -0.39225116474362731 -0.027018304413547339 0 -0.39799572414299578 -0.032002054506001812 0 -0.39225116474362731 -0.027018304413547339 0 -0.39681146429878311 -0.02538190020881257 0 -0.39432085637241449 -0.01145910374899488 0 -0.40511678530988571 0.0026854489266496051 0 -0.40911967079094741 -0.0075612400179980461 0 -0.39432085637241449 -0.01145910374899488 0 -0.40511678530988571 0.0026854489266496051 0 -0.40911967079094741 -0.0075612400179980461 0 -0.40582445619088398 -0.01509257048839591 0 -0.39432085637241449 -0.01145910374899488 0 -0.39227611742117557 -0.01991536269593655 0 -0.39323801894981342 -0.012877809916091181 0 -0.39432085637241449 -0.01145910374899488 0 -0.39323801894981342 -0.012877809916091181 0 -0.39432085637241449 -0.01145910374899488 0 -0.38871295709045478 -0.01095182652341147 0 -0.39323801894981342 -0.012877809916091181 0 -0.38871295709045478 -0.01095182652341147 0 -0.39036475238162233 -0.014846600182313929 0 -0.39323801894981342 -0.012877809916091181 0 -0.39432085637241449 -0.01145910374899488 0 -0.39432085637241449 -0.01145910374899488 0 -0.39201723444485131 0.0014184185933258609 0 -0.39432085637241449 -0.01145910374899488 0 -0.39201723444485131 0.0014184185933258609 0 -0.40511678530988571 0.0026854489266496051 0 -0.39432085637241449 -0.01145910374899488 0 -0.38820785843029992 -0.006059948335699083 0 -0.39201723444485131 0.0014184185933258609 0 -0.37715033390166808 -0.013917427240439069 0 -0.3807749306395905 -0.017061982474688261 0 -0.3847587987592887 0.0013308304056126601 0 -0.38820785843029992 -0.006059948335699083 0 -0.3807749306395905 -0.017061982474688261 0 -0.3847587987592887 0.0013308304056126601 0 -0.3807749306395905 -0.017061982474688261 0 -0.3847587987592887 0.0013308304056126601 0 -0.38913647344426999 -0.00048407806585306691 0 -0.38820785843029992 -0.006059948335699083 0 -0.39201723444485131 0.0014184185933258609 0 -0.38913647344426999 -0.00048407806585306691 0 -0.38820785843029992 -0.006059948335699083 0 -0.3847587987592887 0.0013308304056126601 0 -0.38871295709045478 -0.01095182652341147 0 -0.38723191606504548 -0.015641401593816509 0 -0.3807749306395905 -0.017061982474688261 0 -0.38820785843029992 -0.006059948335699083 0 -0.38871295709045478 -0.01095182652341147 0 -0.3807749306395905 -0.017061982474688261 0 -0.39432085637241449 -0.01145910374899488 0 -0.38820785843029992 -0.006059948335699083 0 -0.38871295709045478 -0.01095182652341147 0 -0.38871295709045478 -0.01095182652341147 0 -0.39036475238162233 -0.014846600182313929 0 -0.38723191606504548 -0.015641401593816509 0 -0.37715033390166808 -0.013917427240439069 0 -0.3807749306395905 -0.017061982474688261 0 -0.37373735965882038 -0.003103147911992342 0 -0.37715033390166808 -0.013917427240439069 0 -0.3847587987592887 0.0013308304056126601 0 -0.37383326402734102 -0.023546661193598151 0 -0.3807749306395905 -0.017061982474688261 0 -0.37730790453491542 -0.033068627393213278 0 -0.39225116474362731 -0.027018304413547339 0 -0.3807749306395905 -0.017061982474688261 0 -0.37730790453491542 -0.033068627393213278 0 -0.3807749306395905 -0.017061982474688261 0 -0.37730790453491542 -0.033068627393213278 0 -0.39225116474362731 -0.027018304413547339 0 -0.39396832214150868 -0.031101424647059391 0 -0.3797040963975527 -0.034559136724471251 0 -0.39225116474362731 -0.027018304413547339 0 -0.37730790453491542 -0.033068627393213278 0 -0.39227611742117557 -0.01991536269593655 0 -0.38723191606504548 -0.015641401593816509 0 -0.3807749306395905 -0.017061982474688261 0 -0.39225116474362731 -0.027018304413547339 0 -0.3807749306395905 -0.017061982474688261 0 -0.39227611742117557 -0.01991536269593655 0 -0.39225116474362731 -0.027018304413547339 0 -0.3807749306395905 -0.017061982474688261 0 -0.39227611742117557 -0.01991536269593655 0 -0.39036475238162233 -0.014846600182313929 0 -0.38723191606504548 -0.015641401593816509 0 -0.37383326402734102 -0.023546661193598151 0 -0.37715033390166808 -0.013917427240439069 0 -0.3807749306395905 -0.017061982474688261 0 -0.3797040963975527 -0.034559136724471251 0 -0.38102279842464121 -0.046266296511459241 0 -0.3994449707097788 -0.046838603084559727 0 -0.37683438855478812 -0.035254766732340792 0 -0.3797040963975527 -0.034559136724471251 0 -0.38102279842464121 -0.046266296511459241 0 -0.37265336573020669 -0.054557807935055748 0 -0.37683438855478812 -0.035254766732340792 0 -0.38102279842464121 -0.046266296511459241 0 -0.3797040963975527 -0.034559136724471251 0 -0.3994449707097788 -0.046838603084559727 0 -0.37683438855478812 -0.035254766732340792 0 -0.3797040963975527 -0.034559136724471251 0 -0.37730790453491542 -0.033068627393213278 0 -0.37683438855478812 -0.035254766732340792 0 -0.3797040963975527 -0.034559136724471251 0 -0.37730790453491542 -0.033068627393213278 0 -0.37683438855478812 -0.035254766732340792 0 -0.37730790453491542 -0.033068627393213278 0 -0.3797040963975527 -0.034559136724471251 0 -0.39396832214150868 -0.031101424647059391 0 -0.3797040963975527 -0.034559136724471251 0 -0.39225116474362731 -0.027018304413547339 0 -0.37730790453491542 -0.033068627393213278 0 -0.3797040963975527 -0.034559136724471251 0 -0.3797040963975527 -0.034559136724471251 0 -0.3994449707097788 -0.046838603084559727 0 -0.39903105380718362 -0.037789671268432863 0 -0.39396832214150868 -0.031101424647059391 0 -0.3797040963975527 -0.034559136724471251 0 -0.39903105380718362 -0.037789671268432863 0 -0.39396832214150868 -0.031101424647059391 0 -0.39799572414299578 -0.032002054506001812 0 -0.39903105380718362 -0.037789671268432863 0 -0.41205608126636672 -0.044200258274460599 0 -0.3994449707097788 -0.046838603084559727 0 -0.39903105380718362 -0.037789671268432863 0 -0.41205608126636672 -0.044200258274460599 0 -0.39799572414299578 -0.032002054506001812 0 -0.41205608126636672 -0.044200258274460599 0 -0.39799572414299578 -0.032002054506001812 0 -0.39903105380718362 -0.037789671268432863 0 -0.39799572414299578 -0.032002054506001812 0 -0.39903105380718362 -0.037789671268432863 0 -0.38102279842464121 -0.046266296511459241 0 -0.3994449707097788 -0.046838603084559727 0 -0.39607598160245377 -0.068186521779676296 0 -0.41918584502200568 -0.059118069444647071 0 -0.3994449707097788 -0.046838603084559727 0 -0.39607598160245377 -0.068186521779676296 0 -0.38102279842464121 -0.046266296511459241 0 -0.37806365358151678 -0.065833995478495888 0 -0.39607598160245377 -0.068186521779676296 0 -0.37265336573020669 -0.054557807935055748 0 -0.38102279842464121 -0.046266296511459241 0 -0.37806365358151678 -0.065833995478495888 0 -0.37296611818290137 -0.077254974114704833 0 -0.39607598160245377 -0.068186521779676296 0 -0.37296611818290137 -0.077254974114704833 0 -0.37806365358151678 -0.065833995478495888 0 -0.39607598160245377 -0.068186521779676296 0 -0.37296611818290137 -0.077254974114704833 0 -0.38621408758722259 -0.087261096155629381 0 -0.39607598160245377 -0.068186521779676296 0 -0.37296611818290137 -0.077254974114704833 0 -0.38621408758722259 -0.087261096155629381 0 -0.37244558248213733 -0.085521750487185522 0 -0.37296611818290137 -0.077254974114704833 0 -0.38621408758722259 -0.087261096155629381 0 -0.37469826202552892 -0.094037243041880561 0 -0.37244558248213733 -0.085521750487185522 0 -0.38621408758722259 -0.087261096155629381 0 -0.38621408758722259 -0.087261096155629381 0 -0.40199225162772878 -0.083793940770081538 0 -0.39607598160245377 -0.068186521779676296 0 -0.38621408758722259 -0.087261096155629381 0 -0.40199225162772878 -0.083793940770081538 0 -0.39946205699154308 -0.09726721819655515 0 -0.38621408758722259 -0.087261096155629381 0 -0.39946205699154308 -0.09726721819655515 0 -0.40199225162772878 -0.083793940770081538 0 -0.39946205699154308 -0.09726721819655515 0 -0.41241647736957321 -0.091208688109806341 0 -0.40199225162772878 -0.083793940770081538 0 -0.39607598160245377 -0.068186521779676296 0 -0.41895347426477841 -0.077795766970154598 0 -0.3745617993871731 -0.125738830363569 0 -0.38976651787947347 -0.1162766583313246 0 -0.38050764282027327 -0.1061318285135173 0 -0.3745617993871731 -0.125738830363569 0 -0.38668087209206747 -0.12653486827942681 0 -0.38976651787947347 -0.1162766583313246 0 -0.38976651787947347 -0.1162766583313246 0 -0.38050764282027327 -0.1061318285135173 0 -0.39946205699154308 -0.09726721819655515 0 -0.37469826202552892 -0.094037243041880561 0 -0.38621408758722259 -0.087261096155629381 0 -0.38050764282027327 -0.1061318285135173 0 -0.38621408758722259 -0.087261096155629381 0 -0.38050764282027327 -0.1061318285135173 0 -0.39946205699154308 -0.09726721819655515 0 -0.38050764282027327 -0.1061318285135173 0 -0.39946205699154308 -0.09726721819655515 0 -0.39946205699154308 -0.09726721819655515 0 -0.40141682026285069 -0.11495753220249399 0 -0.40937137379661631 -0.1125844841197573 0 -0.39946205699154308 -0.09726721819655515 0 -0.41241647736957321 -0.091208688109806341 0 -0.38976651787947347 -0.1162766583313246 0 -0.39946205699154308 -0.09726721819655515 0 -0.40141682026285069 -0.11495753220249399 0 -0.39774699650312723 -0.12818410525355409 0 -0.40141682026285069 -0.11495753220249399 0 -0.40872889919946931 -0.1207728076697011 0 -0.38668087209206747 -0.12653486827942681 0 -0.39774699650312723 -0.12818410525355409 0 -0.38976651787947347 -0.1162766583313246 0 -0.39774699650312723 -0.12818410525355409 0 -0.38976651787947347 -0.1162766583313246 0 -0.40141682026285069 -0.11495753220249399 0 -0.42285450410422581 -0.1300894234695707 0 -0.4161471275566318 -0.12321341695891749 0 -0.42197986905150431 -0.1205602575306428 0 -0.4161471275566318 -0.12321341695891749 0 -0.41660810579818047 -0.11666130940834379 0 -0.42197986905150431 -0.1205602575306428 0 -0.41008242803786699 -0.12802240846748031 0 -0.4161471275566318 -0.12321341695891749 0 -0.40872889919946931 -0.1207728076697011 0 -0.4161471275566318 -0.12321341695891749 0 -0.40872889919946931 -0.1207728076697011 0 -0.41660810579818047 -0.11666130940834379 0 -0.40141682026285069 -0.11495753220249399 0 -0.40872889919946931 -0.1207728076697011 0 -0.40937137379661631 -0.1125844841197573 0 -0.40872889919946931 -0.1207728076697011 0 -0.40937137379661631 -0.1125844841197573 0 -0.41660810579818047 -0.11666130940834379 0 -0.40937137379661631 -0.1125844841197573 0 -0.41660810579818047 -0.11666130940834379 0 -0.42064098673103839 -0.1132635531216927 0 -0.41660810579818047 -0.11666130940834379 0 -0.42064098673103839 -0.1132635531216927 0 -0.42197986905150431 -0.1205602575306428 0 -0.41660810579818047 -0.11666130940834379 0 -0.42064098673103839 -0.1132635531216927 0 -0.39946205699154308 -0.09726721819655515 0 -0.40937137379661631 -0.1125844841197573 0 -0.42064098673103839 -0.1132635531216927 0 -0.39946205699154308 -0.09726721819655515 0 -0.42064098673103839 -0.1132635531216927 0 -0.39946205699154308 -0.09726721819655515 0 -0.42064098673103839 -0.1132635531216927 0 -0.41241647736957321 -0.091208688109806341 0 -0.42064098673103839 -0.1132635531216927 0 -0.41241647736957321 -0.091208688109806341 0 -0.42688464783381219 -0.089502503746339446 0 -0.42064098673103839 -0.1132635531216927 0 -0.43865640426761132 -0.098085322171992645 0 -0.42064098673103839 -0.1132635531216927 0 -0.42688464783381219 -0.089502503746339446 0 -0.43865640426761132 -0.098085322171992645 0 -0.42285450410422581 -0.1300894234695707 0 -0.42944704958597202 -0.11991472636472909 0 -0.44398341642097833 -0.1101595805463689 0 -0.42944704958597202 -0.11991472636472909 0 -0.44398341642097833 -0.1101595805463689 0 -0.43865640426761132 -0.098085322171992645 0 -0.42064098673103839 -0.1132635531216927 0 -0.42944704958597202 -0.11991472636472909 0 -0.43865640426761132 -0.098085322171992645 0 -0.42285450410422581 -0.1300894234695707 0 -0.44398341642097833 -0.1101595805463689 0 -0.42064098673103839 -0.1132635531216927 0 -0.42944704958597202 -0.11991472636472909 0 -0.42285450410422581 -0.1300894234695707 0 -0.42944704958597202 -0.11991472636472909 0 -0.42197986905150431 -0.1205602575306428 0 -0.42064098673103839 -0.1132635531216927 0 -0.42944704958597202 -0.11991472636472909 0 -0.42197986905150431 -0.1205602575306428 0 -0.41918584502200568 -0.059118069444647071 0 -0.39607598160245377 -0.068186521779676296 0 -0.41918584502200568 -0.059118069444647071 0 -0.39607598160245377 -0.068186521779676296 0 -0.41895347426477841 -0.077795766970154598 0 -0.40199225162772878 -0.083793940770081538 0 -0.41895347426477841 -0.077795766970154598 0 -0.41241647736957321 -0.091208688109806341 0 -0.41895347426477841 -0.077795766970154598 0 -0.41241647736957321 -0.091208688109806341 0 -0.42688464783381219 -0.089502503746339446 0 -0.41895347426477841 -0.077795766970154598 0 -0.42688464783381219 -0.089502503746339446 0 -0.44073091957890881 -0.083955912635306482 0 -0.42688464783381219 -0.089502503746339446 0 -0.44073091957890881 -0.083955912635306482 0 -0.43865640426761132 -0.098085322171992645 0 -0.41895347426477841 -0.077795766970154598 0 -0.4369686066574302 -0.070179525985931607 0 -0.44073091957890881 -0.083955912635306482 0 -0.41918584502200568 -0.059118069444647071 0 -0.41895347426477841 -0.077795766970154598 0 -0.4369686066574302 -0.070179525985931607 0 -0.41918584502200568 -0.059118069444647071 0 -0.4369686066574302 -0.070179525985931607 0 -0.42611643838973678 -0.056398462042920428 0 -0.4369686066574302 -0.070179525985931607 0 -0.44043390334129517 -0.068819722285068927 0 -0.42611643838973678 -0.056398462042920428 0 -0.44043390334129517 -0.068819722285068927 0 -0.4369686066574302 -0.070179525985931607 0 -0.45475136829285462 -0.081240982527216357 0 -0.4369686066574302 -0.070179525985931607 0 -0.44043390334129517 -0.068819722285068927 0 -0.45475136829285462 -0.081240982527216357 0 -0.44043390334129517 -0.068819722285068927 0 -0.45174075103162248 -0.07024899423140632 0 -0.45409891485243298 -0.062201962914121348 0 -0.44043390334129517 -0.068819722285068927 0 -0.45174075103162248 -0.07024899423140632 0 -0.45475136829285462 -0.081240982527216357 0 -0.44043390334129517 -0.068819722285068927 0 -0.45475136829285462 -0.081240982527216357 0 -0.44073091957890881 -0.083955912635306482 0 -0.45475136829285462 -0.081240982527216357 0 -0.45699378104254429 -0.082635836244924654 0 -0.45699378104254429 -0.082635836244924654 0 -0.43865640426761132 -0.098085322171992645 0 -0.44073091957890881 -0.083955912635306482 0 -0.45699378104254429 -0.082635836244924654 0 -0.43865640426761132 -0.098085322171992645 0 -0.4369686066574302 -0.070179525985931607 0 -0.44073091957890881 -0.083955912635306482 0 -0.45475136829285462 -0.081240982527216357 0 -0.45699378104254429 -0.082635836244924654 0 -0.46511232873773067 -0.090229737623166939 0 -0.43865640426761132 -0.098085322171992645 0 -0.45475136829285462 -0.081240982527216357 0 -0.45699378104254429 -0.082635836244924654 0 -0.45699378104254429 -0.082635836244924654 0 -0.46673753100241439 -0.088696765865414834 0 -0.46511232873773067 -0.090229737623166939 0 -0.45699378104254429 -0.082635836244924654 0 -0.46511232873773067 -0.090229737623166939 0 -0.46673753100241439 -0.088696765865414834 0 -0.46511232873773067 -0.090229737623166939 0 -0.45699378104254429 -0.082635836244924654 0 -0.46673753100241439 -0.088696765865414834 0 -0.47042461821277959 -0.078081224589420295 0 -0.45699378104254429 -0.082635836244924654 0 -0.46673753100241439 -0.088696765865414834 0 -0.45699378104254429 -0.082635836244924654 0 -0.47637756236581719 -0.066304740448456856 0 -0.45699378104254429 -0.082635836244924654 0 -0.46128068379983528 -0.069760712352495979 0 -0.47637756236581719 -0.066304740448456856 0 -0.45699378104254429 -0.082635836244924654 0 -0.47637756236581719 -0.066304740448456856 0 -0.47042461821277959 -0.078081224589420295 0 -0.46128068379983528 -0.069760712352495979 0 -0.47637756236581719 -0.066304740448456856 0 -0.46629494382958608 -0.0554460447692742 0 -0.45174075103162248 -0.07024899423140632 0 -0.46128068379983528 -0.069760712352495979 0 -0.45409891485243298 -0.062201962914121348 0 -0.45174075103162248 -0.07024899423140632 0 -0.45475136829285462 -0.081240982527216357 0 -0.46128068379983528 -0.069760712352495979 0 -0.45475136829285462 -0.081240982527216357 0 -0.45699378104254429 -0.082635836244924654 0 -0.46128068379983528 -0.069760712352495979 0 -0.42285450410422581 -0.1300894234695707 0 -0.44877209028994619 -0.13014940148221241 0 -0.44398341642097833 -0.1101595805463689 0 -0.44877209028994619 -0.13014940148221241 0 -0.44398341642097833 -0.1101595805463689 0 -0.46516047725089937 -0.11550435478758619 0 -0.46511232873773067 -0.090229737623166939 0 -0.44398341642097833 -0.1101595805463689 0 -0.43865640426761132 -0.098085322171992645 0 -0.46511232873773067 -0.090229737623166939 0 -0.44398341642097833 -0.1101595805463689 0 -0.46516047725089937 -0.11550435478758619 0 -0.46511232873773067 -0.090229737623166939 0 -0.44398341642097833 -0.1101595805463689 0 -0.46516047725089937 -0.11550435478758619 0 -0.4823590528957365 -0.1232106897563288 0 -0.48255616436886523 -0.1053633120882453 0 -0.4694781317186642 -0.13556583492707069 0 -0.46516047725089937 -0.11550435478758619 0 -0.4823590528957365 -0.1232106897563288 0 -0.46511232873773067 -0.090229737623166939 0 -0.48255616436886523 -0.1053633120882453 0 -0.48268635176544428 -0.098617451491855801 0 -0.46511232873773067 -0.090229737623166939 0 -0.48255616436886523 -0.1053633120882453 0 -0.46511232873773067 -0.090229737623166939 0 -0.46516047725089937 -0.11550435478758619 0 -0.48255616436886523 -0.1053633120882453 0 -0.48268635176544428 -0.098617451491855801 0 -0.49863517252847411 -0.108538137118297 0 -0.48268635176544428 -0.098617451491855801 0 -0.49131612151911508 -0.097072972342960404 0 -0.49863517252847411 -0.108538137118297 0 -0.48255616436886523 -0.1053633120882453 0 -0.48268635176544428 -0.098617451491855801 0 -0.49863517252847411 -0.108538137118297 0 -0.5 -0.097224189592803878 0 -0.49863517252847411 -0.108538137118297 0 -0.49999999999999972 -0.12049688655332361 0 -0.48268635176544428 -0.098617451491855801 0 -0.49131612151911508 -0.097072972342960404 0 -0.48550506103235003 -0.091033678500255538 0 -0.49131612151911508 -0.097072972342960404 0 -0.5 -0.097224189592803878 0 -0.49127953568639549 -0.089264730325081712 0 -0.49131612151911508 -0.097072972342960404 0 -0.5 -0.097224189592803878 0 -0.49863517252847411 -0.108538137118297 0 -0.48255616436886523 -0.1053633120882453 0 -0.49863517252847411 -0.108538137118297 0 -0.49999999999999972 -0.12049688655332361 0 -0.48255616436886523 -0.1053633120882453 0 -0.49999999999999972 -0.12049688655332361 0 -0.4823590528957365 -0.1232106897563288 0 -0.48255616436886523 -0.1053633120882453 0 -0.49999999999999972 -0.12049688655332361 0 -0.4815895984403426 -0.074687555798884572 0 -0.47637756236581719 -0.066304740448456856 0 -0.47042461821277959 -0.078081224589420295 0 -0.46673753100241439 -0.088696765865414834 0 -0.46511232873773067 -0.090229737623166939 0 -0.48268635176544428 -0.098617451491855801 0 -0.46673753100241439 -0.088696765865414834 0 -0.48268635176544428 -0.098617451491855801 0 -0.46673753100241439 -0.088696765865414834 0 -0.48268635176544428 -0.098617451491855801 0 -0.47897897388831528 -0.086797286770651474 0 -0.46673753100241439 -0.088696765865414834 0 -0.4815895984403426 -0.074687555798884572 0 -0.47897897388831528 -0.086797286770651474 0 -0.46673753100241439 -0.088696765865414834 0 -0.4815895984403426 -0.074687555798884572 0 -0.47042461821277959 -0.078081224589420295 0 -0.46673753100241439 -0.088696765865414834 0 -0.4815895984403426 -0.074687555798884572 0 -0.47897897388831528 -0.086797286770651474 0 -0.48631534913665619 -0.082042602197712255 0 -0.48550506103235003 -0.091033678500255538 0 -0.48268635176544428 -0.098617451491855801 0 -0.47897897388831528 -0.086797286770651474 0 -0.48550506103235003 -0.091033678500255538 0 -0.4815895984403426 -0.074687555798884572 0 -0.47897897388831528 -0.086797286770651474 0 -0.48631534913665619 -0.082042602197712255 0 -0.5 -0.097224189592803878 0 -0.49127953568639549 -0.089264730325081712 0 -0.5 -0.073951492632284288 0 -0.48631534913665619 -0.082042602197712255 0 -0.48550506103235003 -0.091033678500255538 0 -0.49127953568639549 -0.089264730325081712 0 -0.49131612151911508 -0.097072972342960404 0 -0.48550506103235003 -0.091033678500255538 0 -0.49127953568639549 -0.089264730325081712 0 -0.48631534913665619 -0.082042602197712255 0 -0.49127953568639549 -0.089264730325081712 0 -0.5 -0.073951492632284288 0 -0.4815895984403426 -0.074687555798884572 0 -0.47637756236581719 -0.066304740448456856 0 -0.49644166587827021 -0.060678345732353672 0 -0.48631534913665619 -0.082042602197712255 0 -0.5 -0.073951492632284288 0 -0.4907811266349148 -0.073977545705649836 0 -0.4815895984403426 -0.074687555798884572 0 -0.48631534913665619 -0.082042602197712255 0 -0.4907811266349148 -0.073977545705649836 0 -0.4815895984403426 -0.074687555798884572 0 -0.49644166587827021 -0.060678345732353672 0 -0.4815895984403426 -0.074687555798884572 0 -0.4907811266349148 -0.073977545705649836 0 -0.49644166587827021 -0.060678345732353672 0 -0.5 -0.073951492632284288 0 -0.4907811266349148 -0.073977545705649836 0 -0.49644166587827021 -0.060678345732353672 0 -0.5 -0.073951492632284288 0 -0.49644166587827021 -0.060678345732353672 0 -0.5 -0.050678795671764587 0 -0.47637756236581719 -0.066304740448456856 0 -0.49644166587827021 -0.060678345732353672 0 -0.49576134368909108 -0.049973644651990418 0 -0.47637756236581719 -0.066304740448456856 0 -0.49576134368909108 -0.049973644651990418 0 -0.49644166587827021 -0.060678345732353672 0 -0.5 -0.050678795671764587 0 -0.49576134368909108 -0.049973644651990418 0 -0.49576134368909108 -0.049973644651990418 0 -0.47537214612991602 -0.037070219821804078 0 -0.50000000000000533 -0.02740609871124498 0 -0.5 -0.050678795671764587 0 -0.49576134368909108 -0.049973644651990418 0 -0.50000000000000533 -0.02740609871124498 0 -0.47537214612991602 -0.037070219821804078 0 -0.50000000000000533 -0.02740609871124498 0 -0.49576134368909108 -0.049973644651990418 0 -0.47537214612991602 -0.037070219821804078 0 -0.48049979023109107 -0.051528422089099142 0 -0.47537214612991602 -0.037070219821804078 0 -0.48049979023109107 -0.051528422089099142 0 -0.46629494382958608 -0.0554460447692742 0 -0.47637756236581719 -0.066304740448456856 0 -0.49576134368909108 -0.049973644651990418 0 -0.48049979023109107 -0.051528422089099142 0 -0.47637756236581719 -0.066304740448456856 0 -0.48049979023109107 -0.051528422089099142 0 -0.46629494382958608 -0.0554460447692742 0 -0.46629494382958608 -0.0554460447692742 0 -0.45409891485243298 -0.062201962914121348 0 -0.45074429225982598 -0.046734340932361347 0 -0.46128068379983528 -0.069760712352495979 0 -0.46629494382958608 -0.0554460447692742 0 -0.45409891485243298 -0.062201962914121348 0 -0.47537214612991602 -0.037070219821804078 0 -0.46629494382958608 -0.0554460447692742 0 -0.45074429225982598 -0.046734340932361347 0 -0.45074429225982598 -0.046734340932361347 0 -0.44747731892168402 -0.026277279353624838 0 -0.46194971686352559 -0.026868080560384189 0 -0.47537214612991602 -0.037070219821804078 0 -0.45074429225982598 -0.046734340932361347 0 -0.46194971686352559 -0.026868080560384189 0 -0.47537214612991602 -0.037070219821804078 0 -0.45074429225982598 -0.046734340932361347 0 -0.43015549415499083 -0.033592877088493678 0 -0.45074429225982598 -0.046734340932361347 0 -0.44747731892168402 -0.026277279353624838 0 -0.42611643838973678 -0.056398462042920428 0 -0.45074429225982598 -0.046734340932361347 0 -0.44043390334129517 -0.068819722285068927 0 -0.45409891485243298 -0.062201962914121348 0 -0.45074429225982598 -0.046734340932361347 0 -0.42611643838973678 -0.056398462042920428 0 -0.44043390334129517 -0.068819722285068927 0 -0.45074429225982598 -0.046734340932361347 0 -0.43294040304207121 -0.0054000284565828239 0 -0.44928020230398868 -0.0065541757467477164 0 -0.44508979118202568 -0.0032556880582237588 0 -0.44928020230398868 -0.0065541757467477164 0 -0.44976747579741683 -0.016027624629913091 0 -0.45600541429577551 -0.011424020110792261 0 -0.44928020230398868 -0.0065541757467477164 0 -0.43884607197457631 -0.018346690520704801 0 -0.44976747579741683 -0.016027624629913091 0 -0.44928020230398868 -0.0065541757467477164 0 -0.44508979118202568 -0.0032556880582237588 0 -0.45275776774433019 0.001302723555481099 0 -0.43294040304207121 -0.0054000284565828239 0 -0.44508979118202568 -0.0032556880582237588 0 -0.43778897408912459 0.0058456072149751558 0 -0.43015549415499083 -0.033592877088493678 0 -0.43884607197457631 -0.018346690520704801 0 -0.44747731892168402 -0.026277279353624838 0 -0.44747731892168402 -0.026277279353624838 0 -0.44976747579741683 -0.016027624629913091 0 -0.45722837149105972 -0.017535957417695869 0 -0.43884607197457631 -0.018346690520704801 0 -0.44747731892168402 -0.026277279353624838 0 -0.44976747579741683 -0.016027624629913091 0 -0.44747731892168402 -0.026277279353624838 0 -0.45722837149105972 -0.017535957417695869 0 -0.46194971686352559 -0.026868080560384189 0 -0.45722837149105972 -0.017535957417695869 0 -0.46194971686352559 -0.026868080560384189 0 -0.46786282709857779 -0.01707822782356563 0 -0.44928020230398868 -0.0065541757467477164 0 -0.46333297898703057 -0.0060788287705736688 0 -0.47551457130659153 0.0028596864842841958 0 -0.44928020230398868 -0.0065541757467477164 0 -0.47551457130659153 0.0028596864842841958 0 -0.44928020230398868 -0.0065541757467477164 0 -0.47551457130659153 0.0028596864842841958 0 -0.45275776774433019 0.001302723555481099 0 -0.46327428166200652 -0.01177441083509218 0 -0.46333297898703057 -0.0060788287705736688 0 -0.47194181643758831 -0.0067550200528334447 0 -0.45722837149105972 -0.017535957417695869 0 -0.46786282709857779 -0.01707822782356563 0 -0.46327428166200652 -0.01177441083509218 0 -0.46786282709857779 -0.01707822782356563 0 -0.46327428166200652 -0.01177441083509218 0 -0.47194181643758831 -0.0067550200528334447 0 -0.44928020230398868 -0.0065541757467477164 0 -0.45600541429577551 -0.011424020110792261 0 -0.46333297898703057 -0.0060788287705736688 0 -0.45722837149105972 -0.017535957417695869 0 -0.46327428166200652 -0.01177441083509218 0 -0.45600541429577551 -0.011424020110792261 0 -0.46327428166200652 -0.01177441083509218 0 -0.45600541429577551 -0.011424020110792261 0 -0.46333297898703057 -0.0060788287705736688 0 -0.44976747579741683 -0.016027624629913091 0 -0.45722837149105972 -0.017535957417695869 0 -0.45600541429577551 -0.011424020110792261 0 -0.46333297898703057 -0.0060788287705736688 0 -0.47194181643758831 -0.0067550200528334447 0 -0.47551457130659153 0.0028596864842841958 0 -0.47194181643758831 -0.0067550200528334447 0 -0.4779451843284967 -0.003754640517543643 0 -0.47551457130659153 0.0028596864842841958 0 -0.46786282709857779 -0.01707822782356563 0 -0.47194181643758831 -0.0067550200528334447 0 -0.48089669542797181 -0.01064310227795839 0 -0.48089669542797181 -0.01064310227795839 0 -0.47931883019630461 -0.02178375965522027 0 -0.48983159565783108 -0.011636828736362591 0 -0.4779451843284967 -0.003754640517543643 0 -0.48342765414183508 -0.00048012622366693929 0 -0.47551457130659153 0.0028596864842841958 0 -0.48089669542797181 -0.01064310227795839 0 -0.4779451843284967 -0.003754640517543643 0 -0.48342765414183508 -0.00048012622366693929 0 -0.47194181643758831 -0.0067550200528334447 0 -0.48089669542797181 -0.01064310227795839 0 -0.4779451843284967 -0.003754640517543643 0 -0.46194971686352559 -0.026868080560384189 0 -0.46786282709857779 -0.01707822782356563 0 -0.47931883019630461 -0.02178375965522027 0 -0.47537214612991602 -0.037070219821804078 0 -0.46194971686352559 -0.026868080560384189 0 -0.47931883019630461 -0.02178375965522027 0 -0.46786282709857779 -0.01707822782356563 0 -0.48089669542797181 -0.01064310227795839 0 -0.47931883019630461 -0.02178375965522027 0 -0.47931883019630461 -0.02178375965522027 0 -0.50000000000000533 -0.02740609871124498 0 -0.48983159565783108 -0.011636828736362591 0 -0.47537214612991602 -0.037070219821804078 0 -0.47931883019630461 -0.02178375965522027 0 -0.50000000000000533 -0.02740609871124498 0 -0.50000000000000533 -0.02740609871124498 0 -0.48983159565783108 -0.011636828736362591 0 -0.5 -0.0061756175787586187 0 -0.48089669542797181 -0.01064310227795839 0 -0.48342765414183508 -0.00048012622366693929 0 -0.48983159565783108 -0.011636828736362591 0 -0.48342765414183508 -0.00048012622366693929 0 -0.49198285695918748 -0.001241528637365881 0 -0.48983159565783108 -0.011636828736362591 0 -0.49198285695918748 -0.001241528637365881 0 -0.48983159565783108 -0.011636828736362591 0 -0.5 -0.0061756175787586187 0 -0.49198285695918748 -0.001241528637365881 0 -0.5 0.01505486355372782 0 -0.48965853058830811 0.01963404656161739 0 -0.49198285695918748 -0.001241528637365881 0 -0.48505584081274428 0.0074893492485002752 0 -0.48965853058830811 0.01963404656161739 0 -0.49198285695918748 -0.001241528637365881 0 -0.48965853058830811 0.01963404656161739 0 -0.49198285695918748 -0.001241528637365881 0 -0.5 -0.0061756175787586187 0 -0.5 0.01505486355372782 0 -0.48342765414183508 -0.00048012622366693929 0 -0.49198285695918748 -0.001241528637365881 0 -0.48505584081274428 0.0074893492485002752 0 -0.48505584081274428 0.0074893492485002752 0 -0.48965853058830811 0.01963404656161739 0 -0.47999070072805772 0.01345993896189354 0 -0.48965853058830811 0.01963404656161739 0 -0.48052863026542031 0.028797230137389451 0 -0.48733420421742563 0.040509621760600308 0 -0.5 0.01505486355372782 0 -0.48965853058830811 0.01963404656161739 0 -0.50000000000000289 0.036285344686214187 0 -0.48965853058830811 0.01963404656161739 0 -0.48733420421742563 0.040509621760600308 0 -0.48965853058830811 0.01963404656161739 0 -0.47932782235344901 0.020857736326033199 0 -0.47999070072805772 0.01345993896189354 0 -0.48965853058830811 0.01963404656161739 0 -0.47932782235344901 0.020857736326033199 0 -0.48052863026542031 0.028797230137389451 0 -0.47932782235344901 0.020857736326033199 0 -0.47396227239530991 0.017721674897846259 0 -0.47999070072805772 0.01345993896189354 0 -0.47932782235344901 0.020857736326033199 0 -0.48052863026542031 0.028797230137389451 0 -0.47169428250306572 0.026867934531772879 0 -0.48052863026542031 0.028797230137389451 0 -0.47169428250306572 0.026867934531772879 0 -0.47462831166485381 0.036116811506924758 0 -0.47169428250306572 0.026867934531772879 0 -0.47396227239530991 0.017721674897846259 0 -0.46435693080125889 0.01803199611827495 0 -0.47932782235344901 0.020857736326033199 0 -0.47169428250306572 0.026867934531772879 0 -0.47396227239530991 0.017721674897846259 0 -0.47396227239530991 0.017721674897846259 0 -0.47444162559071779 0.0093907685512567424 0 -0.47999070072805772 0.01345993896189354 0 -0.47396227239530991 0.017721674897846259 0 -0.47444162559071779 0.0093907685512567424 0 -0.46435693080125889 0.01803199611827495 0 -0.47444162559071779 0.0093907685512567424 0 -0.47551457130659153 0.0028596864842841958 0 -0.47968439200740809 0.0066450021038785313 0 -0.48342765414183508 -0.00048012622366693929 0 -0.47551457130659153 0.0028596864842841958 0 -0.47968439200740809 0.0066450021038785313 0 -0.48342765414183508 -0.00048012622366693929 0 -0.48505584081274428 0.0074893492485002752 0 -0.47968439200740809 0.0066450021038785313 0 -0.48505584081274428 0.0074893492485002752 0 -0.47968439200740809 0.0066450021038785313 0 -0.47999070072805772 0.01345993896189354 0 -0.47444162559071779 0.0093907685512567424 0 -0.47968439200740809 0.0066450021038785313 0 -0.47999070072805772 0.01345993896189354 0 -0.48503770415741532 0.061135279283532788 0 -0.5 0.059649537406787363 0 -0.48733420421742563 0.040509621760600308 0 -0.48503770415741532 0.061135279283532788 0 -0.48733420421742563 0.040509621760600308 0 -0.5 0.059649537406787363 0 -0.48733420421742563 0.040509621760600308 0 -0.50000000000000289 0.036285344686214187 0 -0.48965853058830811 0.01963404656161739 0 -0.48733420421742563 0.040509621760600308 0 -0.50000000000000289 0.036285344686214187 0 -0.48733420421742563 0.040509621760600308 0 -0.50000000000000289 0.036285344686214187 0 -0.48733420421742563 0.040509621760600308 0 -0.46607263035994528 0.047600749752336982 0 -0.48733420421742563 0.040509621760600308 0 -0.47462831166485381 0.036116811506924758 0 -0.46607263035994528 0.047600749752336982 0 -0.48052863026542031 0.028797230137389451 0 -0.48733420421742563 0.040509621760600308 0 -0.47462831166485381 0.036116811506924758 0 -0.47169428250306572 0.026867934531772879 0 -0.47462831166485381 0.036116811506924758 0 -0.4650643384935691 0.036945740874127747 0 -0.48503770415741532 0.061135279283532788 0 -0.48733420421742563 0.040509621760600308 0 -0.46607263035994528 0.047600749752336982 0 -0.48503770415741532 0.061135279283532788 0 -0.46607263035994528 0.047600749752336982 0 -0.47269961436584079 0.070084534351051109 0 -0.46607263035994528 0.047600749752336982 0 -0.44481105650246539 0.054691877744074288 0 -0.45830984991759588 0.059745556605643159 0 -0.46607263035994528 0.047600749752336982 0 -0.47269961436584079 0.070084534351051109 0 -0.46607263035994528 0.047600749752336982 0 -0.45245112117461878 0.0433684551740776 0 -0.44481105650246539 0.054691877744074288 0 -0.45830984991759588 0.059745556605643159 0 -0.46607263035994528 0.047600749752336982 0 -0.44481105650246539 0.054691877744074288 0 -0.46607263035994528 0.047600749752336982 0 -0.4650643384935691 0.036945740874127747 0 -0.45245112117461878 0.0433684551740776 0 -0.47462831166485381 0.036116811506924758 0 -0.46607263035994528 0.047600749752336982 0 -0.4650643384935691 0.036945740874127747 0 -0.4650643384935691 0.036945740874127747 0 -0.45245112117461878 0.0433684551740776 0 -0.45751471812228822 0.0295398547682625 0 -0.45245112117461878 0.0433684551740776 0 -0.43512477378742442 0.042001155446105248 0 -0.45245112117461878 0.0433684551740776 0 -0.44481105650246539 0.054691877744074288 0 -0.43512477378742442 0.042001155446105248 0 -0.44286439790979631 0.033323803017811973 0 -0.45245112117461878 0.0433684551740776 0 -0.43512477378742442 0.042001155446105248 0 -0.44286439790979631 0.033323803017811973 0 -0.45245112117461878 0.0433684551740776 0 -0.45751471812228822 0.0295398547682625 0 -0.44481105650246539 0.054691877744074288 0 -0.43512477378742442 0.042001155446105248 0 -0.47444162559071779 0.0093907685512567424 0 -0.45611529983992122 0.0076181878831165046 0 -0.47444162559071779 0.0093907685512567424 0 -0.45611529983992122 0.0076181878831165046 0 -0.46435693080125889 0.01803199611827495 0 -0.47551457130659153 0.0028596864842841958 0 -0.45611529983992122 0.0076181878831165046 0 -0.45275776774433019 0.001302723555481099 0 -0.47444162559071779 0.0093907685512567424 0 -0.47551457130659153 0.0028596864842841958 0 -0.45611529983992122 0.0076181878831165046 0 -0.45611529983992122 0.0076181878831165046 0 -0.46435693080125889 0.01803199611827495 0 -0.45413185216262508 0.018932323727781149 0 -0.47169428250306572 0.026867934531772879 0 -0.46435693080125889 0.01803199611827495 0 -0.45751471812228822 0.0295398547682625 0 -0.47169428250306572 0.026867934531772879 0 -0.4650643384935691 0.036945740874127747 0 -0.45751471812228822 0.0295398547682625 0 -0.46435693080125889 0.01803199611827495 0 -0.45751471812228822 0.0295398547682625 0 -0.45413185216262508 0.018932323727781149 0 -0.45413185216262508 0.018932323727781149 0 -0.44399840672743007 0.02179031099905766 0 -0.44804156746801538 0.01375129366484484 0 -0.45751471812228822 0.0295398547682625 0 -0.45413185216262508 0.018932323727781149 0 -0.44399840672743007 0.02179031099905766 0 -0.44286439790979631 0.033323803017811973 0 -0.45751471812228822 0.0295398547682625 0 -0.44399840672743007 0.02179031099905766 0 -0.45611529983992122 0.0076181878831165046 0 -0.44804156746801538 0.01375129366484484 0 -0.43778897408912459 0.0058456072149751558 0 -0.45611529983992122 0.0076181878831165046 0 -0.43778897408912459 0.0058456072149751558 0 -0.45611529983992122 0.0076181878831165046 0 -0.45275776774433019 0.001302723555481099 0 -0.43778897408912459 0.0058456072149751558 0 -0.44399840672743007 0.02179031099905766 0 -0.44804156746801538 0.01375129366484484 0 -0.43778897408912459 0.0058456072149751558 0 -0.45611529983992122 0.0076181878831165046 0 -0.45413185216262508 0.018932323727781149 0 -0.44804156746801538 0.01375129366484484 0 -0.44508979118202568 -0.0032556880582237588 0 -0.45275776774433019 0.001302723555481099 0 -0.43778897408912459 0.0058456072149751558 0 -0.44508979118202568 -0.0032556880582237588 0 -0.43778897408912459 0.0058456072149751558 0 -0.43778897408912459 0.0058456072149751558 0 -0.42145287969950512 0.0042655280708142149 0 -0.43778897408912459 0.0058456072149751558 0 -0.42228275406636162 0.02517586644519933 0 -0.43294040304207121 -0.0054000284565828239 0 -0.43778897408912459 0.0058456072149751558 0 -0.42145287969950512 0.0042655280708142149 0 -0.43778897408912459 0.0058456072149751558 0 -0.42145287969950512 0.0042655280708142149 0 -0.42228275406636162 0.02517586644519933 0 -0.42145287969950512 0.0042655280708142149 0 -0.40511678530988571 0.0026854489266496051 0 -0.42145287969950512 0.0042655280708142149 0 -0.42228275406636162 0.02517586644519933 0 -0.40511678530988571 0.0026854489266496051 0 -0.42228275406636162 0.02517586644519933 0 -0.40511678530988571 0.0026854489266496051 0 -0.40631155388454832 0.021040100609595248 0 -0.42228275406636162 0.02517586644519933 0 -0.40511678530988571 0.0026854489266496051 0 -0.40631155388454832 0.021040100609595248 0 -0.42228275406636162 0.02517586644519933 0 -0.41035402004648069 0.040046384247374001 0 -0.44399840672743007 0.02179031099905766 0 -0.43778897408912459 0.0058456072149751558 0 -0.42228275406636162 0.02517586644519933 0 -0.44286439790979631 0.033323803017811973 0 -0.44399840672743007 0.02179031099905766 0 -0.42228275406636162 0.02517586644519933 0 -0.42228275406636162 0.02517586644519933 0 -0.43512477378742442 0.042001155446105248 0 -0.41035402004648069 0.040046384247374001 0 -0.43512477378742442 0.042001155446105248 0 -0.41035402004648069 0.040046384247374001 0 -0.42228275406636162 0.02517586644519933 0 -0.43512477378742442 0.042001155446105248 0 -0.44286439790979631 0.033323803017811973 0 -0.42228275406636162 0.02517586644519933 0 -0.43512477378742442 0.042001155446105248 0 -0.44481105650246539 0.054691877744074288 0 -0.42100565986793848 0.062631417665299158 0 -0.43512477378742442 0.042001155446105248 0 -0.41035402004648069 0.040046384247374001 0 -0.42100565986793848 0.062631417665299158 0 -0.44481105650246539 0.054691877744074288 0 -0.43512477378742442 0.042001155446105248 0 -0.42100565986793848 0.062631417665299158 0 -0.41035402004648069 0.040046384247374001 0 -0.39520450370618199 0.058931971943198228 0 -0.42100565986793848 0.062631417665299158 0 -0.42228275406636162 0.02517586644519933 0 -0.41035402004648069 0.040046384247374001 0 -0.41035402004648069 0.040046384247374001 0 -0.38545863443343659 0.038081777789024773 0 -0.41035402004648069 0.040046384247374001 0 -0.39176979228706948 0.033699344670370293 0 -0.38545863443343659 0.038081777789024773 0 -0.41035402004648069 0.040046384247374001 0 -0.39176979228706948 0.033699344670370293 0 -0.39719689946473169 0.025371636716446329 0 -0.41035402004648069 0.040046384247374001 0 -0.39218413560599052 0.047846780682360271 0 -0.38545863443343659 0.038081777789024773 0 -0.41035402004648069 0.040046384247374001 0 -0.39520450370618199 0.058931971943198228 0 -0.41035402004648069 0.040046384247374001 0 -0.39218413560599052 0.047846780682360271 0 -0.39520450370618199 0.058931971943198228 0 -0.39218413560599052 0.047846780682360271 0 -0.39520450370618199 0.058931971943198228 0 -0.38591376453226311 0.055880781512114952 0 -0.39520450370618199 0.058931971943198228 0 -0.38591376453226311 0.055880781512114952 0 -0.38417217177484209 0.065954508742866763 0 -0.38591376453226311 0.055880781512114952 0 -0.37912199537493951 0.053463646239290952 0 -0.38398975531158969 0.046292987920089908 0 -0.39218413560599052 0.047846780682360271 0 -0.38591376453226311 0.055880781512114952 0 -0.38398975531158969 0.046292987920089908 0 -0.37912199537493951 0.053463646239290952 0 -0.38398975531158969 0.046292987920089908 0 -0.36855538347123629 0.050060970134671659 0 -0.37912199537493951 0.053463646239290952 0 -0.37802907818466908 0.061619845390287302 0 -0.36855538347123629 0.050060970134671659 0 -0.38591376453226311 0.055880781512114952 0 -0.37912199537493951 0.053463646239290952 0 -0.37802907818466908 0.061619845390287302 0 -0.38591376453226311 0.055880781512114952 0 -0.37802907818466908 0.061619845390287302 0 -0.38417217177484209 0.065954508742866763 0 -0.38545863443343659 0.038081777789024773 0 -0.38398975531158969 0.046292987920089908 0 -0.36855538347123629 0.050060970134671659 0 -0.38545863443343659 0.038081777789024773 0 -0.38398975531158969 0.046292987920089908 0 -0.39218413560599052 0.047846780682360271 0 -0.38545863443343659 0.038081777789024773 0 -0.38398975531158969 0.046292987920089908 0 -0.38545863443343659 0.038081777789024773 0 -0.38874266687899039 0.019723643285912799 0 -0.37482164725281247 0.026706155894675541 0 -0.39176979228706948 0.033699344670370293 0 -0.38545863443343659 0.038081777789024773 0 -0.38874266687899039 0.019723643285912799 0 -0.38545863443343659 0.038081777789024773 0 -0.38874266687899039 0.019723643285912799 0 -0.38874266687899039 0.019723643285912799 0 -0.37482164725281247 0.026706155894675541 0 -0.3647774865479938 0.0148038407627462 0 -0.39176979228706948 0.033699344670370293 0 -0.38874266687899039 0.019723643285912799 0 -0.38874266687899039 0.019723643285912799 0 -0.3847587987592887 0.0013308304056126601 0 -0.38874266687899039 0.019723643285912799 0 -0.3847587987592887 0.0013308304056126601 0 -0.39201723444485131 0.0014184185933258609 0 -0.38874266687899039 0.019723643285912799 0 -0.3847587987592887 0.0013308304056126601 0 -0.3647774865479938 0.0148038407627462 0 -0.38874266687899039 0.019723643285912799 0 -0.39201723444485131 0.0014184185933258609 0 -0.38913647344426999 -0.00048407806585306691 0 -0.3847587987592887 0.0013308304056126601 0 -0.39201723444485131 0.0014184185933258609 0 -0.40631155388454832 0.021040100609595248 0 -0.3976177828550625 0.011865785357815999 0 -0.40511678530988571 0.0026854489266496051 0 -0.38874266687899039 0.019723643285912799 0 -0.3976177828550625 0.011865785357815999 0 -0.39201723444485131 0.0014184185933258609 0 -0.3976177828550625 0.011865785357815999 0 -0.39201723444485131 0.0014184185933258609 0 -0.40511678530988571 0.0026854489266496051 0 -0.39201723444485131 0.0014184185933258609 0 -0.40511678530988571 0.0026854489266496051 0 -0.40631155388454832 0.021040100609595248 0 -0.41035402004648069 0.040046384247374001 0 -0.39719689946473169 0.025371636716446329 0 -0.40631155388454832 0.021040100609595248 0 -0.3976177828550625 0.011865785357815999 0 -0.39719689946473169 0.025371636716446329 0 -0.39176979228706948 0.033699344670370293 0 -0.38874266687899039 0.019723643285912799 0 -0.39719689946473169 0.025371636716446329 0 -0.38874266687899039 0.019723643285912799 0 -0.3976177828550625 0.011865785357815999 0 -0.39719689946473169 0.025371636716446329 0 -0.39985414159433941 0.10105909778773341 0 -0.39020448236130362 0.1118644766118335 0 -0.38570540736761799 0.1000309346273444 0 -0.39985414159433941 0.10105909778773341 0 -0.38570540736761799 0.1000309346273444 0 -0.39741311330630708 0.089510488569340629 0 -0.39985414159433941 0.10105909778773341 0 -0.39020448236130362 0.1118644766118335 0 -0.39957519606134112 0.1255189269065882 0 -0.39985414159433941 0.10105909778773341 0 -0.41673818443486937 0.11858227849253659 0 -0.39957519606134112 0.1255189269065882 0 -0.39985414159433941 0.10105909778773341 0 -0.39957519606134112 0.1255189269065882 0 -0.39020448236130362 0.1118644766118335 0 -0.38602915278976652 0.1213503071664286 0 -0.39957519606134112 0.1255189269065882 0 -0.39020448236130362 0.1118644766118335 0 -0.38602915278976652 0.1213503071664286 0 -0.37863491779672193 0.1111416362774731 0 -0.38602915278976652 0.1213503071664286 0 -0.37863491779672193 0.1111416362774731 0 -0.37246510506044889 0.1213868827414811 0 -0.37863491779672193 0.1111416362774731 0 -0.38570540736761799 0.1000309346273444 0 -0.37336753619252078 0.1007201441306346 0 -0.39020448236130362 0.1118644766118335 0 -0.37863491779672193 0.1111416362774731 0 -0.38570540736761799 0.1000309346273444 0 -0.38570540736761799 0.1000309346273444 0 -0.37413635783974292 0.088598178163790342 0 -0.37336753619252078 0.1007201441306346 0 -0.38749770383665871 0.08145058066107902 0 -0.39741311330630708 0.089510488569340629 0 -0.37413635783974292 0.088598178163790342 0 -0.39741311330630708 0.089510488569340629 0 -0.37413635783974292 0.088598178163790342 0 -0.38570540736761799 0.1000309346273444 0 -0.39741311330630708 0.089510488569340629 0 -0.37413635783974292 0.088598178163790342 0 -0.38749770383665871 0.08145058066107902 0 -0.37339486659888438 0.078510497507747662 0 -0.37413635783974292 0.088598178163790342 0 -0.38417217177484209 0.065954508742866763 0 -0.39720026323341129 0.070570957586523431 0 -0.37339486659888438 0.078510497507747662 0 -0.39720026323341129 0.070570957586523431 0 -0.37339486659888438 0.078510497507747662 0 -0.38749770383665871 0.08145058066107902 0 -0.39720026323341129 0.070570957586523431 0 -0.37339486659888438 0.078510497507747662 0 -0.37802907818466908 0.061619845390287302 0 -0.37540578464729951 0.068724467295811595 0 -0.38417217177484209 0.065954508742866763 0 -0.37540578464729951 0.068724467295811595 0 -0.38417217177484209 0.065954508742866763 0 -0.37339486659888438 0.078510497507747662 0 -0.39520450370618199 0.058931971943198228 0 -0.39720026323341129 0.070570957586523431 0 -0.42100565986793848 0.062631417665299158 0 -0.39520450370618199 0.058931971943198228 0 -0.38417217177484209 0.065954508742866763 0 -0.39720026323341129 0.070570957586523431 0 -0.38749770383665871 0.08145058066107902 0 -0.39720026323341129 0.070570957586523431 0 -0.39701719353306247 0.080215640545016481 0 -0.39720026323341129 0.070570957586523431 0 -0.39701719353306247 0.080215640545016481 0 -0.40863493428085618 0.079575109870360344 0 -0.39985414159433941 0.10105909778773341 0 -0.39741311330630708 0.089510488569340629 0 -0.4206898687728714 0.090422798974890917 0 -0.38749770383665871 0.08145058066107902 0 -0.39741311330630708 0.089510488569340629 0 -0.39701719353306247 0.080215640545016481 0 -0.39741311330630708 0.089510488569340629 0 -0.39701719353306247 0.080215640545016481 0 -0.40863493428085618 0.079575109870360344 0 -0.39741311330630708 0.089510488569340629 0 -0.4206898687728714 0.090422798974890917 0 -0.39741311330630708 0.089510488569340629 0 -0.40863493428085618 0.079575109870360344 0 -0.4206898687728714 0.090422798974890917 0 -0.40863493428085618 0.079575109870360344 0 -0.4206898687728714 0.090422798974890917 0 -0.42100565986793848 0.062631417665299158 0 -0.39720026323341129 0.070570957586523431 0 -0.40863493428085618 0.079575109870360344 0 -0.42100565986793848 0.062631417665299158 0 -0.39720026323341129 0.070570957586523431 0 -0.42100565986793848 0.062631417665299158 0 -0.44481105650246539 0.054691877744074288 0 -0.42100565986793848 0.062631417665299158 0 -0.43801942535367799 0.07463610333734258 0 -0.4206898687728714 0.090422798974890917 0 -0.42100565986793848 0.062631417665299158 0 -0.43801942535367799 0.07463610333734258 0 -0.4206898687728714 0.090422798974890917 0 -0.44396662423943573 0.091335109380441218 0 -0.4206898687728714 0.090422798974890917 0 -0.43801942535367799 0.07463610333734258 0 -0.44396662423943573 0.091335109380441218 0 -0.4206898687728714 0.090422798974890917 0 -0.42999503682261619 0.1058008428501049 0 -0.44396662423943573 0.091335109380441218 0 -0.4206898687728714 0.090422798974890917 0 -0.42999503682261619 0.1058008428501049 0 -0.41681930790617411 0.1039662545263164 0 -0.39985414159433941 0.10105909778773341 0 -0.41681930790617411 0.1039662545263164 0 -0.41673818443486937 0.11858227849253659 0 -0.39985414159433941 0.10105909778773341 0 -0.4206898687728714 0.090422798974890917 0 -0.41681930790617411 0.1039662545263164 0 -0.42999503682261619 0.1058008428501049 0 -0.41681930790617411 0.1039662545263164 0 -0.41673818443486937 0.11858227849253659 0 -0.42999503682261619 0.1058008428501049 0 -0.41673818443486937 0.11858227849253659 0 -0.43913597673344218 0.12216261356878361 0 -0.41673818443486937 0.11858227849253659 0 -0.43913597673344218 0.12216261356878361 0 -0.43913597673344218 0.12216261356878361 0 -0.45140796544701201 0.11613643587340031 0 -0.46153376903201498 0.12574294864503069 0 -0.43913597673344218 0.12216261356878361 0 -0.46153376903201498 0.12574294864503069 0 -0.42999503682261619 0.1058008428501049 0 -0.43913597673344218 0.12216261356878361 0 -0.44500121029518519 0.10839973254683349 0 -0.45140796544701201 0.11613643587340031 0 -0.44500121029518519 0.10839973254683349 0 -0.45996090572740572 0.1082404487329532 0 -0.43913597673344218 0.12216261356878361 0 -0.45140796544701201 0.11613643587340031 0 -0.44500121029518519 0.10839973254683349 0 -0.44500121029518519 0.10839973254683349 0 -0.45996090572740572 0.1082404487329532 0 -0.44396662423943573 0.091335109380441218 0 -0.42999503682261619 0.1058008428501049 0 -0.44500121029518519 0.10839973254683349 0 -0.44396662423943573 0.091335109380441218 0 -0.45996090572740572 0.1082404487329532 0 -0.46724337970599972 0.092247419785991491 0 -0.47242857296667001 0.1050366692333673 0 -0.45996090572740572 0.1082404487329532 0 -0.44396662423943573 0.091335109380441218 0 -0.46724337970599972 0.092247419785991491 0 -0.45996090572740572 0.1082404487329532 0 -0.47281723530480779 0.11644349165160051 0 -0.46153376903201498 0.12574294864503069 0 -0.45140796544701201 0.11613643587340031 0 -0.45996090572740572 0.1082404487329532 0 -0.46153376903201498 0.12574294864503069 0 -0.45996090572740572 0.1082404487329532 0 -0.47281723530480779 0.11644349165160051 0 -0.47242857296667001 0.1050366692333673 0 -0.44481105650246539 0.054691877744074288 0 -0.45962391738567898 0.074099312922007401 0 -0.44481105650246539 0.054691877744074288 0 -0.43801942535367799 0.07463610333734258 0 -0.45962391738567898 0.074099312922007401 0 -0.43801942535367799 0.07463610333734258 0 -0.44396662423943573 0.091335109380441218 0 -0.45962391738567898 0.074099312922007401 0 -0.46724337970599972 0.092247419785991491 0 -0.45962391738567898 0.074099312922007401 0 -0.47269961436584079 0.070084534351051109 0 -0.44396662423943573 0.091335109380441218 0 -0.46724337970599972 0.092247419785991491 0 -0.44396662423943573 0.091335109380441218 0 -0.46724337970599972 0.092247419785991491 0 -0.45962391738567898 0.074099312922007401 0 -0.45830984991759588 0.059745556605643159 0 -0.44481105650246539 0.054691877744074288 0 -0.45962391738567898 0.074099312922007401 0 -0.45830984991759588 0.059745556605643159 0 -0.45962391738567898 0.074099312922007401 0 -0.47269961436584079 0.070084534351051109 0 -0.48503770415741532 0.061135279283532788 0 -0.48274120409740201 0.081760936806464846 0 -0.48503770415741532 0.061135279283532788 0 -0.47269961436584079 0.070084534351051109 0 -0.48274120409740201 0.081760936806464846 0 -0.46724337970599972 0.092247419785991491 0 -0.47269961436584079 0.070084534351051109 0 -0.48274120409740201 0.081760936806464846 0 -0.46724337970599972 0.092247419785991491 0 -0.48274120409740201 0.081760936806464846 0 -0.47904321362057978 0.097021706359042059 0 -0.48274120409740201 0.081760936806464846 0 -0.47904321362057978 0.097021706359042059 0 -0.4896260736393232 0.095070405512342637 0 -0.48274120409740201 0.081760936806464846 0 -0.5 0.083013730127360519 0 -0.4896260736393232 0.095070405512342637 0 -0.48274120409740201 0.081760936806464846 0 -0.5 0.083013730127360519 0 -0.49194472706370429 0.071389870906036379 0 -0.48503770415741532 0.061135279283532788 0 -0.48274120409740201 0.081760936806464846 0 -0.49194472706370429 0.071389870906036379 0 -0.5 0.059649537406787363 0 -0.5 0.083013730127360519 0 -0.49194472706370429 0.071389870906036379 0 -0.48503770415741532 0.061135279283532788 0 -0.5 0.059649537406787363 0 -0.49194472706370429 0.071389870906036379 0 -0.48400538123473891 0.107926889470303 0 -0.48393156133058779 0.12932328372127769 0 -0.47281723530480779 0.11644349165160051 0 -0.48393156133058779 0.12932328372127769 0 -0.46153376903201498 0.12574294864503069 0 -0.47281723530480779 0.11644349165160051 0 -0.48400538123473891 0.107926889470303 0 -0.48393156133058779 0.12932328372127769 0 -0.47281723530480779 0.11644349165160051 0 -0.47242857296667001 0.1050366692333673 0 -0.48400538123473891 0.107926889470303 0 -0.46724337970599972 0.092247419785991491 0 -0.47242857296667001 0.1050366692333673 0 -0.47904321362057978 0.097021706359042059 0 -0.47904321362057978 0.097021706359042059 0 -0.48400538123473891 0.107926889470303 0 -0.4896260736393232 0.095070405512342637 0 -0.47242857296667001 0.1050366692333673 0 -0.47904321362057978 0.097021706359042059 0 -0.48400538123473891 0.107926889470303 0 -0.5 0.083013730127360519 0 -0.5 0.1063779228479337 0 -0.4896260736393232 0.095070405512342637 0 -0.48400538123473891 0.107926889470303 0 -0.5 0.1063779228479337 0 -0.4896260736393232 0.095070405512342637 0 -0.5 0.1063779228479337 0 -0.49139230095498992 0.11865069962144389 0 -0.49999999999999728 0.1297421155685069 0 -0.48400538123473891 0.107926889470303 0 -0.49139230095498992 0.11865069962144389 0 -0.48393156133058779 0.12932328372127769 0 -0.48400538123473891 0.107926889470303 0 -0.5 0.1063779228479337 0 -0.49139230095498992 0.11865069962144389 0 -0.49139230095498992 0.11865069962144389 0 -0.49145897086900009 0.1265167007651645 0 -0.48393156133058779 0.12932328372127769 0 -0.49139230095498992 0.11865069962144389 0 -0.49999999999999728 0.1297421155685069 0 -0.49145897086900009 0.1265167007651645 0 -0.49999999999999728 0.1297421155685069 0 -0.49515420089596518 0.1311172466953231 0 -0.49145897086900009 0.1265167007651645 0 -0.49999999999999978 0.13189185806207501 0 -0.49999999999999728 0.1297421155685069 0 -0.49515420089596518 0.1311172466953231 0 -0.49999999999999978 0.13189185806207501 0 -0.49515420089596518 0.1311172466953231 0 -0.49999999999999728 0.1297421155685069 0 -0.49515420089596518 0.1311172466953231 0 -0.49999999999999978 0.13189185806207501 0 -0.49232256293860649 0.13631605311501671 0 -0.49220533598309879 0.1449838942901259 0 -0.49999999999999978 0.13189185806207501 0 -0.49515420089596518 0.1311172466953231 0 -0.49232256293860649 0.13631605311501671 0 -0.49232256293860649 0.13631605311501671 0 -0.48391436743254918 0.13430686403685019 0 -0.49220533598309879 0.1449838942901259 0 -0.49515420089596518 0.1311172466953231 0 -0.49232256293860649 0.13631605311501671 0 -0.48391436743254918 0.13430686403685019 0 -0.49515420089596518 0.1311172466953231 0 -0.48393156133058779 0.12932328372127769 0 -0.49515420089596518 0.1311172466953231 0 -0.49145897086900009 0.1265167007651645 0 -0.48393156133058779 0.12932328372127769 0 -0.49515420089596518 0.1311172466953231 0 -0.48391436743254918 0.13430686403685019 0 -0.49515420089596518 0.1311172466953231 0 -0.48393156133058779 0.12932328372127769 0 -0.48391436743254918 0.13430686403685019 0 -0.48391436743254918 0.13430686403685019 0 -0.46143879551073441 0.14068493664761661 0 -0.48391436743254918 0.13430686403685019 0 -0.47457375322369111 0.1451488606326273 0 -0.46143879551073441 0.14068493664761661 0 -0.48391436743254918 0.13430686403685019 0 -0.46153376903201498 0.12574294864503069 0 -0.46143879551073441 0.14068493664761661 0 -0.48393156133058779 0.12932328372127769 0 -0.48391436743254918 0.13430686403685019 0 -0.46153376903201498 0.12574294864503069 0 -0.48393156133058779 0.12932328372127769 0 -0.46153376903201498 0.12574294864503069 0 -0.48393156133058779 0.12932328372127769 0 -0.48391436743254918 0.13430686403685019 0 -0.48391436743254918 0.13430686403685019 0 -0.4838427897115592 0.1550533707610679 0 -0.48391436743254918 0.13430686403685019 0 -0.47457375322369111 0.1451488606326273 0 -0.4838427897115592 0.1550533707610679 0 -0.47443946103960549 0.15515279573827531 0 -0.47457375322369111 0.1451488606326273 0 -0.46565598595704949 0.1536661415036398 0 -0.47443946103960549 0.15515279573827531 0 -0.47457375322369111 0.1451488606326273 0 -0.4838427897115592 0.1550533707610679 0 -0.4838427897115592 0.1550533707610679 0 -0.49220533598309879 0.1449838942901259 0 -0.4838288577101606 0.1590915038100226 0 -0.48391436743254918 0.13430686403685019 0 -0.4838427897115592 0.1550533707610679 0 -0.49220533598309879 0.1449838942901259 0 -0.49999999999999978 0.13189185806207501 0 -0.49220533598309879 0.1449838942901259 0 -0.5 0.15942429511969741 0 -0.49220533598309879 0.1449838942901259 0 -0.5 0.15942429511969741 0 -0.4838288577101606 0.1590915038100226 0 -0.5 0.15942429511969741 0 -0.49189305142448392 0.17233716867255869 0 -0.4838288577101606 0.1590915038100226 0 -0.49189305142448392 0.17233716867255869 0 -0.4837433479877748 0.1838761435831949 0 -0.4838288577101606 0.1590915038100226 0 -0.5 0.15942429511969741 0 -0.49189305142448392 0.17233716867255869 0 -0.5 0.1869567321773197 0 -0.49189305142448392 0.17233716867255869 0 -0.5 0.1869567321773197 0 -0.4837433479877748 0.1838761435831949 0 -0.4837433479877748 0.1838761435831949 0 -0.47319235172466168 0.17051398130984291 0 -0.46315205770315709 0.18597669692214031 0 -0.4837433479877748 0.1838761435831949 0 -0.4838288577101606 0.1590915038100226 0 -0.4837433479877748 0.1838761435831949 0 -0.4838288577101606 0.1590915038100226 0 -0.47319235172466168 0.17051398130984291 0 -0.47443946103960549 0.15515279573827531 0 -0.47319235172466168 0.17051398130984291 0 -0.46565598595704949 0.1536661415036398 0 -0.47443946103960549 0.15515279573827531 0 -0.4838427897115592 0.1550533707610679 0 -0.47319235172466168 0.17051398130984291 0 -0.4838427897115592 0.1550533707610679 0 -0.4838288577101606 0.1590915038100226 0 -0.47319235172466168 0.17051398130984291 0 -0.4838427897115592 0.1550533707610679 0 -0.47319235172466168 0.17051398130984291 0 -0.4838427897115592 0.1550533707610679 0 -0.4838288577101606 0.1590915038100226 0 -0.47319235172466168 0.17051398130984291 0 -0.45779828503092812 0.16267729445640311 0 -0.45332319807082938 0.17400413389834021 0 -0.47319235172466168 0.17051398130984291 0 -0.45779828503092812 0.16267729445640311 0 -0.46565598595704949 0.1536661415036398 0 -0.45779828503092812 0.16267729445640311 0 -0.46565598595704949 0.1536661415036398 0 -0.45332555096359928 0.15317064469565131 0 -0.46315205770315709 0.18597669692214031 0 -0.45332319807082938 0.17400413389834021 0 -0.44724795052229871 0.18656823247484181 0 -0.47319235172466168 0.17051398130984291 0 -0.46315205770315709 0.18597669692214031 0 -0.45332319807082938 0.17400413389834021 0 -0.47319235172466168 0.17051398130984291 0 -0.46315205770315709 0.18597669692214031 0 -0.46315205770315709 0.18597669692214031 0 -0.45332319807082938 0.17400413389834021 0 -0.45332319807082938 0.17400413389834021 0 -0.43777805462018032 0.18309356150916989 0 -0.43480389520272961 0.17272836252408921 0 -0.45332319807082938 0.17400413389834021 0 -0.44724795052229871 0.18656823247484181 0 -0.43777805462018032 0.18309356150916989 0 -0.44724795052229871 0.18656823247484181 0 -0.43777805462018032 0.18309356150916989 0 -0.43196828403815313 0.19022584966642839 0 -0.45332319807082938 0.17400413389834021 0 -0.44349433843850072 0.1620315708745409 0 -0.43480389520272961 0.17272836252408921 0 -0.45779828503092812 0.16267729445640311 0 -0.44349433843850072 0.1620315708745409 0 -0.45332555096359928 0.15317064469565131 0 -0.45332319807082938 0.17400413389834021 0 -0.44349433843850072 0.1620315708745409 0 -0.45779828503092812 0.16267729445640311 0 -0.45332319807082938 0.17400413389834021 0 -0.44349433843850072 0.1620315708745409 0 -0.4389632235889192 0.14706300925838231 0 -0.46143879551073441 0.14068493664761661 0 -0.45332555096359928 0.15317064469565131 0 -0.4389632235889192 0.14706300925838231 0 -0.46143879551073441 0.14068493664761661 0 -0.4389632235889192 0.14706300925838231 0 -0.44708604294709892 0.1343766077010127 0 -0.46143879551073441 0.14068493664761661 0 -0.44349433843850072 0.1620315708745409 0 -0.4389632235889192 0.14706300925838231 0 -0.45332555096359928 0.15317064469565131 0 -0.4389632235889192 0.14706300925838231 0 -0.44708604294709892 0.1343766077010127 0 -0.43194085093240409 0.13481135598082411 0 -0.43913597673344218 0.12216261356878361 0 -0.44708604294709892 0.1343766077010127 0 -0.46153376903201498 0.12574294864503069 0 -0.43913597673344218 0.12216261356878361 0 -0.44708604294709892 0.1343766077010127 0 -0.43194085093240409 0.13481135598082411 0 -0.44708604294709892 0.1343766077010127 0 -0.46153376903201498 0.12574294864503069 0 -0.46143879551073441 0.14068493664761661 0 -0.47457375322369111 0.1451488606326273 0 -0.46143879551073441 0.14068493664761661 0 -0.46565598595704949 0.1536661415036398 0 -0.46143879551073441 0.14068493664761661 0 -0.46565598595704949 0.1536661415036398 0 -0.45332555096359928 0.15317064469565131 0 -0.48049172660186401 0.2406013202634962 0 -0.46098345320372669 0.2251082288787104 0 -0.46547044691668021 0.25321908405801452 0 -0.48049172660186401 0.2406013202634962 0 -0.50000000000000266 0.25609441164828028 0 -0.48049172660186401 0.2406013202634962 0 -0.48896776650303408 0.23325057235611099 0 -0.50000000000000266 0.25609441164828028 0 -0.5 0.23529179044161119 0 -0.48896776650303408 0.23325057235611099 0 -0.50000000000000266 0.25609441164828028 0 -0.5 0.23529179044161119 0 -0.49355644421527373 0.22301237016737979 0 -0.4999999999999985 0.2144891692349421 0 -0.5 0.23529179044161119 0 -0.48896776650303408 0.23325057235611099 0 -0.49355644421527373 0.22301237016737979 0 -0.49355644421527373 0.22301237016737979 0 -0.48361056374120048 0.22236310889047731 0 -0.48364995661113408 0.21094524828124209 0 -0.48896776650303408 0.23325057235611099 0 -0.49355644421527373 0.22301237016737979 0 -0.48361056374120048 0.22236310889047731 0 -0.48049172660186401 0.2406013202634962 0 -0.46882776678269161 0.2228185537345285 0 -0.46098345320372669 0.2251082288787104 0 -0.48361056374120048 0.22236310889047731 0 -0.4795866557209692 0.22713230618410371 0 -0.47603545497605582 0.216627975675906 0 -0.48049172660186401 0.2406013202634962 0 -0.4795866557209692 0.22713230618410371 0 -0.46882776678269161 0.2228185537345285 0 -0.48049172660186401 0.2406013202634962 0 -0.46098345320372669 0.2251082288787104 0 -0.48896776650303408 0.23325057235611099 0 -0.48361056374120048 0.22236310889047731 0 -0.4795866557209692 0.22713230618410371 0 -0.48049172660186401 0.2406013202634962 0 -0.48896776650303408 0.23325057235611099 0 -0.4795866557209692 0.22713230618410371 0 -0.4795866557209692 0.22713230618410371 0 -0.46882776678269161 0.2228185537345285 0 -0.47603545497605582 0.216627975675906 0 -0.47008417142069842 0.21477105352125131 0 -0.48099482800057902 0.20771102825823859 0 -0.46374865507958651 0.20961370184873221 0 -0.47603545497605582 0.216627975675906 0 -0.47008417142069842 0.21477105352125131 0 -0.48099482800057902 0.20771102825823859 0 -0.46882776678269161 0.2228185537345285 0 -0.47603545497605582 0.216627975675906 0 -0.47008417142069842 0.21477105352125131 0 -0.48099482800057902 0.20771102825823859 0 -0.48364995661113408 0.21094524828124209 0 -0.48099482800057902 0.20771102825823859 0 -0.48365783826538711 0.20866078335636731 0 -0.48099482800057902 0.20771102825823859 0 -0.48365783826538711 0.20866078335636731 0 -0.48364995661113408 0.21094524828124209 0 -0.48365783826538711 0.20866078335636731 0 -0.48364995661113408 0.21094524828124209 0 -0.48361056374120048 0.22236310889047731 0 -0.47603545497605582 0.216627975675906 0 -0.48364995661113408 0.21094524828124209 0 -0.47603545497605582 0.216627975675906 0 -0.48099482800057902 0.20771102825823859 0 -0.48364995661113408 0.21094524828124209 0 -0.48361056374120048 0.22236310889047731 0 -0.48364995661113408 0.21094524828124209 0 -0.49355644421527373 0.22301237016737979 0 -0.48364995661113408 0.21094524828124209 0 -0.4999999999999985 0.2144891692349421 0 -0.5 0.1869567321773197 0 -0.48365783826538711 0.20866078335636731 0 -0.4999999999999985 0.2144891692349421 0 -0.49355644421527373 0.22301237016737979 0 -0.48364995661113408 0.21094524828124209 0 -0.48365783826538711 0.20866078335636731 0 -0.4999999999999985 0.2144891692349421 0 -0.48365783826538711 0.20866078335636731 0 -0.48364995661113408 0.21094524828124209 0 -0.4999999999999985 0.2144891692349421 0 -0.5 0.1869567321773197 0 -0.4837433479877748 0.1838761435831949 0 -0.48365783826538711 0.20866078335636731 0 -0.4837433479877748 0.1838761435831949 0 -0.48365783826538711 0.20866078335636731 0 -0.46315205770315709 0.18597669692214031 0 -0.48099482800057902 0.20771102825823859 0 -0.4837433479877748 0.1838761435831949 0 -0.46315205770315709 0.18597669692214031 0 -0.48099482800057902 0.20771102825823859 0 -0.4837433479877748 0.1838761435831949 0 -0.48099482800057902 0.20771102825823859 0 -0.48365783826538711 0.20866078335636731 0 -0.46315205770315709 0.18597669692214031 0 -0.48099482800057902 0.20771102825823859 0 -0.45504816635590151 0.19845722458270129 0 -0.48099482800057902 0.20771102825823859 0 -0.45504816635590151 0.19845722458270129 0 -0.46315205770315709 0.18597669692214031 0 -0.44724795052229871 0.18656823247484181 0 -0.45504816635590151 0.19845722458270129 0 -0.46315205770315709 0.18597669692214031 0 -0.45504816635590151 0.19845722458270129 0 -0.45504816635590151 0.19845722458270129 0 -0.43196828403815313 0.19022584966642839 0 -0.44724795052229871 0.18656823247484181 0 -0.45504816635590151 0.19845722458270129 0 -0.43196828403815313 0.19022584966642839 0 -0.45504816635590151 0.19845722458270129 0 -0.43953631153126582 0.19927587846709049 0 -0.43196828403815313 0.19022584966642839 0 -0.45504816635590151 0.19845722458270129 0 -0.43953631153126582 0.19927587846709049 0 -0.44565013824093702 0.21293080829915639 0 -0.45504816635590151 0.19845722458270129 0 -0.44565013824093702 0.21293080829915639 0 -0.44565013824093702 0.21293080829915639 0 -0.46185883694552748 0.21704846925647639 0 -0.46098345320372669 0.2251082288787104 0 -0.48099482800057902 0.20771102825823859 0 -0.45504816635590151 0.19845722458270129 0 -0.46374865507958651 0.20961370184873221 0 -0.45504816635590151 0.19845722458270129 0 -0.44565013824093702 0.21293080829915639 0 -0.46374865507958651 0.20961370184873221 0 -0.44565013824093702 0.21293080829915639 0 -0.46374865507958651 0.20961370184873221 0 -0.46185883694552748 0.21704846925647639 0 -0.47008417142069842 0.21477105352125131 0 -0.46374865507958651 0.20961370184873221 0 -0.46185883694552748 0.21704846925647639 0 -0.46882776678269161 0.2228185537345285 0 -0.47008417142069842 0.21477105352125131 0 -0.46185883694552748 0.21704846925647639 0 -0.46882776678269161 0.2228185537345285 0 -0.46098345320372669 0.2251082288787104 0 -0.46882776678269161 0.2228185537345285 0 -0.46185883694552748 0.21704846925647639 0 -0.46098345320372669 0.2251082288787104 0 -0.44565013824093702 0.21293080829915639 0 -0.46098345320372669 0.2251082288787104 0 -0.46098345320372669 0.2251082288787104 0 -0.44014899271788471 0.2403136071002675 0 -0.43230822490593518 0.23347823561365311 0 -0.44565013824093702 0.21293080829915639 0 -0.46098345320372669 0.2251082288787104 0 -0.43230822490593518 0.23347823561365311 0 -0.44565013824093702 0.21293080829915639 0 -0.43230822490593518 0.23347823561365311 0 -0.46098345320372669 0.2251082288787104 0 -0.43230822490593518 0.23347823561365311 0 -0.46098345320372669 0.2251082288787104 0 -0.44014899271788471 0.2403136071002675 0 -0.45021739180255782 0.2468550533844977 0 -0.44014899271788471 0.2403136071002675 0 -0.45021739180255782 0.2468550533844977 0 -0.43573456162750668 0.25007523137423232 0 -0.46098345320372669 0.2251082288787104 0 -0.45021739180255782 0.2468550533844977 0 -0.46547044691668021 0.25321908405801452 0 -0.40784863063406612 0.2406177417638255 0 -0.42078014903155431 0.24908228663700011 0 -0.43071491992628458 0.23593203046579869 0 -0.40784863063406612 0.2406177417638255 0 -0.43230822490593518 0.23347823561365311 0 -0.42078014903155431 0.24908228663700011 0 -0.43071491992628458 0.23593203046579869 0 -0.43573456162750668 0.25007523137423232 0 -0.40784863063406612 0.2406177417638255 0 -0.43071491992628458 0.23593203046579869 0 -0.43230822490593518 0.23347823561365311 0 -0.44014899271788471 0.2403136071002675 0 -0.43071491992628458 0.23593203046579869 0 -0.43573456162750668 0.25007523137423232 0 -0.44014899271788471 0.2403136071002675 0 -0.43071491992628458 0.23593203046579869 0 -0.43230822490593518 0.23347823561365311 0 -0.43071491992628458 0.23593203046579869 0 -0.43230822490593518 0.23347823561365311 0 -0.44565013824093702 0.21293080829915639 0 -0.43230822490593518 0.23347823561365311 0 -0.42935243112528682 0.21861540567162041 0 -0.43230822490593518 0.23347823561365311 0 -0.42036950225225911 0.22812618129612311 0 -0.42935243112528682 0.21861540567162041 0 -0.40784863063406612 0.2406177417638255 0 -0.42036950225225911 0.22812618129612311 0 -0.41196872234374821 0.21979334213539339 0 -0.40784863063406612 0.2406177417638255 0 -0.43230822490593518 0.23347823561365311 0 -0.42036950225225911 0.22812618129612311 0 -0.42036950225225911 0.22812618129612311 0 -0.41196872234374821 0.21979334213539339 0 -0.42935243112528682 0.21861540567162041 0 -0.41196872234374821 0.21979334213539339 0 -0.42186934876986493 0.20840764216561419 0 -0.42935243112528682 0.21861540567162041 0 -0.41196872234374821 0.21979334213539339 0 -0.40677681639402929 0.20654350356397971 0 -0.42186934876986493 0.20840764216561419 0 -0.40677681639402929 0.20654350356397971 0 -0.42186934876986493 0.20840764216561419 0 -0.41285766103917487 0.19964785041679919 0 -0.44565013824093702 0.21293080829915639 0 -0.42186934876986493 0.20840764216561419 0 -0.42232548632004818 0.19440682330297379 0 -0.44565013824093702 0.21293080829915639 0 -0.42232548632004818 0.19440682330297379 0 -0.44565013824093702 0.21293080829915639 0 -0.42186934876986493 0.20840764216561419 0 -0.42935243112528682 0.21861540567162041 0 -0.43953631153126582 0.19927587846709049 0 -0.43196828403815313 0.19022584966642839 0 -0.42232548632004818 0.19440682330297379 0 -0.43953631153126582 0.19927587846709049 0 -0.44565013824093702 0.21293080829915639 0 -0.42232548632004818 0.19440682330297379 0 -0.43196828403815313 0.19022584966642839 0 -0.42232548632004818 0.19440682330297379 0 -0.42761860336297969 0.18180727260385199 0 -0.42232548632004818 0.19440682330297379 0 -0.41285766103917487 0.19964785041679919 0 -0.40828540734192692 0.19300398494074189 0 -0.42186934876986493 0.20840764216561419 0 -0.42232548632004818 0.19440682330297379 0 -0.41285766103917487 0.19964785041679919 0 -0.41285766103917487 0.19964785041679919 0 -0.40828540734192692 0.19300398494074189 0 -0.40483401184126899 0.19822221918111249 0 -0.40677681639402929 0.20654350356397971 0 -0.41285766103917487 0.19964785041679919 0 -0.40483401184126899 0.19822221918111249 0 -0.42232548632004818 0.19440682330297379 0 -0.40828540734192692 0.19300398494074189 0 -0.40698679370696311 0.1850879222743507 0 -0.40828540734192692 0.19300398494074189 0 -0.39923758599715697 0.19308544122371971 0 -0.40295247935563627 0.18897656661020229 0 -0.40828540734192692 0.19300398494074189 0 -0.40295247935563627 0.18897656661020229 0 -0.40698679370696311 0.1850879222743507 0 -0.40828540734192692 0.19300398494074189 0 -0.39923758599715697 0.19308544122371971 0 -0.40483401184126899 0.19822221918111249 0 -0.39923758599715697 0.19308544122371971 0 -0.39904764265802661 0.188096383109529 0 -0.40295247935563627 0.18897656661020229 0 -0.39904764265802661 0.188096383109529 0 -0.40295247935563627 0.18897656661020229 0 -0.40120496707410769 0.18560910150267029 0 -0.39923758599715697 0.19308544122371971 0 -0.40483401184126899 0.19822221918111249 0 -0.393285938435113 0.20038899700396651 0 -0.40677681639402929 0.20654350356397971 0 -0.40483401184126899 0.19822221918111249 0 -0.393285938435113 0.20038899700396651 0 -0.39923758599715697 0.19308544122371971 0 -0.3913460399117768 0.19189314150588541 0 -0.39449032381645338 0.18826510095571911 0 -0.39923758599715697 0.19308544122371971 0 -0.393285938435113 0.20038899700396651 0 -0.3913460399117768 0.19189314150588541 0 -0.39923758599715697 0.19308544122371971 0 -0.39904764265802661 0.188096383109529 0 -0.39449032381645338 0.18826510095571911 0 -0.3913460399117768 0.19189314150588541 0 -0.39449032381645338 0.18826510095571911 0 -0.39148772224977541 0.1882240038923674 0 -0.38681694075337242 0.1891231100317004 0 -0.36961943149446652 0.20982226685236929 0 -0.393285938435113 0.20038899700396651 0 -0.3913460399117768 0.19189314150588541 0 -0.38681694075337242 0.1891231100317004 0 -0.393285938435113 0.20038899700396651 0 -0.38681694075337242 0.1891231100317004 0 -0.36961943149446652 0.20982226685236929 0 -0.38681694075337242 0.1891231100317004 0 -0.36961943149446652 0.20982226685236929 0 -0.36895394557112088 0.19177566657472819 0 -0.3913460399117768 0.19189314150588541 0 -0.38681694075337242 0.1891231100317004 0 -0.3913460399117768 0.19189314150588541 0 -0.39148772224977541 0.1882240038923674 0 -0.38681694075337242 0.1891231100317004 0 -0.39437074265372002 0.2140332966689982 0 -0.37088298150085869 0.22535518273185881 0 -0.36961943149446652 0.20982226685236929 0 -0.393285938435113 0.20038899700396651 0 -0.39437074265372002 0.2140332966689982 0 -0.36961943149446652 0.20982226685236929 0 -0.41196872234374821 0.21979334213539339 0 -0.40677681639402929 0.20654350356397971 0 -0.39437074265372002 0.2140332966689982 0 -0.40677681639402929 0.20654350356397971 0 -0.393285938435113 0.20038899700396651 0 -0.39437074265372002 0.2140332966689982 0 -0.41196872234374821 0.21979334213539339 0 -0.39437074265372002 0.2140332966689982 0 -0.3960625262317421 0.23153508020102581 0 -0.40784863063406612 0.2406177417638255 0 -0.41196872234374821 0.21979334213539339 0 -0.3960625262317421 0.23153508020102581 0 -0.39437074265372002 0.2140332966689982 0 -0.3960625262317421 0.23153508020102581 0 -0.38273549916497912 0.2354737725229139 0 -0.39437074265372002 0.2140332966689982 0 -0.38273549916497912 0.2354737725229139 0 -0.39437074265372002 0.2140332966689982 0 -0.38273549916497912 0.2354737725229139 0 -0.37088298150085869 0.22535518273185881 0 -0.3960625262317421 0.23153508020102581 0 -0.3833890363621969 0.24775724791399789 0 -0.38273549916497912 0.2354737725229139 0 -0.38273549916497912 0.2354737725229139 0 -0.37110025567623828 0.25691424837682952 0 -0.3833890363621969 0.24775724791399789 0 -0.38273549916497912 0.2354737725229139 0 -0.37110025567623828 0.25691424837682952 0 -0.40784863063406612 0.2406177417638255 0 -0.3833890363621969 0.24775724791399789 0 -0.40335947558218388 0.26075972104728012 0 -0.40784863063406612 0.2406177417638255 0 -0.3833890363621969 0.24775724791399789 0 -0.40784863063406612 0.2406177417638255 0 -0.3960625262317421 0.23153508020102581 0 -0.3833890363621969 0.24775724791399789 0 -0.41547907796387379 0.15462497056256061 0 -0.41298021647303429 0.13666833017597041 0 -0.43194085093240409 0.13481135598082411 0 -0.41547907796387379 0.15462497056256061 0 -0.41298021647303429 0.13666833017597041 0 -0.39929625052834278 0.14997875602544289 0 -0.41673818443486937 0.11858227849253659 0 -0.41298021647303429 0.13666833017597041 0 -0.43194085093240409 0.13481135598082411 0 -0.41673818443486937 0.11858227849253659 0 -0.41298021647303429 0.13666833017597041 0 -0.39957519606134112 0.1255189269065882 0 -0.41673818443486937 0.11858227849253659 0 -0.43913597673344218 0.12216261356878361 0 -0.43194085093240409 0.13481135598082411 0 -0.41547907796387379 0.15462497056256061 0 -0.43194085093240409 0.13481135598082411 0 -0.4389632235889192 0.14706300925838231 0 -0.41547907796387379 0.15462497056256061 0 -0.43194085093240409 0.13481135598082411 0 -0.4389632235889192 0.14706300925838231 0 -0.41547907796387379 0.15462497056256061 0 -0.42803289397545469 0.16233676537896441 0 -0.44349433843850072 0.1620315708745409 0 -0.4389632235889192 0.14706300925838231 0 -0.42803289397545469 0.16233676537896441 0 -0.44349433843850072 0.1620315708745409 0 -0.42803289397545469 0.16233676537896441 0 -0.43480389520272961 0.17272836252408921 0 -0.42803289397545469 0.16233676537896441 0 -0.43480389520272961 0.17272836252408921 0 -0.42178640611867813 0.17210536168066801 0 -0.42232548632004818 0.19440682330297379 0 -0.42761860336297969 0.18180727260385199 0 -0.41704949387808932 0.17828367693978339 0 -0.43777805462018032 0.18309356150916989 0 -0.43196828403815313 0.19022584966642839 0 -0.42761860336297969 0.18180727260385199 0 -0.43777805462018032 0.18309356150916989 0 -0.43480389520272961 0.17272836252408921 0 -0.42761860336297969 0.18180727260385199 0 -0.42761860336297969 0.18180727260385199 0 -0.42178640611867813 0.17210536168066801 0 -0.41704949387808932 0.17828367693978339 0 -0.43480389520272961 0.17272836252408921 0 -0.42761860336297969 0.18180727260385199 0 -0.42178640611867813 0.17210536168066801 0 -0.42232548632004818 0.19440682330297379 0 -0.39900083439915912 0.17588283830679161 0 -0.40615435864004179 0.17611951880547949 0 -0.42232548632004818 0.19440682330297379 0 -0.39900083439915912 0.17588283830679161 0 -0.42232548632004818 0.19440682330297379 0 -0.40698679370696311 0.1850879222743507 0 -0.39900083439915912 0.17588283830679161 0 -0.42232548632004818 0.19440682330297379 0 -0.41704949387808932 0.17828367693978339 0 -0.40615435864004179 0.17611951880547949 0 -0.42178640611867813 0.17210536168066801 0 -0.41704949387808932 0.17828367693978339 0 -0.41400430254071457 0.16699215789046001 0 -0.41704949387808932 0.17828367693978339 0 -0.41400430254071457 0.16699215789046001 0 -0.40615435864004179 0.17611951880547949 0 -0.41400430254071457 0.16699215789046001 0 -0.40615435864004179 0.17611951880547949 0 -0.39901730499534399 0.17443858514429761 0 -0.41547907796387379 0.15462497056256061 0 -0.41400430254071457 0.16699215789046001 0 -0.39901730499534399 0.17443858514429761 0 -0.41547907796387379 0.15462497056256061 0 -0.39901730499534399 0.17443858514429761 0 -0.41547907796387379 0.15462497056256061 0 -0.42803289397545469 0.16233676537896441 0 -0.41400430254071457 0.16699215789046001 0 -0.42803289397545469 0.16233676537896441 0 -0.42178640611867813 0.17210536168066801 0 -0.41400430254071457 0.16699215789046001 0 -0.3945583728326339 0.1723547217165172 0 -0.38717717683755343 0.1617867318505655 0 -0.39929625052834278 0.14997875602544289 0 -0.39901730499534399 0.17443858514429761 0 -0.39929625052834278 0.14997875602544289 0 -0.39901730499534399 0.17443858514429761 0 -0.3945583728326339 0.1723547217165172 0 -0.39929625052834278 0.14997875602544289 0 -0.41547907796387379 0.15462497056256061 0 -0.39901730499534399 0.17443858514429761 0 -0.39929625052834278 0.14997875602544289 0 -0.40698679370696311 0.1850879222743507 0 -0.40014887036791202 0.18117602201688321 0 -0.39900083439915912 0.17588283830679161 0 -0.40120496707410769 0.18560910150267029 0 -0.40014887036791202 0.18117602201688321 0 -0.39734663865625142 0.18438928530989521 0 -0.39904764265802661 0.188096383109529 0 -0.40120496707410769 0.18560910150267029 0 -0.39734663865625142 0.18438928530989521 0 -0.40295247935563627 0.18897656661020229 0 -0.40698679370696311 0.1850879222743507 0 -0.40120496707410769 0.18560910150267029 0 -0.40698679370696311 0.1850879222743507 0 -0.40120496707410769 0.18560910150267029 0 -0.40014887036791202 0.18117602201688321 0 -0.40014887036791202 0.18117602201688321 0 -0.39796975775216509 0.1810500096899377 0 -0.39734663865625142 0.18438928530989521 0 -0.40014887036791202 0.18117602201688321 0 -0.39756848169412878 0.1789349724056763 0 -0.39796975775216509 0.1810500096899377 0 -0.40014887036791202 0.18117602201688321 0 -0.39900083439915912 0.17588283830679161 0 -0.39756848169412878 0.1789349724056763 0 -0.39900083439915912 0.17588283830679161 0 -0.39901730499534399 0.17443858514429761 0 -0.39757064575344969 0.17751482239740859 0 -0.39900083439915912 0.17588283830679161 0 -0.40615435864004179 0.17611951880547949 0 -0.39901730499534399 0.17443858514429761 0 -0.39900083439915912 0.17588283830679161 0 -0.39901730499534399 0.17443858514429761 0 -0.39901730499534399 0.17443858514429761 0 -0.39757064575344969 0.17751482239740859 0 -0.39329758451749908 0.18361466307616481 0 -0.39901730499534399 0.17443858514429761 0 -0.39264514925923072 0.1757706154858725 0 -0.39087278882837029 0.1808243854523742 0 -0.39901730499534399 0.17443858514429761 0 -0.3945583728326339 0.1723547217165172 0 -0.39901730499534399 0.17443858514429761 0 -0.3945583728326339 0.1723547217165172 0 -0.39264514925923072 0.1757706154858725 0 -0.3945583728326339 0.1723547217165172 0 -0.39264514925923072 0.1757706154858725 0 -0.3873778114948816 0.17487093704720991 0 -0.39900083439915912 0.17588283830679161 0 -0.39757064575344969 0.17751482239740859 0 -0.39756848169412878 0.1789349724056763 0 -0.39757064575344969 0.17751482239740859 0 -0.39756848169412878 0.1789349724056763 0 -0.39615530111192382 0.18046517912046511 0 -0.38681694075337242 0.1891231100317004 0 -0.39901730499534399 0.17443858514429761 0 -0.39087278882837029 0.1808243854523742 0 -0.38681694075337242 0.1891231100317004 0 -0.39901730499534399 0.17443858514429761 0 -0.38681694075337242 0.1891231100317004 0 -0.39901730499534399 0.17443858514429761 0 -0.39329758451749908 0.18361466307616481 0 -0.39757064575344969 0.17751482239740859 0 -0.39615530111192382 0.18046517912046511 0 -0.39329758451749908 0.18361466307616481 0 -0.39552086709283762 0.18276075012127371 0 -0.39329758451749908 0.18361466307616481 0 -0.39734663865625142 0.18438928530989521 0 -0.39756848169412878 0.1789349724056763 0 -0.39796975775216509 0.1810500096899377 0 -0.39615530111192382 0.18046517912046511 0 -0.39796975775216509 0.1810500096899377 0 -0.39552086709283762 0.18276075012127371 0 -0.39615530111192382 0.18046517912046511 0 -0.39796975775216509 0.1810500096899377 0 -0.39552086709283762 0.18276075012127371 0 -0.39734663865625142 0.18438928530989521 0 -0.39552086709283762 0.18276075012127371 0 -0.39615530111192382 0.18046517912046511 0 -0.39329758451749908 0.18361466307616481 0 -0.39449032381645338 0.18826510095571911 0 -0.39148772224977541 0.1882240038923674 0 -0.39329758451749908 0.18361466307616481 0 -0.39449032381645338 0.18826510095571911 0 -0.39329758451749908 0.18361466307616481 0 -0.39734663865625142 0.18438928530989521 0 -0.39904764265802661 0.188096383109529 0 -0.39449032381645338 0.18826510095571911 0 -0.39734663865625142 0.18438928530989521 0 -0.38681694075337242 0.1891231100317004 0 -0.3873778114948816 0.17487093704720991 0 -0.38013780176451029 0.17174433994949229 0 -0.38681694075337242 0.1891231100317004 0 -0.38013780176451029 0.17174433994949229 0 -0.36317805186703722 0.17466538589280389 0 -0.38681694075337242 0.1891231100317004 0 -0.39087278882837029 0.1808243854523742 0 -0.3873778114948816 0.17487093704720991 0 -0.39148772224977541 0.1882240038923674 0 -0.38681694075337242 0.1891231100317004 0 -0.39329758451749908 0.18361466307616481 0 -0.39264514925923072 0.1757706154858725 0 -0.39087278882837029 0.1808243854523742 0 -0.3873778114948816 0.17487093704720991 0 -0.38717717683755343 0.1617867318505655 0 -0.38013780176451029 0.17174433994949229 0 -0.37579543020628919 0.15609301541127879 0 -0.3945583728326339 0.1723547217165172 0 -0.3873778114948816 0.17487093704720991 0 -0.38717717683755343 0.1617867318505655 0 -0.3873778114948816 0.17487093704720991 0 -0.38717717683755343 0.1617867318505655 0 -0.38013780176451029 0.17174433994949229 0 -0.38717717683755343 0.1617867318505655 0 -0.37579543020628919 0.15609301541127879 0 -0.3858973941986632 0.14567862095345219 0 -0.37579543020628919 0.15609301541127879 0 -0.3858973941986632 0.14567862095345219 0 -0.378945342879978 0.13356520287883369 0 -0.38717717683755343 0.1617867318505655 0 -0.3858973941986632 0.14567862095345219 0 -0.39929625052834278 0.14997875602544289 0 -0.39929625052834278 0.14997875602544289 0 -0.39957519606134112 0.1255189269065882 0 -0.41298021647303429 0.13666833017597041 0 -0.39929625052834278 0.14997875602544289 0 -0.39957519606134112 0.1255189269065882 0 -0.3858973941986632 0.14567862095345219 0 -0.39929625052834278 0.14997875602544289 0 -0.39957519606134112 0.1255189269065882 0 -0.3858973941986632 0.14567862095345219 0 -0.39957519606134112 0.1255189269065882 0 -0.378945342879978 0.13356520287883369 0 -0.38602915278976652 0.1213503071664286 0 -0.39957519606134112 0.1255189269065882 0 -0.378945342879978 0.13356520287883369 0 -0.38602915278976652 0.1213503071664286 0 -0.378945342879978 0.13356520287883369 0 -0.37246510506044889 0.1213868827414811 0 -0.378945342879978 0.13356520287883369 0 -0.35968586719092738 0.12577894587512861 0 -0.35670925268014481 0.14664877484812919 0 -0.378945342879978 0.13356520287883369 0 -0.35968586719092738 0.12577894587512861 0 -0.37246510506044889 0.1213868827414811 0 -0.35968586719092738 0.12577894587512861 0 -0.34553050164215959 0.1323251445636231 0 -0.35670925268014481 0.14664877484812919 0 -0.35968586719092738 0.12577894587512861 0 -0.34553050164215959 0.1323251445636231 0 -0.34732384904990932 0.11969241459514381 0 -0.34553050164215959 0.1323251445636231 0 -0.35670925268014481 0.14664877484812919 0 -0.33382754243845297 0.14299229218548881 0 -0.37579543020628919 0.15609301541127879 0 -0.378945342879978 0.13356520287883369 0 -0.35670925268014481 0.14664877484812919 0 -0.37579543020628919 0.15609301541127879 0 -0.35670925268014481 0.14664877484812919 0 -0.36317805186703722 0.17466538589280389 0 -0.38013780176451029 0.17174433994949229 0 -0.37579543020628919 0.15609301541127879 0 -0.36317805186703722 0.17466538589280389 0 -0.36317805186703722 0.17466538589280389 0 -0.34974032288052598 0.18749675554150769 0 -0.36895394557112088 0.19177566657472819 0 -0.38681694075337242 0.1891231100317004 0 -0.36317805186703722 0.17466538589280389 0 -0.36895394557112088 0.19177566657472819 0 -0.38681694075337242 0.1891231100317004 0 -0.36317805186703722 0.17466538589280389 0 -0.36317805186703722 0.17466538589280389 0 -0.34974032288052598 0.18749675554150769 0 -0.34326536659474027 0.17565899270811 0 -0.35670925268014481 0.14664877484812919 0 -0.36317805186703722 0.17466538589280389 0 -0.33953916298070158 0.16020766175390741 0 -0.36317805186703722 0.17466538589280389 0 -0.33953916298070158 0.16020766175390741 0 -0.36317805186703722 0.17466538589280389 0 -0.33953916298070158 0.16020766175390741 0 -0.34326536659474027 0.17565899270811 0 -0.33953916298070158 0.16020766175390741 0 -0.32978467062302869 0.17101003180414179 0 -0.31590027409436611 0.14574993761501101 0 -0.33953916298070158 0.16020766175390741 0 -0.32978467062302869 0.17101003180414179 0 -0.34326536659474027 0.17565899270811 0 -0.32978467062302869 0.17101003180414179 0 -0.33408462462240779 0.1849151285481892 0 -0.32459831784621379 0.19260805934198849 0 -0.34974032288052598 0.18749675554150769 0 -0.34326536659474027 0.17565899270811 0 -0.33408462462240779 0.1849151285481892 0 -0.32978467062302869 0.17101003180414179 0 -0.34326536659474027 0.17565899270811 0 -0.33408462462240779 0.1849151285481892 0 -0.31546848090994012 0.1683855257635784 0 -0.32459831784621379 0.19260805934198849 0 -0.30195509615007893 0.18957815602001671 0 -0.31546848090994012 0.1683855257635784 0 -0.32459831784621379 0.19260805934198849 0 -0.32978467062302869 0.17101003180414179 0 -0.31546848090994012 0.1683855257635784 0 -0.32459831784621379 0.19260805934198849 0 -0.32978467062302869 0.17101003180414179 0 -0.31546848090994012 0.1683855257635784 0 -0.31590027409436611 0.14574993761501101 0 -0.31546848090994012 0.1683855257635784 0 -0.31590027409436611 0.14574993761501101 0 -0.30633864397366239 0.14416299218516981 0 -0.31590027409436611 0.14574993761501101 0 -0.32353247443384803 0.13571555267923521 0 -0.33382754243845297 0.14299229218548881 0 -0.33953916298070158 0.16020766175390741 0 -0.31590027409436611 0.14574993761501101 0 -0.32353247443384803 0.13571555267923521 0 -0.33246019960343792 0.1259006257841985 0 -0.31646468563503488 0.1240620810451811 0 -0.31590027409436611 0.14574993761501101 0 -0.32353247443384803 0.13571555267923521 0 -0.31188897703485918 0.13392620442627171 0 -0.32353247443384803 0.13571555267923521 0 -0.31188897703485918 0.13392620442627171 0 -0.31646468563503488 0.1240620810451811 0 -0.32353247443384803 0.13571555267923521 0 -0.33246019960343792 0.1259006257841985 0 -0.33382754243845297 0.14299229218548881 0 -0.34553050164215959 0.1323251445636231 0 -0.33246019960343792 0.1259006257841985 0 -0.33382754243845297 0.14299229218548881 0 -0.34553050164215959 0.1323251445636231 0 -0.33246019960343792 0.1259006257841985 0 -0.34732384904990932 0.11969241459514381 0 -0.33953916298070158 0.16020766175390741 0 -0.31590027409436611 0.14574993761501101 0 -0.33382754243845297 0.14299229218548881 0 -0.35670925268014481 0.14664877484812919 0 -0.33953916298070158 0.16020766175390741 0 -0.33382754243845297 0.14299229218548881 0 -0.36164288127963451 0.23790462822716529 0 -0.34060128554720209 0.2350658190146723 0 -0.34860276939769441 0.25629469885101508 0 -0.34060128554720209 0.2350658190146723 0 -0.34860276939769441 0.25629469885101508 0 -0.38273549916497912 0.2354737725229139 0 -0.36164288127963451 0.23790462822716529 0 -0.37110025567623828 0.25691424837682952 0 -0.38273549916497912 0.2354737725229139 0 -0.36164288127963451 0.23790462822716529 0 -0.37088298150085869 0.22535518273185881 0 -0.36164288127963451 0.23790462822716529 0 -0.37088298150085869 0.22535518273185881 0 -0.35454111426747659 0.2208266037078527 0 -0.36164288127963451 0.23790462822716529 0 -0.35454111426747659 0.2208266037078527 0 -0.34060128554720209 0.2350658190146723 0 -0.35454111426747659 0.2208266037078527 0 -0.36961943149446652 0.20982226685236929 0 -0.3519003040859881 0.20297478624272131 0 -0.35454111426747659 0.2208266037078527 0 -0.3519003040859881 0.20297478624272131 0 -0.33259980169670988 0.2138369391783296 0 -0.37088298150085869 0.22535518273185881 0 -0.35454111426747659 0.2208266037078527 0 -0.36961943149446652 0.20982226685236929 0 -0.36961943149446652 0.20982226685236929 0 -0.36895394557112088 0.19177566657472819 0 -0.3519003040859881 0.20297478624272131 0 -0.34974032288052598 0.18749675554150769 0 -0.36895394557112088 0.19177566657472819 0 -0.3519003040859881 0.20297478624272131 0 -0.34974032288052598 0.18749675554150769 0 -0.3519003040859881 0.20297478624272131 0 -0.33866875543958103 0.19569325526289749 0 -0.34974032288052598 0.18749675554150769 0 -0.33408462462240779 0.1849151285481892 0 -0.33866875543958103 0.19569325526289749 0 -0.33866875543958103 0.19569325526289749 0 -0.32459831784621379 0.19260805934198849 0 -0.33259980169670988 0.2138369391783296 0 -0.33408462462240779 0.1849151285481892 0 -0.32459831784621379 0.19260805934198849 0 -0.33408462462240779 0.1849151285481892 0 -0.33866875543958103 0.19569325526289749 0 -0.32459831784621379 0.19260805934198849 0 -0.32459831784621379 0.19260805934198849 0 -0.30171503508754682 0.21116528237409499 0 -0.32459831784621379 0.19260805934198849 0 -0.33259980169670988 0.2138369391783296 0 -0.30171503508754682 0.21116528237409499 0 -0.32459831784621379 0.19260805934198849 0 -0.33259980169670988 0.2138369391783296 0 -0.3519003040859881 0.20297478624272131 0 -0.33866875543958103 0.19569325526289749 0 -0.33259980169670988 0.2138369391783296 0 -0.33259980169670988 0.2138369391783296 0 -0.34060128554720209 0.2350658190146723 0 -0.35454111426747659 0.2208266037078527 0 -0.33259980169670988 0.2138369391783296 0 -0.34060128554720209 0.2350658190146723 0 -0.33259980169670988 0.2138369391783296 0 -0.31632988914032212 0.23600336309467071 0 -0.34060128554720209 0.2350658190146723 0 -0.33259980169670988 0.2138369391783296 0 -0.31632988914032212 0.23600336309467071 0 -0.30171503508754682 0.21116528237409499 0 -0.31632988914032212 0.23600336309467071 0 -0.34060128554720209 0.2350658190146723 0 -0.33017893050261538 0.25111654093961377 0 -0.34060128554720209 0.2350658190146723 0 -0.34860276939769441 0.25629469885101508 0 -0.33017893050261538 0.25111654093961377 0 -0.29685309069113619 0.2390766990876817 0 -0.27883175232888802 0.22972250540621181 0 -0.28111241548971788 0.2555906910005864 0 -0.31632988914032212 0.23600336309467071 0 -0.29685309069113619 0.2390766990876817 0 -0.30627636140920661 0.26290165356284467 0 -0.31632988914032212 0.23600336309467071 0 -0.29685309069113619 0.2390766990876817 0 -0.30171503508754682 0.21116528237409499 0 -0.30171503508754682 0.21116528237409499 0 -0.27883175232888802 0.22972250540621181 0 -0.29685309069113619 0.2390766990876817 0 -0.30171503508754682 0.21116528237409499 0 -0.27883175232888802 0.22972250540621181 0 -0.30171503508754682 0.21116528237409499 0 -0.28068811588679199 0.20339929854831049 0 -0.27883175232888802 0.22972250540621181 0 -0.32459831784621379 0.19260805934198849 0 -0.30171503508754682 0.21116528237409499 0 -0.30195509615007893 0.18957815602001671 0 -0.30195509615007893 0.18957815602001671 0 -0.28068811588679199 0.20339929854831049 0 -0.27560106376010818 0.18223182115691411 0 -0.30171503508754682 0.21116528237409499 0 -0.30195509615007893 0.18957815602001671 0 -0.28068811588679199 0.20339929854831049 0 -0.25705217047032991 0.1942822675306711 0 -0.28068811588679199 0.20339929854831049 0 -0.27560106376010818 0.18223182115691411 0 -0.25705217047032991 0.1942822675306711 0 -0.26557157441174728 0.21534591550622331 0 -0.2474153432728794 0.21138255342884979 0 -0.26557157441174728 0.21534591550622331 0 -0.25208198337917659 0.2279801846289822 0 -0.2474153432728794 0.21138255342884979 0 -0.25705217047032991 0.1942822675306711 0 -0.26557157441174728 0.21534591550622331 0 -0.28068811588679199 0.20339929854831049 0 -0.26557157441174728 0.21534591550622331 0 -0.28068811588679199 0.20339929854831049 0 -0.27883175232888802 0.22972250540621181 0 -0.26557157441174728 0.21534591550622331 0 -0.27883175232888802 0.22972250540621181 0 -0.25208198337917659 0.2279801846289822 0 -0.27883175232888802 0.22972250540621181 0 -0.25208198337917659 0.2279801846289822 0 -0.25594846957022921 0.24827972843832841 0 -0.27883175232888802 0.22972250540621181 0 -0.25594846957022921 0.24827972843832841 0 -0.27883175232888802 0.22972250540621181 0 -0.25594846957022921 0.24827972843832841 0 -0.28111241548971788 0.2555906910005864 0 -0.30633864397366239 0.14416299218516981 0 -0.28792895014796288 0.16381096622824409 0 -0.2739028041458465 0.13804377643647189 0 -0.30633864397366239 0.14416299218516981 0 -0.2739028041458465 0.13804377643647189 0 -0.29720880703738728 0.1199404586067602 0 -0.2739028041458465 0.13804377643647189 0 -0.29720880703738728 0.1199404586067602 0 -0.31188897703485918 0.13392620442627171 0 -0.29720880703738728 0.1199404586067602 0 -0.31646468563503488 0.1240620810451811 0 -0.31188897703485918 0.13392620442627171 0 -0.30633864397366239 0.14416299218516981 0 -0.29720880703738728 0.1199404586067602 0 -0.30633864397366239 0.14416299218516981 0 -0.29720880703738728 0.1199404586067602 0 -0.31590027409436611 0.14574993761501101 0 -0.31188897703485918 0.13392620442627171 0 -0.30633864397366239 0.14416299218516981 0 -0.31546848090994012 0.1683855257635784 0 -0.30633864397366239 0.14416299218516981 0 -0.28792895014796288 0.16381096622824409 0 -0.31546848090994012 0.1683855257635784 0 -0.30633864397366239 0.14416299218516981 0 -0.31546848090994012 0.1683855257635784 0 -0.30195509615007893 0.18957815602001671 0 -0.28792895014796288 0.16381096622824409 0 -0.30195509615007893 0.18957815602001671 0 -0.28792895014796288 0.16381096622824409 0 -0.27560106376010818 0.18223182115691411 0 -0.30195509615007893 0.18957815602001671 0 -0.28792895014796288 0.16381096622824409 0 -0.28792895014796288 0.16381096622824409 0 -0.26813453639697782 0.1687758497323554 0 -0.27300063120117812 0.1571941613643609 0 -0.28792895014796288 0.16381096622824409 0 -0.26813453639697782 0.1687758497323554 0 -0.27560106376010818 0.18223182115691411 0 -0.26813453639697782 0.1687758497323554 0 -0.27300063120117812 0.1571941613643609 0 -0.26413591482397458 0.15656173091311709 0 -0.26813453639697782 0.1687758497323554 0 -0.27560106376010818 0.18223182115691411 0 -0.25651049738666898 0.17421130409669769 0 -0.25705217047032991 0.1942822675306711 0 -0.27560106376010818 0.18223182115691411 0 -0.25651049738666898 0.17421130409669769 0 -0.26813453639697782 0.1687758497323554 0 -0.26413591482397458 0.15656173091311709 0 -0.25609770528865039 0.16192319045669309 0 -0.26413591482397458 0.15656173091311709 0 -0.25609770528865039 0.16192319045669309 0 -0.25374325850731883 0.15370303228119381 0 -0.26813453639697782 0.1687758497323554 0 -0.25651049738666898 0.17421130409669769 0 -0.25609770528865039 0.16192319045669309 0 -0.25651049738666898 0.17421130409669769 0 -0.25609770528865039 0.16192319045669309 0 -0.24533755426446111 0.16301285454938561 0 -0.25609770528865039 0.16192319045669309 0 -0.25145671919098561 0.1542500269633435 0 -0.24533755426446111 0.16301285454938561 0 -0.25609770528865039 0.16192319045669309 0 -0.25145671919098561 0.1542500269633435 0 -0.25374325850731883 0.15370303228119381 0 -0.25374325850731883 0.15370303228119381 0 -0.2739028041458465 0.13804377643647189 0 -0.25797149741012598 0.13834020698253699 0 -0.26413591482397458 0.15656173091311709 0 -0.25374325850731883 0.15370303228119381 0 -0.2739028041458465 0.13804377643647189 0 -0.25145671919098561 0.1542500269633435 0 -0.25374325850731883 0.15370303228119381 0 -0.25797149741012598 0.13834020698253699 0 -0.25374325850731883 0.15370303228119381 0 -0.2739028041458465 0.13804377643647189 0 -0.27300063120117812 0.1571941613643609 0 -0.26413591482397458 0.15656173091311709 0 -0.2739028041458465 0.13804377643647189 0 -0.28792895014796288 0.16381096622824409 0 -0.2739028041458465 0.13804377643647189 0 -0.28792895014796288 0.16381096622824409 0 -0.27300063120117812 0.1571941613643609 0 -0.2739028041458465 0.13804377643647189 0 -0.2739028041458465 0.13804377643647189 0 -0.26191733135177397 0.11602547203678761 0 -0.25145671919098561 0.1542500269633435 0 -0.25797149741012598 0.13834020698253699 0 -0.24695327471520109 0.12682963905470179 0 -0.2739028041458465 0.13804377643647189 0 -0.25797149741012598 0.13834020698253699 0 -0.26191733135177397 0.11602547203678761 0 -0.25797149741012598 0.13834020698253699 0 -0.26191733135177397 0.11602547203678761 0 -0.24695327471520109 0.12682963905470179 0 -0.26191733135177397 0.11602547203678761 0 -0.2424498302394166 0.099409251146059932 0 -0.24695327471520109 0.12682963905470179 0 -0.26191733135177397 0.11602547203678761 0 -0.24993185855770109 0.094007167637103553 0 -0.26191733135177397 0.11602547203678761 0 -0.24993185855770109 0.094007167637103553 0 -0.2424498302394166 0.099409251146059932 0 -0.26191733135177397 0.11602547203678761 0 -0.26511357524441143 0.096573449779516776 0 -0.24993185855770109 0.094007167637103553 0 -0.27044254131009993 0.1120909729480363 0 -0.28421878735578487 0.085476405183067525 0 -0.26191733135177397 0.11602547203678761 0 -0.26511357524441143 0.096573449779516776 0 -0.27044254131009993 0.1120909729480363 0 -0.26511357524441143 0.096573449779516776 0 -0.27044254131009993 0.1120909729480363 0 -0.28421878735578487 0.085476405183067525 0 -0.2739028041458465 0.13804377643647189 0 -0.27044254131009993 0.1120909729480363 0 -0.28411284634760769 0.1150364762387399 0 -0.2739028041458465 0.13804377643647189 0 -0.26191733135177397 0.11602547203678761 0 -0.27044254131009993 0.1120909729480363 0 -0.2739028041458465 0.13804377643647189 0 -0.28411284634760769 0.1150364762387399 0 -0.29720880703738728 0.1199404586067602 0 -0.29071379719658941 0.10270843189491261 0 -0.29720880703738728 0.1199404586067602 0 -0.27044254131009993 0.1120909729480363 0 -0.28411284634760769 0.1150364762387399 0 -0.29071379719658941 0.10270843189491261 0 -0.28411284634760769 0.1150364762387399 0 -0.29071379719658941 0.10270843189491261 0 -0.29720880703738728 0.1199404586067602 0 -0.29071379719658941 0.10270843189491261 0 -0.28421878735578487 0.085476405183067525 0 -0.27044254131009993 0.1120909729480363 0 -0.29071379719658941 0.10270843189491261 0 -0.28421878735578487 0.085476405183067525 0 -0.29071379719658941 0.10270843189491261 0 -0.31097321935934391 0.1092487268601058 0 -0.3096038194528789 0.086643562229095888 0 -0.29071379719658941 0.10270843189491261 0 -0.31097321935934391 0.1092487268601058 0 -0.29720880703738728 0.1199404586067602 0 -0.31097321935934391 0.1092487268601058 0 -0.29720880703738728 0.1199404586067602 0 -0.31646468563503488 0.1240620810451811 0 -0.31097321935934391 0.1092487268601058 0 -0.29720880703738728 0.1199404586067602 0 -0.3096038194528789 0.086643562229095888 0 -0.28421878735578487 0.085476405183067525 0 -0.29799018250043252 0.058871208957563662 0 -0.3096038194528789 0.086643562229095888 0 -0.29799018250043252 0.058871208957563662 0 -0.32554438861076168 0.067586106460179318 0 -0.29071379719658941 0.10270843189491261 0 -0.3096038194528789 0.086643562229095888 0 -0.28421878735578487 0.085476405183067525 0 -0.28421878735578487 0.085476405183067525 0 -0.2755827855964646 0.062564074540295569 0 -0.29799018250043252 0.058871208957563662 0 -0.28421878735578487 0.085476405183067525 0 -0.29799018250043252 0.058871208957563662 0 -0.28421878735578487 0.085476405183067525 0 -0.2755827855964646 0.062564074540295569 0 -0.28421878735578487 0.085476405183067525 0 -0.2755827855964646 0.062564074540295569 0 -0.25905735764668802 0.075267231092592313 0 -0.26511357524441143 0.096573449779516776 0 -0.28421878735578487 0.085476405183067525 0 -0.25905735764668802 0.075267231092592313 0 -0.26511357524441143 0.096573449779516776 0 -0.25905735764668802 0.075267231092592313 0 -0.24993185855770109 0.094007167637103553 0 -0.2755827855964646 0.062564074540295569 0 -0.25905735764668802 0.075267231092592313 0 -0.26071360690684692 0.055294434117046848 0 -0.25905735764668802 0.075267231092592313 0 -0.26071360690684692 0.055294434117046848 0 -0.24696380288209371 0.058670431234190273 0 -0.26071360690684692 0.055294434117046848 0 -0.25047808913765168 0.043834607960738202 0 -0.24696380288209371 0.058670431234190273 0 -0.25047808913765168 0.043834607960738202 0 -0.25174092375244062 0.035023284547698721 0 -0.2669467838371361 0.039651743897526889 0 -0.26071360690684692 0.055294434117046848 0 -0.25047808913765168 0.043834607960738202 0 -0.2669467838371361 0.039651743897526889 0 -0.25047808913765168 0.043834607960738202 0 -0.2669467838371361 0.039651743897526889 0 -0.2669467838371361 0.039651743897526889 0 -0.2627038139815947 0.02839464472745307 0 -0.25174092375244062 0.035023284547698721 0 -0.2669467838371361 0.039651743897526889 0 -0.2627038139815947 0.02839464472745307 0 -0.2669467838371361 0.039651743897526889 0 -0.2627038139815947 0.02839464472745307 0 -0.2812298642548835 0.029856618387138819 0 -0.2669467838371361 0.039651743897526889 0 -0.2812298642548835 0.029856618387138819 0 -0.28335134918265209 0.035485167972184879 0 -0.2669467838371361 0.039651743897526889 0 -0.28296775994833367 0.048145681285405847 0 -0.28335134918265209 0.035485167972184879 0 -0.2669467838371361 0.039651743897526889 0 -0.28335134918265209 0.035485167972184879 0 -0.2755827855964646 0.062564074540295569 0 -0.26071360690684692 0.055294434117046848 0 -0.2669467838371361 0.039651743897526889 0 -0.2755827855964646 0.062564074540295569 0 -0.2669467838371361 0.039651743897526889 0 -0.28296775994833367 0.048145681285405847 0 -0.2755827855964646 0.062564074540295569 0 -0.2669467838371361 0.039651743897526889 0 -0.25270553952864971 0.0018680440496249011 0 -0.25961690315660341 0.020204706436823341 0 -0.2469926088680314 0.01124001012970397 0 -0.25270553952864971 0.0018680440496249011 0 -0.25961690315660341 0.020204706436823341 0 -0.26158901041498711 0.0068675731888494657 0 -0.25270553952864971 0.0018680440496249011 0 -0.25961690315660341 0.020204706436823341 0 -0.26146985654577359 -0.002285695634850132 0 -0.26158901041498711 0.0068675731888494657 0 -0.25270553952864971 0.0018680440496249011 0 -0.26158901041498711 0.0068675731888494657 0 -0.25961690315660341 0.020204706436823341 0 -0.26707647751723018 0.01468988177080938 0 -0.2627038139815947 0.02839464472745307 0 -0.2373718629868308 0.026395586938146011 0 -0.25174092375244062 0.035023284547698721 0 -0.2627038139815947 0.02839464472745307 0 -0.2373718629868308 0.026395586938146011 0 -0.25278506781638349 0.022023494419750121 0 -0.2627038139815947 0.02839464472745307 0 -0.2373718629868308 0.026395586938146011 0 -0.26259097249735031 0.02038643262962361 0 -0.25961690315660341 0.020204706436823341 0 -0.2627038139815947 0.02839464472745307 0 -0.26259097249735031 0.02038643262962361 0 -0.25961690315660341 0.020204706436823341 0 -0.26707647751723018 0.01468988177080938 0 -0.26259097249735031 0.02038643262962361 0 -0.25961690315660341 0.020204706436823341 0 -0.25961690315660341 0.020204706436823341 0 -0.2627038139815947 0.02839464472745307 0 -0.26259097249735031 0.02038643262962361 0 -0.2627038139815947 0.02839464472745307 0 -0.26633862489013033 0.023120088014791141 0 -0.25961690315660341 0.020204706436823341 0 -0.25278506781638349 0.022023494419750121 0 -0.2627038139815947 0.02839464472745307 0 -0.2627038139815947 0.02839464472745307 0 -0.27154742466176512 0.02426513081681609 0 -0.2812298642548835 0.029856618387138819 0 -0.2627038139815947 0.02839464472745307 0 -0.2812298642548835 0.029856618387138819 0 -0.2627038139815947 0.02839464472745307 0 -0.27154742466176512 0.02426513081681609 0 -0.26633862489013033 0.023120088014791141 0 -0.27154742466176512 0.02426513081681609 0 -0.2812298642548835 0.029856618387138819 0 -0.28055276178821398 0.020617822262999418 0 -0.27154742466176512 0.02426513081681609 0 -0.28055276178821398 0.020617822262999418 0 -0.27529116490342159 0.01527764933019647 0 -0.26851228841982122 0.01943414388526794 0 -0.26707647751723018 0.01468988177080938 0 -0.27529116490342159 0.01527764933019647 0 -0.27154742466176512 0.02426513081681609 0 -0.26851228841982122 0.01943414388526794 0 -0.27529116490342159 0.01527764933019647 0 -0.27154742466176512 0.02426513081681609 0 -0.26633862489013033 0.023120088014791141 0 -0.26851228841982122 0.01943414388526794 0 -0.26259097249735031 0.02038643262962361 0 -0.26633862489013033 0.023120088014791141 0 -0.26851228841982122 0.01943414388526794 0 -0.26259097249735031 0.02038643262962361 0 -0.26851228841982122 0.01943414388526794 0 -0.26707647751723018 0.01468988177080938 0 -0.26707647751723018 0.01468988177080938 0 -0.27529116490342159 0.01527764933019647 0 -0.27492769589173621 0.0062497183995834822 0 -0.26158901041498711 0.0068675731888494657 0 -0.26707647751723018 0.01468988177080938 0 -0.27492769589173621 0.0062497183995834822 0 -0.27529116490342159 0.01527764933019647 0 -0.27492769589173621 0.0062497183995834822 0 -0.28794938399896708 0.0065795007126566649 0 -0.27537090364544309 -0.0035418187270138519 0 -0.27492769589173621 0.0062497183995834822 0 -0.28794938399896708 0.0065795007126566649 0 -0.27537090364544309 -0.0035418187270138519 0 -0.26158901041498711 0.0068675731888494657 0 -0.27492769589173621 0.0062497183995834822 0 -0.26146985654577359 -0.002285695634850132 0 -0.27537090364544309 -0.0035418187270138519 0 -0.26158901041498711 0.0068675731888494657 0 -0.27537090364544309 -0.0035418187270138519 0 -0.26158901041498711 0.0068675731888494657 0 -0.28055276178821398 0.020617822262999418 0 -0.27529116490342159 0.01527764933019647 0 -0.28794938399896708 0.0065795007126566649 0 -0.28794938399896708 0.0065795007126566649 0 -0.29661660729155598 0.01911578140417336 0 -0.30037835269216062 0.0037973958614791318 0 -0.2812298642548835 0.029856618387138819 0 -0.29975591452817008 0.031318592046850918 0 -0.28794938399896708 0.0065795007126566649 0 -0.29661660729155598 0.01911578140417336 0 -0.28674597112203293 0.02711021206818905 0 -0.28055276178821398 0.020617822262999418 0 -0.28794938399896708 0.0065795007126566649 0 -0.28674597112203293 0.02711021206818905 0 -0.28794938399896708 0.0065795007126566649 0 -0.28674597112203293 0.02711021206818905 0 -0.2812298642548835 0.029856618387138819 0 -0.28674597112203293 0.02711021206818905 0 -0.29975591452817008 0.031318592046850918 0 -0.2812298642548835 0.029856618387138819 0 -0.28055276178821398 0.020617822262999418 0 -0.28674597112203293 0.02711021206818905 0 -0.29661660729155598 0.01911578140417336 0 -0.28674597112203293 0.02711021206818905 0 -0.29975591452817008 0.031318592046850918 0 -0.29975591452817008 0.031318592046850918 0 -0.31318779123922591 0.029510686047095131 0 -0.3214297718681115 0.025813674952150058 0 -0.29975591452817008 0.031318592046850918 0 -0.3214297718681115 0.025813674952150058 0 -0.31029585470530968 0.022509762874817561 0 -0.29975591452817008 0.031318592046850918 0 -0.3214297718681115 0.025813674952150058 0 -0.29661660729155598 0.01911578140417336 0 -0.30341085227227071 0.02189363859752649 0 -0.29975591452817008 0.031318592046850918 0 -0.31029585470530968 0.022509762874817561 0 -0.30341085227227071 0.02189363859752649 0 -0.29975591452817008 0.031318592046850918 0 -0.29975591452817008 0.031318592046850918 0 -0.31176157764509371 0.032266012732066848 0 -0.31318779123922591 0.029510686047095131 0 -0.31176157764509371 0.032266012732066848 0 -0.31318779123922591 0.029510686047095131 0 -0.31029585470530968 0.022509762874817561 0 -0.30341085227227071 0.02189363859752649 0 -0.30697503256404668 0.01463041806426519 0 -0.31029585470530968 0.022509762874817561 0 -0.30697503256404668 0.01463041806426519 0 -0.31716124718410971 0.01512998493433221 0 -0.29661660729155598 0.01911578140417336 0 -0.30341085227227071 0.02189363859752649 0 -0.30697503256404668 0.01463041806426519 0 -0.29661660729155598 0.01911578140417336 0 -0.30697503256404668 0.01463041806426519 0 -0.30037835269216062 0.0037973958614791318 0 -0.30697503256404668 0.01463041806426519 0 -0.30037835269216062 0.0037973958614791318 0 -0.31409655406502862 0.0042757496412910616 0 -0.30747974135746359 -0.0078658640106358257 0 -0.30037835269216062 0.0037973958614791318 0 -0.31409655406502862 0.0042757496412910616 0 -0.28296775994833367 0.048145681285405847 0 -0.29478375147584968 0.041484503367963603 0 -0.29799018250043252 0.058871208957563662 0 -0.2755827855964646 0.062564074540295569 0 -0.28296775994833367 0.048145681285405847 0 -0.29799018250043252 0.058871208957563662 0 -0.28335134918265209 0.035485167972184879 0 -0.29975591452817008 0.031318592046850918 0 -0.28335134918265209 0.035485167972184879 0 -0.29478375147584968 0.041484503367963603 0 -0.29975591452817008 0.031318592046850918 0 -0.28296775994833367 0.048145681285405847 0 -0.28335134918265209 0.035485167972184879 0 -0.29478375147584968 0.041484503367963603 0 -0.2812298642548835 0.029856618387138819 0 -0.28335134918265209 0.035485167972184879 0 -0.29975591452817008 0.031318592046850918 0 -0.31176157764509371 0.032266012732066848 0 -0.29799018250043252 0.058871208957563662 0 -0.32252406444121012 0.048994273295668057 0 -0.29478375147584968 0.041484503367963603 0 -0.29975591452817008 0.031318592046850918 0 -0.31176157764509371 0.032266012732066848 0 -0.29478375147584968 0.041484503367963603 0 -0.31176157764509371 0.032266012732066848 0 -0.29799018250043252 0.058871208957563662 0 -0.31176157764509371 0.032266012732066848 0 -0.29799018250043252 0.058871208957563662 0 -0.29975591452817008 0.031318592046850918 0 -0.31176157764509371 0.032266012732066848 0 -0.29799018250043252 0.058871208957563662 0 -0.32252406444121012 0.048994273295668057 0 -0.32554438861076168 0.067586106460179318 0 -0.31176157764509371 0.032266012732066848 0 -0.33632726324120799 0.034204601084386818 0 -0.31176157764509371 0.032266012732066848 0 -0.32252406444121012 0.048994273295668057 0 -0.33632726324120799 0.034204601084386818 0 -0.32252406444121012 0.048994273295668057 0 -0.33632726324120799 0.034204601084386818 0 -0.34419113802896051 0.050502149447778637 0 -0.32252406444121012 0.048994273295668057 0 -0.34419113802896051 0.050502149447778637 0 -0.32554438861076168 0.067586106460179318 0 -0.34419113802896051 0.050502149447778637 0 -0.35130277957202488 0.066023756275060588 0 -0.32554438861076168 0.067586106460179318 0 -0.3263270604922775 -0.0054379959353509462 0 -0.31409655406502862 0.0042757496412910616 0 -0.327902864582031 0.011349198095304351 0 -0.31409655406502862 0.0042757496412910616 0 -0.31716124718410971 0.01512998493433221 0 -0.327902864582031 0.011349198095304351 0 -0.30697503256404668 0.01463041806426519 0 -0.31409655406502862 0.0042757496412910616 0 -0.31716124718410971 0.01512998493433221 0 -0.31176157764509371 0.032266012732066848 0 -0.33632726324120799 0.034204601084386818 0 -0.3214297718681115 0.025813674952150058 0 -0.31716124718410971 0.01512998493433221 0 -0.327902864582031 0.011349198095304351 0 -0.3214297718681115 0.025813674952150058 0 -0.31029585470530968 0.022509762874817561 0 -0.31716124718410971 0.01512998493433221 0 -0.3214297718681115 0.025813674952150058 0 -0.31176157764509371 0.032266012732066848 0 -0.31318779123922591 0.029510686047095131 0 -0.3214297718681115 0.025813674952150058 0 -0.327902864582031 0.011349198095304351 0 -0.3214297718681115 0.025813674952150058 0 -0.34310362920805271 0.02030875785744813 0 -0.3214297718681115 0.025813674952150058 0 -0.34310362920805271 0.02030875785744813 0 -0.33632726324120799 0.034204601084386818 0 -0.3214297718681115 0.025813674952150058 0 -0.34310362920805271 0.02030875785744813 0 -0.3263270604922775 -0.0054379959353509462 0 -0.327902864582031 0.011349198095304351 0 -0.34209020327304929 0.0072251783341636278 0 -0.327902864582031 0.011349198095304351 0 -0.34310362920805271 0.02030875785744813 0 -0.34209020327304929 0.0072251783341636278 0 -0.34310362920805271 0.02030875785744813 0 -0.34209020327304929 0.0072251783341636278 0 -0.3647774865479938 0.0148038407627462 0 -0.34833997553489121 -0.0048979091093295964 0 -0.34209020327304929 0.0072251783341636278 0 -0.3647774865479938 0.0148038407627462 0 -0.3640266042220624 -0.0066471518204460154 0 -0.34833997553489121 -0.0048979091093295964 0 -0.3647774865479938 0.0148038407627462 0 -0.34310362920805271 0.02030875785744813 0 -0.3647774865479938 0.0148038407627462 0 -0.36089294883732242 0.036143189436705428 0 -0.33632726324120799 0.034204601084386818 0 -0.34310362920805271 0.02030875785744813 0 -0.36089294883732242 0.036143189436705428 0 -0.34310362920805271 0.02030875785744813 0 -0.3647774865479938 0.0148038407627462 0 -0.37482164725281247 0.026706155894675541 0 -0.3647774865479938 0.0148038407627462 0 -0.36089294883732242 0.036143189436705428 0 -0.37373735965882038 -0.003103147911992342 0 -0.3847587987592887 0.0013308304056126601 0 -0.3647774865479938 0.0148038407627462 0 -0.37373735965882038 -0.003103147911992342 0 -0.3640266042220624 -0.0066471518204460154 0 -0.3647774865479938 0.0148038407627462 0 -0.34419113802896051 0.050502149447778637 0 -0.36855538347123629 0.050060970134671659 0 -0.35130277957202488 0.066023756275060588 0 -0.33632726324120799 0.034204601084386818 0 -0.34419113802896051 0.050502149447778637 0 -0.36089294883732242 0.036143189436705428 0 -0.34419113802896051 0.050502149447778637 0 -0.36089294883732242 0.036143189436705428 0 -0.36855538347123629 0.050060970134671659 0 -0.33632726324120799 0.034204601084386818 0 -0.36089294883732242 0.036143189436705428 0 -0.38545863443343659 0.038081777789024773 0 -0.37482164725281247 0.026706155894675541 0 -0.36089294883732242 0.036143189436705428 0 -0.38545863443343659 0.038081777789024773 0 -0.36089294883732242 0.036143189436705428 0 -0.36855538347123629 0.050060970134671659 0 -0.38545863443343659 0.038081777789024773 0 -0.36089294883732242 0.036143189436705428 0 -0.36855538347123629 0.050060970134671659 0 -0.36602702203080251 0.068813017542344673 0 -0.35130277957202488 0.066023756275060588 0 -0.37802907818466908 0.061619845390287302 0 -0.36855538347123629 0.050060970134671659 0 -0.36602702203080251 0.068813017542344673 0 -0.36602702203080251 0.068813017542344673 0 -0.34958946996435741 0.086450037428971865 0 -0.37339486659888438 0.078510497507747662 0 -0.37802907818466908 0.061619845390287302 0 -0.37540578464729951 0.068724467295811595 0 -0.36602702203080251 0.068813017542344673 0 -0.37540578464729951 0.068724467295811595 0 -0.36602702203080251 0.068813017542344673 0 -0.37339486659888438 0.078510497507747662 0 -0.36602702203080251 0.068813017542344673 0 -0.35130277957202488 0.066023756275060588 0 -0.34958946996435741 0.086450037428971865 0 -0.35130277957202488 0.066023756275060588 0 -0.34958946996435741 0.086450037428971865 0 -0.3330487294659365 0.084057061134401589 0 -0.34958946996435741 0.086450037428971865 0 -0.36623877253267029 0.092586057582622422 0 -0.37339486659888438 0.078510497507747662 0 -0.34958946996435741 0.086450037428971865 0 -0.37339486659888438 0.078510497507747662 0 -0.36623877253267029 0.092586057582622422 0 -0.37339486659888438 0.078510497507747662 0 -0.37413635783974292 0.088598178163790342 0 -0.36623877253267029 0.092586057582622422 0 -0.36070563206784589 0.1086514306819677 0 -0.37336753619252078 0.1007201441306346 0 -0.37863491779672193 0.1111416362774731 0 -0.36070563206784589 0.1086514306819677 0 -0.37336753619252078 0.1007201441306346 0 -0.36623877253267029 0.092586057582622422 0 -0.37413635783974292 0.088598178163790342 0 -0.37336753619252078 0.1007201441306346 0 -0.35968586719092738 0.12577894587512861 0 -0.36070563206784589 0.1086514306819677 0 -0.37246510506044889 0.1213868827414811 0 -0.37863491779672193 0.1111416362774731 0 -0.36070563206784589 0.1086514306819677 0 -0.37246510506044889 0.1213868827414811 0 -0.35968586719092738 0.12577894587512861 0 -0.36070563206784589 0.1086514306819677 0 -0.34732384904990932 0.11969241459514381 0 -0.36070563206784589 0.1086514306819677 0 -0.34732384904990932 0.11969241459514381 0 -0.33823704474517602 0.1058059260708008 0 -0.34958946996435741 0.086450037428971865 0 -0.36623877253267029 0.092586057582622422 0 -0.36070563206784589 0.1086514306819677 0 -0.34958946996435741 0.086450037428971865 0 -0.36070563206784589 0.1086514306819677 0 -0.33823704474517602 0.1058059260708008 0 -0.33823704474517602 0.1058059260708008 0 -0.32473763168129482 0.098556995113444304 0 -0.3330487294659365 0.084057061134401589 0 -0.33823704474517602 0.1058059260708008 0 -0.32457455620485742 0.1127148709747461 0 -0.32473763168129482 0.098556995113444304 0 -0.33246019960343792 0.1259006257841985 0 -0.33823704474517602 0.1058059260708008 0 -0.32457455620485742 0.1127148709747461 0 -0.33246019960343792 0.1259006257841985 0 -0.34732384904990932 0.11969241459514381 0 -0.33823704474517602 0.1058059260708008 0 -0.33246019960343792 0.1259006257841985 0 -0.32457455620485742 0.1127148709747461 0 -0.31646468563503488 0.1240620810451811 0 -0.31097321935934391 0.1092487268601058 0 -0.32457455620485742 0.1127148709747461 0 -0.31646468563503488 0.1240620810451811 0 -0.31097321935934391 0.1092487268601058 0 -0.3096038194528789 0.086643562229095888 0 -0.32473763168129482 0.098556995113444304 0 -0.31097321935934391 0.1092487268601058 0 -0.32473763168129482 0.098556995113444304 0 -0.31097321935934391 0.1092487268601058 0 -0.32457455620485742 0.1127148709747461 0 -0.32473763168129482 0.098556995113444304 0 -0.3096038194528789 0.086643562229095888 0 -0.32554438861076168 0.067586106460179318 0 -0.3330487294659365 0.084057061134401589 0 -0.3096038194528789 0.086643562229095888 0 -0.32473763168129482 0.098556995113444304 0 -0.3330487294659365 0.084057061134401589 0 -0.35130277957202488 0.066023756275060588 0 -0.32554438861076168 0.067586106460179318 0 -0.3330487294659365 0.084057061134401589 0 -0.34958946996435741 0.086450037428971865 0 -0.33823704474517602 0.1058059260708008 0 -0.3330487294659365 0.084057061134401589 0 -0.3934074870462313 0.47717060850114451 0 -0.39561694771117911 0.48115098121527439 0 -0.40198855746813922 0.47741841323387391 0 -0.39561694771117911 0.48115098121527439 0 -0.39943824460060329 0.48662820495549852 0 -0.38763350172974242 0.48338669817058078 0 -0.3934074870462313 0.47717060850114451 0 -0.39561694771117911 0.48115098121527439 0 -0.38763350172974242 0.48338669817058078 0 -0.3934074870462313 0.47717060850114451 0 -0.39901020771660201 0.46906044042329398 0 -0.40198855746813922 0.47741841323387391 0 -0.3934074870462313 0.47717060850114451 0 -0.39901020771660201 0.46906044042329398 0 -0.3897436199290672 0.47094901259743838 0 -0.39901020771660201 0.46906044042329398 0 -0.40198855746813922 0.47741841323387391 0 -0.40892616615854371 0.46871306332449891 0 -0.40198855746813922 0.47741841323387391 0 -0.39943824460060329 0.48662820495549852 0 -0.41185051010491308 0.47757091032945259 0 -0.39561694771117911 0.48115098121527439 0 -0.40198855746813922 0.47741841323387391 0 -0.39943824460060329 0.48662820495549852 0 -0.40013365506267118 0.49308738784057993 0 -0.38686041239286673 0.5 0 -0.4166432476601305 0.50000000000000067 0 -0.40013365506267118 0.49308738784057993 0 -0.39943824460060329 0.48662820495549852 0 -0.37860561609413712 0.49654369392029002 0 -0.39943824460060329 0.48662820495549852 0 -0.37297345166325779 0.49238862674767658 0 -0.40013365506267118 0.49308738784057993 0 -0.37860561609413712 0.49654369392029002 0 -0.39943824460060329 0.48662820495549852 0 -0.37860561609413712 0.49654369392029002 0 -0.37297345166325779 0.49238862674767658 0 -0.40013365506267118 0.49308738784057993 0 -0.38686041239286673 0.5 0 -0.37860561609413712 0.49654369392029002 0 -0.39943824460060329 0.48662820495549852 0 -0.38763350172974242 0.48338669817058078 0 -0.37297345166325779 0.49238862674767658 0 -0.37970877966649319 0.48310163572127041 0 -0.38763350172974242 0.48338669817058078 0 -0.37297345166325779 0.49238862674767658 0 -0.37841160494348502 0.47775493133726021 0 -0.37970877966649319 0.48310163572127041 0 -0.37190775508233909 0.48214217026250689 0 -0.37841160494348502 0.47775493133726021 0 -0.37970877966649319 0.48310163572127041 0 -0.38537293054550781 0.4781116359143659 0 -0.3934074870462313 0.47717060850114451 0 -0.38763350172974242 0.48338669817058078 0 -0.38537293054550781 0.4781116359143659 0 -0.37970877966649319 0.48310163572127041 0 -0.38763350172974242 0.48338669817058078 0 -0.38537293054550781 0.4781116359143659 0 -0.38537293054550781 0.4781116359143659 0 -0.3897436199290672 0.47094901259743838 0 -0.38152415331603989 0.47064388267112212 0 -0.3934074870462313 0.47717060850114451 0 -0.38537293054550781 0.4781116359143659 0 -0.3897436199290672 0.47094901259743838 0 -0.37841160494348502 0.47775493133726021 0 -0.38152415331603989 0.47064388267112212 0 -0.37354440610704459 0.47477533211703582 0 -0.38152415331603989 0.47064388267112212 0 -0.37156506717079729 0.46682629608583748 0 -0.37354440610704459 0.47477533211703582 0 -0.37841160494348502 0.47775493133726021 0 -0.38537293054550781 0.4781116359143659 0 -0.38152415331603989 0.47064388267112212 0 -0.38152415331603989 0.47064388267112212 0 -0.38019332088424418 0.46242721310573071 0 -0.37156506717079729 0.46682629608583748 0 -0.38019332088424418 0.46242721310573071 0 -0.3750041174280942 0.45766265911815962 0 -0.37156506717079729 0.46682629608583748 0 -0.38019332088424418 0.46242721310573071 0 -0.3750041174280942 0.45766265911815962 0 -0.38397204656093681 0.4534801781156555 0 -0.3750041174280942 0.45766265911815962 0 -0.38397204656093681 0.4534801781156555 0 -0.37352478443270593 0.44875242341034122 0 -0.38019332088424418 0.46242721310573071 0 -0.38397204656093681 0.4534801781156555 0 -0.38987309312841678 0.46326871796069252 0 -0.3897436199290672 0.47094901259743838 0 -0.38152415331603989 0.47064388267112212 0 -0.38987309312841678 0.46326871796069252 0 -0.38152415331603989 0.47064388267112212 0 -0.38019332088424418 0.46242721310573071 0 -0.38987309312841678 0.46326871796069252 0 -0.38397204656093681 0.4534801781156555 0 -0.38362764896997942 0.441088590919199 0 -0.40019378701642799 0.44462489484683337 0 -0.38362764896997942 0.441088590919199 0 -0.37239334841130511 0.43586925147733702 0 -0.37352478443270593 0.44875242341034122 0 -0.38397204656093681 0.4534801781156555 0 -0.38362764896997942 0.441088590919199 0 -0.37352478443270593 0.44875242341034122 0 -0.38362764896997942 0.441088590919199 0 -0.40019378701642799 0.44462489484683337 0 -0.38821815491657052 0.42742615537515621 0 -0.38397204656093681 0.4534801781156555 0 -0.40019378701642799 0.44462489484683337 0 -0.39981936560465919 0.45832900130446041 0 -0.38397204656093681 0.4534801781156555 0 -0.38987309312841678 0.46326871796069252 0 -0.39981936560465919 0.45832900130446041 0 -0.39901020771660201 0.46906044042329398 0 -0.38987309312841678 0.46326871796069252 0 -0.39981936560465919 0.45832900130446041 0 -0.39901020771660201 0.46906044042329398 0 -0.3897436199290672 0.47094901259743838 0 -0.38987309312841678 0.46326871796069252 0 -0.40019378701642799 0.44462489484683337 0 -0.39981936560465919 0.45832900130446041 0 -0.41461087128181351 0.45951804712488692 0 -0.39901020771660201 0.46906044042329398 0 -0.39981936560465919 0.45832900130446041 0 -0.40892616615854371 0.46871306332449891 0 -0.41461087128181351 0.45951804712488692 0 -0.41973635387779862 0.44502048340203532 0 -0.43003213470863422 0.47233640356920492 0 -0.39981936560465919 0.45832900130446041 0 -0.40892616615854371 0.46871306332449891 0 -0.41461087128181351 0.45951804712488692 0 -0.40892616615854371 0.46871306332449891 0 -0.41461087128181351 0.45951804712488692 0 -0.41866442035542811 0.4721911452082066 0 -0.41461087128181351 0.45951804712488692 0 -0.4290279555471983 0.47441119940294108 0 -0.41461087128181351 0.45951804712488692 0 -0.4290279555471983 0.47441119940294108 0 -0.41866442035542811 0.4721911452082066 0 -0.40019378701642799 0.44462489484683337 0 -0.41461087128181351 0.45951804712488692 0 -0.41973635387779862 0.44502048340203532 0 -0.40019378701642799 0.44462489484683337 0 -0.41461087128181351 0.45951804712488692 0 -0.41973635387779862 0.44502048340203532 0 -0.44001008728656071 0.45172034696040808 0 -0.43344832008885809 0.43029085552493213 0 -0.43003213470863422 0.47233640356920492 0 -0.44001008728656071 0.45172034696040808 0 -0.41973635387779862 0.44502048340203532 0 -0.43003213470863422 0.47233640356920492 0 -0.44001008728656071 0.45172034696040808 0 -0.43003213470863422 0.47233640356920492 0 -0.44137863328646149 0.46529971367218731 0 -0.44001008728656071 0.45172034696040808 0 -0.41973635387779862 0.44502048340203532 0 -0.43003213470863422 0.47233640356920492 0 -0.43003213470863422 0.47233640356920492 0 -0.43767111942643139 0.47327832429435529 0 -0.44137863328646149 0.46529971367218731 0 -0.43003213470863422 0.47233640356920492 0 -0.43195309038769802 0.47743292541989713 0 -0.43767111942643139 0.47327832429435529 0 -0.43003213470863422 0.47233640356920492 0 -0.43195309038769802 0.47743292541989713 0 -0.4290279555471983 0.47441119940294108 0 -0.43003213470863422 0.47233640356920492 0 -0.43195309038769802 0.47743292541989713 0 -0.43195309038769802 0.47743292541989713 0 -0.4290279555471983 0.47441119940294108 0 -0.43364654801734881 0.47918230288697489 0 -0.43195309038769802 0.47743292541989713 0 -0.43767111942643139 0.47327832429435529 0 -0.43364654801734881 0.47918230288697489 0 -0.43195309038769802 0.47743292541989713 0 -0.42590303753794923 0.48086778316332363 0 -0.43364654801734881 0.47918230288697489 0 -0.42590303753794923 0.48086778316332363 0 -0.43364654801734881 0.47918230288697489 0 -0.43195309038769802 0.47743292541989713 0 -0.43364654801734881 0.47918230288697489 0 -0.42590303753794923 0.48086778316332363 0 -0.42166169403120518 0.48963108176087039 0 -0.43195309038769802 0.47743292541989713 0 -0.42590303753794923 0.48086778316332363 0 -0.4290279555471983 0.47441119940294108 0 -0.42590303753794923 0.48086778316332363 0 -0.4290279555471983 0.47441119940294108 0 -0.41461087128181351 0.45951804712488692 0 -0.43003213470863422 0.47233640356920492 0 -0.4290279555471983 0.47441119940294108 0 -0.42590303753794923 0.48086778316332363 0 -0.4290279555471983 0.47441119940294108 0 -0.41866442035542811 0.4721911452082066 0 -0.43003213470863422 0.47233640356920492 0 -0.4290279555471983 0.47441119940294108 0 -0.39943824460060329 0.48662820495549852 0 -0.42590303753794923 0.48086778316332363 0 -0.41185051010491308 0.47757091032945259 0 -0.39943824460060329 0.48662820495549852 0 -0.42590303753794923 0.48086778316332363 0 -0.42590303753794923 0.48086778316332363 0 -0.41866442035542811 0.4721911452082066 0 -0.41185051010491308 0.47757091032945259 0 -0.40892616615854371 0.46871306332449891 0 -0.41866442035542811 0.4721911452082066 0 -0.41185051010491308 0.47757091032945259 0 -0.40198855746813922 0.47741841323387391 0 -0.40892616615854371 0.46871306332449891 0 -0.41185051010491308 0.47757091032945259 0 -0.39943824460060329 0.48662820495549852 0 -0.42590303753794923 0.48086778316332363 0 -0.42166169403120518 0.48963108176087039 0 -0.40013365506267118 0.49308738784057993 0 -0.42166169403120518 0.48963108176087039 0 -0.40013365506267118 0.49308738784057993 0 -0.42166169403120518 0.48963108176087039 0 -0.4166432476601305 0.50000000000000067 0 -0.40013365506267118 0.49308738784057993 0 -0.39943824460060329 0.48662820495549852 0 -0.42166169403120518 0.48963108176087039 0 -0.42166169403120518 0.48963108176087039 0 -0.4166432476601305 0.50000000000000067 0 -0.43364654801734881 0.47918230288697489 0 -0.44045895994829037 0.49999999999999067 0 -0.42166169403120518 0.48963108176087039 0 -0.4166432476601305 0.50000000000000067 0 -0.44045895994829037 0.49999999999999067 0 -0.43364654801734881 0.47918230288697489 0 -0.42166169403120518 0.48963108176087039 0 -0.44045895994829037 0.49999999999999067 0 -0.42590303753794923 0.48086778316332363 0 -0.42166169403120518 0.48963108176087039 0 -0.43364654801734881 0.47918230288697489 0 -0.44922489524407189 0.49527506430926937 0 -0.43364654801734881 0.47918230288697489 0 -0.44045895994829037 0.49999999999999067 0 -0.44922489524407189 0.49527506430926937 0 -0.44922489524407189 0.49527506430926937 0 -0.44945720338563372 0.47574089890744092 0 -0.44045895994829037 0.49999999999999067 0 -0.44922489524407189 0.49527506430926937 0 -0.44916870441089962 0.49999999999999611 0 -0.44922489524407189 0.49527506430926937 0 -0.44916870441089962 0.49999999999999611 0 -0.45379879570046122 0.49999999999999672 0 -0.44922489524407189 0.49527506430926937 0 -0.45379879570046122 0.49999999999999672 0 -0.44922489524407189 0.49527506430926937 0 -0.44916870441089962 0.49999999999999611 0 -0.43364654801734881 0.47918230288697489 0 -0.44922489524407189 0.49527506430926937 0 -0.44945720338563372 0.47574089890744092 0 -0.43364654801734881 0.47918230288697489 0 -0.43767111942643139 0.47327832429435529 0 -0.44945720338563372 0.47574089890744092 0 -0.43364654801734881 0.47918230288697489 0 -0.44945720338563372 0.47574089890744092 0 -0.43767111942643139 0.47327832429435529 0 -0.44945720338563372 0.47574089890744092 0 -0.44137863328646149 0.46529971367218731 0 -0.44945720338563372 0.47574089890744092 0 -0.46662980503376222 0.47200304881367589 0 -0.46312514885879519 0.49999999999999711 0 -0.44945720338563372 0.47574089890744092 0 -0.46662980503376222 0.47200304881367589 0 -0.46662980503376222 0.47200304881367589 0 -0.46312514885879519 0.49999999999999711 0 -0.47633885832207468 0.47716936558957368 0 -0.44922489524407189 0.49527506430926937 0 -0.44945720338563372 0.47574089890744092 0 -0.46312514885879519 0.49999999999999711 0 -0.46662980503376222 0.47200304881367589 0 -0.46312514885879519 0.49999999999999711 0 -0.44922489524407189 0.49527506430926937 0 -0.45379879570046122 0.49999999999999672 0 -0.46312514885879519 0.49999999999999711 0 -0.47245635717198509 0.50000000000000022 0 -0.47633885832207468 0.47716936558957368 0 -0.47245635717198509 0.50000000000000022 0 -0.47633885832207468 0.47716936558957368 0 -0.5 0.5 0 -0.5 0.5 0 -0.5 0.44406474968772308 0 -0.49605344737224027 0.46715781504585452 0 -0.46312514885879519 0.49999999999999711 0 -0.47245635717198509 0.50000000000000022 0 -0.47633885832207468 0.47716936558957368 0 -0.47633885832207468 0.47716936558957368 0 -0.5 0.5 0 -0.49605344737224027 0.46715781504585452 0 -0.46662980503376222 0.47200304881367589 0 -0.47633885832207468 0.47716936558957368 0 -0.47191059305372779 0.47085361354463601 0 -0.46662980503376222 0.47200304881367589 0 -0.47191059305372779 0.47085361354463601 0 -0.5 0.44406474968772308 0 -0.48022135947216382 0.45433873117914692 0 -0.48371391613579889 0.43380112378054908 0 -0.49605344737224027 0.46715781504585452 0 -0.48022135947216382 0.45433873117914692 0 -0.5 0.44406474968772308 0 -0.49605344737224027 0.46715781504585452 0 -0.48022135947216382 0.45433873117914692 0 -0.46662980503376222 0.47200304881367589 0 -0.47191059305372779 0.47085361354463601 0 -0.46988834557345949 0.44597219275419048 0 -0.47633885832207468 0.47716936558957368 0 -0.49605344737224027 0.46715781504585452 0 -0.48022135947216382 0.45433873117914692 0 -0.47633885832207468 0.47716936558957368 0 -0.48022135947216382 0.45433873117914692 0 -0.47633885832207468 0.47716936558957368 0 -0.47191059305372779 0.47085361354463601 0 -0.48022135947216382 0.45433873117914692 0 -0.47191059305372779 0.47085361354463601 0 -0.48022135947216382 0.45433873117914692 0 -0.46988834557345949 0.44597219275419048 0 -0.48022135947216382 0.45433873117914692 0 -0.48371391613579889 0.43380112378054908 0 -0.48022135947216382 0.45433873117914692 0 -0.46988834557345949 0.44597219275419048 0 -0.48371391613579889 0.43380112378054908 0 -0.48022135947216382 0.45433873117914692 0 -0.46988834557345949 0.44597219275419048 0 -0.46988834557345949 0.44597219275419048 0 -0.45042101670411688 0.43020969048588997 0 -0.46988834557345949 0.44597219275419048 0 -0.44972262162505522 0.45342259462952361 0 -0.45042101670411688 0.43020969048588997 0 -0.44945720338563372 0.47574089890744092 0 -0.46662980503376222 0.47200304881367589 0 -0.44972262162505522 0.45342259462952361 0 -0.46662980503376222 0.47200304881367589 0 -0.46988834557345949 0.44597219275419048 0 -0.44972262162505522 0.45342259462952361 0 -0.46662980503376222 0.47200304881367589 0 -0.46988834557345949 0.44597219275419048 0 -0.44945720338563372 0.47574089890744092 0 -0.44972262162505522 0.45342259462952361 0 -0.44945720338563372 0.47574089890744092 0 -0.44972262162505522 0.45342259462952361 0 -0.44137863328646149 0.46529971367218731 0 -0.44972262162505522 0.45342259462952361 0 -0.44137863328646149 0.46529971367218731 0 -0.44001008728656071 0.45172034696040808 0 -0.44001008728656071 0.45172034696040808 0 -0.45042101670411688 0.43020969048588997 0 -0.44972262162505522 0.45342259462952361 0 -0.45042101670411688 0.43020969048588997 0 -0.44972262162505522 0.45342259462952361 0 -0.44001008728656071 0.45172034696040808 0 -0.45042101670411688 0.43020969048588997 0 -0.44001008728656071 0.45172034696040808 0 -0.45042101670411688 0.43020969048588997 0 -0.43344832008885809 0.43029085552493213 0 -0.45042101670411688 0.43020969048588997 0 -0.4304153124545273 0.41401127103504742 0 -0.45042101670411688 0.43020969048588997 0 -0.4304153124545273 0.41401127103504742 0 -0.43344832008885809 0.43029085552493213 0 -0.45042101670411688 0.43020969048588997 0 -0.45034346457132363 0.40121758485415132 0 -0.45042101670411688 0.43020969048588997 0 -0.45034346457132363 0.40121758485415132 0 -0.4304153124545273 0.41401127103504742 0 -0.45042101670411688 0.43020969048588997 0 -0.46006119687286279 0.41029152606027391 0 -0.45034346457132363 0.40121758485415132 0 -0.45042101670411688 0.43020969048588997 0 -0.46006119687286279 0.41029152606027391 0 -0.47303941611909112 0.42079986090580768 0 -0.45042101670411688 0.43020969048588997 0 -0.46006119687286279 0.41029152606027391 0 -0.46988834557345949 0.44597219275419048 0 -0.45042101670411688 0.43020969048588997 0 -0.47303941611909112 0.42079986090580768 0 -0.46988834557345949 0.44597219275419048 0 -0.47303941611909112 0.42079986090580768 0 -0.48371391613579889 0.43380112378054908 0 -0.48323595472990349 0.41321264286311138 0 -0.47303941611909112 0.42079986090580768 0 -0.5 0.44406474968772308 0 -0.48371391613579889 0.43380112378054908 0 -0.5 0.40262205770866399 0 -0.46988834557345949 0.44597219275419048 0 -0.48371391613579889 0.43380112378054908 0 -0.47303941611909112 0.42079986090580768 0 -0.47303941611909112 0.42079986090580768 0 -0.47619048666472408 0.39562752905742499 0 -0.46006119687286279 0.41029152606027391 0 -0.47303941611909112 0.42079986090580768 0 -0.47619048666472408 0.39562752905742499 0 -0.48323595472990349 0.41321264286311138 0 -0.47303941611909112 0.42079986090580768 0 -0.47619048666472408 0.39562752905742499 0 -0.48371391613579889 0.43380112378054908 0 -0.48323595472990349 0.41321264286311138 0 -0.5 0.40262205770866399 0 -0.4888830109687709 0.38515502163393989 0 -0.5 0.40262205770866399 0 -0.50000000000000178 0.37191530256062921 0 -0.4888830109687709 0.38515502163393989 0 -0.47934155721035621 0.3704551972090423 0 -0.50000000000000178 0.37191530256062921 0 -0.48323595472990349 0.41321264286311138 0 -0.5 0.40262205770866399 0 -0.47619048666472408 0.39562752905742499 0 -0.4888830109687709 0.38515502163393989 0 -0.5 0.40262205770866399 0 -0.47619048666472408 0.39562752905742499 0 -0.46970137704160908 0.39037336163465791 0 -0.47934155721035621 0.3704551972090423 0 -0.47619048666472408 0.39562752905742499 0 -0.46970137704160908 0.39037336163465791 0 -0.47934155721035621 0.3704551972090423 0 -0.47619048666472408 0.39562752905742499 0 -0.47934155721035621 0.3704551972090423 0 -0.4888830109687709 0.38515502163393989 0 -0.47619048666472408 0.39562752905742499 0 -0.47934155721035621 0.3704551972090423 0 -0.46970137704160908 0.39037336163465791 0 -0.45034346457132363 0.40121758485415132 0 -0.45068422236435463 0.37256418060250179 0 -0.46970137704160908 0.39037336163465791 0 -0.45068422236435463 0.37256418060250179 0 -0.46435612681551097 0.36258544774913082 0 -0.46006119687286279 0.41029152606027391 0 -0.47619048666472408 0.39562752905742499 0 -0.46970137704160908 0.39037336163465791 0 -0.46006119687286279 0.41029152606027391 0 -0.46970137704160908 0.39037336163465791 0 -0.46006119687286279 0.41029152606027391 0 -0.46970137704160908 0.39037336163465791 0 -0.45034346457132363 0.40121758485415132 0 -0.45034346457132363 0.40121758485415132 0 -0.43526943142157731 0.3940514131401896 0 -0.4304153124545273 0.41401127103504742 0 -0.45034346457132363 0.40121758485415132 0 -0.45068422236435463 0.37256418060250179 0 -0.45034346457132363 0.40121758485415132 0 -0.43526943142157731 0.3940514131401896 0 -0.45068422236435463 0.37256418060250179 0 -0.42506096340238181 0.38179001329042728 0 -0.43526943142157731 0.3940514131401896 0 -0.45068422236435463 0.37256418060250179 0 -0.42506096340238181 0.38179001329042728 0 -0.39914479221614291 0.39038864306769028 0 -0.41320146313559042 0.36104407815389838 0 -0.42506096340238181 0.38179001329042728 0 -0.41984319431529882 0.40067401591882018 0 -0.39914479221614291 0.39038864306769028 0 -0.41984319431529882 0.40067401591882018 0 -0.40944057304697068 0.41770456323486282 0 -0.39914479221614291 0.39038864306769028 0 -0.42506096340238181 0.38179001329042728 0 -0.41984319431529882 0.40067401591882018 0 -0.43526943142157731 0.3940514131401896 0 -0.41984319431529882 0.40067401591882018 0 -0.43526943142157731 0.3940514131401896 0 -0.4304153124545273 0.41401127103504742 0 -0.4304153124545273 0.41401127103504742 0 -0.43344832008885809 0.43029085552493213 0 -0.40944057304697068 0.41770456323486282 0 -0.41973635387779862 0.44502048340203532 0 -0.43344832008885809 0.43029085552493213 0 -0.40944057304697068 0.41770456323486282 0 -0.41973635387779862 0.44502048340203532 0 -0.40944057304697068 0.41770456323486282 0 -0.40019378701642799 0.44462489484683337 0 -0.41973635387779862 0.44502048340203532 0 -0.40944057304697068 0.41770456323486282 0 -0.41984319431529882 0.40067401591882018 0 -0.4304153124545273 0.41401127103504742 0 -0.40944057304697068 0.41770456323486282 0 -0.40944057304697068 0.41770456323486282 0 -0.39185531356191738 0.40899440914094948 0 -0.38821815491657052 0.42742615537515621 0 -0.40019378701642799 0.44462489484683337 0 -0.40944057304697068 0.41770456323486282 0 -0.38821815491657052 0.42742615537515621 0 -0.38362764896997942 0.441088590919199 0 -0.38821815491657052 0.42742615537515621 0 -0.37239334841130511 0.43586925147733702 0 -0.38821815491657052 0.42742615537515621 0 -0.369980710934671 0.41728051790635101 0 -0.37239334841130511 0.43586925147733702 0 -0.39185531356191738 0.40899440914094948 0 -0.3766433219881512 0.40093834091515862 0 -0.369980710934671 0.41728051790635101 0 -0.39185531356191738 0.40899440914094948 0 -0.38821815491657052 0.42742615537515621 0 -0.369980710934671 0.41728051790635101 0 -0.3766433219881512 0.40093834091515862 0 -0.37929463174943218 0.38339395271962351 0 -0.39914479221614291 0.39038864306769028 0 -0.39185531356191738 0.40899440914094948 0 -0.3766433219881512 0.40093834091515862 0 -0.39914479221614291 0.39038864306769028 0 -0.37929463174943218 0.38339395271962351 0 -0.39914479221614291 0.39038864306769028 0 -0.38884901138531491 0.36307272290051767 0 -0.39914479221614291 0.39038864306769028 0 -0.38884901138531491 0.36307272290051767 0 -0.40944057304697068 0.41770456323486282 0 -0.39914479221614291 0.39038864306769028 0 -0.40944057304697068 0.41770456323486282 0 -0.39185531356191738 0.40899440914094948 0 -0.39914479221614291 0.39038864306769028 0 -0.39619491067817397 0.34470566571181438 0 -0.38884901138531491 0.36307272290051767 0 -0.41320146313559042 0.36104407815389838 0 -0.39914479221614291 0.39038864306769028 0 -0.38884901138531491 0.36307272290051767 0 -0.41320146313559042 0.36104407815389838 0 -0.38884901138531491 0.36307272290051767 0 -0.36854009529568238 0.35389950487053329 0 -0.36883767322522548 0.37114371475361801 0 -0.37929463174943218 0.38339395271962351 0 -0.38884901138531491 0.36307272290051767 0 -0.36883767322522548 0.37114371475361801 0 -0.38884901138531491 0.36307272290051767 0 -0.37855323055448709 0.33575680273334529 0 -0.36854009529568238 0.35389950487053329 0 -0.39619491067817397 0.34470566571181438 0 -0.38884901138531491 0.36307272290051767 0 -0.37855323055448709 0.33575680273334529 0 -0.38884901138531491 0.36307272290051767 0 -0.37855323055448709 0.33575680273334529 0 -0.39619491067817397 0.34470566571181438 0 -0.37855323055448709 0.33575680273334529 0 -0.38700428511295593 0.31697319591610651 0 -0.37855323055448709 0.33575680273334529 0 -0.38700428511295593 0.31697319591610651 0 -0.3682574497236592 0.3084408825661728 0 -0.38700428511295593 0.31697319591610651 0 -0.41494516114024638 0.33390945855038717 0 -0.408088641327223 0.31228282013049519 0 -0.39619491067817397 0.34470566571181438 0 -0.38700428511295593 0.31697319591610651 0 -0.41494516114024638 0.33390945855038717 0 -0.41494516114024638 0.33390945855038717 0 -0.42594435942591452 0.32063016881457451 0 -0.408088641327223 0.31228282013049519 0 -0.42594435942591452 0.32063016881457451 0 -0.44480258228805503 0.32062145110265883 0 -0.42457236701016032 0.30182191843534573 0 -0.42594435942591452 0.32063016881457451 0 -0.43910816082637372 0.33566955664737053 0 -0.44480258228805503 0.32062145110265883 0 -0.41494516114024638 0.33390945855038717 0 -0.43036445323889699 0.34875732855051661 0 -0.43910816082637372 0.33566955664737053 0 -0.41494516114024638 0.33390945855038717 0 -0.42594435942591452 0.32063016881457451 0 -0.43910816082637372 0.33566955664737053 0 -0.43036445323889699 0.34875732855051661 0 -0.41320146313559042 0.36104407815389838 0 -0.43341496819864461 0.36519462362173288 0 -0.43036445323889699 0.34875732855051661 0 -0.43341496819864461 0.36519462362173288 0 -0.44716012150162171 0.35403202015687069 0 -0.39619491067817397 0.34470566571181438 0 -0.41494516114024638 0.33390945855038717 0 -0.41320146313559042 0.36104407815389838 0 -0.41494516114024638 0.33390945855038717 0 -0.43036445323889699 0.34875732855051661 0 -0.41320146313559042 0.36104407815389838 0 -0.42506096340238181 0.38179001329042728 0 -0.41320146313559042 0.36104407815389838 0 -0.43341496819864461 0.36519462362173288 0 -0.42506096340238181 0.38179001329042728 0 -0.43341496819864461 0.36519462362173288 0 -0.45068422236435463 0.37256418060250179 0 -0.43341496819864461 0.36519462362173288 0 -0.45068422236435463 0.37256418060250179 0 -0.44716012150162171 0.35403202015687069 0 -0.43036445323889699 0.34875732855051661 0 -0.44716012150162171 0.35403202015687069 0 -0.43910816082637372 0.33566955664737053 0 -0.44716012150162171 0.35403202015687069 0 -0.46435612681551097 0.36258544774913082 0 -0.46503279756594978 0.33942098376997182 0 -0.45068422236435463 0.37256418060250179 0 -0.44716012150162171 0.35403202015687069 0 -0.46435612681551097 0.36258544774913082 0 -0.46970137704160908 0.39037336163465791 0 -0.46435612681551097 0.36258544774913082 0 -0.47934155721035621 0.3704551972090423 0 -0.46435612681551097 0.36258544774913082 0 -0.47934155721035621 0.3704551972090423 0 -0.48081903065775528 0.35865239832641349 0 -0.47934155721035621 0.3704551972090423 0 -0.48526301284384471 0.35822051643728497 0 -0.47934155721035621 0.3704551972090423 0 -0.48081903065775528 0.35865239832641349 0 -0.48526301284384471 0.35822051643728497 0 -0.47934155721035621 0.3704551972090423 0 -0.48081903065775528 0.35865239832641349 0 -0.48081903065775528 0.35865239832641349 0 -0.48526301284384471 0.35822051643728497 0 -0.46503279756594978 0.33942098376997182 0 -0.48526301284384471 0.35822051643728497 0 -0.46503279756594978 0.33942098376997182 0 -0.48238191498563632 0.34601178327227589 0 -0.48526301284384471 0.35822051643728497 0 -0.46503279756594978 0.33942098376997182 0 -0.46435612681551097 0.36258544774913082 0 -0.48081903065775528 0.35865239832641349 0 -0.46503279756594978 0.33942098376997182 0 -0.5 0.34555005557293039 0 -0.49366334403957302 0.35308541423101469 0 -0.50000000000000178 0.37191530256062921 0 -0.48526301284384471 0.35822051643728497 0 -0.4924788800696015 0.3433113728984532 0 -0.48526301284384471 0.35822051643728497 0 -0.49366334403957302 0.35308541423101469 0 -0.4924788800696015 0.3433113728984532 0 -0.48238191498563632 0.34601178327227589 0 -0.48526301284384471 0.35822051643728497 0 -0.4924788800696015 0.3433113728984532 0 -0.5 0.34555005557293039 0 -0.49366334403957302 0.35308541423101469 0 -0.4924788800696015 0.3433113728984532 0 -0.48526301284384471 0.35822051643728497 0 -0.49366334403957302 0.35308541423101469 0 -0.50000000000000178 0.37191530256062921 0 -0.47934155721035621 0.3704551972090423 0 -0.48526301284384471 0.35822051643728497 0 -0.50000000000000178 0.37191530256062921 0 -0.48526301284384471 0.35822051643728497 0 -0.50000000000000178 0.37191530256062921 0 -0.49999999999998579 0.31918480858523163 0 -0.47189300243748722 0.31101879171433761 0 -0.49999999999998579 0.31918480858523163 0 -0.4902755929350362 0.33271430472860558 0 -0.48059927893244758 0.32836099869615831 0 -0.49999999999998579 0.31918480858523163 0 -0.49999999999999067 0.32840222935962132 0 -0.4902755929350362 0.33271430472860558 0 -0.49999999999999067 0.32840222935962132 0 -0.4924788800696015 0.3433113728984532 0 -0.49999999999999067 0.32840222935962132 0 -0.4924788800696015 0.3433113728984532 0 -0.4902755929350362 0.33271430472860558 0 -0.5 0.34555005557293039 0 -0.49999999999999067 0.32840222935962132 0 -0.4924788800696015 0.3433113728984532 0 -0.48238191498563632 0.34601178327227589 0 -0.4924788800696015 0.3433113728984532 0 -0.48266472362722479 0.33853392992979298 0 -0.4924788800696015 0.3433113728984532 0 -0.4902755929350362 0.33271430472860558 0 -0.48266472362722479 0.33853392992979298 0 -0.4902755929350362 0.33271430472860558 0 -0.48059927893244758 0.32836099869615831 0 -0.48266472362722479 0.33853392992979298 0 -0.48238191498563632 0.34601178327227589 0 -0.48266472362722479 0.33853392992979298 0 -0.46503279756594978 0.33942098376997182 0 -0.48059927893244758 0.32836099869615831 0 -0.48266472362722479 0.33853392992979298 0 -0.46503279756594978 0.33942098376997182 0 -0.48059927893244758 0.32836099869615831 0 -0.46503279756594978 0.33942098376997182 0 -0.47189300243748722 0.31101879171433761 0 -0.49999999999998579 0.31918480858523163 0 -0.48059927893244758 0.32836099869615831 0 -0.47189300243748722 0.31101879171433761 0 -0.46503279756594978 0.33942098376997182 0 -0.44480258228805503 0.32062145110265883 0 -0.47189300243748722 0.31101879171433761 0 -0.46503279756594978 0.33942098376997182 0 -0.44480258228805503 0.32062145110265883 0 -0.44716012150162171 0.35403202015687069 0 -0.46503279756594978 0.33942098376997182 0 -0.43910816082637372 0.33566955664737053 0 -0.46503279756594978 0.33942098376997182 0 -0.43910816082637372 0.33566955664737053 0 -0.44480258228805503 0.32062145110265883 0 -0.44480258228805503 0.32062145110265883 0 -0.44378600487498959 0.30285277484343981 0 -0.42457236701016032 0.30182191843534573 0 -0.44378600487498959 0.30285277484343981 0 -0.46090415620087161 0.28571375480112932 0 -0.43486243059308621 0.2814260165061413 0 -0.44378600487498959 0.30285277484343981 0 -0.46090415620087161 0.28571375480112932 0 -0.47189300243748722 0.31101879171433761 0 -0.44378600487498959 0.30285277484343981 0 -0.47189300243748722 0.31101879171433761 0 -0.44480258228805503 0.32062145110265883 0 -0.44378600487498959 0.30285277484343981 0 -0.47189300243748722 0.31101879171433761 0 -0.46090415620087161 0.28571375480112932 0 -0.47189300243748722 0.31101879171433761 0 -0.48214709977268738 0.28773259070785873 0 -0.48214709977268738 0.28773259070785873 0 -0.5 0.29815467627291448 0 -0.5 0.27712454396059738 0 -0.47189300243748722 0.31101879171433761 0 -0.48214709977268738 0.28773259070785873 0 -0.5 0.29815467627291448 0 -0.49999999999998579 0.31918480858523163 0 -0.47189300243748722 0.31101879171433761 0 -0.5 0.29815467627291448 0 -0.48049172660186401 0.2406013202634962 0 -0.50000000000000266 0.25609441164828028 0 -0.47793834022507842 0.26665118679031491 0 -0.50000000000000266 0.25609441164828028 0 -0.5 0.27712454396059738 0 -0.47793834022507842 0.26665118679031491 0 -0.48214709977268738 0.28773259070785873 0 -0.5 0.27712454396059738 0 -0.47793834022507842 0.26665118679031491 0 -0.46090415620087161 0.28571375480112932 0 -0.48214709977268738 0.28773259070785873 0 -0.47793834022507842 0.26665118679031491 0 -0.48049172660186401 0.2406013202634962 0 -0.47793834022507842 0.26665118679031491 0 -0.46547044691668021 0.25321908405801452 0 -0.45021739180255782 0.2468550533844977 0 -0.46547044691668021 0.25321908405801452 0 -0.45041822788618507 0.26432578898218062 0 -0.47793834022507842 0.26665118679031491 0 -0.46547044691668021 0.25321908405801452 0 -0.45041822788618507 0.26432578898218062 0 -0.46090415620087161 0.28571375480112932 0 -0.47793834022507842 0.26665118679031491 0 -0.45041822788618507 0.26432578898218062 0 -0.46090415620087161 0.28571375480112932 0 -0.45041822788618507 0.26432578898218062 0 -0.43486243059308621 0.2814260165061413 0 -0.45021739180255782 0.2468550533844977 0 -0.45041822788618507 0.26432578898218062 0 -0.43573456162750668 0.25007523137423232 0 -0.45041822788618507 0.26432578898218062 0 -0.43573456162750668 0.25007523137423232 0 -0.42602209144153957 0.26393856747784961 0 -0.42078014903155431 0.24908228663700011 0 -0.43573456162750668 0.25007523137423232 0 -0.42602209144153957 0.26393856747784961 0 -0.40784863063406612 0.2406177417638255 0 -0.42078014903155431 0.24908228663700011 0 -0.40335947558218388 0.26075972104728012 0 -0.42078014903155431 0.24908228663700011 0 -0.42602209144153957 0.26393856747784961 0 -0.40335947558218388 0.26075972104728012 0 -0.42602209144153957 0.26393856747784961 0 -0.4123650958424388 0.27703845495970658 0 -0.40335947558218388 0.26075972104728012 0 -0.45041822788618507 0.26432578898218062 0 -0.42602209144153957 0.26393856747784961 0 -0.43486243059308621 0.2814260165061413 0 -0.42602209144153957 0.26393856747784961 0 -0.4123650958424388 0.27703845495970658 0 -0.43486243059308621 0.2814260165061413 0 -0.44378600487498959 0.30285277484343981 0 -0.43486243059308621 0.2814260165061413 0 -0.4156790073124923 0.29468675797254201 0 -0.44378600487498959 0.30285277484343981 0 -0.42457236701016032 0.30182191843534573 0 -0.4156790073124923 0.29468675797254201 0 -0.44378600487498959 0.30285277484343981 0 -0.4156790073124923 0.29468675797254201 0 -0.44480258228805503 0.32062145110265883 0 -0.42457236701016032 0.30182191843534573 0 -0.42457236701016032 0.30182191843534573 0 -0.408088641327223 0.31228282013049519 0 -0.4156790073124923 0.29468675797254201 0 -0.42594435942591452 0.32063016881457451 0 -0.42457236701016032 0.30182191843534573 0 -0.408088641327223 0.31228282013049519 0 -0.4123650958424388 0.27703845495970658 0 -0.43486243059308621 0.2814260165061413 0 -0.4156790073124923 0.29468675797254201 0 -0.4156790073124923 0.29468675797254201 0 -0.38757200974999478 0.28652074110164422 0 -0.4123650958424388 0.27703845495970658 0 -0.4156790073124923 0.29468675797254201 0 -0.38757200974999478 0.28652074110164422 0 -0.408088641327223 0.31228282013049519 0 -0.4156790073124923 0.29468675797254201 0 -0.38757200974999478 0.28652074110164422 0 -0.38700428511295593 0.31697319591610651 0 -0.408088641327223 0.31228282013049519 0 -0.38757200974999478 0.28652074110164422 0 -0.38700428511295593 0.31697319591610651 0 -0.38757200974999478 0.28652074110164422 0 -0.3682574497236592 0.3084408825661728 0 -0.38757200974999478 0.28652074110164422 0 -0.38497598724048943 0.26369345872365929 0 -0.37499189332587701 0.27150386380698738 0 -0.3833890363621969 0.24775724791399789 0 -0.38497598724048943 0.26369345872365929 0 -0.40335947558218388 0.26075972104728012 0 -0.3833890363621969 0.24775724791399789 0 -0.38497598724048943 0.26369345872365929 0 -0.37110025567623828 0.25691424837682952 0 -0.38497598724048943 0.26369345872365929 0 -0.37110025567623828 0.25691424837682952 0 -0.37499189332587701 0.27150386380698738 0 -0.38757200974999478 0.28652074110164422 0 -0.38497598724048943 0.26369345872365929 0 -0.40335947558218388 0.26075972104728012 0 -0.4123650958424388 0.27703845495970658 0 -0.38757200974999478 0.28652074110164422 0 -0.40335947558218388 0.26075972104728012 0 -0.35660425324818479 0.27752357868735827 0 -0.34515994747927642 0.28323245015594789 0 -0.33144030732869528 0.27021261612510311 0 -0.35660425324818479 0.27752357868735827 0 -0.33144030732869528 0.27021261612510311 0 -0.35660425324818479 0.27752357868735827 0 -0.34860276939769441 0.25629469885101508 0 -0.35660425324818479 0.27752357868735827 0 -0.34860276939769441 0.25629469885101508 0 -0.33144030732869528 0.27021261612510311 0 -0.35894307262740421 0.26727181253648707 0 -0.35660425324818479 0.27752357868735827 0 -0.34860276939769441 0.25629469885101508 0 -0.35796166889283082 0.28112496239900059 0 -0.35660425324818479 0.27752357868735827 0 -0.34515994747927642 0.28323245015594789 0 -0.35894307262740421 0.26727181253648707 0 -0.35660425324818479 0.27752357868735827 0 -0.35946501218749771 0.27835472423074509 0 -0.35796166889283082 0.28112496239900059 0 -0.35946501218749771 0.27835472423074509 0 -0.35660425324818479 0.27752357868735827 0 -0.35946501218749771 0.27835472423074509 0 -0.35796166889283082 0.28112496239900059 0 -0.35660425324818479 0.27752357868735827 0 -0.35946501218749771 0.27835472423074509 0 -0.35796166889283082 0.28112496239900059 0 -0.35660425324818479 0.27752357868735827 0 -0.35894307262740421 0.26727181253648707 0 -0.34860276939769441 0.25629469885101508 0 -0.37110025567623828 0.25691424837682952 0 -0.36164288127963451 0.23790462822716529 0 -0.34860276939769441 0.25629469885101508 0 -0.37110025567623828 0.25691424837682952 0 -0.37110025567623828 0.25691424837682952 0 -0.37499189332587701 0.27150386380698738 0 -0.35946501218749771 0.27835472423074509 0 -0.37110025567623828 0.25691424837682952 0 -0.35946501218749771 0.27835472423074509 0 -0.38757200974999478 0.28652074110164422 0 -0.37499189332587701 0.27150386380698738 0 -0.35946501218749771 0.27835472423074509 0 -0.35894307262740421 0.26727181253648707 0 -0.37110025567623828 0.25691424837682952 0 -0.35946501218749771 0.27835472423074509 0 -0.38757200974999478 0.28652074110164422 0 -0.35796166889283082 0.28112496239900059 0 -0.35946501218749771 0.27835472423074509 0 -0.38757200974999478 0.28652074110164422 0 -0.35946501218749771 0.27835472423074509 0 -0.35796166889283082 0.28112496239900059 0 -0.3682574497236592 0.3084408825661728 0 -0.38757200974999478 0.28652074110164422 0 -0.35796166889283082 0.28112496239900059 0 -0.3682574497236592 0.3084408825661728 0 -0.3682574497236592 0.3084408825661728 0 -0.34853678270833949 0.29849237244589999 0 -0.35669524979606898 0.3239775472692546 0 -0.34853678270833949 0.29849237244589999 0 -0.3391118965238486 0.3158597824927995 0 -0.35796166889283082 0.28112496239900059 0 -0.34853678270833949 0.29849237244589999 0 -0.35796166889283082 0.28112496239900059 0 -0.34853678270833949 0.29849237244589999 0 -0.34515994747927642 0.28323245015594789 0 -0.35796166889283082 0.28112496239900059 0 -0.3682574497236592 0.3084408825661728 0 -0.34853678270833949 0.29849237244589999 0 -0.34853678270833949 0.29849237244589999 0 -0.34515994747927642 0.28323245015594789 0 -0.33125672521832972 0.28880872112237838 0 -0.34853678270833949 0.29849237244589999 0 -0.32822164887861349 0.3062103196478812 0 -0.3391118965238486 0.3158597824927995 0 -0.34853678270833949 0.29849237244589999 0 -0.33125672521832972 0.28880872112237838 0 -0.32822164887861349 0.3062103196478812 0 -0.32822164887861349 0.3062103196478812 0 -0.31499411587088511 0.30098120900810738 0 -0.3179850055146623 0.31675002222920062 0 -0.31499411587088511 0.30098120900810738 0 -0.30496722791427999 0.31260409384758697 0 -0.3179850055146623 0.31675002222920062 0 -0.32822164887861349 0.3062103196478812 0 -0.31499411587088511 0.30098120900810738 0 -0.32033208081109971 0.29226280329313609 0 -0.33125672521832972 0.28880872112237838 0 -0.32822164887861349 0.3062103196478812 0 -0.32033208081109971 0.29226280329313609 0 -0.33125672521832972 0.28880872112237838 0 -0.32033208081109971 0.29226280329313609 0 -0.31499857713150281 0.28138784739828698 0 -0.31499411587088511 0.30098120900810738 0 -0.32033208081109971 0.29226280329313609 0 -0.31060728975855789 0.29099305029556649 0 -0.32033208081109971 0.29226280329313609 0 -0.31499857713150281 0.28138784739828698 0 -0.31060728975855789 0.29099305029556649 0 -0.33144030732869528 0.27021261612510311 0 -0.30627636140920661 0.26290165356284467 0 -0.31499857713150281 0.28138784739828698 0 -0.33144030732869528 0.27021261612510311 0 -0.30627636140920661 0.26290165356284467 0 -0.33125672521832972 0.28880872112237838 0 -0.31499857713150281 0.28138784739828698 0 -0.33144030732869528 0.27021261612510311 0 -0.34515994747927642 0.28323245015594789 0 -0.33125672521832972 0.28880872112237838 0 -0.33144030732869528 0.27021261612510311 0 -0.34860276939769441 0.25629469885101508 0 -0.33144030732869528 0.27021261612510311 0 -0.33017893050261538 0.25111654093961377 0 -0.31632988914032212 0.23600336309467071 0 -0.33017893050261538 0.25111654093961377 0 -0.30627636140920661 0.26290165356284467 0 -0.33144030732869528 0.27021261612510311 0 -0.33017893050261538 0.25111654093961377 0 -0.30627636140920661 0.26290165356284467 0 -0.31499857713150281 0.28138784739828698 0 -0.30627636140920661 0.26290165356284467 0 -0.30310515699949869 0.27727015846842618 0 -0.30627636140920661 0.26290165356284467 0 -0.30310515699949869 0.27727015846842618 0 -0.29513873225985199 0.27344555879064508 0 -0.30310515699949869 0.27727015846842618 0 -0.29513873225985199 0.27344555879064508 0 -0.29494713598337369 0.28310080697591372 0 -0.30627636140920661 0.26290165356284467 0 -0.29513873225985199 0.27344555879064508 0 -0.28746221147258039 0.26676580827670587 0 -0.29513873225985199 0.27344555879064508 0 -0.28407578256909582 0.27867604561140807 0 -0.29494713598337369 0.28310080697591372 0 -0.29513873225985199 0.27344555879064508 0 -0.28746221147258039 0.26676580827670587 0 -0.28407578256909582 0.27867604561140807 0 -0.28746221147258039 0.26676580827670587 0 -0.28407578256909582 0.27867604561140807 0 -0.2750425485534852 0.26339371773447928 0 -0.29685309069113619 0.2390766990876817 0 -0.30627636140920661 0.26290165356284467 0 -0.28111241548971788 0.2555906910005864 0 -0.30627636140920661 0.26290165356284467 0 -0.28111241548971788 0.2555906910005864 0 -0.30627636140920661 0.26290165356284467 0 -0.28746221147258039 0.26676580827670587 0 -0.28111241548971788 0.2555906910005864 0 -0.25594846957022921 0.24827972843832841 0 -0.28111241548971788 0.2555906910005864 0 -0.25594846957022921 0.24827972843832841 0 -0.28111241548971788 0.2555906910005864 0 -0.26069206265437822 0.26190510009124962 0 -0.28111241548971788 0.2555906910005864 0 -0.2750425485534852 0.26339371773447928 0 -0.26069206265437822 0.26190510009124962 0 -0.28746221147258039 0.26676580827670587 0 -0.28111241548971788 0.2555906910005864 0 -0.2750425485534852 0.26339371773447928 0 -0.2750425485534852 0.26339371773447928 0 -0.27721403501436132 0.28471192635046921 0 -0.25559745324579952 0.27540315117287689 0 -0.27721403501436132 0.28471192635046921 0 -0.2750425485534852 0.26339371773447928 0 -0.25559745324579952 0.27540315117287689 0 -0.27721403501436132 0.28471192635046921 0 -0.28407578256909582 0.27867604561140807 0 -0.2750425485534852 0.26339371773447928 0 -0.27721403501436132 0.28471192635046921 0 -0.2750425485534852 0.26339371773447928 0 -0.25559745324579952 0.27540315117287689 0 -0.26069206265437822 0.26190510009124962 0 -0.25559745324579952 0.27540315117287689 0 -0.26069206265437822 0.26190510009124962 0 -0.23398087147723859 0.26609437599528257 0 -0.25594846957022921 0.24827972843832841 0 -0.26069206265437822 0.26190510009124962 0 -0.23398087147723859 0.26609437599528257 0 -0.26094097369162828 0.29858252253787271 0 -0.25214399418072592 0.3103931275864561 0 -0.2649047645055459 0.31774431666347308 0 -0.26094097369162828 0.29858252253787271 0 -0.25214399418072592 0.3103931275864561 0 -0.2426620622555952 0.29276101751343558 0 -0.26094097369162828 0.29858252253787271 0 -0.2426620622555952 0.29276101751343558 0 -0.25559745324579952 0.27540315117287689 0 -0.26094097369162828 0.29858252253787271 0 -0.27721403501436132 0.28471192635046921 0 -0.25559745324579952 0.27540315117287689 0 -0.26094097369162828 0.29858252253787271 0 -0.2426620622555952 0.29276101751343558 0 -0.27721403501436132 0.28471192635046921 0 -0.27921988512766149 0.30440402756230928 0 -0.28406783836288502 0.28766338811097858 0 -0.26094097369162828 0.29858252253787271 0 -0.27721403501436132 0.28471192635046921 0 -0.27921988512766149 0.30440402756230928 0 -0.27721403501436132 0.28471192635046921 0 -0.27921988512766149 0.30440402756230928 0 -0.27721403501436132 0.28471192635046921 0 -0.28406783836288502 0.28766338811097858 0 -0.26094097369162828 0.29858252253787271 0 -0.27921988512766149 0.30440402756230928 0 -0.2649047645055459 0.31774431666347308 0 -0.26094097369162828 0.29858252253787271 0 -0.27921988512766149 0.30440402756230928 0 -0.27921988512766149 0.30440402756230928 0 -0.2840516805326222 0.30594286762537748 0 -0.28406783836288502 0.28766338811097858 0 -0.2840516805326222 0.30594286762537748 0 -0.29953097711688492 0.29432229855954339 0 -0.30508961554408659 0.29864950636459392 0 -0.2840516805326222 0.30594286762537748 0 -0.30496722791427999 0.31260409384758697 0 -0.27921988512766149 0.30440402756230928 0 -0.2840516805326222 0.30594286762537748 0 -0.2840516805326222 0.30594286762537748 0 -0.28406783836288502 0.28766338811097858 0 -0.2840516805326222 0.30594286762537748 0 -0.28406783836288502 0.28766338811097858 0 -0.29953097711688492 0.29432229855954339 0 -0.28407578256909582 0.27867604561140807 0 -0.28406783836288502 0.28766338811097858 0 -0.29494713598337369 0.28310080697591372 0 -0.28407578256909582 0.27867604561140807 0 -0.27721403501436132 0.28471192635046921 0 -0.28406783836288502 0.28766338811097858 0 -0.28407578256909582 0.27867604561140807 0 -0.28406783836288502 0.28766338811097858 0 -0.28406783836288502 0.28766338811097858 0 -0.29953097711688492 0.29432229855954339 0 -0.28406783836288502 0.28766338811097858 0 -0.29494713598337369 0.28310080697591372 0 -0.29953097711688492 0.29432229855954339 0 -0.30310515699949869 0.27727015846842618 0 -0.29494713598337369 0.28310080697591372 0 -0.30416497821355848 0.28551492561444047 0 -0.29494713598337369 0.28310080697591372 0 -0.30416497821355848 0.28551492561444047 0 -0.29953097711688492 0.29432229855954339 0 -0.30416497821355848 0.28551492561444047 0 -0.29953097711688492 0.29432229855954339 0 -0.31060728975855789 0.29099305029556649 0 -0.31499411587088511 0.30098120900810738 0 -0.29953097711688492 0.29432229855954339 0 -0.31060728975855789 0.29099305029556649 0 -0.31499857713150281 0.28138784739828698 0 -0.30310515699949869 0.27727015846842618 0 -0.30416497821355848 0.28551492561444047 0 -0.31499857713150281 0.28138784739828698 0 -0.30416497821355848 0.28551492561444047 0 -0.31060728975855789 0.29099305029556649 0 -0.2840516805326222 0.30594286762537748 0 -0.30508961554408659 0.29864950636459392 0 -0.30496722791427999 0.31260409384758697 0 -0.31499411587088511 0.30098120900810738 0 -0.29953097711688492 0.29432229855954339 0 -0.30508961554408659 0.29864950636459392 0 -0.31499411587088511 0.30098120900810738 0 -0.29953097711688492 0.29432229855954339 0 -0.31499411587088511 0.30098120900810738 0 -0.30508961554408659 0.29864950636459392 0 -0.30496722791427999 0.31260409384758697 0 -0.30508961554408659 0.29864950636459392 0 -0.30496722791427999 0.31260409384758697 0 -0.30496722791427999 0.31260409384758697 0 -0.3179850055146623 0.31675002222920062 0 -0.30496722791427999 0.31260409384758697 0 -0.30478351278022969 0.33355121827604761 0 -0.31536623634939243 0.3277008064759388 0 -0.30496722791427999 0.31260409384758697 0 -0.30478351278022969 0.33355121827604761 0 -0.30496722791427999 0.31260409384758697 0 -0.30478351278022969 0.33355121827604761 0 -0.29630822102801713 0.32300251854158218 0 -0.30478351278022969 0.33355121827604761 0 -0.29512896736662741 0.34242134190339851 0 -0.30459979764617923 0.35449834270450831 0 -0.30478351278022969 0.33355121827604761 0 -0.29512896736662741 0.34242134190339851 0 -0.29630822102801713 0.32300251854158218 0 -0.30478351278022969 0.33355121827604761 0 -0.3067497080181299 0.34710840539458182 0 -0.31376913529398931 0.33897321017902382 0 -0.30478351278022969 0.33355121827604761 0 -0.31376913529398931 0.33897321017902382 0 -0.31536623634939243 0.3277008064759388 0 -0.28161567262956783 0.32792427449240702 0 -0.28401146013147288 0.35144452142250487 0 -0.28403157033204718 0.32869369452394109 0 -0.28401146013147288 0.35144452142250487 0 -0.28403157033204718 0.32869369452394109 0 -0.28161567262956783 0.32792427449240702 0 -0.28401146013147288 0.35144452142250487 0 -0.28403157033204718 0.32869369452394109 0 -0.29512896736662741 0.34242134190339851 0 -0.29630822102801713 0.32300251854158218 0 -0.28403157033204718 0.32869369452394109 0 -0.29512896736662741 0.34242134190339851 0 -0.28401146013147288 0.35144452142250487 0 -0.2840516805326222 0.30594286762537748 0 -0.28403157033204718 0.32869369452394109 0 -0.2840516805326222 0.30594286762537748 0 -0.28403157033204718 0.32869369452394109 0 -0.29630822102801713 0.32300251854158218 0 -0.27921988512766149 0.30440402756230928 0 -0.2840516805326222 0.30594286762537748 0 -0.28161567262956783 0.32792427449240702 0 -0.2840516805326222 0.30594286762537748 0 -0.28403157033204718 0.32869369452394109 0 -0.28161567262956783 0.32792427449240702 0 -0.2840516805326222 0.30594286762537748 0 -0.30496722791427999 0.31260409384758697 0 -0.29630822102801713 0.32300251854158218 0 -0.27921988512766149 0.30440402756230928 0 -0.28161567262956783 0.32792427449240702 0 -0.27921988512766149 0.30440402756230928 0 -0.28161567262956783 0.32792427449240702 0 -0.2649047645055459 0.31774431666347308 0 -0.28161567262956783 0.32792427449240702 0 -0.26004605168230138 0.34000762823621872 0 -0.28401146013147288 0.35144452142250487 0 -0.28161567262956783 0.32792427449240702 0 -0.26004605168230138 0.34000762823621872 0 -0.2649047645055459 0.31774431666347308 0 -0.26004605168230138 0.34000762823621872 0 -0.2649047645055459 0.31774431666347308 0 -0.24511680374919581 0.32513126628468952 0 -0.25214399418072592 0.3103931275864561 0 -0.2649047645055459 0.31774431666347308 0 -0.24511680374919581 0.32513126628468952 0 -0.2651634210895823 0.35982470889518497 0 -0.2560093092452066 0.37211042615786261 0 -0.24702240634340281 0.35857689094836498 0 -0.2651634210895823 0.35982470889518497 0 -0.2560093092452066 0.37211042615786261 0 -0.26940869693158548 0.37343320221854559 0 -0.26004605168230138 0.34000762823621872 0 -0.2651634210895823 0.35982470889518497 0 -0.24702240634340281 0.35857689094836498 0 -0.26004605168230138 0.34000762823621872 0 -0.2651634210895823 0.35982470889518497 0 -0.28401146013147288 0.35144452142250487 0 -0.2651634210895823 0.35982470889518497 0 -0.27407175540247208 0.36422846866563041 0 -0.28401146013147288 0.35144452142250487 0 -0.27407175540247208 0.36422846866563041 0 -0.27770344345724751 0.37221144212628637 0 -0.28401146013147288 0.35144452142250487 0 -0.2651634210895823 0.35982470889518497 0 -0.27407175540247208 0.36422846866563041 0 -0.26940869693158548 0.37343320221854559 0 -0.27407175540247208 0.36422846866563041 0 -0.26940869693158548 0.37343320221854559 0 -0.27770344345724751 0.37221144212628637 0 -0.28632708221611058 0.37417775764823408 0 -0.28401146013147288 0.35144452142250487 0 -0.28398675408013491 0.3793946701670084 0 -0.27770344345724751 0.37221144212628637 0 -0.28401146013147288 0.35144452142250487 0 -0.28398675408013491 0.3793946701670084 0 -0.28632708221611058 0.37417775764823408 0 -0.29606635525155328 0.36489786865216151 0 -0.30441608251212859 0.37544546713296889 0 -0.28632708221611058 0.37417775764823408 0 -0.29606635525155328 0.36489786865216151 0 -0.28401146013147288 0.35144452142250487 0 -0.28401146013147288 0.35144452142250487 0 -0.28398675408013491 0.3793946701670084 0 -0.28632708221611058 0.37417775764823408 0 -0.28401146013147288 0.35144452142250487 0 -0.29606635525155328 0.36489786865216151 0 -0.28401146013147288 0.35144452142250487 0 -0.29495164509895822 0.35331551867064331 0 -0.29512896736662741 0.34242134190339851 0 -0.28401146013147288 0.35144452142250487 0 -0.29495164509895822 0.35331551867064331 0 -0.30478351278022969 0.33355121827604761 0 -0.30459979764617923 0.35449834270450831 0 -0.3067497080181299 0.34710840539458182 0 -0.30478351278022969 0.33355121827604761 0 -0.30459979764617923 0.35449834270450831 0 -0.29512896736662741 0.34242134190339851 0 -0.29495164509895822 0.35331551867064331 0 -0.30459979764617923 0.35449834270450831 0 -0.29606635525155328 0.36489786865216151 0 -0.29495164509895822 0.35331551867064331 0 -0.30459979764617923 0.35449834270450831 0 -0.30459979764617923 0.35449834270450831 0 -0.3067497080181299 0.34710840539458182 0 -0.30935315240419609 0.36265900057406869 0 -0.30459979764617923 0.35449834270450831 0 -0.30441608251212859 0.37544546713296889 0 -0.30459979764617923 0.35449834270450831 0 -0.30935315240419609 0.36265900057406869 0 -0.30441608251212859 0.37544546713296889 0 -0.30935315240419609 0.36265900057406869 0 -0.3207162521618197 0.36980698557711378 0 -0.30441608251212859 0.37544546713296889 0 -0.29606635525155328 0.36489786865216151 0 -0.30459979764617923 0.35449834270450831 0 -0.30441608251212859 0.37544546713296889 0 -0.3067497080181299 0.34710840539458182 0 -0.30935315240419609 0.36265900057406869 0 -0.3207162521618197 0.36980698557711378 0 -0.3207162521618197 0.36980698557711378 0 -0.33416076459190691 0.36225699986591409 0 -0.32631658044296569 0.35362728797770071 0 -0.3207162521618197 0.36980698557711378 0 -0.33416076459190691 0.36225699986591409 0 -0.33740964808526508 0.37439453885515311 0 -0.33416076459190691 0.36225699986591409 0 -0.33740964808526508 0.37439453885515311 0 -0.34860650966216289 0.36459064322083812 0 -0.33416076459190691 0.36225699986591409 0 -0.33775483260732131 0.34886554369876471 0 -0.34860650966216289 0.36459064322083812 0 -0.33416076459190691 0.36225699986591409 0 -0.33775483260732131 0.34886554369876471 0 -0.32631658044296569 0.35362728797770071 0 -0.33775483260732131 0.34886554369876471 0 -0.32631658044296569 0.35362728797770071 0 -0.32449473370542109 0.33894647638044312 0 -0.32631658044296569 0.35362728797770071 0 -0.31840928192446522 0.34969247310177259 0 -0.32449473370542109 0.33894647638044312 0 -0.3067497080181299 0.34710840539458182 0 -0.3207162521618197 0.36980698557711378 0 -0.3067497080181299 0.34710840539458182 0 -0.3207162521618197 0.36980698557711378 0 -0.31840928192446522 0.34969247310177259 0 -0.3207162521618197 0.36980698557711378 0 -0.32631658044296569 0.35362728797770071 0 -0.31840928192446522 0.34969247310177259 0 -0.3067497080181299 0.34710840539458182 0 -0.31840928192446522 0.34969247310177259 0 -0.31376913529398931 0.33897321017902382 0 -0.31840928192446522 0.34969247310177259 0 -0.31376913529398931 0.33897321017902382 0 -0.32449473370542109 0.33894647638044312 0 -0.32449473370542109 0.33894647638044312 0 -0.31536623634939243 0.3277008064759388 0 -0.3275349432372513 0.32268198581326429 0 -0.31376913529398931 0.33897321017902382 0 -0.32449473370542109 0.33894647638044312 0 -0.31536623634939243 0.3277008064759388 0 -0.32822164887861349 0.3062103196478812 0 -0.3179850055146623 0.31675002222920062 0 -0.3275349432372513 0.32268198581326429 0 -0.30496722791427999 0.31260409384758697 0 -0.3179850055146623 0.31675002222920062 0 -0.31536623634939243 0.3277008064759388 0 -0.3179850055146623 0.31675002222920062 0 -0.31536623634939243 0.3277008064759388 0 -0.3275349432372513 0.32268198581326429 0 -0.32822164887861349 0.3062103196478812 0 -0.3275349432372513 0.32268198581326429 0 -0.3391118965238486 0.3158597824927995 0 -0.3275349432372513 0.32268198581326429 0 -0.3391118965238486 0.3158597824927995 0 -0.33996621961371792 0.33174647335756668 0 -0.33775483260732131 0.34886554369876471 0 -0.32449473370542109 0.33894647638044312 0 -0.33996621961371792 0.33174647335756668 0 -0.32449473370542109 0.33894647638044312 0 -0.3275349432372513 0.32268198581326429 0 -0.33996621961371792 0.33174647335756668 0 -0.33775483260732131 0.34886554369876471 0 -0.33996621961371792 0.33174647335756668 0 -0.35405225660155082 0.34284022218105958 0 -0.33996621961371792 0.33174647335756668 0 -0.35405225660155082 0.34284022218105958 0 -0.35669524979606898 0.3239775472692546 0 -0.3391118965238486 0.3158597824927995 0 -0.33996621961371792 0.33174647335756668 0 -0.35669524979606898 0.3239775472692546 0 -0.34853678270833949 0.29849237244589999 0 -0.3391118965238486 0.3158597824927995 0 -0.35669524979606898 0.3239775472692546 0 -0.37855323055448709 0.33575680273334529 0 -0.3682574497236592 0.3084408825661728 0 -0.37855323055448709 0.33575680273334529 0 -0.3682574497236592 0.3084408825661728 0 -0.35669524979606898 0.3239775472692546 0 -0.37855323055448709 0.33575680273334529 0 -0.35405225660155082 0.34284022218105958 0 -0.35669524979606898 0.3239775472692546 0 -0.37855323055448709 0.33575680273334529 0 -0.35405225660155082 0.34284022218105958 0 -0.36854009529568238 0.35389950487053329 0 -0.36854009529568238 0.35389950487053329 0 -0.36883767322522548 0.37114371475361801 0 -0.34860650966216289 0.36459064322083812 0 -0.33740964808526508 0.37439453885515311 0 -0.34860650966216289 0.36459064322083812 0 -0.35001390551657618 0.3825053749389441 0 -0.36883767322522548 0.37114371475361801 0 -0.34860650966216289 0.36459064322083812 0 -0.35001390551657618 0.3825053749389441 0 -0.33775483260732131 0.34886554369876471 0 -0.35405225660155082 0.34284022218105958 0 -0.34860650966216289 0.36459064322083812 0 -0.35405225660155082 0.34284022218105958 0 -0.36854009529568238 0.35389950487053329 0 -0.34860650966216289 0.36459064322083812 0 -0.35083424929352119 0.39816262313941059 0 -0.34864934044919921 0.41520414594217758 0 -0.33468279630550951 0.39250556575964579 0 -0.35083424929352119 0.39816262313941059 0 -0.35001390551657618 0.3825053749389441 0 -0.33468279630550951 0.39250556575964579 0 -0.35083424929352119 0.39816262313941059 0 -0.36182119651957378 0.40460239397284609 0 -0.34864934044919921 0.41520414594217758 0 -0.35083424929352119 0.39816262313941059 0 -0.35001390551657618 0.3825053749389441 0 -0.3629983599323266 0.39142634196113268 0 -0.35083424929352119 0.39816262313941059 0 -0.3629983599323266 0.39142634196113268 0 -0.36182119651957378 0.40460239397284609 0 -0.37929463174943218 0.38339395271962351 0 -0.36883767322522548 0.37114371475361801 0 -0.3629983599323266 0.39142634196113268 0 -0.36883767322522548 0.37114371475361801 0 -0.35001390551657618 0.3825053749389441 0 -0.3629983599323266 0.39142634196113268 0 -0.3766433219881512 0.40093834091515862 0 -0.37929463174943218 0.38339395271962351 0 -0.3629983599323266 0.39142634196113268 0 -0.3766433219881512 0.40093834091515862 0 -0.3629983599323266 0.39142634196113268 0 -0.36182119651957378 0.40460239397284609 0 -0.369980710934671 0.41728051790635101 0 -0.34961587218314671 0.42394349378081148 0 -0.3766433219881512 0.40093834091515862 0 -0.36182119651957378 0.40460239397284609 0 -0.369980710934671 0.41728051790635101 0 -0.36182119651957378 0.40460239397284609 0 -0.369980710934671 0.41728051790635101 0 -0.34864934044919921 0.41520414594217758 0 -0.369980710934671 0.41728051790635101 0 -0.37239334841130511 0.43586925147733702 0 -0.35809651686608901 0.43430943954613588 0 -0.369980710934671 0.41728051790635101 0 -0.35809651686608901 0.43430943954613588 0 -0.34961587218314671 0.42394349378081148 0 -0.35809651686608901 0.43430943954613588 0 -0.34993675238117788 0.43239956539817498 0 -0.34864281918491502 0.44345936775899442 0 -0.35809651686608901 0.43430943954613588 0 -0.34961587218314671 0.42394349378081148 0 -0.34993675238117788 0.43239956539817498 0 -0.34993675238117788 0.43239956539817498 0 -0.34244934788011477 0.43463074142757202 0 -0.34864281918491502 0.44345936775899442 0 -0.34961587218314671 0.42394349378081148 0 -0.34993675238117788 0.43239956539817498 0 -0.34244934788011477 0.43463074142757202 0 -0.369980710934671 0.41728051790635101 0 -0.34961587218314671 0.42394349378081148 0 -0.34864934044919921 0.41520414594217758 0 -0.34961587218314671 0.42394349378081148 0 -0.34864934044919921 0.41520414594217758 0 -0.33957315851701658 0.41880595432963408 0 -0.33957315851701658 0.41880595432963408 0 -0.33045359393335261 0.41316376970541518 0 -0.32925103343162271 0.43060646965527349 0 -0.34864934044919921 0.41520414594217758 0 -0.33700300872803202 0.40708010109848591 0 -0.33957315851701658 0.41880595432963408 0 -0.33700300872803202 0.40708010109848591 0 -0.33957315851701658 0.41880595432963408 0 -0.33045359393335261 0.41316376970541518 0 -0.34961587218314671 0.42394349378081148 0 -0.32925103343162271 0.43060646965527349 0 -0.34961587218314671 0.42394349378081148 0 -0.34244934788011477 0.43463074142757202 0 -0.32925103343162271 0.43060646965527349 0 -0.34961587218314671 0.42394349378081148 0 -0.33957315851701658 0.41880595432963408 0 -0.32925103343162271 0.43060646965527349 0 -0.33045359393335261 0.41316376970541518 0 -0.32925103343162271 0.43060646965527349 0 -0.34244934788011477 0.43463074142757202 0 -0.32925103343162271 0.43060646965527349 0 -0.33809546460945888 0.44330805230958248 0 -0.32925103343162271 0.43060646965527349 0 -0.31445126205664492 0.42022439050681609 0 -0.31126249095082509 0.4364919679903515 0 -0.32925103343162271 0.43060646965527349 0 -0.31126249095082509 0.4364919679903515 0 -0.33045359393335261 0.41316376970541518 0 -0.31445126205664492 0.42022439050681609 0 -0.30911569124658828 0.40603298752437172 0 -0.33045359393335261 0.41316376970541518 0 -0.32925103343162271 0.43060646965527349 0 -0.31445126205664492 0.42022439050681609 0 -0.33045359393335261 0.41316376970541518 0 -0.32051122561879908 0.39774981287096822 0 -0.33165615443508201 0.39572106975555699 0 -0.33045359393335261 0.41316376970541518 0 -0.32051122561879908 0.39774981287096822 0 -0.30911569124658828 0.40603298752437172 0 -0.32051122561879908 0.39774981287096822 0 -0.3181609238916065 0.38602868442690752 0 -0.30856028403272923 0.39146890383996052 0 -0.32051122561879908 0.39774981287096822 0 -0.30911569124658828 0.40603298752437172 0 -0.30856028403272923 0.39146890383996052 0 -0.32051122561879908 0.39774981287096822 0 -0.3256096741052848 0.39267826666772099 0 -0.3181609238916065 0.38602868442690752 0 -0.32051122561879908 0.39774981287096822 0 -0.3256096741052848 0.39267826666772099 0 -0.33165615443508201 0.39572106975555699 0 -0.3256096741052848 0.39267826666772099 0 -0.32963914810379252 0.392143701230588 0 -0.32660796756929389 0.38766990273942842 0 -0.34864934044919921 0.41520414594217758 0 -0.33468279630550951 0.39250556575964579 0 -0.34864934044919921 0.41520414594217758 0 -0.33700300872803202 0.40708010109848591 0 -0.33468279630550951 0.39250556575964579 0 -0.33045359393335261 0.41316376970541518 0 -0.33165615443508201 0.39572106975555699 0 -0.33700300872803202 0.40708010109848591 0 -0.33045359393335261 0.41316376970541518 0 -0.33165615443508201 0.39572106975555699 0 -0.33700300872803202 0.40708010109848591 0 -0.33165615443508201 0.39572106975555699 0 -0.33468279630550951 0.39250556575964579 0 -0.32963914810379252 0.392143701230588 0 -0.33468279630550951 0.39250556575964579 0 -0.32660796756929389 0.38766990273942842 0 -0.33165615443508201 0.39572106975555699 0 -0.32963914810379252 0.392143701230588 0 -0.33468279630550951 0.39250556575964579 0 -0.3256096741052848 0.39267826666772099 0 -0.33165615443508201 0.39572106975555699 0 -0.32963914810379252 0.392143701230588 0 -0.33740964808526508 0.37439453885515311 0 -0.35001390551657618 0.3825053749389441 0 -0.33468279630550951 0.39250556575964579 0 -0.3207162521618197 0.36980698557711378 0 -0.33740964808526508 0.37439453885515311 0 -0.33468279630550951 0.39250556575964579 0 -0.3207162521618197 0.36980698557711378 0 -0.32660796756929389 0.38766990273942842 0 -0.3181609238916065 0.38602868442690752 0 -0.3207162521618197 0.36980698557711378 0 -0.33468279630550951 0.39250556575964579 0 -0.3207162521618197 0.36980698557711378 0 -0.3181609238916065 0.38602868442690752 0 -0.30441608251212859 0.37544546713296889 0 -0.3207162521618197 0.36980698557711378 0 -0.33468279630550951 0.39250556575964579 0 -0.32660796756929389 0.38766990273942842 0 -0.3256096741052848 0.39267826666772099 0 -0.32660796756929389 0.38766990273942842 0 -0.3181609238916065 0.38602868442690752 0 -0.30441608251212859 0.37544546713296889 0 -0.30856028403272923 0.39146890383996052 0 -0.28864270430074812 0.3969109938739635 0 -0.3181609238916065 0.38602868442690752 0 -0.30441608251212859 0.37544546713296889 0 -0.30856028403272923 0.39146890383996052 0 -0.30911569124658828 0.40603298752437172 0 -0.30856028403272923 0.39146890383996052 0 -0.28864270430074812 0.3969109938739635 0 -0.28632708221611058 0.37417775764823408 0 -0.28864270430074812 0.3969109938739635 0 -0.28398675408013491 0.3793946701670084 0 -0.28632708221611058 0.37417775764823408 0 -0.30441608251212859 0.37544546713296889 0 -0.28864270430074812 0.3969109938739635 0 -0.28864270430074812 0.3969109938739635 0 -0.28398675408013491 0.3793946701670084 0 -0.27770447159662498 0.3896043338899734 0 -0.28632708221611058 0.37417775764823408 0 -0.28864270430074812 0.3969109938739635 0 -0.26940869693158548 0.37343320221854559 0 -0.27770344345724751 0.37221144212628637 0 -0.2748996539965865 0.38090402458190059 0 -0.27770344345724751 0.37221144212628637 0 -0.28398675408013491 0.3793946701670084 0 -0.2748996539965865 0.38090402458190059 0 -0.26940869693158548 0.37343320221854559 0 -0.2748996539965865 0.38090402458190059 0 -0.26486679208761582 0.38591402414930359 0 -0.2748996539965865 0.38090402458190059 0 -0.27770447159662498 0.3896043338899734 0 -0.26486679208761582 0.38591402414930359 0 -0.28398675408013491 0.3793946701670084 0 -0.2748996539965865 0.38090402458190059 0 -0.27770447159662498 0.3896043338899734 0 -0.28864270430074812 0.3969109938739635 0 -0.27071207115044038 0.39683636861333738 0 -0.27092239098410292 0.40913866368247642 0 -0.28864270430074812 0.3969109938739635 0 -0.27770447159662498 0.3896043338899734 0 -0.27071207115044038 0.39683636861333738 0 -0.27770447159662498 0.3896043338899734 0 -0.27071207115044038 0.39683636861333738 0 -0.26486679208761582 0.38591402414930359 0 -0.27071207115044038 0.39683636861333738 0 -0.25152771103876459 0.39995700604714168 0 -0.27092239098410292 0.40913866368247642 0 -0.27071207115044038 0.39683636861333738 0 -0.25152771103876459 0.39995700604714168 0 -0.26486679208761582 0.38591402414930359 0 -0.25152771103876459 0.39995700604714168 0 -0.25252890534056782 0.38498952988657181 0 -0.26486679208761582 0.38591402414930359 0 -0.2560093092452066 0.37211042615786261 0 -0.25252890534056782 0.38498952988657181 0 -0.26486679208761582 0.38591402414930359 0 -0.2560093092452066 0.37211042615786261 0 -0.26940869693158548 0.37343320221854559 0 -0.26486679208761582 0.38591402414930359 0 -0.25195800817390629 0.42531938136025899 0 -0.27373614095609489 0.43048364492119368 0 -0.24548445293993609 0.43811516424382302 0 -0.27373614095609489 0.43048364492119368 0 -0.24548445293993609 0.43811516424382302 0 -0.25195800817390629 0.42531938136025899 0 -0.26643296950888951 0.42058841916878648 0 -0.27373614095609489 0.43048364492119368 0 -0.27373614095609489 0.43048364492119368 0 -0.25745903639859008 0.43901104331789359 0 -0.24548445293993609 0.43811516424382302 0 -0.25423108796739419 0.4149601410630826 0 -0.27092239098410292 0.40913866368247642 0 -0.26643296950888951 0.42058841916878648 0 -0.25152771103876459 0.39995700604714168 0 -0.25423108796739419 0.4149601410630826 0 -0.27092239098410292 0.40913866368247642 0 -0.25195800817390629 0.42531938136025899 0 -0.25423108796739419 0.4149601410630826 0 -0.26643296950888951 0.42058841916878648 0 -0.27092239098410292 0.40913866368247642 0 -0.26643296950888951 0.42058841916878648 0 -0.29095832638538571 0.41964423009969282 0 -0.26643296950888951 0.42058841916878648 0 -0.27373614095609489 0.43048364492119368 0 -0.29095832638538571 0.41964423009969282 0 -0.27373614095609489 0.43048364492119368 0 -0.29095832638538571 0.41964423009969282 0 -0.29327394847002519 0.4423774663254218 0 -0.29095832638538571 0.41964423009969282 0 -0.29327394847002519 0.4423774663254218 0 -0.28864270430074812 0.3969109938739635 0 -0.27092239098410292 0.40913866368247642 0 -0.29095832638538571 0.41964423009969282 0 -0.30911569124658828 0.40603298752437172 0 -0.28864270430074812 0.3969109938739635 0 -0.29095832638538571 0.41964423009969282 0 -0.28864270430074812 0.3969109938739635 0 -0.29095832638538571 0.41964423009969282 0 -0.31445126205664492 0.42022439050681609 0 -0.30911569124658828 0.40603298752437172 0 -0.29095832638538571 0.41964423009969282 0 -0.29095832638538571 0.41964423009969282 0 -0.31126249095082509 0.4364919679903515 0 -0.29327394847002519 0.4423774663254218 0 -0.31445126205664492 0.42022439050681609 0 -0.29095832638538571 0.41964423009969282 0 -0.31126249095082509 0.4364919679903515 0 -0.31126249095082509 0.4364919679903515 0 -0.29327394847002519 0.4423774663254218 0 -0.31126249095082509 0.4364919679903515 0 -0.30804313182883669 0.45492763171470729 0 -0.29327394847002519 0.4423774663254218 0 -0.30804313182883669 0.45492763171470729 0 -0.29628449456610761 0.47193300391714632 0 -0.31376570408861182 0.46750485256755753 0 -0.30804313182883669 0.45492763171470729 0 -0.29327394847002519 0.4423774663254218 0 -0.29628449456610761 0.47193300391714632 0 -0.29327394847002519 0.4423774663254218 0 -0.29628449456610761 0.47193300391714632 0 -0.28328994199815821 0.46091430206947898 0 -0.29327394847002519 0.4423774663254218 0 -0.29628449456610761 0.47193300391714632 0 -0.28328994199815821 0.46091430206947898 0 -0.29628449456610761 0.47193300391714632 0 -0.29327394847002519 0.4423774663254218 0 -0.27029538943020842 0.44989560022181208 0 -0.28328994199815821 0.46091430206947898 0 -0.29327394847002519 0.4423774663254218 0 -0.27029538943020842 0.44989560022181208 0 -0.27373614095609489 0.43048364492119368 0 -0.27029538943020842 0.44989560022181208 0 -0.25745903639859008 0.43901104331789359 0 -0.27373614095609489 0.43048364492119368 0 -0.29327394847002519 0.4423774663254218 0 -0.27029538943020842 0.44989560022181208 0 -0.28328994199815821 0.46091430206947898 0 -0.27029538943020842 0.44989560022181208 0 -0.28328994199815821 0.46091430206947898 0 -0.27029538943020842 0.44989560022181208 0 -0.2623351680073896 0.47381916336531299 0 -0.27029538943020842 0.44989560022181208 0 -0.24617583353357261 0.45778704591420538 0 -0.27029538943020842 0.44989560022181208 0 -0.2623351680073896 0.47381916336531299 0 -0.24617583353357261 0.45778704591420538 0 -0.27029538943020842 0.44989560022181208 0 -0.25096702739853982 0.44701608710919311 0 -0.25745903639859008 0.43901104331789359 0 -0.27029538943020842 0.44989560022181208 0 -0.25096702739853982 0.44701608710919311 0 -0.24617583353357261 0.45778704591420538 0 -0.25096702739853982 0.44701608710919311 0 -0.25745903639859008 0.43901104331789359 0 -0.24548445293993609 0.43811516424382302 0 -0.27029538943020842 0.44989560022181208 0 -0.25745903639859008 0.43901104331789359 0 -0.2623351680073896 0.47381916336531299 0 -0.27077774141637811 0.5 0 -0.24241206596744139 0.5 0 -0.28328994199815821 0.46091430206947898 0 -0.2623351680073896 0.47381916336531299 0 -0.28236615257066972 0.48133329387038742 0 -0.2623351680073896 0.47381916336531299 0 -0.27077774141637811 0.5 0 -0.28236615257066972 0.48133329387038742 0 -0.27077774141637811 0.5 0 -0.28236615257066972 0.48133329387038742 0 -0.29914341686531493 0.49999999999999872 0 -0.28236615257066972 0.48133329387038742 0 -0.29628449456610761 0.47193300391714632 0 -0.29914341686531493 0.49999999999999872 0 -0.28328994199815821 0.46091430206947898 0 -0.28236615257066972 0.48133329387038742 0 -0.29628449456610761 0.47193300391714632 0 -0.29628449456610761 0.47193300391714632 0 -0.31051145172753369 0.48399672048926851 0 -0.31376570408861182 0.46750485256755753 0 -0.29628449456610761 0.47193300391714632 0 -0.31051145172753369 0.48399672048926851 0 -0.29628449456610761 0.47193300391714632 0 -0.29914341686531493 0.49999999999999872 0 -0.31051145172753369 0.48399672048926851 0 -0.29914341686531493 0.49999999999999872 0 -0.32473840888895877 0.49606043706139191 0 -0.29628449456610761 0.47193300391714632 0 -0.31051145172753369 0.48399672048926851 0 -0.29914341686531493 0.49999999999999872 0 -0.31051145172753369 0.48399672048926851 0 -0.32473840888895877 0.49606043706139191 0 -0.32624261706984631 0.47424244792601911 0 -0.29914341686531493 0.49999999999999872 0 -0.32473840888895877 0.49606043706139191 0 -0.32446680169525099 0.50000000000000155 0 -0.32473840888895877 0.49606043706139191 0 -0.32624261706984631 0.47424244792601911 0 -0.31051145172753369 0.48399672048926851 0 -0.32473840888895877 0.49606043706139191 0 -0.32473840888895877 0.49606043706139191 0 -0.32446680169525099 0.50000000000000155 0 -0.32473840888895877 0.49606043706139191 0 -0.32446680169525099 0.50000000000000155 0 -0.32889085649086042 0.50000000000000111 0 -0.32473840888895877 0.49606043706139191 0 -0.32889085649086042 0.50000000000000111 0 -0.32889085649086042 0.50000000000000111 0 -0.33525136714638198 0.48787137425044252 0 -0.34077218941042708 0.5 0 -0.32473840888895877 0.49606043706139191 0 -0.32889085649086042 0.50000000000000111 0 -0.33525136714638198 0.48787137425044252 0 -0.32473840888895877 0.49606043706139191 0 -0.33525136714638198 0.48787137425044252 0 -0.32624261706984631 0.47424244792601911 0 -0.33525136714638198 0.48787137425044252 0 -0.34077218941042708 0.5 0 -0.34892488326801541 0.49152909190931848 0 -0.33525136714638198 0.48787137425044252 0 -0.33815300087997519 0.46911843769681461 0 -0.34863834949153172 0.47977576899997648 0 -0.33525136714638198 0.48787137425044252 0 -0.33815300087997519 0.46911843769681461 0 -0.32624261706984631 0.47424244792601911 0 -0.31051145172753369 0.48399672048926851 0 -0.32624261706984631 0.47424244792601911 0 -0.31376570408861182 0.46750485256755753 0 -0.32624261706984631 0.47424244792601911 0 -0.32774682525073479 0.45242445879064641 0 -0.30804313182883669 0.45492763171470729 0 -0.31376570408861182 0.46750485256755753 0 -0.32774682525073479 0.45242445879064641 0 -0.32624261706984631 0.47424244792601911 0 -0.31376570408861182 0.46750485256755753 0 -0.32774682525073479 0.45242445879064641 0 -0.32925103343162271 0.43060646965527349 0 -0.31126249095082509 0.4364919679903515 0 -0.32774682525073479 0.45242445879064641 0 -0.31126249095082509 0.4364919679903515 0 -0.30804313182883669 0.45492763171470729 0 -0.32774682525073479 0.45242445879064641 0 -0.32925103343162271 0.43060646965527349 0 -0.32774682525073479 0.45242445879064641 0 -0.32925103343162271 0.43060646965527349 0 -0.32774682525073479 0.45242445879064641 0 -0.33809546460945888 0.44330805230958248 0 -0.33809546460945888 0.44330805230958248 0 -0.34238729729990669 0.4554192239154265 0 -0.34864281918491502 0.44345936775899442 0 -0.32774682525073479 0.45242445879064641 0 -0.33809546460945888 0.44330805230958248 0 -0.34238729729990669 0.4554192239154265 0 -0.34244934788011477 0.43463074142757202 0 -0.33809546460945888 0.44330805230958248 0 -0.34864281918491502 0.44345936775899442 0 -0.33815300087997519 0.46911843769681461 0 -0.32774682525073479 0.45242445879064641 0 -0.34238729729990669 0.4554192239154265 0 -0.33815300087997519 0.46911843769681461 0 -0.32624261706984631 0.47424244792601911 0 -0.32774682525073479 0.45242445879064641 0 -0.33815300087997519 0.46911843769681461 0 -0.34238729729990669 0.4554192239154265 0 -0.34865154902145001 0.46497735229837689 0 -0.34238729729990669 0.4554192239154265 0 -0.34865154902145001 0.46497735229837689 0 -0.35421072373712581 0.4552779534955434 0 -0.34865154902145001 0.46497735229837689 0 -0.35989824120198549 0.46554651730212171 0 -0.35516213608074571 0.47150674907339069 0 -0.34865154902145001 0.46497735229837689 0 -0.35421072373712581 0.4552779534955434 0 -0.35989824120198549 0.46554651730212171 0 -0.34238729729990669 0.4554192239154265 0 -0.35421072373712581 0.4552779534955434 0 -0.34864281918491502 0.44345936775899442 0 -0.35421072373712581 0.4552779534955434 0 -0.34864281918491502 0.44345936775899442 0 -0.36232446078197239 0.44593377349748908 0 -0.35809651686608901 0.43430943954613588 0 -0.34864281918491502 0.44345936775899442 0 -0.36232446078197239 0.44593377349748908 0 -0.37239334841130511 0.43586925147733702 0 -0.35809651686608901 0.43430943954613588 0 -0.36232446078197239 0.44593377349748908 0 -0.35421072373712581 0.4552779534955434 0 -0.36232446078197239 0.44593377349748908 0 -0.36576536809178672 0.45682718487323309 0 -0.36232446078197239 0.44593377349748908 0 -0.37352478443270593 0.44875242341034122 0 -0.36576536809178672 0.45682718487323309 0 -0.37239334841130511 0.43586925147733702 0 -0.36232446078197239 0.44593377349748908 0 -0.37352478443270593 0.44875242341034122 0 -0.35989824120198549 0.46554651730212171 0 -0.36576536809178672 0.45682718487323309 0 -0.37156506717079729 0.46682629608583748 0 -0.35421072373712581 0.4552779534955434 0 -0.35989824120198549 0.46554651730212171 0 -0.36576536809178672 0.45682718487323309 0 -0.3750041174280942 0.45766265911815962 0 -0.36576536809178672 0.45682718487323309 0 -0.37156506717079729 0.46682629608583748 0 -0.3750041174280942 0.45766265911815962 0 -0.37352478443270593 0.44875242341034122 0 -0.36576536809178672 0.45682718487323309 0 -0.37156506717079729 0.46682629608583748 0 -0.37354440610704459 0.47477533211703582 0 -0.36346040460801571 0.47572735769308788 0 -0.35989824120198549 0.46554651730212171 0 -0.37156506717079729 0.46682629608583748 0 -0.36346040460801571 0.47572735769308788 0 -0.35989824120198549 0.46554651730212171 0 -0.36346040460801571 0.47572735769308788 0 -0.35516213608074571 0.47150674907339069 0 -0.36346040460801571 0.47572735769308788 0 -0.37190775508233909 0.48214217026250689 0 -0.36075072685039811 0.48740256468188098 0 -0.37354440610704459 0.47477533211703582 0 -0.36346040460801571 0.47572735769308788 0 -0.37190775508233909 0.48214217026250689 0 -0.37841160494348502 0.47775493133726021 0 -0.37354440610704459 0.47477533211703582 0 -0.37190775508233909 0.48214217026250689 0 -0.37860561609413712 0.49654369392029002 0 -0.37297345166325779 0.49238862674767658 0 -0.35707757712560317 0.5 0 -0.37190775508233909 0.48214217026250689 0 -0.37297345166325779 0.49238862674767658 0 -0.36075072685039811 0.48740256468188098 0 -0.38686041239286673 0.5 0 -0.37860561609413712 0.49654369392029002 0 -0.35707757712560317 0.5 0 -0.37860561609413712 0.49654369392029002 0 -0.35707757712560317 0.5 0 -0.37970877966649319 0.48310163572127041 0 -0.37190775508233909 0.48214217026250689 0 -0.37297345166325779 0.49238862674767658 0 -0.37297345166325779 0.49238862674767658 0 -0.36075072685039811 0.48740256468188098 0 -0.35707757712560317 0.5 0 -0.36075072685039811 0.48740256468188098 0 -0.34892488326801541 0.49152909190931848 0 -0.34863834949153172 0.47977576899997648 0 -0.34077218941042708 0.5 0 -0.35707757712560317 0.5 0 -0.34892488326801541 0.49152909190931848 0 -0.36075072685039811 0.48740256468188098 0 -0.35707757712560317 0.5 0 -0.34892488326801541 0.49152909190931848 0 -0.33525136714638198 0.48787137425044252 0 -0.34892488326801541 0.49152909190931848 0 -0.34863834949153172 0.47977576899997648 0 -0.34865154902145001 0.46497735229837689 0 -0.34863834949153172 0.47977576899997648 0 -0.35516213608074571 0.47150674907339069 0 -0.33815300087997519 0.46911843769681461 0 -0.34865154902145001 0.46497735229837689 0 -0.34863834949153172 0.47977576899997648 0 -0.36346040460801571 0.47572735769308788 0 -0.34863834949153172 0.47977576899997648 0 -0.35516213608074571 0.47150674907339069 0 -0.36346040460801571 0.47572735769308788 0 -0.36075072685039811 0.48740256468188098 0 -0.34863834949153172 0.47977576899997648 0 -0.14355226349872041 0.47802784764314299 0 -0.14812599483800859 0.48986703032726081 0 -0.13252731282419061 0.48065360592878797 0 -0.14355226349872041 0.47802784764314299 0 -0.1534481279365898 0.47501055292097699 0 -0.14812599483800859 0.48986703032726081 0 -0.14355226349872041 0.47802784764314299 0 -0.1534481279365898 0.47501055292097699 0 -0.14010761839609251 0.46658020139554629 0 -0.14812599483800859 0.48986703032726081 0 -0.12989828339929221 0.5 0 -0.15778949923443009 0.5 0 -0.14812599483800859 0.48986703032726081 0 -0.1224348238323528 0.49827267766313821 0 -0.14812599483800859 0.48986703032726081 0 -0.13033330407002641 0.48863287347754658 0 -0.1224348238323528 0.49827267766313821 0 -0.14812599483800859 0.48986703032726081 0 -0.13033330407002641 0.48863287347754658 0 -0.13252731282419061 0.48065360592878797 0 -0.14812599483800859 0.48986703032726081 0 -0.12989828339929221 0.5 0 -0.1224348238323528 0.49827267766313821 0 -0.13033330407002641 0.48863287347754658 0 -0.13252731282419061 0.48065360592878797 0 -0.11824508478555371 0.48573817999099972 0 -0.14010761839609251 0.46658020139554629 0 -0.11948584790072531 0.47215068057938159 0 -0.13252731282419061 0.48065360592878797 0 -0.14010761839609251 0.46658020139554629 0 -0.11948584790072531 0.47215068057938159 0 -0.14355226349872041 0.47802784764314299 0 -0.13252731282419061 0.48065360592878797 0 -0.14010761839609251 0.46658020139554629 0 -0.1264490107703983 0.4547028742581174 0 -0.14010761839609251 0.46658020139554629 0 -0.11948584790072531 0.47215068057938159 0 -0.1264490107703983 0.4547028742581174 0 -0.14010761839609251 0.46658020139554629 0 -0.141967335827312 0.45053270501849058 0 -0.13336079701885631 0.44246902386641679 0 -0.13321992622829601 0.43014853473383302 0 -0.12229433438034711 0.43997804843801408 0 -0.1264490107703983 0.4547028742581174 0 -0.13336079701885631 0.44246902386641679 0 -0.12229433438034711 0.43997804843801408 0 -0.1264490107703983 0.4547028742581174 0 -0.13336079701885631 0.44246902386641679 0 -0.141967335827312 0.45053270501849058 0 -0.13336079701885631 0.44246902386641679 0 -0.141967335827312 0.45053270501849058 0 -0.14287337788792789 0.43698295688362848 0 -0.141967335827312 0.45053270501849058 0 -0.1518827766617909 0.44265754050752631 0 -0.14287337788792789 0.43698295688362848 0 -0.1518827766617909 0.44265754050752631 0 -0.1501487168293214 0.43367096496476798 0 -0.14287337788792789 0.43698295688362848 0 -0.1518827766617909 0.44265754050752631 0 -0.1558730829116543 0.45342099855727241 0 -0.16068068454568521 0.44539434545755763 0 -0.141967335827312 0.45053270501849058 0 -0.1518827766617909 0.44265754050752631 0 -0.1558730829116543 0.45342099855727241 0 -0.1534481279365898 0.47501055292097699 0 -0.14010761839609251 0.46658020139554629 0 -0.16072938889145999 0.46100972221171149 0 -0.14010761839609251 0.46658020139554629 0 -0.16072938889145999 0.46100972221171149 0 -0.14010761839609251 0.46658020139554629 0 -0.1558730829116543 0.45342099855727241 0 -0.16072938889145999 0.46100972221171149 0 -0.14010761839609251 0.46658020139554629 0 -0.141967335827312 0.45053270501849058 0 -0.1558730829116543 0.45342099855727241 0 -0.1558730829116543 0.45342099855727241 0 -0.16072938889145999 0.46100972221171149 0 -0.16072938889145999 0.46100972221171149 0 -0.1611584455978671 0.45242602918694258 0 -0.16735062604266901 0.44987905052122917 0 -0.1558730829116543 0.45342099855727241 0 -0.16072938889145999 0.46100972221171149 0 -0.1611584455978671 0.45242602918694258 0 -0.16072938889145999 0.46100972221171149 0 -0.16735062604266901 0.44987905052122917 0 -0.1791118508426468 0.44743917687312779 0 -0.16068068454568521 0.44539434545755763 0 -0.16435635376253929 0.43824660771127832 0 -0.15793728600692439 0.43595329881490302 0 -0.1518827766617909 0.44265754050752631 0 -0.16068068454568521 0.44539434545755763 0 -0.15793728600692439 0.43595329881490302 0 -0.1558730829116543 0.45342099855727241 0 -0.16068068454568521 0.44539434545755763 0 -0.1611584455978671 0.45242602918694258 0 -0.16068068454568521 0.44539434545755763 0 -0.1611584455978671 0.45242602918694258 0 -0.16735062604266901 0.44987905052122917 0 -0.16068068454568521 0.44539434545755763 0 -0.16735062604266901 0.44987905052122917 0 -0.17070305542210051 0.44161686440773362 0 -0.16068068454568521 0.44539434545755763 0 -0.17070305542210051 0.44161686440773362 0 -0.16435635376253929 0.43824660771127832 0 -0.17070305542210051 0.44161686440773362 0 -0.16435635376253929 0.43824660771127832 0 -0.16881522042628849 0.43337331267335988 0 -0.1791118508426468 0.44743917687312779 0 -0.1899526562253861 0.42827699409535958 0 -0.17070305542210051 0.44161686440773362 0 -0.1791118508426468 0.44743917687312779 0 -0.17606992265100499 0.43047720976812381 0 -0.16735062604266901 0.44987905052122917 0 -0.17070305542210051 0.44161686440773362 0 -0.1791118508426468 0.44743917687312779 0 -0.16072938889145999 0.46100972221171149 0 -0.17780516904451679 0.46523855479341902 0 -0.18898107690761859 0.45337820288908159 0 -0.16072938889145999 0.46100972221171149 0 -0.18898107690761859 0.45337820288908159 0 -0.16072938889145999 0.46100972221171149 0 -0.1791118508426468 0.44743917687312779 0 -0.18898107690761859 0.45337820288908159 0 -0.17780516904451679 0.46523855479341902 0 -0.18898107690761859 0.45337820288908159 0 -0.18902655717172501 0.46543994787781212 0 -0.17381716584366511 0.48146138299138569 0 -0.1979367217403005 0.47356993729899072 0 -0.17381716584366511 0.48146138299138569 0 -0.1979367217403005 0.47356993729899072 0 -0.18902655717172501 0.46543994787781212 0 -0.17780516904451679 0.46523855479341902 0 -0.17381716584366511 0.48146138299138569 0 -0.18902655717172501 0.46543994787781212 0 -0.1534481279365898 0.47501055292097699 0 -0.16072938889145999 0.46100972221171149 0 -0.17381716584366511 0.48146138299138569 0 -0.16072938889145999 0.46100972221171149 0 -0.17381716584366511 0.48146138299138569 0 -0.16072938889145999 0.46100972221171149 0 -0.17780516904451679 0.46523855479341902 0 -0.17381716584366511 0.48146138299138569 0 -0.1534481279365898 0.47501055292097699 0 -0.14812599483800859 0.48986703032726081 0 -0.17381716584366511 0.48146138299138569 0 -0.14812599483800859 0.48986703032726081 0 -0.17381716584366511 0.48146138299138569 0 -0.14812599483800859 0.48986703032726081 0 -0.17381716584366511 0.48146138299138569 0 -0.15778949923443009 0.5 0 -0.17381716584366511 0.48146138299138569 0 -0.15778949923443009 0.5 0 -0.18568071506956779 0.50000000000000033 0 -0.17381716584366511 0.48146138299138569 0 -0.18568071506956779 0.50000000000000033 0 -0.1979367217403005 0.47356993729899072 0 -0.17381716584366511 0.48146138299138569 0 -0.18568071506956779 0.50000000000000033 0 -0.18568071506956779 0.50000000000000033 0 -0.1979367217403005 0.47356993729899072 0 -0.2140463905185046 0.5 0 -0.1979367217403005 0.47356993729899072 0 -0.2140463905185046 0.5 0 -0.22205627763693661 0.46567849160659802 0 -0.1979367217403005 0.47356993729899072 0 -0.22205627763693661 0.46567849160659802 0 -0.2140463905185046 0.5 0 -0.23959359981547851 0.4784744330114199 0 -0.22205627763693661 0.46567849160659802 0 -0.2140463905185046 0.5 0 -0.23959359981547851 0.4784744330114199 0 -0.24241206596744139 0.5 0 -0.2623351680073896 0.47381916336531299 0 -0.23959359981547851 0.4784744330114199 0 -0.24617583353357261 0.45778704591420538 0 -0.2623351680073896 0.47381916336531299 0 -0.23959359981547851 0.4784744330114199 0 -0.24241206596744139 0.5 0 -0.25096702739853982 0.44701608710919311 0 -0.23542042469039129 0.45027158184823102 0 -0.24548445293993609 0.43811516424382302 0 -0.25096702739853982 0.44701608710919311 0 -0.23542042469039129 0.45027158184823102 0 -0.24617583353357261 0.45778704591420538 0 -0.23542042469039129 0.45027158184823102 0 -0.24617583353357261 0.45778704591420538 0 -0.22205627763693661 0.46567849160659802 0 -0.23959359981547851 0.4784744330114199 0 -0.24617583353357261 0.45778704591420538 0 -0.22205627763693661 0.46567849160659802 0 -0.24617583353357261 0.45778704591420538 0 -0.22205627763693661 0.46567849160659802 0 -0.23542042469039129 0.45027158184823102 0 -0.22205627763693661 0.46567849160659802 0 -0.2172327649237773 0.44574668356645231 0 -0.24548445293993609 0.43811516424382302 0 -0.2172327649237773 0.44574668356645231 0 -0.23542042469039129 0.45027158184823102 0 -0.24548445293993609 0.43811516424382302 0 -0.2172327649237773 0.44574668356645231 0 -0.2305352737329632 0.44062193452983128 0 -0.2172327649237773 0.44574668356645231 0 -0.21024396497917461 0.43444946431259562 0 -0.24548445293993609 0.43811516424382302 0 -0.2305352737329632 0.44062193452983128 0 -0.2172327649237773 0.44574668356645231 0 -0.2305352737329632 0.44062193452983128 0 -0.21024396497917461 0.43444946431259562 0 -0.2172327649237773 0.44574668356645231 0 -0.19712910060178049 0.44112417656452568 0 -0.21024396497917461 0.43444946431259562 0 -0.22205627763693661 0.46567849160659802 0 -0.2172327649237773 0.44574668356645231 0 -0.2030466796760716 0.46076265264778699 0 -0.1979367217403005 0.47356993729899072 0 -0.22205627763693661 0.46567849160659802 0 -0.2030466796760716 0.46076265264778699 0 -0.2172327649237773 0.44574668356645231 0 -0.2030466796760716 0.46076265264778699 0 -0.18898107690761859 0.45337820288908159 0 -0.1979367217403005 0.47356993729899072 0 -0.2030466796760716 0.46076265264778699 0 -0.18902655717172501 0.46543994787781212 0 -0.2030466796760716 0.46076265264778699 0 -0.18898107690761859 0.45337820288908159 0 -0.18902655717172501 0.46543994787781212 0 -0.1791118508426468 0.44743917687312779 0 -0.18898107690761859 0.45337820288908159 0 -0.19712910060178049 0.44112417656452568 0 -0.2172327649237773 0.44574668356645231 0 -0.18898107690761859 0.45337820288908159 0 -0.1791118508426468 0.44743917687312779 0 -0.19712910060178049 0.44112417656452568 0 -0.1899526562253861 0.42827699409535958 0 -0.2172327649237773 0.44574668356645231 0 -0.18898107690761859 0.45337820288908159 0 -0.19712910060178049 0.44112417656452568 0 -0.1899526562253861 0.42827699409535958 0 -0.21024396497917461 0.43444946431259562 0 -0.19712910060178049 0.44112417656452568 0 -0.1899526562253861 0.42827699409535958 0 -0.21024396497917461 0.43444946431259562 0 -0.1899526562253861 0.42827699409535958 0 -0.20329456204524979 0.40469387191044331 0 -0.1798681561011681 0.41799094009913129 0 -0.1899526562253861 0.42827699409535958 0 -0.20329456204524979 0.40469387191044331 0 -0.1899526562253861 0.42827699409535958 0 -0.21152724753230651 0.4187544962635581 0 -0.20329456204524979 0.40469387191044331 0 -0.21152724753230651 0.4187544962635581 0 -0.22596242818769111 0.40061473205647491 0 -0.20329456204524979 0.40469387191044331 0 -0.1899526562253861 0.42827699409535958 0 -0.21152724753230651 0.4187544962635581 0 -0.21024396497917461 0.43444946431259562 0 -0.21152724753230651 0.4187544962635581 0 -0.21024396497917461 0.43444946431259562 0 -0.2234376500743295 0.42751563772491541 0 -0.2305352737329632 0.44062193452983128 0 -0.21024396497917461 0.43444946431259562 0 -0.2234376500743295 0.42751563772491541 0 -0.2305352737329632 0.44062193452983128 0 -0.2234376500743295 0.42751563772491541 0 -0.23634594901048861 0.43027387058311573 0 -0.2234376500743295 0.42751563772491541 0 -0.23551744866063509 0.41749504818155342 0 -0.23634594901048861 0.43027387058311573 0 -0.21152724753230651 0.4187544962635581 0 -0.2234376500743295 0.42751563772491541 0 -0.23551744866063509 0.41749504818155342 0 -0.21152724753230651 0.4187544962635581 0 -0.23551744866063509 0.41749504818155342 0 -0.22596242818769111 0.40061473205647491 0 -0.25195800817390629 0.42531938136025899 0 -0.25423108796739419 0.4149601410630826 0 -0.23551744866063509 0.41749504818155342 0 -0.25152771103876459 0.39995700604714168 0 -0.25423108796739419 0.4149601410630826 0 -0.23551744866063509 0.41749504818155342 0 -0.25195800817390629 0.42531938136025899 0 -0.23551744866063509 0.41749504818155342 0 -0.23634594901048861 0.43027387058311573 0 -0.25195800817390629 0.42531938136025899 0 -0.24548445293993609 0.43811516424382302 0 -0.23634594901048861 0.43027387058311573 0 -0.24548445293993609 0.43811516424382302 0 -0.2305352737329632 0.44062193452983128 0 -0.23634594901048861 0.43027387058311573 0 -0.2560093092452066 0.37211042615786261 0 -0.25252890534056782 0.38498952988657181 0 -0.23839991066384769 0.38170764735847568 0 -0.25152771103876459 0.39995700604714168 0 -0.25252890534056782 0.38498952988657181 0 -0.23839991066384769 0.38170764735847568 0 -0.25152771103876459 0.39995700604714168 0 -0.23839991066384769 0.38170764735847568 0 -0.22596242818769111 0.40061473205647491 0 -0.25152771103876459 0.39995700604714168 0 -0.23551744866063509 0.41749504818155342 0 -0.22596242818769111 0.40061473205647491 0 -0.23839991066384769 0.38170764735847568 0 -0.22596242818769111 0.40061473205647491 0 -0.21663646786511431 0.38111074972552739 0 -0.21663646786511431 0.38111074972552739 0 -0.20329456204524979 0.40469387191044331 0 -0.19630380976503101 0.38383342103128681 0 -0.21663646786511431 0.38111074972552739 0 -0.19630380976503101 0.38383342103128681 0 -0.20660875828680389 0.36356171728227732 0 -0.22596242818769111 0.40061473205647491 0 -0.21663646786511431 0.38111074972552739 0 -0.20329456204524979 0.40469387191044331 0 -0.21663646786511431 0.38111074972552739 0 -0.20329456204524979 0.40469387191044331 0 -0.20329456204524979 0.40469387191044331 0 -0.19630380976503101 0.38383342103128681 0 -0.17507561076045011 0.3929124365336738 0 -0.15895684989311559 0.38023866227078779 0 -0.17507561076045011 0.3929124365336738 0 -0.18452806303720901 0.369974048022775 0 -0.17507561076045011 0.3929124365336738 0 -0.18452806303720901 0.369974048022775 0 -0.19630380976503101 0.38383342103128681 0 -0.17507561076045011 0.3929124365336738 0 -0.18452806303720901 0.369974048022775 0 -0.15895684989311559 0.38023866227078779 0 -0.15639251303576651 0.39829458852250571 0 -0.17507561076045011 0.3929124365336738 0 -0.15639251303576651 0.39829458852250571 0 -0.17507561076045011 0.3929124365336738 0 -0.1656231584836913 0.41585082504457271 0 -0.17507561076045011 0.3929124365336738 0 -0.1656231584836913 0.41585082504457271 0 -0.20329456204524979 0.40469387191044331 0 -0.17507561076045011 0.3929124365336738 0 -0.1798681561011681 0.41799094009913129 0 -0.17507561076045011 0.3929124365336738 0 -0.1798681561011681 0.41799094009913129 0 -0.1656231584836913 0.41585082504457271 0 -0.1791118508426468 0.44743917687312779 0 -0.1899526562253861 0.42827699409535958 0 -0.17606992265100499 0.43047720976812381 0 -0.1899526562253861 0.42827699409535958 0 -0.17606992265100499 0.43047720976812381 0 -0.16576402196242451 0.4209189854821469 0 -0.1899526562253861 0.42827699409535958 0 -0.1798681561011681 0.41799094009913129 0 -0.16576402196242451 0.4209189854821469 0 -0.1899526562253861 0.42827699409535958 0 -0.16576402196242451 0.4209189854821469 0 -0.16435635376253929 0.43824660771127832 0 -0.16881522042628849 0.43337331267335988 0 -0.16356241945252359 0.42998992062569141 0 -0.17070305542210051 0.44161686440773362 0 -0.17606992265100499 0.43047720976812381 0 -0.16881522042628849 0.43337331267335988 0 -0.17606992265100499 0.43047720976812381 0 -0.16881522042628849 0.43337331267335988 0 -0.1685528961230604 0.42868985713733049 0 -0.16881522042628849 0.43337331267335988 0 -0.1685528961230604 0.42868985713733049 0 -0.16356241945252359 0.42998992062569141 0 -0.17606992265100499 0.43047720976812381 0 -0.1685528961230604 0.42868985713733049 0 -0.16576402196242451 0.4209189854821469 0 -0.1685528961230604 0.42868985713733049 0 -0.16356241945252359 0.42998992062569141 0 -0.16576402196242451 0.4209189854821469 0 -0.16356241945252359 0.42998992062569141 0 -0.16576402196242451 0.4209189854821469 0 -0.15436186473492181 0.42788093839918329 0 -0.15793728600692439 0.43595329881490302 0 -0.16356241945252359 0.42998992062569141 0 -0.15436186473492181 0.42788093839918329 0 -0.16435635376253929 0.43824660771127832 0 -0.15793728600692439 0.43595329881490302 0 -0.16356241945252359 0.42998992062569141 0 -0.1656231584836913 0.41585082504457271 0 -0.16576402196242451 0.4209189854821469 0 -0.14157538769946301 0.41356097686893412 0 -0.1798681561011681 0.41799094009913129 0 -0.1656231584836913 0.41585082504457271 0 -0.16576402196242451 0.4209189854821469 0 -0.15639251303576651 0.39829458852250571 0 -0.1656231584836913 0.41585082504457271 0 -0.14157538769946301 0.41356097686893412 0 -0.16576402196242451 0.4209189854821469 0 -0.14157538769946301 0.41356097686893412 0 -0.15436186473492181 0.42788093839918329 0 -0.16576402196242451 0.4209189854821469 0 -0.14157538769946301 0.41356097686893412 0 -0.1518827766617909 0.44265754050752631 0 -0.15793728600692439 0.43595329881490302 0 -0.1501487168293214 0.43367096496476798 0 -0.15793728600692439 0.43595329881490302 0 -0.1501487168293214 0.43367096496476798 0 -0.15436186473492181 0.42788093839918329 0 -0.1501487168293214 0.43367096496476798 0 -0.15436186473492181 0.42788093839918329 0 -0.14368827885504179 0.42488009021859879 0 -0.14157538769946301 0.41356097686893412 0 -0.15436186473492181 0.42788093839918329 0 -0.14368827885504179 0.42488009021859879 0 -0.1501487168293214 0.43367096496476798 0 -0.14368827885504179 0.42488009021859879 0 -0.14287337788792789 0.43698295688362848 0 -0.14157538769946301 0.41356097686893412 0 -0.14368827885504179 0.42488009021859879 0 -0.13321992622829601 0.43014853473383302 0 -0.13321992622829601 0.43014853473383302 0 -0.119840543908424 0.42309050834686779 0 -0.12229433438034711 0.43997804843801408 0 -0.14157538769946301 0.41356097686893412 0 -0.13321992622829601 0.43014853473383302 0 -0.119840543908424 0.42309050834686779 0 -0.14368827885504179 0.42488009021859879 0 -0.14287337788792789 0.43698295688362848 0 -0.13321992622829601 0.43014853473383302 0 -0.13336079701885631 0.44246902386641679 0 -0.14287337788792789 0.43698295688362848 0 -0.13321992622829601 0.43014853473383302 0 -0.14157538769946301 0.41356097686893412 0 -0.1173867534365014 0.40620296825572139 0 -0.14157538769946301 0.41356097686893412 0 -0.1173867534365014 0.40620296825572139 0 -0.119840543908424 0.42309050834686779 0 -0.14157538769946301 0.41356097686893412 0 -0.12597317929490931 0.39263287193339852 0 -0.1173867534365014 0.40620296825572139 0 -0.14157538769946301 0.41356097686893412 0 -0.12597317929490931 0.39263287193339852 0 -0.14112187529676351 0.38907185696549629 0 -0.1285469826755247 0.37940954496645818 0 -0.14112187529676351 0.38907185696549629 0 -0.1402760373850663 0.37087807667562372 0 -0.12597317929490931 0.39263287193339852 0 -0.1285469826755247 0.37940954496645818 0 -0.14112187529676351 0.38907185696549629 0 -0.15895684989311559 0.38023866227078779 0 -0.15639251303576651 0.39829458852250571 0 -0.14112187529676351 0.38907185696549629 0 -0.15895684989311559 0.38023866227078779 0 -0.14112187529676351 0.38907185696549629 0 -0.1402760373850663 0.37087807667562372 0 -0.15639251303576651 0.39829458852250571 0 -0.14157538769946301 0.41356097686893412 0 -0.14112187529676351 0.38907185696549629 0 -0.14018520897573911 0.35308019459535789 0 -0.15373803963746929 0.34142571613644901 0 -0.15766574552042181 0.36052302468946051 0 -0.1402760373850663 0.37087807667562372 0 -0.14018520897573911 0.35308019459535789 0 -0.15766574552042181 0.36052302468946051 0 -0.15895684989311559 0.38023866227078779 0 -0.1402760373850663 0.37087807667562372 0 -0.15766574552042181 0.36052302468946051 0 -0.1402760373850663 0.37087807667562372 0 -0.14018520897573911 0.35308019459535789 0 -0.12392745019334479 0.36509008645200203 0 -0.1285469826755247 0.37940954496645818 0 -0.1402760373850663 0.37087807667562372 0 -0.12392745019334479 0.36509008645200203 0 -0.14018520897573911 0.35308019459535789 0 -0.1279655989473337 0.33980973536469578 0 -0.12392745019334479 0.36509008645200203 0 -0.1279655989473337 0.33980973536469578 0 -0.12392745019334479 0.36509008645200203 0 -0.1279655989473337 0.33980973536469578 0 -0.13200374770132259 0.31452938427738958 0 -0.14169881658366781 0.33196032505798118 0 -0.14018520897573911 0.35308019459535789 0 -0.1279655989473337 0.33980973536469578 0 -0.14169881658366781 0.33196032505798118 0 -0.13200374770132259 0.31452938427738958 0 -0.1440928012012023 0.31657244105506321 0 -0.14169881658366781 0.33196032505798118 0 -0.1279655989473337 0.33980973536469578 0 -0.13200374770132259 0.31452938427738958 0 -0.1279655989473337 0.33980973536469578 0 -0.13200374770132259 0.31452938427738958 0 -0.1200122754351505 0.32154865733213339 0 -0.13200374770132259 0.31452938427738958 0 -0.1440928012012023 0.31657244105506321 0 -0.13609641679578549 0.3076851909481747 0 -0.1440928012012023 0.31657244105506321 0 -0.14169881658366781 0.33196032505798118 0 -0.15636797222418769 0.32464582476556481 0 -0.1440928012012023 0.31657244105506321 0 -0.15636797222418769 0.32464582476556481 0 -0.15713991879026129 0.31231843489256922 0 -0.15373803963746929 0.34142571613644901 0 -0.14169881658366781 0.33196032505798118 0 -0.15636797222418769 0.32464582476556481 0 -0.14018520897573911 0.35308019459535789 0 -0.15373803963746929 0.34142571613644901 0 -0.14169881658366781 0.33196032505798118 0 -0.15373803963746929 0.34142571613644901 0 -0.15636797222418769 0.32464582476556481 0 -0.17326580362219909 0.33535388848694581 0 -0.15636797222418769 0.32464582476556481 0 -0.17029236296954561 0.31633095924386861 0 -0.17326580362219909 0.33535388848694581 0 -0.15636797222418769 0.32464582476556481 0 -0.17029236296954561 0.31633095924386861 0 -0.15713991879026129 0.31231843489256922 0 -0.17029236296954561 0.31633095924386861 0 -0.17326580362219909 0.33535388848694581 0 -0.1888658617239764 0.31018475228443121 0 -0.17326580362219909 0.33535388848694581 0 -0.18988628706271751 0.32916789282105768 0 -0.1888658617239764 0.31018475228443121 0 -0.17326580362219909 0.33535388848694581 0 -0.1888658617239764 0.31018475228443121 0 -0.17326580362219909 0.33535388848694581 0 -0.19398051531396779 0.34703565951187632 0 -0.18988628706271751 0.32916789282105768 0 -0.1773600318734494 0.35322165517776438 0 -0.18452806303720901 0.369974048022775 0 -0.19398051531396779 0.34703565951187632 0 -0.17326580362219909 0.33535388848694581 0 -0.1773600318734494 0.35322165517776438 0 -0.19398051531396779 0.34703565951187632 0 -0.15373803963746929 0.34142571613644901 0 -0.17326580362219909 0.33535388848694581 0 -0.15766574552042181 0.36052302468946051 0 -0.17326580362219909 0.33535388848694581 0 -0.1773600318734494 0.35322165517776438 0 -0.15766574552042181 0.36052302468946051 0 -0.17326580362219909 0.33535388848694581 0 -0.15766574552042181 0.36052302468946051 0 -0.15895684989311559 0.38023866227078779 0 -0.15766574552042181 0.36052302468946051 0 -0.18452806303720901 0.369974048022775 0 -0.1773600318734494 0.35322165517776438 0 -0.15766574552042181 0.36052302468946051 0 -0.18452806303720901 0.369974048022775 0 -0.19630380976503101 0.38383342103128681 0 -0.18452806303720901 0.369974048022775 0 -0.20660875828680389 0.36356171728227732 0 -0.18452806303720901 0.369974048022775 0 -0.19398051531396779 0.34703565951187632 0 -0.20660875828680389 0.36356171728227732 0 -0.18452806303720901 0.369974048022775 0 -0.19398051531396779 0.34703565951187632 0 -0.19398051531396779 0.34703565951187632 0 -0.20660875828680389 0.36356171728227732 0 -0.21557269014702279 0.34257998435968667 0 -0.20660875828680389 0.36356171728227732 0 -0.22997837368497881 0.35752762754061151 0 -0.21557269014702279 0.34257998435968667 0 -0.21663646786511431 0.38111074972552739 0 -0.20660875828680389 0.36356171728227732 0 -0.22997837368497881 0.35752762754061151 0 -0.21663646786511431 0.38111074972552739 0 -0.22997837368497881 0.35752762754061151 0 -0.23839991066384769 0.38170764735847568 0 -0.21663646786511431 0.38111074972552739 0 -0.22997837368497881 0.35752762754061151 0 -0.22997837368497881 0.35752762754061151 0 -0.23709429967437581 0.34142103173578048 0 -0.21557269014702279 0.34257998435968667 0 -0.26004605168230138 0.34000762823621872 0 -0.24702240634340281 0.35857689094836498 0 -0.23709429967437581 0.34142103173578048 0 -0.22997837368497881 0.35752762754061151 0 -0.24702240634340281 0.35857689094836498 0 -0.23709429967437581 0.34142103173578048 0 -0.2560093092452066 0.37211042615786261 0 -0.23839991066384769 0.38170764735847568 0 -0.24702240634340281 0.35857689094836498 0 -0.23839991066384769 0.38170764735847568 0 -0.22997837368497881 0.35752762754061151 0 -0.24702240634340281 0.35857689094836498 0 -0.24511680374919581 0.32513126628468952 0 -0.22482947243935339 0.32470279304511168 0 -0.23741727403207191 0.31042401111079881 0 -0.25214399418072592 0.3103931275864561 0 -0.24511680374919581 0.32513126628468952 0 -0.23741727403207191 0.31042401111079881 0 -0.24511680374919581 0.32513126628468952 0 -0.23709429967437581 0.34142103173578048 0 -0.22482947243935339 0.32470279304511168 0 -0.26004605168230138 0.34000762823621872 0 -0.24511680374919581 0.32513126628468952 0 -0.23709429967437581 0.34142103173578048 0 -0.23709429967437581 0.34142103173578048 0 -0.22482947243935339 0.32470279304511168 0 -0.21557269014702279 0.34257998435968667 0 -0.22482947243935339 0.32470279304511168 0 -0.2196866454649318 0.30591005443877828 0 -0.23741727403207191 0.31042401111079881 0 -0.22482947243935339 0.32470279304511168 0 -0.2034329675907266 0.32409727100097752 0 -0.2196866454649318 0.30591005443877828 0 -0.19398051531396779 0.34703565951187632 0 -0.2034329675907266 0.32409727100097752 0 -0.21557269014702279 0.34257998435968667 0 -0.22482947243935339 0.32470279304511168 0 -0.2034329675907266 0.32409727100097752 0 -0.21557269014702279 0.34257998435968667 0 -0.19398051531396779 0.34703565951187632 0 -0.2034329675907266 0.32409727100097752 0 -0.18988628706271751 0.32916789282105768 0 -0.19398051531396779 0.34703565951187632 0 -0.2034329675907266 0.32409727100097752 0 -0.2034329675907266 0.32409727100097752 0 -0.18988628706271751 0.32916789282105768 0 -0.1888658617239764 0.31018475228443121 0 -0.2034329675907266 0.32409727100097752 0 -0.1888658617239764 0.31018475228443121 0 -0.20545829181103259 0.3045109581451762 0 -0.1888658617239764 0.31018475228443121 0 -0.2044659198257536 0.28501561608191661 0 -0.20545829181103259 0.3045109581451762 0 -0.1888658617239764 0.31018475228443121 0 -0.2044659198257536 0.28501561608191661 0 -0.21091778398279579 0.28142043712181752 0 -0.20174516466685721 0.27314094667885519 0 -0.18623140121511039 0.29084390099119972 0 -0.2044659198257536 0.28501561608191661 0 -0.21091778398279579 0.28142043712181752 0 -0.18623140121511039 0.29084390099119972 0 -0.1888658617239764 0.31018475228443121 0 -0.2044659198257536 0.28501561608191661 0 -0.18623140121511039 0.29084390099119972 0 -0.21091778398279579 0.28142043712181752 0 -0.18623140121511039 0.29084390099119972 0 -0.2044659198257536 0.28501561608191661 0 -0.2134645568847591 0.29352413421926798 0 -0.20545829181103259 0.3045109581451762 0 -0.2044659198257536 0.28501561608191661 0 -0.21091778398279579 0.28142043712181752 0 -0.2134645568847591 0.29352413421926798 0 -0.2134645568847591 0.29352413421926798 0 -0.2224176569335215 0.2945638074213372 0 -0.2200946604435465 0.28776012167964521 0 -0.21091778398279579 0.28142043712181752 0 -0.2134645568847591 0.29352413421926798 0 -0.2200946604435465 0.28776012167964521 0 -0.2034329675907266 0.32409727100097752 0 -0.20545829181103259 0.3045109581451762 0 -0.2196866454649318 0.30591005443877828 0 -0.2134645568847591 0.29352413421926798 0 -0.20545829181103259 0.3045109581451762 0 -0.2196866454649318 0.30591005443877828 0 -0.2134645568847591 0.29352413421926798 0 -0.2196866454649318 0.30591005443877828 0 -0.2224176569335215 0.2945638074213372 0 -0.2196866454649318 0.30591005443877828 0 -0.23119539359637509 0.29794870990867589 0 -0.23741727403207191 0.31042401111079881 0 -0.2196866454649318 0.30591005443877828 0 -0.23119539359637509 0.29794870990867589 0 -0.2224176569335215 0.2945638074213372 0 -0.2224176569335215 0.2945638074213372 0 -0.2200946604435465 0.28776012167964521 0 -0.22764702827799499 0.28767601686031857 0 -0.21091778398279579 0.28142043712181752 0 -0.2200946604435465 0.28776012167964521 0 -0.225976283852802 0.28207481124440559 0 -0.2200946604435465 0.28776012167964521 0 -0.225976283852802 0.28207481124440559 0 -0.22764702827799499 0.28767601686031857 0 -0.225976283852802 0.28207481124440559 0 -0.22764702827799499 0.28767601686031857 0 -0.23750821811883371 0.28293131306932628 0 -0.23119539359637509 0.29794870990867589 0 -0.2224176569335215 0.2945638074213372 0 -0.22764702827799499 0.28767601686031857 0 -0.23119539359637509 0.29794870990867589 0 -0.22764702827799499 0.28767601686031857 0 -0.23750821811883371 0.28293131306932628 0 -0.23119539359637509 0.29794870990867589 0 -0.23750821811883371 0.28293131306932628 0 -0.2426620622555952 0.29276101751343558 0 -0.25559745324579952 0.27540315117287689 0 -0.23750821811883371 0.28293131306932628 0 -0.2426620622555952 0.29276101751343558 0 -0.23119539359637509 0.29794870990867589 0 -0.2426620622555952 0.29276101751343558 0 -0.23741727403207191 0.31042401111079881 0 -0.25214399418072592 0.3103931275864561 0 -0.2426620622555952 0.29276101751343558 0 -0.23741727403207191 0.31042401111079881 0 -0.25594846957022921 0.24827972843832841 0 -0.23398087147723859 0.26609437599528257 0 -0.23512752351027549 0.24223055166604651 0 -0.25594846957022921 0.24827972843832841 0 -0.23398087147723859 0.26609437599528257 0 -0.25559745324579952 0.27540315117287689 0 -0.23398087147723859 0.26609437599528257 0 -0.25559745324579952 0.27540315117287689 0 -0.23750821811883371 0.28293131306932628 0 -0.23560416675048121 0.27199697325243521 0 -0.25559745324579952 0.27540315117287689 0 -0.23560416675048121 0.27199697325243521 0 -0.23398087147723859 0.26609437599528257 0 -0.23560416675048121 0.27199697325243521 0 -0.23398087147723859 0.26609437599528257 0 -0.22665353818224099 0.27203648489722232 0 -0.23398087147723859 0.26609437599528257 0 -0.22665353818224099 0.27203648489722232 0 -0.2166810954615408 0.26952639852045102 0 -0.21091778398279579 0.28142043712181752 0 -0.23560416675048121 0.27199697325243521 0 -0.22665353818224099 0.27203648489722232 0 -0.21091778398279579 0.28142043712181752 0 -0.225976283852802 0.28207481124440559 0 -0.23560416675048121 0.27199697325243521 0 -0.21091778398279579 0.28142043712181752 0 -0.23560416675048121 0.27199697325243521 0 -0.23398087147723859 0.26609437599528257 0 -0.22665353818224099 0.27203648489722232 0 -0.225976283852802 0.28207481124440559 0 -0.23750821811883371 0.28293131306932628 0 -0.23560416675048121 0.27199697325243521 0 -0.23398087147723859 0.26609437599528257 0 -0.20853576436574031 0.25513691824332863 0 -0.23398087147723859 0.26609437599528257 0 -0.2229876842008939 0.24991080519960601 0 -0.23512752351027549 0.24223055166604651 0 -0.23398087147723859 0.26609437599528257 0 -0.20853576436574031 0.25513691824332863 0 -0.2229876842008939 0.24991080519960601 0 -0.23398087147723859 0.26609437599528257 0 -0.20853576436574031 0.25513691824332863 0 -0.2166810954615408 0.26952639852045102 0 -0.21091778398279579 0.28142043712181752 0 -0.22665353818224099 0.27203648489722232 0 -0.2166810954615408 0.26952639852045102 0 -0.20853576436574031 0.25513691824332863 0 -0.2166810954615408 0.26952639852045102 0 -0.20174516466685721 0.27314094667885519 0 -0.21091778398279579 0.28142043712181752 0 -0.2166810954615408 0.26952639852045102 0 -0.20174516466685721 0.27314094667885519 0 -0.20174516466685721 0.27314094667885519 0 -0.18635977830909861 0.26877707851747878 0 -0.18623140121511039 0.29084390099119972 0 -0.20853576436574031 0.25513691824332863 0 -0.20174516466685721 0.27314094667885519 0 -0.18635977830909861 0.26877707851747878 0 -0.20853576436574031 0.25513691824332863 0 -0.18635977830909861 0.26877707851747878 0 -0.18309065725424201 0.24417946049137459 0 -0.16742591043475999 0.26534803731031048 0 -0.18635977830909861 0.26877707851747878 0 -0.18309065725424201 0.24417946049137459 0 -0.16742591043475999 0.26534803731031048 0 -0.18309065725424201 0.24417946049137459 0 -0.16742591043475999 0.26534803731031048 0 -0.1444317700599505 0.26480686746105159 0 -0.15789538802104619 0.24839852701308851 0 -0.16742591043475999 0.26534803731031048 0 -0.15789538802104619 0.24839852701308851 0 -0.17315761247399131 0.23990198120818709 0 -0.16742591043475999 0.26534803731031048 0 -0.1695574172850495 0.28421037772405872 0 -0.1517611636152727 0.28651661412924267 0 -0.16742591043475999 0.26534803731031048 0 -0.1517611636152727 0.28651661412924267 0 -0.16742591043475999 0.26534803731031048 0 -0.18635977830909861 0.26877707851747878 0 -0.1695574172850495 0.28421037772405872 0 -0.18635977830909861 0.26877707851747878 0 -0.18623140121511039 0.29084390099119972 0 -0.1695574172850495 0.28421037772405872 0 -0.18623140121511039 0.29084390099119972 0 -0.16154501844742489 0.30026736486058198 0 -0.18623140121511039 0.29084390099119972 0 -0.16154501844742489 0.30026736486058198 0 -0.1695574172850495 0.28421037772405872 0 -0.17029236296954561 0.31633095924386861 0 -0.1888658617239764 0.31018475228443121 0 -0.16154501844742489 0.30026736486058198 0 -0.1888658617239764 0.31018475228443121 0 -0.18623140121511039 0.29084390099119972 0 -0.16154501844742489 0.30026736486058198 0 -0.17029236296954561 0.31633095924386861 0 -0.16154501844742489 0.30026736486058198 0 -0.15713991879026129 0.31231843489256922 0 -0.16154501844742489 0.30026736486058198 0 -0.15713991879026129 0.31231843489256922 0 -0.15042473425534911 0.30459051602809373 0 -0.16154501844742489 0.30026736486058198 0 -0.1695574172850495 0.28421037772405872 0 -0.1517611636152727 0.28651661412924267 0 -0.1517611636152727 0.28651661412924267 0 -0.13609641679578549 0.3076851909481747 0 -0.13604189645531151 0.28924903319008349 0 -0.1517611636152727 0.28651661412924267 0 -0.13604189645531151 0.28924903319008349 0 -0.13615395597428831 0.27727084177666789 0 -0.1517611636152727 0.28651661412924267 0 -0.13609641679578549 0.3076851909481747 0 -0.16154501844742489 0.30026736486058198 0 -0.1517611636152727 0.28651661412924267 0 -0.15042473425534911 0.30459051602809373 0 -0.1517611636152727 0.28651661412924267 0 -0.15042473425534911 0.30459051602809373 0 -0.13609641679578549 0.3076851909481747 0 -0.1440928012012023 0.31657244105506321 0 -0.15713991879026129 0.31231843489256922 0 -0.15042473425534911 0.30459051602809373 0 -0.1440928012012023 0.31657244105506321 0 -0.15042473425534911 0.30459051602809373 0 -0.13609641679578549 0.3076851909481747 0 -0.13200374770132259 0.31452938427738958 0 -0.13604189645531151 0.28924903319008349 0 -0.13200374770132259 0.31452938427738958 0 -0.1214419244170319 0.30844647602709979 0 -0.124653579567002 0.29784314747631702 0 -0.13200374770132259 0.31452938427738958 0 -0.13604189645531151 0.28924903319008349 0 -0.124653579567002 0.29784314747631702 0 -0.13200374770132259 0.31452938427738958 0 -0.13609641679578549 0.3076851909481747 0 -0.13604189645531151 0.28924903319008349 0 -0.13604189645531151 0.28924903319008349 0 -0.12192633512043741 0.28333000617813769 0 -0.124653579567002 0.29784314747631702 0 -0.13604189645531151 0.28924903319008349 0 -0.13615395597428831 0.27727084177666789 0 -0.12192633512043741 0.28333000617813769 0 -0.13615395597428831 0.27727084177666789 0 -0.12607650354500061 0.27016568854724959 0 -0.12192633512043741 0.28333000617813769 0 -0.13615395597428831 0.27727084177666789 0 -0.12607650354500061 0.27016568854724959 0 -0.1444317700599505 0.26480686746105159 0 -0.12607650354500061 0.27016568854724959 0 -0.12899558426369651 0.25668256891564828 0 -0.1444317700599505 0.26480686746105159 0 -0.12899558426369651 0.25668256891564828 0 -0.1444317700599505 0.26480686746105159 0 -0.14207234068144359 0.24839996579348861 0 -0.1444317700599505 0.26480686746105159 0 -0.15789538802104619 0.24839852701308851 0 -0.14207234068144359 0.24839996579348861 0 -0.16742591043475999 0.26534803731031048 0 -0.1517611636152727 0.28651661412924267 0 -0.1444317700599505 0.26480686746105159 0 -0.1517611636152727 0.28651661412924267 0 -0.13615395597428831 0.27727084177666789 0 -0.1444317700599505 0.26480686746105159 0 -0.1006430114982976 0.25487178582940301 0 -0.092732508501476352 0.27843024893058099 0 -0.10462541071558371 0.27640389414851319 0 -0.1006430114982976 0.25487178582940301 0 -0.092732508501476352 0.27843024893058099 0 -0.10462541071558371 0.27640389414851319 0 -0.1006430114982976 0.25487178582940301 0 -0.1145784192375378 0.25143447651753531 0 -0.10462541071558371 0.27640389414851319 0 -0.1145784192375378 0.25143447651753531 0 -0.10462541071558371 0.27640389414851319 0 -0.1145784192375378 0.25143447651753531 0 -0.1180174524548054 0.26597371189732688 0 -0.12899558426369651 0.25668256891564828 0 -0.1145784192375378 0.25143447651753531 0 -0.12942203820027501 0.2429209832548074 0 -0.12899558426369651 0.25668256891564828 0 -0.1145784192375378 0.25143447651753531 0 -0.1180174524548054 0.26597371189732688 0 -0.12607650354500061 0.27016568854724959 0 -0.12899558426369651 0.25668256891564828 0 -0.1180174524548054 0.26597371189732688 0 -0.12607650354500061 0.27016568854724959 0 -0.1180174524548054 0.26597371189732688 0 -0.11581134451220849 0.2751819313576882 0 -0.10462541071558371 0.27640389414851319 0 -0.1180174524548054 0.26597371189732688 0 -0.11581134451220849 0.2751819313576882 0 -0.11581134451220849 0.2751819313576882 0 -0.12192633512043741 0.28333000617813769 0 -0.1121003112900614 0.28355086226102821 0 -0.10462541071558371 0.27640389414851319 0 -0.11581134451220849 0.2751819313576882 0 -0.1121003112900614 0.28355086226102821 0 -0.12607650354500061 0.27016568854724959 0 -0.11581134451220849 0.2751819313576882 0 -0.12192633512043741 0.28333000617813769 0 -0.12192633512043741 0.28333000617813769 0 -0.11355543748529009 0.29198309630756092 0 -0.124653579567002 0.29784314747631702 0 -0.11355543748529009 0.29198309630756092 0 -0.124653579567002 0.29784314747631702 0 -0.11502960855789029 0.30069384010705968 0 -0.11355543748529009 0.29198309630756092 0 -0.1121003112900614 0.28355086226102821 0 -0.1045830286167871 0.29085538331324068 0 -0.12192633512043741 0.28333000617813769 0 -0.11355543748529009 0.29198309630756092 0 -0.1121003112900614 0.28355086226102821 0 -0.1214419244170319 0.30844647602709979 0 -0.124653579567002 0.29784314747631702 0 -0.11502960855789029 0.30069384010705968 0 -0.11355543748529009 0.29198309630756092 0 -0.11502960855789029 0.30069384010705968 0 -0.1067393913525011 0.29795507693530171 0 -0.11502960855789029 0.30069384010705968 0 -0.1143679688580328 0.30733511284018189 0 -0.1061212122526274 0.30587871656893723 0 -0.1143679688580328 0.30733511284018189 0 -0.1061212122526274 0.30587871656893723 0 -0.1122030204899136 0.31404398681365397 0 -0.1214419244170319 0.30844647602709979 0 -0.1143679688580328 0.30733511284018189 0 -0.1122030204899136 0.31404398681365397 0 -0.1214419244170319 0.30844647602709979 0 -0.11502960855789029 0.30069384010705968 0 -0.1143679688580328 0.30733511284018189 0 -0.1061212122526274 0.30587871656893723 0 -0.09842501397027241 0.314779637239125 0 -0.1122030204899136 0.31404398681365397 0 -0.1061212122526274 0.30587871656893723 0 -0.1067393913525011 0.29795507693530171 0 -0.094672402193629754 0.30137331177949089 0 -0.11502960855789029 0.30069384010705968 0 -0.1061212122526274 0.30587871656893723 0 -0.1067393913525011 0.29795507693530171 0 -0.1061212122526274 0.30587871656893723 0 -0.094672402193629754 0.30137331177949089 0 -0.09842501397027241 0.314779637239125 0 -0.10462541071558371 0.27640389414851319 0 -0.094672402193629754 0.30137331177949089 0 -0.092732508501476352 0.27843024893058099 0 -0.10462541071558371 0.27640389414851319 0 -0.094672402193629754 0.30137331177949089 0 -0.10462541071558371 0.27640389414851319 0 -0.094672402193629754 0.30137331177949089 0 -0.1045830286167871 0.29085538331324068 0 -0.10462541071558371 0.27640389414851319 0 -0.1121003112900614 0.28355086226102821 0 -0.1045830286167871 0.29085538331324068 0 -0.1067393913525011 0.29795507693530171 0 -0.094672402193629754 0.30137331177949089 0 -0.1045830286167871 0.29085538331324068 0 -0.11355543748529009 0.29198309630756092 0 -0.1067393913525011 0.29795507693530171 0 -0.1045830286167871 0.29085538331324068 0 -0.094672402193629754 0.30137331177949089 0 -0.084822005504656212 0.30198871203175942 0 -0.092732508501476352 0.27843024893058099 0 -0.083735650564373307 0.29208767982529887 0 -0.084822005504656212 0.30198871203175942 0 -0.092732508501476352 0.27843024893058099 0 -0.084822005504656212 0.30198871203175942 0 -0.092732508501476352 0.27843024893058099 0 -0.083735650564373307 0.29208767982529887 0 -0.084822005504656212 0.30198871203175942 0 -0.073906216311207987 0.29508332425462303 0 -0.083735650564373307 0.29208767982529887 0 -0.079515313803859303 0.27720442623800268 0 -0.092732508501476352 0.27843024893058099 0 -0.094672402193629754 0.30137331177949089 0 -0.084822005504656212 0.30198871203175942 0 -0.09842501397027241 0.314779637239125 0 -0.083735650564373307 0.29208767982529887 0 -0.084822005504656212 0.30198871203175942 0 -0.084822005504656212 0.30198871203175942 0 -0.06681509304985403 0.30375877285505898 0 -0.073906216311207987 0.29508332425462303 0 -0.06681509304985403 0.30375877285505898 0 -0.054248685696511291 0.31192423528641428 0 -0.071693838168249258 0.31993045023929523 0 -0.084822005504656212 0.30198871203175942 0 -0.06681509304985403 0.30375877285505898 0 -0.071693838168249258 0.31993045023929523 0 -0.06681509304985403 0.30375877285505898 0 -0.073906216311207987 0.29508332425462303 0 -0.058232405057922668 0.29100938636759871 0 -0.070460755446538195 0.28438032885903408 0 -0.073906216311207987 0.29508332425462303 0 -0.058232405057922668 0.29100938636759871 0 -0.083735650564373307 0.29208767982529887 0 -0.070460755446538195 0.28438032885903408 0 -0.079515313803859303 0.27720442623800268 0 -0.083735650564373307 0.29208767982529887 0 -0.070460755446538195 0.28438032885903408 0 -0.073906216311207987 0.29508332425462303 0 -0.06771971137282462 0.27004379924285421 0 -0.079515313803859303 0.27720442623800268 0 -0.08292794313408404 0.26108007433224528 0 -0.070460755446538195 0.28438032885903408 0 -0.06771971137282462 0.27004379924285421 0 -0.055112466871014447 0.27840426749305858 0 -0.070460755446538195 0.28438032885903408 0 -0.06771971137282462 0.27004379924285421 0 -0.079515313803859303 0.27720442623800268 0 -0.079515313803859303 0.27720442623800268 0 -0.092732508501476352 0.27843024893058099 0 -0.08292794313408404 0.26108007433224528 0 -0.1006430114982976 0.25487178582940301 0 -0.08292794313408404 0.26108007433224528 0 -0.090119679326450916 0.24134328922432571 0 -0.1006430114982976 0.25487178582940301 0 -0.092732508501476352 0.27843024893058099 0 -0.08292794313408404 0.26108007433224528 0 -0.06771971137282462 0.27004379924285421 0 -0.065723803714756585 0.2538989688338078 0 -0.055320533216568817 0.26347650450669358 0 -0.06771971137282462 0.27004379924285421 0 -0.08292794313408404 0.26108007433224528 0 -0.065723803714756585 0.2538989688338078 0 -0.08292794313408404 0.26108007433224528 0 -0.065723803714756585 0.2538989688338078 0 -0.073270579150137405 0.24006349455727641 0 -0.055320533216568817 0.26347650450669358 0 -0.04157826248577047 0.27737805770342999 0 -0.046352991746764771 0.25083809507332699 0 -0.065723803714756585 0.2538989688338078 0 -0.056504585419954109 0.2506644888712648 0 -0.055320533216568817 0.26347650450669358 0 -0.056504585419954109 0.2506644888712648 0 -0.055320533216568817 0.26347650450669358 0 -0.046352991746764771 0.25083809507332699 0 -0.06771971137282462 0.27004379924285421 0 -0.055320533216568817 0.26347650450669358 0 -0.055112466871014447 0.27840426749305858 0 -0.055320533216568817 0.26347650450669358 0 -0.055112466871014447 0.27840426749305858 0 -0.04157826248577047 0.27737805770342999 0 -0.055112466871014447 0.27840426749305858 0 -0.04157826248577047 0.27737805770342999 0 -0.050166278364283161 0.28459502547343102 0 -0.04157826248577047 0.27737805770342999 0 -0.033036643487525268 0.27194707283549419 0 -0.037988974337560023 0.26177272129547219 0 -0.04157826248577047 0.27737805770342999 0 -0.033036643487525268 0.27194707283549419 0 -0.032696525730334443 0.28012271038086822 0 -0.04157826248577047 0.27737805770342999 0 -0.046352991746764771 0.25083809507332699 0 -0.04157826248577047 0.27737805770342999 0 -0.046352991746764771 0.25083809507332699 0 -0.037988974337560023 0.26177272129547219 0 -0.033036643487525268 0.27194707283549419 0 -0.031229665136684751 0.24941010873521891 0 -0.033036643487525268 0.27194707283549419 0 -0.037988974337560023 0.26177272129547219 0 -0.031229665136684751 0.24941010873521891 0 -0.046352991746764771 0.25083809507332699 0 -0.037988974337560023 0.26177272129547219 0 -0.031229665136684751 0.24941010873521891 0 -0.021325111398536659 0.26191694557042361 0 -0.01504764807168163 0.2482530069007903 0 -0.031229665136684751 0.24941010873521891 0 -0.033036643487525268 0.27194707283549419 0 -0.021325111398536659 0.26191694557042361 0 -0.031229665136684751 0.24941010873521891 0 -0.033036643487525268 0.27194707283549419 0 -0.021325111398536659 0.26191694557042361 0 -0.01865103083200461 0.27769199978476561 0 -0.021325111398536659 0.26191694557042361 0 -0.01865103083200461 0.27769199978476561 0 -0.0088196961060734262 0.26254782721285791 0 -0.033036643487525268 0.27194707283549419 0 -0.032696525730334443 0.28012271038086822 0 -0.01865103083200461 0.27769199978476561 0 -0.00039553516225181059 0.27348999383948841 0 -0.0088196961060734262 0.26254782721285791 0 0.0082581070309755353 0.26254997493767268 0 -0.01865103083200461 0.27769199978476561 0 -0.00039553516225181059 0.27348999383948841 0 0.00053487780174995073 0.28678206550816487 0 -0.01865103083200461 0.27769199978476561 0 -0.00039553516225181059 0.27348999383948841 0 -0.0088196961060734262 0.26254782721285791 0 -0.0088196961060734262 0.26254782721285791 0 -0.01504764807168163 0.2482530069007903 0 0.00088550965980978768 0.24807331653095191 0 -0.021325111398536659 0.26191694557042361 0 -0.0088196961060734262 0.26254782721285791 0 -0.01504764807168163 0.2482530069007903 0 -0.014576402695121169 0.30928362612593419 0 -0.018134327711511699 0.2953500429208491 0 0.00058719434909508333 0.30536543201503269 0 -0.014576402695121169 0.30928362612593419 0 -0.0086055485797966701 0.3201213333154026 0 0.00058719434909508333 0.30536543201503269 0 -0.018134327711511699 0.2953500429208491 0 0.00053487780174995073 0.28678206550816487 0 -0.01865103083200461 0.27769199978476561 0 -0.018134327711511699 0.2953500429208491 0 0.00053487780174995073 0.28678206550816487 0 -0.018134327711511699 0.2953500429208491 0 0.00053487780174995073 0.28678206550816487 0 0.00058719434909508333 0.30536543201503269 0 -0.018134327711511699 0.2953500429208491 0 -0.036803533224773623 0.30391802033353271 0 -0.032172416774145729 0.28938536403084592 0 -0.01865103083200461 0.27769199978476561 0 -0.018134327711511699 0.2953500429208491 0 -0.032172416774145729 0.28938536403084592 0 -0.032696525730334443 0.28012271038086822 0 -0.01865103083200461 0.27769199978476561 0 -0.032172416774145729 0.28938536403084592 0 -0.018134327711511699 0.2953500429208491 0 -0.024804733573119901 0.30778026787490032 0 -0.036803533224773623 0.30391802033353271 0 -0.018134327711511699 0.2953500429208491 0 -0.036803533224773623 0.30391802033353271 0 -0.014576402695121169 0.30928362612593419 0 -0.018134327711511699 0.2953500429208491 0 -0.024804733573119901 0.30778026787490032 0 -0.014576402695121169 0.30928362612593419 0 -0.024804733573119901 0.30778026787490032 0 -0.021924597960272688 0.31780105450348672 0 -0.036803533224773623 0.30391802033353271 0 -0.054248685696511291 0.31192423528641428 0 -0.036803533224773623 0.30391802033353271 0 -0.034824369560772298 0.3149190482055475 0 -0.024804733573119901 0.30778026787490032 0 -0.036803533224773623 0.30391802033353271 0 -0.034824369560772298 0.3149190482055475 0 -0.036803533224773623 0.30391802033353271 0 -0.054248685696511291 0.31192423528641428 0 -0.034824369560772298 0.3149190482055475 0 -0.036803533224773623 0.30391802033353271 0 -0.045741979042425052 0.29158839032963663 0 -0.052368339214297323 0.30043976103444819 0 -0.04157826248577047 0.27737805770342999 0 -0.036803533224773623 0.30391802033353271 0 -0.032172416774145729 0.28938536403084592 0 -0.04157826248577047 0.27737805770342999 0 -0.036803533224773623 0.30391802033353271 0 -0.04157826248577047 0.27737805770342999 0 -0.036803533224773623 0.30391802033353271 0 -0.045741979042425052 0.29158839032963663 0 -0.04157826248577047 0.27737805770342999 0 -0.032696525730334443 0.28012271038086822 0 -0.032172416774145729 0.28938536403084592 0 -0.04157826248577047 0.27737805770342999 0 -0.045741979042425052 0.29158839032963663 0 -0.050166278364283161 0.28459502547343102 0 -0.055112466871014447 0.27840426749305858 0 -0.050166278364283161 0.28459502547343102 0 -0.058232405057922668 0.29100938636759871 0 -0.045741979042425052 0.29158839032963663 0 -0.050166278364283161 0.28459502547343102 0 -0.058232405057922668 0.29100938636759871 0 -0.045741979042425052 0.29158839032963663 0 -0.058232405057922668 0.29100938636759871 0 -0.052368339214297323 0.30043976103444819 0 -0.070460755446538195 0.28438032885903408 0 -0.055112466871014447 0.27840426749305858 0 -0.058232405057922668 0.29100938636759871 0 -0.036803533224773623 0.30391802033353271 0 -0.054248685696511291 0.31192423528641428 0 -0.052368339214297323 0.30043976103444819 0 -0.06681509304985403 0.30375877285505898 0 -0.058232405057922668 0.29100938636759871 0 -0.052368339214297323 0.30043976103444819 0 -0.06681509304985403 0.30375877285505898 0 -0.054248685696511291 0.31192423528641428 0 -0.052368339214297323 0.30043976103444819 0 -0.054248685696511291 0.31192423528641428 0 -0.058331865070857331 0.32434370528874568 0 -0.071693838168249258 0.31993045023929523 0 -0.058331865070857331 0.32434370528874568 0 -0.049615385518907013 0.33163587033631392 0 -0.045905712630181741 0.32230215716926802 0 -0.054248685696511291 0.31192423528641428 0 -0.058331865070857331 0.32434370528874568 0 -0.045905712630181741 0.32230215716926802 0 -0.058331865070857331 0.32434370528874568 0 -0.058312419011285553 0.33697945339396318 0 -0.049615385518907013 0.33163587033631392 0 -0.058331865070857331 0.32434370528874568 0 -0.058312419011285553 0.33697945339396318 0 -0.066632042774755304 0.33183076004936218 0 -0.058312419011285553 0.33697945339396318 0 -0.048184108296451852 0.34120384933267472 0 -0.056078503634002498 0.34799168245640422 0 -0.058312419011285553 0.33697945339396318 0 -0.049615385518907013 0.33163587033631392 0 -0.048184108296451852 0.34120384933267472 0 -0.048184108296451852 0.34120384933267472 0 -0.03952651674930046 0.33399028456870489 0 -0.038001412500862537 0.3427111321937788 0 -0.049615385518907013 0.33163587033631392 0 -0.03952651674930046 0.33399028456870489 0 -0.045905712630181741 0.32230215716926802 0 -0.049615385518907013 0.33163587033631392 0 -0.048184108296451852 0.34120384933267472 0 -0.03952651674930046 0.33399028456870489 0 -0.03952651674930046 0.33399028456870489 0 -0.029606755913126049 0.32632009582393151 0 -0.027903145886883331 0.33730017672078272 0 -0.03952651674930046 0.33399028456870489 0 -0.038001412500862537 0.3427111321937788 0 -0.027903145886883331 0.33730017672078272 0 -0.045905712630181741 0.32230215716926802 0 -0.034824369560772298 0.3149190482055475 0 -0.029606755913126049 0.32632009582393151 0 -0.03952651674930046 0.33399028456870489 0 -0.045905712630181741 0.32230215716926802 0 -0.029606755913126049 0.32632009582393151 0 -0.054248685696511291 0.31192423528641428 0 -0.045905712630181741 0.32230215716926802 0 -0.034824369560772298 0.3149190482055475 0 -0.034824369560772298 0.3149190482055475 0 -0.021924597960272688 0.31780105450348672 0 -0.029606755913126049 0.32632009582393151 0 -0.024804733573119901 0.30778026787490032 0 -0.034824369560772298 0.3149190482055475 0 -0.021924597960272688 0.31780105450348672 0 -0.021924597960272688 0.31780105450348672 0 -0.029606755913126049 0.32632009582393151 0 -0.018202949134116901 0.33052512257582523 0 -0.021924597960272688 0.31780105450348672 0 -0.018202949134116901 0.33052512257582523 0 -0.0086055485797966701 0.3201213333154026 0 -0.029606755913126049 0.32632009582393151 0 -0.027903145886883331 0.33730017672078272 0 -0.018202949134116901 0.33052512257582523 0 -0.027903145886883331 0.33730017672078272 0 -0.01728008365852109 0.33899300837761959 0 -0.026326172977243961 0.3485358395220754 0 -0.038001412500862537 0.3427111321937788 0 -0.027903145886883331 0.33730017672078272 0 -0.026326172977243961 0.3485358395220754 0 -0.027903145886883331 0.33730017672078272 0 -0.01728008365852109 0.33899300837761959 0 -0.018202949134116901 0.33052512257582523 0 -0.01728008365852109 0.33899300837761959 0 -0.018202949134116901 0.33052512257582523 0 -0.0083177029917178725 0.33368678424738002 0 -0.01728008365852109 0.33899300837761959 0 -0.0083177029917178725 0.33368678424738002 0 -0.0056504473026433794 0.34491711882203457 0 -0.0083177029917178725 0.33368678424738002 0 -0.0056504473026433794 0.34491711882203457 0 0.0025099612645411548 0.33066677424314039 0 -0.0083177029917178725 0.33368678424738002 0 -0.0086055485797966701 0.3201213333154026 0 0.0025099612645411548 0.33066677424314039 0 -0.0086055485797966701 0.3201213333154026 0 0.0026064872402043211 0.31829916110798218 0 0.0025099612645411548 0.33066677424314039 0 -0.0086055485797966701 0.3201213333154026 0 0.0026064872402043211 0.31829916110798218 0 0.00058719434909508333 0.30536543201503269 0 -0.014576402695121169 0.30928362612593419 0 -0.021924597960272688 0.31780105450348672 0 -0.0086055485797966701 0.3201213333154026 0 -0.018202949134116901 0.33052512257582523 0 -0.0083177029917178725 0.33368678424738002 0 -0.0086055485797966701 0.3201213333154026 0 -0.0122113632337939 0.36225929535049289 0 -0.01255461400622397 0.37195512327435842 0 -0.001350513587295121 0.36334353359200078 0 -0.01255461400622397 0.37195512327435842 0 -0.0031500679266970328 0.37235994501025532 0 -0.001350513587295121 0.36334353359200078 0 -0.001350513587295121 0.36334353359200078 0 -0.0066383489898997287 0.3516789742192023 0 0.0066395844086457254 0.35398603674928802 0 -0.0122113632337939 0.36225929535049289 0 -0.001350513587295121 0.36334353359200078 0 -0.0066383489898997287 0.3516789742192023 0 -0.0066383489898997287 0.3516789742192023 0 -0.0056504473026433794 0.34491711882203457 0 -0.026326172977243961 0.3485358395220754 0 -0.0056504473026433794 0.34491711882203457 0 -0.026326172977243961 0.3485358395220754 0 -0.0066383489898997287 0.3516789742192023 0 -0.026326172977243961 0.3485358395220754 0 -0.02830197635175679 0.36205955031641018 0 -0.01728008365852109 0.33899300837761959 0 -0.0056504473026433794 0.34491711882203457 0 -0.026326172977243961 0.3485358395220754 0 -0.0122113632337939 0.36225929535049289 0 -0.0066383489898997287 0.3516789742192023 0 -0.02830197635175679 0.36205955031641018 0 -0.0066383489898997287 0.3516789742192023 0 -0.02830197635175679 0.36205955031641018 0 -0.026326172977243961 0.3485358395220754 0 -0.02830197635175679 0.36205955031641018 0 -0.037426243479277248 0.35898086349199648 0 -0.01255461400622397 0.37195512327435842 0 -0.02830197635175679 0.36205955031641018 0 -0.022987744644636179 0.37680151865110262 0 -0.0122113632337939 0.36225929535049289 0 -0.01255461400622397 0.37195512327435842 0 -0.02830197635175679 0.36205955031641018 0 -0.02830197635175679 0.36205955031641018 0 -0.032770079941233959 0.38454825062906223 0 -0.022987744644636179 0.37680151865110262 0 -0.02830197635175679 0.36205955031641018 0 -0.037426243479277248 0.35898086349199648 0 -0.032770079941233959 0.38454825062906223 0 -0.037426243479277248 0.35898086349199648 0 -0.044266548147663773 0.37673961101301418 0 -0.032770079941233959 0.38454825062906223 0 -0.037426243479277248 0.35898086349199648 0 -0.032770079941233959 0.38454825062906223 0 -0.037426243479277248 0.35898086349199648 0 -0.047708412336607733 0.36327494596780602 0 -0.044266548147663773 0.37673961101301418 0 -0.026326172977243961 0.3485358395220754 0 -0.037426243479277248 0.35898086349199648 0 -0.04700189865184453 0.35215456022211628 0 -0.038001412500862537 0.3427111321937788 0 -0.026326172977243961 0.3485358395220754 0 -0.04700189865184453 0.35215456022211628 0 -0.026326172977243961 0.3485358395220754 0 -0.04700189865184453 0.35215456022211628 0 -0.037426243479277248 0.35898086349199648 0 -0.04700189865184453 0.35215456022211628 0 -0.047708412336607733 0.36327494596780602 0 -0.048184108296451852 0.34120384933267472 0 -0.038001412500862537 0.3427111321937788 0 -0.04700189865184453 0.35215456022211628 0 -0.048184108296451852 0.34120384933267472 0 -0.04700189865184453 0.35215456022211628 0 -0.056078503634002498 0.34799168245640422 0 -0.04700189865184453 0.35215456022211628 0 -0.058620032963059267 0.35834999246064858 0 -0.047708412336607733 0.36327494596780602 0 -0.04700189865184453 0.35215456022211628 0 -0.058620032963059267 0.35834999246064858 0 -0.056078503634002498 0.34799168245640422 0 -0.058620032963059267 0.35834999246064858 0 -0.056078503634002498 0.34799168245640422 0 -0.068274059247371274 0.35127055687261838 0 -0.058312419011285553 0.33697945339396318 0 -0.056078503634002498 0.34799168245640422 0 -0.068274059247371274 0.35127055687261838 0 -0.050557650190714593 0.37114499087489577 0 -0.060000086118730103 0.37591147929304841 0 -0.044266548147663773 0.37673961101301418 0 -0.058620032963059267 0.35834999246064858 0 -0.056492320973992337 0.37013097176777032 0 -0.060000086118730103 0.37591147929304841 0 -0.058620032963059267 0.35834999246064858 0 -0.068274059247371274 0.35127055687261838 0 -0.060000086118730103 0.37591147929304841 0 -0.050557650190714593 0.37114499087489577 0 -0.047708412336607733 0.36327494596780602 0 -0.056492320973992337 0.37013097176777032 0 -0.050557650190714593 0.37114499087489577 0 -0.047708412336607733 0.36327494596780602 0 -0.044266548147663773 0.37673961101301418 0 -0.058620032963059267 0.35834999246064858 0 -0.047708412336607733 0.36327494596780602 0 -0.056492320973992337 0.37013097176777032 0 -0.050557650190714593 0.37114499087489577 0 -0.056492320973992337 0.37013097176777032 0 -0.060000086118730103 0.37591147929304841 0 -0.056492320973992337 0.37013097176777032 0 -0.060000086118730103 0.37591147929304841 0 -0.076250022082110069 0.36530375986415359 0 -0.076196182019504566 0.38133551582676001 0 -0.060000086118730103 0.37591147929304841 0 -0.076250022082110069 0.36530375986415359 0 -0.068274059247371274 0.35127055687261838 0 -0.060000086118730103 0.37591147929304841 0 -0.068274059247371274 0.35127055687261838 0 -0.060000086118730103 0.37591147929304841 0 -0.076250022082110069 0.36530375986415359 0 -0.092102593696343618 0.36834394777912999 0 -0.076196182019504566 0.38133551582676001 0 -0.076250022082110069 0.36530375986415359 0 -0.092102593696343618 0.36834394777912999 0 -0.089675730965781505 0.34622553586333982 0 -0.092102593696343618 0.36834394777912999 0 -0.089675730965781505 0.34622553586333982 0 -0.076250022082110069 0.36530375986415359 0 -0.089675730965781505 0.34622553586333982 0 -0.068274059247371274 0.35127055687261838 0 -0.068274059247371274 0.35127055687261838 0 -0.066632042774755304 0.33183076004936218 0 -0.076548032376013195 0.32662963445218868 0 -0.068274059247371274 0.35127055687261838 0 -0.076548032376013195 0.32662963445218868 0 -0.058312419011285553 0.33697945339396318 0 -0.068274059247371274 0.35127055687261838 0 -0.066632042774755304 0.33183076004936218 0 -0.054248685696511291 0.31192423528641428 0 -0.071693838168249258 0.31993045023929523 0 -0.084822005504656212 0.30198871203175942 0 -0.076548032376013195 0.32662963445218868 0 -0.071693838168249258 0.31993045023929523 0 -0.058331865070857331 0.32434370528874568 0 -0.066632042774755304 0.33183076004936218 0 -0.071693838168249258 0.31993045023929523 0 -0.066632042774755304 0.33183076004936218 0 -0.076548032376013195 0.32662963445218868 0 -0.071693838168249258 0.31993045023929523 0 -0.084822005504656212 0.30198871203175942 0 -0.076548032376013195 0.32662963445218868 0 -0.084822005504656212 0.30198871203175942 0 -0.076548032376013195 0.32662963445218868 0 -0.087248868235219379 0.32410712394754948 0 -0.084822005504656212 0.30198871203175942 0 -0.087248868235219379 0.32410712394754948 0 -0.084822005504656212 0.30198871203175942 0 -0.087248868235219379 0.32410712394754948 0 -0.09842501397027241 0.314779637239125 0 -0.089675730965781505 0.34622553586333982 0 -0.087248868235219379 0.32410712394754948 0 -0.097480793565199397 0.32572553076435312 0 -0.089675730965781505 0.34622553586333982 0 -0.087248868235219379 0.32410712394754948 0 -0.089675730965781505 0.34622553586333982 0 -0.068274059247371274 0.35127055687261838 0 -0.076548032376013195 0.32662963445218868 0 -0.089675730965781505 0.34622553586333982 0 -0.076548032376013195 0.32662963445218868 0 -0.087248868235219379 0.32410712394754948 0 -0.1064470856201505 0.33091370417782789 0 -0.11009364155893391 0.35601012553712569 0 -0.089675730965781505 0.34622553586333982 0 -0.1064470856201505 0.33091370417782789 0 -0.097480793565199397 0.32572553076435312 0 -0.1064470856201505 0.33091370417782789 0 -0.09842501397027241 0.314779637239125 0 -0.1122030204899136 0.31404398681365397 0 -0.1064470856201505 0.33091370417782789 0 -0.09842501397027241 0.314779637239125 0 -0.097480793565199397 0.32572553076435312 0 -0.087248868235219379 0.32410712394754948 0 -0.09842501397027241 0.314779637239125 0 -0.097480793565199397 0.32572553076435312 0 -0.1064470856201505 0.33091370417782789 0 -0.1122030204899136 0.31404398681365397 0 -0.1200122754351505 0.32154865733213339 0 -0.13200374770132259 0.31452938427738958 0 -0.1214419244170319 0.30844647602709979 0 -0.1200122754351505 0.32154865733213339 0 -0.1214419244170319 0.30844647602709979 0 -0.1122030204899136 0.31404398681365397 0 -0.1200122754351505 0.32154865733213339 0 -0.1279655989473337 0.33980973536469578 0 -0.1064470856201505 0.33091370417782789 0 -0.11009364155893391 0.35601012553712569 0 -0.1279655989473337 0.33980973536469578 0 -0.1064470856201505 0.33091370417782789 0 -0.1200122754351505 0.32154865733213339 0 -0.1279655989473337 0.33980973536469578 0 -0.11009364155893391 0.35601012553712569 0 -0.12392745019334479 0.36509008645200203 0 -0.11009364155893391 0.35601012553712569 0 -0.1137401974977174 0.38110654689642348 0 -0.11009364155893391 0.35601012553712569 0 -0.12392745019334479 0.36509008645200203 0 -0.1137401974977174 0.38110654689642348 0 -0.092102593696343618 0.36834394777912999 0 -0.11009364155893391 0.35601012553712569 0 -0.1137401974977174 0.38110654689642348 0 -0.092102593696343618 0.36834394777912999 0 -0.089675730965781505 0.34622553586333982 0 -0.11009364155893391 0.35601012553712569 0 -0.089675730965781505 0.34622553586333982 0 -0.1064470856201505 0.33091370417782789 0 -0.11009364155893391 0.35601012553712569 0 -0.099823835629409663 0.40086045494583961 0 -0.1173867534365014 0.40620296825572139 0 -0.092102593696343618 0.36834394777912999 0 -0.1137401974977174 0.38110654689642348 0 -0.092824745333058623 0.38543288141682219 0 -0.099823835629409663 0.40086045494583961 0 -0.1137401974977174 0.38110654689642348 0 -0.092824745333058623 0.38543288141682219 0 -0.1285469826755247 0.37940954496645818 0 -0.12392745019334479 0.36509008645200203 0 -0.1137401974977174 0.38110654689642348 0 -0.12597317929490931 0.39263287193339852 0 -0.1285469826755247 0.37940954496645818 0 -0.1137401974977174 0.38110654689642348 0 -0.12597317929490931 0.39263287193339852 0 -0.1137401974977174 0.38110654689642348 0 -0.1173867534365014 0.40620296825572139 0 -0.1137401974977174 0.38110654689642348 0 -0.1173867534365014 0.40620296825572139 0 -0.099823835629409663 0.40086045494583961 0 -0.1137401974977174 0.38110654689642348 0 -0.1173867534365014 0.40620296825572139 0 -0.1173867534365014 0.40620296825572139 0 -0.119840543908424 0.42309050834686779 0 -0.10311805027601779 0.41621115578626988 0 -0.1173867534365014 0.40620296825572139 0 -0.119840543908424 0.42309050834686779 0 -0.119840543908424 0.42309050834686779 0 -0.098705187264630803 0.43969429234030422 0 -0.12229433438034711 0.43997804843801408 0 -0.119840543908424 0.42309050834686779 0 -0.12229433438034711 0.43997804843801408 0 -0.119840543908424 0.42309050834686779 0 -0.10311805027601779 0.41621115578626988 0 -0.098705187264630803 0.43969429234030422 0 -0.10311805027601779 0.41621115578626988 0 -0.085803486882664051 0.41843335465788561 0 -0.098705187264630803 0.43969429234030422 0 -0.099823835629409663 0.40086045494583961 0 -0.1173867534365014 0.40620296825572139 0 -0.10311805027601779 0.41621115578626988 0 -0.099823835629409663 0.40086045494583961 0 -0.10311805027601779 0.41621115578626988 0 -0.088655787493810839 0.40604135543599712 0 -0.085803486882664051 0.41843335465788561 0 -0.072901786500697285 0.39717241697546679 0 -0.085803486882664051 0.41843335465788561 0 -0.072901786500697285 0.39717241697546679 0 -0.088655787493810839 0.40604135543599712 0 -0.10311805027601779 0.41621115578626988 0 -0.085803486882664051 0.41843335465788561 0 -0.088655787493810839 0.40604135543599712 0 -0.085803486882664051 0.41843335465788561 0 -0.073336994465644581 0.43671930753084748 0 -0.098705187264630803 0.43969429234030422 0 -0.085803486882664051 0.41843335465788561 0 -0.098705187264630803 0.43969429234030422 0 -0.085803486882664051 0.41843335465788561 0 -0.073336994465644581 0.43671930753084748 0 -0.065236301663896809 0.41695965913432081 0 -0.085803486882664051 0.41843335465788561 0 -0.065236301663896809 0.41695965913432081 0 -0.072901786500697285 0.39717241697546679 0 -0.072901786500697285 0.39717241697546679 0 -0.082260917822317883 0.39551794163595788 0 -0.076196182019504566 0.38133551582676001 0 -0.065236301663896809 0.41695965913432081 0 -0.072901786500697285 0.39717241697546679 0 -0.050703015851967383 0.40359931240765329 0 -0.099823835629409663 0.40086045494583961 0 -0.082260917822317883 0.39551794163595788 0 -0.099823835629409663 0.40086045494583961 0 -0.082260917822317883 0.39551794163595788 0 -0.088655787493810839 0.40604135543599712 0 -0.099823835629409663 0.40086045494583961 0 -0.082260917822317883 0.39551794163595788 0 -0.092824745333058623 0.38543288141682219 0 -0.072901786500697285 0.39717241697546679 0 -0.082260917822317883 0.39551794163595788 0 -0.088655787493810839 0.40604135543599712 0 -0.092102593696343618 0.36834394777912999 0 -0.092824745333058623 0.38543288141682219 0 -0.076196182019504566 0.38133551582676001 0 -0.082260917822317883 0.39551794163595788 0 -0.092824745333058623 0.38543288141682219 0 -0.076196182019504566 0.38133551582676001 0 -0.072901786500697285 0.39717241697546679 0 -0.076196182019504566 0.38133551582676001 0 -0.060000086118730103 0.37591147929304841 0 -0.072901786500697285 0.39717241697546679 0 -0.060000086118730103 0.37591147929304841 0 -0.060000086118730103 0.37591147929304841 0 -0.050703015851967383 0.40359931240765329 0 -0.044266548147663773 0.37673961101301418 0 -0.060000086118730103 0.37591147929304841 0 -0.050703015851967383 0.40359931240765329 0 -0.072901786500697285 0.39717241697546679 0 -0.060000086118730103 0.37591147929304841 0 -0.050703015851967383 0.40359931240765329 0 -0.050703015851967383 0.40359931240765329 0 -0.032770079941233959 0.38454825062906223 0 -0.028113916403190681 0.41011563776612769 0 -0.050703015851967383 0.40359931240765329 0 -0.044266548147663773 0.37673961101301418 0 -0.032770079941233959 0.38454825062906223 0 -0.01255461400622397 0.37195512327435842 0 -0.022987744644636179 0.37680151865110262 0 -0.01832430827932998 0.38864315038457958 0 -0.032770079941233959 0.38454825062906223 0 -0.022987744644636179 0.37680151865110262 0 -0.01832430827932998 0.38864315038457958 0 -0.032770079941233959 0.38454825062906223 0 -0.01832430827932998 0.38864315038457958 0 -0.028113916403190681 0.41011563776612769 0 -0.032770079941233959 0.38454825062906223 0 -0.028113916403190681 0.41011563776612769 0 -0.01832430827932998 0.38864315038457958 0 -0.010503185880836379 0.40286745172637628 0 -0.028113916403190681 0.41011563776612769 0 -0.010503185880836379 0.40286745172637628 0 -0.004150477139613834 0.38368825041198462 0 0.0074832512340659001 0.40045766518013137 0 -0.01832430827932998 0.38864315038457958 0 -0.010503185880836379 0.40286745172637628 0 -0.004150477139613834 0.38368825041198462 0 -0.01255461400622397 0.37195512327435842 0 -0.01832430827932998 0.38864315038457958 0 -0.004150477139613834 0.38368825041198462 0 -0.01255461400622397 0.37195512327435842 0 -0.0031500679266970328 0.37235994501025532 0 -0.004150477139613834 0.38368825041198462 0 -0.0031500679266970328 0.37235994501025532 0 -0.004150477139613834 0.38368825041198462 0 0.0062038194441939101 0.37327343350035691 0 -0.0088436434212872915 0.43345826279242389 0 -0.0060861808982948934 0.41915061822671279 0 -0.023457752865147379 0.43568302490319338 0 -0.0088436434212872915 0.43345826279242389 0 -0.0072629850960212738 0.44530142717588928 0 0.0028100250070855872 0.43285207765557687 0 -0.0088436434212872915 0.43345826279242389 0 -0.0060861808982948934 0.41915061822671279 0 0.0028100250070855872 0.43285207765557687 0 -0.010503185880836379 0.40286745172637628 0 -0.0060861808982948934 0.41915061822671279 0 0.0074832512340659001 0.40045766518013137 0 -0.010503185880836379 0.40286745172637628 0 -0.0060861808982948934 0.41915061822671279 0 -0.028113916403190681 0.41011563776612769 0 -0.0060861808982948934 0.41915061822671279 0 -0.028113916403190681 0.41011563776612769 0 -0.023457752865147379 0.43568302490319338 0 -0.028113916403190681 0.41011563776612769 0 -0.023457752865147379 0.43568302490319338 0 -0.028113916403190681 0.41011563776612769 0 -0.023457752865147379 0.43568302490319338 0 -0.041405945585205418 0.43128714552225861 0 -0.073336994465644581 0.43671930753084748 0 -0.065236301663896809 0.41695965913432081 0 -0.041405945585205418 0.43128714552225861 0 -0.050703015851967383 0.40359931240765329 0 -0.041405945585205418 0.43128714552225861 0 -0.050703015851967383 0.40359931240765329 0 -0.028113916403190681 0.41011563776612769 0 -0.041405945585205418 0.43128714552225861 0 -0.065236301663896809 0.41695965913432081 0 -0.050703015851967383 0.40359931240765329 0 -0.041405945585205418 0.43128714552225861 0 -0.073336994465644581 0.43671930753084748 0 -0.041405945585205418 0.43128714552225861 0 -0.056966956256402607 0.45153076985204932 0 -0.056966956256402607 0.45153076985204932 0 -0.050724202139271833 0.46782473314961681 0 -0.065855731774359494 0.47022420139388538 0 -0.056966956256402607 0.45153076985204932 0 -0.050724202139271833 0.46782473314961681 0 -0.032108875318443489 0.45897497863686371 0 -0.041405945585205418 0.43128714552225861 0 -0.056966956256402607 0.45153076985204932 0 -0.032108875318443489 0.45897497863686371 0 -0.041405945585205418 0.43128714552225861 0 -0.032108875318443489 0.45897497863686371 0 -0.023457752865147379 0.43568302490319338 0 -0.041405945585205418 0.43128714552225861 0 -0.032108875318443489 0.45897497863686371 0 -0.023457752865147379 0.43568302490319338 0 -0.01880158932710407 0.46125041204025907 0 -0.0072629850960212738 0.44530142717588928 0 -0.023457752865147379 0.43568302490319338 0 -0.032108875318443489 0.45897497863686371 0 -0.01880158932710407 0.46125041204025907 0 -0.023457752865147379 0.43568302490319338 0 -0.01880158932710407 0.46125041204025907 0 -0.01880158932710407 0.46125041204025907 0 -0.0021977797239108991 0.45880013985398022 0 -0.0047780101938374427 0.47190419893922408 0 -0.01880158932710407 0.46125041204025907 0 -0.0021977797239108991 0.45880013985398022 0 -0.0072629850960212738 0.44530142717588928 0 -0.0088436434212872915 0.43345826279242389 0 -0.023457752865147379 0.43568302490319338 0 -0.0072629850960212738 0.44530142717588928 0 -0.014145425789061391 0.48681779917732487 0 -0.0039163893020063394 0.49232368272422727 0 0.0074717582378100618 0.48720439565609158 0 -0.014145425789061391 0.48681779917732487 0 0.0074717582378100618 0.48720439565609158 0 -0.0039163893020063394 0.49232368272422727 0 -0.018333420058740821 0.49999999999999301 0 0.0046437197017198386 0.5 0 -0.014145425789061391 0.48681779917732487 0 -0.013091652094762931 0.49260415950956749 0 -0.0039163893020063394 0.49232368272422727 0 -0.014145425789061391 0.48681779917732487 0 -0.013091652094762931 0.49260415950956749 0 -0.013091652094762931 0.49260415950956749 0 -0.0039163893020063394 0.49232368272422727 0 -0.018333420058740821 0.49999999999999301 0 -0.014145425789061391 0.48681779917732487 0 -0.0047780101938374427 0.47190419893922408 0 0.0074717582378100618 0.48720439565609158 0 -0.01880158932710407 0.46125041204025907 0 -0.014145425789061391 0.48681779917732487 0 -0.0047780101938374427 0.47190419893922408 0 -0.032108875318443489 0.45897497863686371 0 -0.01880158932710407 0.46125041204025907 0 -0.022811805051681639 0.4866628117514688 0 -0.032108875318443489 0.45897497863686371 0 -0.022811805051681639 0.4866628117514688 0 -0.01880158932710407 0.46125041204025907 0 -0.014145425789061391 0.48681779917732487 0 -0.01880158932710407 0.46125041204025907 0 -0.014145425789061391 0.48681779917732487 0 -0.022811805051681639 0.4866628117514688 0 -0.022811805051681639 0.4866628117514688 0 -0.018333420058740821 0.49999999999999301 0 -0.046224635893878707 0.5 0 -0.014145425789061391 0.48681779917732487 0 -0.022811805051681639 0.4866628117514688 0 -0.014145425789061391 0.48681779917732487 0 -0.013091652094762931 0.49260415950956749 0 -0.022811805051681639 0.4866628117514688 0 -0.022811805051681639 0.4866628117514688 0 -0.018333420058740821 0.49999999999999301 0 -0.013091652094762931 0.49260415950956749 0 -0.022811805051681639 0.4866628117514688 0 -0.018333420058740821 0.49999999999999301 0 -0.022811805051681639 0.4866628117514688 0 -0.041638645498596048 0.48632611710085988 0 -0.046224635893878707 0.5 0 -0.022811805051681639 0.4866628117514688 0 -0.041638645498596048 0.48632611710085988 0 -0.050724202139271833 0.46782473314961681 0 -0.032108875318443489 0.45897497863686371 0 -0.041638645498596048 0.48632611710085988 0 -0.032108875318443489 0.45897497863686371 0 -0.022811805051681639 0.4866628117514688 0 -0.041638645498596048 0.48632611710085988 0 -0.050724202139271833 0.46782473314961681 0 -0.041638645498596048 0.48632611710085988 0 -0.060465485945510447 0.4859894224502509 0 -0.050724202139271833 0.46782473314961681 0 -0.060465485945510447 0.4859894224502509 0 -0.065855731774359494 0.47022420139388538 0 -0.046224635893878707 0.5 0 -0.060465485945510447 0.4859894224502509 0 -0.074115851729016691 0.5 0 -0.041638645498596048 0.48632611710085988 0 -0.060465485945510447 0.4859894224502509 0 -0.041638645498596048 0.48632611710085988 0 -0.046224635893878707 0.5 0 -0.060465485945510447 0.4859894224502509 0 -0.060465485945510447 0.4859894224502509 0 -0.074115851729016691 0.5 0 -0.079879610782194785 0.47869587953800669 0 -0.074115851729016691 0.5 0 -0.088716651870180976 0.48910425982530592 0 -0.079879610782194785 0.47869587953800669 0 -0.074115851729016691 0.5 0 -0.088716651870180976 0.48910425982530592 0 -0.10200706756415449 0.5 0 -0.088716651870180976 0.48910425982530592 0 -0.079879610782194785 0.47869587953800669 0 -0.098864077405358006 0.477721159763217 0 -0.079879610782194785 0.47869587953800669 0 -0.093139232818615872 0.46014453745569223 0 -0.098864077405358006 0.477721159763217 0 -0.060465485945510447 0.4859894224502509 0 -0.079879610782194785 0.47869587953800669 0 -0.065855731774359494 0.47022420139388538 0 -0.079879610782194785 0.47869587953800669 0 -0.065855731774359494 0.47022420139388538 0 -0.07552178388215848 0.45798999708115973 0 -0.056966956256402607 0.45153076985204932 0 -0.065855731774359494 0.47022420139388538 0 -0.07552178388215848 0.45798999708115973 0 -0.073336994465644581 0.43671930753084748 0 -0.07552178388215848 0.45798999708115973 0 -0.08517579960776242 0.44863703360200091 0 -0.073336994465644581 0.43671930753084748 0 -0.056966956256402607 0.45153076985204932 0 -0.07552178388215848 0.45798999708115973 0 -0.08517579960776242 0.44863703360200091 0 -0.093139232818615872 0.46014453745569223 0 -0.098705187264630803 0.43969429234030422 0 -0.073336994465644581 0.43671930753084748 0 -0.08517579960776242 0.44863703360200091 0 -0.098705187264630803 0.43969429234030422 0 -0.07552178388215848 0.45798999708115973 0 -0.08517579960776242 0.44863703360200091 0 -0.093139232818615872 0.46014453745569223 0 -0.079879610782194785 0.47869587953800669 0 -0.07552178388215848 0.45798999708115973 0 -0.093139232818615872 0.46014453745569223 0 -0.093139232818615872 0.46014453745569223 0 -0.098705187264630803 0.43969429234030422 0 -0.1116068876465976 0.46095523002272287 0 -0.093139232818615872 0.46014453745569223 0 -0.1116068876465976 0.46095523002272287 0 -0.098864077405358006 0.477721159763217 0 -0.098705187264630803 0.43969429234030422 0 -0.1116068876465976 0.46095523002272287 0 -0.098705187264630803 0.43969429234030422 0 -0.11476385501549349 0.44883261126478963 0 -0.1116068876465976 0.46095523002272287 0 -0.098705187264630803 0.43969429234030422 0 -0.11476385501549349 0.44883261126478963 0 -0.12229433438034711 0.43997804843801408 0 -0.1264490107703983 0.4547028742581174 0 -0.11476385501549349 0.44883261126478963 0 -0.12229433438034711 0.43997804843801408 0 -0.1264490107703983 0.4547028742581174 0 -0.1116068876465976 0.46095523002272287 0 -0.11948584790072531 0.47215068057938159 0 -0.1264490107703983 0.4547028742581174 0 -0.11476385501549349 0.44883261126478963 0 -0.1116068876465976 0.46095523002272287 0 -0.1116068876465976 0.46095523002272287 0 -0.11948584790072531 0.47215068057938159 0 -0.098864077405358006 0.477721159763217 0 -0.11948584790072531 0.47215068057938159 0 -0.11824508478555371 0.48573817999099972 0 -0.098864077405358006 0.477721159763217 0 -0.13252731282419061 0.48065360592878797 0 -0.11948584790072531 0.47215068057938159 0 -0.11824508478555371 0.48573817999099972 0 -0.11824508478555371 0.48573817999099972 0 -0.1224348238323528 0.49827267766313821 0 -0.10200706756415449 0.5 0 -0.13033330407002641 0.48863287347754658 0 -0.11824508478555371 0.48573817999099972 0 -0.1224348238323528 0.49827267766313821 0 -0.12989828339929221 0.5 0 -0.1224348238323528 0.49827267766313821 0 -0.10200706756415449 0.5 0 -0.11824508478555371 0.48573817999099972 0 -0.10200706756415449 0.5 0 -0.098864077405358006 0.477721159763217 0 -0.088716651870180976 0.48910425982530592 0 -0.10200706756415449 0.5 0 -0.098864077405358006 0.477721159763217 0 -0.11948584790072531 0.47215068057938159 0 -0.098864077405358006 0.477721159763217 0 -0.16768731043146981 0.078172887522403922 0 -0.16920082148798579 0.081064014588418193 0 -0.16819483854892681 0.082878891847987995 0 -0.16920082148798579 0.081064014588418193 0 -0.1709853077255612 0.079765512251812554 0 -0.16819483854892681 0.082878891847987995 0 -0.16768731043146981 0.078172887522403922 0 -0.16920871296670231 0.079326498069874712 0 -0.16969783003717881 0.077174378799302862 0 -0.16768731043146981 0.078172887522403922 0 -0.16920082148798579 0.081064014588418193 0 -0.16920871296670231 0.079326498069874712 0 -0.16920082148798579 0.081064014588418193 0 -0.16920871296670231 0.079326498069874712 0 -0.1709853077255612 0.079765512251812554 0 -0.16920871296670231 0.079326498069874712 0 -0.1709853077255612 0.079765512251812554 0 -0.16969783003717881 0.077174378799302862 0 -0.16819483854892681 0.082878891847987995 0 -0.1712161659782459 0.089959877032097346 0 -0.16819483854892681 0.082878891847987995 0 -0.1712161659782459 0.089959877032097346 0 -0.15940284758710521 0.090493550127587308 0 -0.1712161659782459 0.089959877032097346 0 -0.15940284758710521 0.090493550127587308 0 -0.16310391626162959 0.1004058189912409 0 -0.16819483854892681 0.082878891847987995 0 -0.16507839243050559 0.071182015396457965 0 -0.15920482840751601 0.061809302369316227 0 -0.16819483854892681 0.082878891847987995 0 -0.15134275086396479 0.068792323345414408 0 -0.15920482840751601 0.061809302369316227 0 -0.16819483854892681 0.082878891847987995 0 -0.15920482840751601 0.061809302369316227 0 -0.16819483854892681 0.082878891847987995 0 -0.15134275086396479 0.068792323345414408 0 -0.1641208110248884 0.065372978028901546 0 -0.16507839243050559 0.071182015396457965 0 -0.15920482840751601 0.061809302369316227 0 -0.16686903714479381 0.065032110091466006 0 -0.17319384644606289 0.069112900496052843 0 -0.16457028544416241 0.058585005527879382 0 -0.1641208110248884 0.065372978028901546 0 -0.16686903714479381 0.065032110091466006 0 -0.16457028544416241 0.058585005527879382 0 -0.1641208110248884 0.065372978028901546 0 -0.16686903714479381 0.065032110091466006 0 -0.16788575278372661 0.068602777928133851 0 -0.1641208110248884 0.065372978028901546 0 -0.16788575278372661 0.068602777928133851 0 -0.16507839243050559 0.071182015396457965 0 -0.16788575278372661 0.068602777928133851 0 -0.1704815667555899 0.071218009213010997 0 -0.17319384644606289 0.069112900496052843 0 -0.16686903714479381 0.065032110091466006 0 -0.16788575278372661 0.068602777928133851 0 -0.17319384644606289 0.069112900496052843 0 -0.16768731043146981 0.078172887522403922 0 -0.16819483854892681 0.082878891847987995 0 -0.16507839243050559 0.071182015396457965 0 -0.16768731043146981 0.078172887522403922 0 -0.16507839243050559 0.071182015396457965 0 -0.1680412504790032 0.074963963144900433 0 -0.16788575278372661 0.068602777928133851 0 -0.16507839243050559 0.071182015396457965 0 -0.16837584375770701 0.07206597661959345 0 -0.16507839243050559 0.071182015396457965 0 -0.16837584375770701 0.07206597661959345 0 -0.1680412504790032 0.074963963144900433 0 -0.16837584375770701 0.07206597661959345 0 -0.17036714777840081 0.07437259492356596 0 -0.1680412504790032 0.074963963144900433 0 -0.16837584375770701 0.07206597661959345 0 -0.1704815667555899 0.071218009213010997 0 -0.17036714777840081 0.07437259492356596 0 -0.16788575278372661 0.068602777928133851 0 -0.16837584375770701 0.07206597661959345 0 -0.1704815667555899 0.071218009213010997 0 -0.1704815667555899 0.071218009213010997 0 -0.17036714777840081 0.07437259492356596 0 -0.1740640757175147 0.073566655471263051 0 -0.17036714777840081 0.07437259492356596 0 -0.16969783003717881 0.077174378799302862 0 -0.1721726660228122 0.076584340358711311 0 -0.17036714777840081 0.07437259492356596 0 -0.1680412504790032 0.074963963144900433 0 -0.16969783003717881 0.077174378799302862 0 -0.16768731043146981 0.078172887522403922 0 -0.1680412504790032 0.074963963144900433 0 -0.16969783003717881 0.077174378799302862 0 -0.1709853077255612 0.079765512251812554 0 -0.16969783003717881 0.077174378799302862 0 -0.1721726660228122 0.076584340358711311 0 -0.16457028544416241 0.058585005527879382 0 -0.17973428969149549 0.057955203761301012 0 -0.18820370271000719 0.071808851831843781 0 -0.17319384644606289 0.069112900496052843 0 -0.16457028544416241 0.058585005527879382 0 -0.18820370271000719 0.071808851831843781 0 -0.1709853077255612 0.079765512251812554 0 -0.1721726660228122 0.076584340358711311 0 -0.17511750262144671 0.076895818590236142 0 -0.16457028544416241 0.058585005527879382 0 -0.18820370271000719 0.071808851831843781 0 -0.17036714777840081 0.07437259492356596 0 -0.1721726660228122 0.076584340358711311 0 -0.1740640757175147 0.073566655471263051 0 -0.1721726660228122 0.076584340358711311 0 -0.17511750262144671 0.076895818590236142 0 -0.1740640757175147 0.073566655471263051 0 -0.1704815667555899 0.071218009213010997 0 -0.1740640757175147 0.073566655471263051 0 -0.17319384644606289 0.069112900496052843 0 -0.1740640757175147 0.073566655471263051 0 -0.17319384644606289 0.069112900496052843 0 -0.18028250456664621 0.074976893408772879 0 -0.17511750262144671 0.076895818590236142 0 -0.18028250456664621 0.074976893408772879 0 -0.17808295907469909 0.079585691460620889 0 -0.17511750262144671 0.076895818590236142 0 -0.1740640757175147 0.073566655471263051 0 -0.18028250456664621 0.074976893408772879 0 -0.17973428969149549 0.057955203761301012 0 -0.19149442394998981 0.060501872984031951 0 -0.18820370271000719 0.071808851831843781 0 -0.17319384644606289 0.069112900496052843 0 -0.18028250456664621 0.074976893408772879 0 -0.18820370271000719 0.071808851831843781 0 -0.18028250456664621 0.074976893408772879 0 -0.18762827234389839 0.083162614814046951 0 -0.18820370271000719 0.071808851831843781 0 -0.16819483854892681 0.082878891847987995 0 -0.18762827234389839 0.083162614814046951 0 -0.16819483854892681 0.082878891847987995 0 -0.18762827234389839 0.083162614814046951 0 -0.18852137663410851 0.098456874629307314 0 -0.16819483854892681 0.082878891847987995 0 -0.18852137663410851 0.098456874629307314 0 -0.16819483854892681 0.082878891847987995 0 -0.1712161659782459 0.089959877032097346 0 -0.18852137663410851 0.098456874629307314 0 -0.16819483854892681 0.082878891847987995 0 -0.17808295907469909 0.079585691460620889 0 -0.18762827234389839 0.083162614814046951 0 -0.18028250456664621 0.074976893408772879 0 -0.17808295907469909 0.079585691460620889 0 -0.18762827234389839 0.083162614814046951 0 -0.1709853077255612 0.079765512251812554 0 -0.16819483854892681 0.082878891847987995 0 -0.17808295907469909 0.079585691460620889 0 -0.1709853077255612 0.079765512251812554 0 -0.17511750262144671 0.076895818590236142 0 -0.17808295907469909 0.079585691460620889 0 -0.1712161659782459 0.089959877032097346 0 -0.1765514566377944 0.1021360531407212 0 -0.18852137663410851 0.098456874629307314 0 -0.1765514566377944 0.1021360531407212 0 -0.18702230323349259 0.115116545014083 0 -0.18852137663410851 0.098456874629307314 0 -0.18702230323349259 0.115116545014083 0 -0.1712168196806701 0.1124990571330733 0 -0.17885324051130461 0.13058228394219901 0 -0.1765514566377944 0.1021360531407212 0 -0.18702230323349259 0.115116545014083 0 -0.1712168196806701 0.1124990571330733 0 -0.16435791917196541 0.12334525027483539 0 -0.1712168196806701 0.1124990571330733 0 -0.14807727393006331 0.1136066448289642 0 -0.16435791917196541 0.12334525027483539 0 -0.1712168196806701 0.1124990571330733 0 -0.17885324051130461 0.13058228394219901 0 -0.16435791917196541 0.12334525027483539 0 -0.14807727393006331 0.1136066448289642 0 -0.1592843425658238 0.1366930151951051 0 -0.1712168196806701 0.1124990571330733 0 -0.16310391626162959 0.1004058189912409 0 -0.14807727393006331 0.1136066448289642 0 -0.1712161659782459 0.089959877032097346 0 -0.1765514566377944 0.1021360531407212 0 -0.16310391626162959 0.1004058189912409 0 -0.1765514566377944 0.1021360531407212 0 -0.1712168196806701 0.1124990571330733 0 -0.16310391626162959 0.1004058189912409 0 -0.15940284758710521 0.090493550127587308 0 -0.16310391626162959 0.1004058189912409 0 -0.1513205830554864 0.096618685233100077 0 -0.1513205830554864 0.096618685233100077 0 -0.14807727393006331 0.1136066448289642 0 -0.13797729663032521 0.1014381005661677 0 -0.16310391626162959 0.1004058189912409 0 -0.1513205830554864 0.096618685233100077 0 -0.14807727393006331 0.1136066448289642 0 -0.14807727393006331 0.1136066448289642 0 -0.13797729663032521 0.1014381005661677 0 -0.12487165153269369 0.1172532240967164 0 -0.14807727393006331 0.1136066448289642 0 -0.1273208436882502 0.13184136946553379 0 -0.12487165153269369 0.1172532240967164 0 -0.12563820584504901 0.097245003939922525 0 -0.13797729663032521 0.1014381005661677 0 -0.12487165153269369 0.1172532240967164 0 -0.13997876878833329 0.08246694473213545 0 -0.1117626990277399 0.082054997616281808 0 -0.12563820584504901 0.097245003939922525 0 -0.13997876878833329 0.08246694473213545 0 -0.1117626990277399 0.082054997616281808 0 -0.12563820584504901 0.097245003939922525 0 -0.13797729663032521 0.1014381005661677 0 -0.13997876878833329 0.08246694473213545 0 -0.1513205830554864 0.096618685233100077 0 -0.13797729663032521 0.1014381005661677 0 -0.13997876878833329 0.08246694473213545 0 -0.16819483854892681 0.082878891847987995 0 -0.13997876878833329 0.08246694473213545 0 -0.16819483854892681 0.082878891847987995 0 -0.15940284758710521 0.090493550127587308 0 -0.13997876878833329 0.08246694473213545 0 -0.15940284758710521 0.090493550127587308 0 -0.1513205830554864 0.096618685233100077 0 -0.13997876878833329 0.08246694473213545 0 -0.16819483854892681 0.082878891847987995 0 -0.13997876878833329 0.08246694473213545 0 -0.15134275086396479 0.068792323345414408 0 -0.15134275086396479 0.068792323345414408 0 -0.13671026352528751 0.068145517494759791 0 -0.13490496171646599 0.055676732624700423 0 -0.15134275086396479 0.068792323345414408 0 -0.15169853714254161 0.061275490230451202 0 -0.15920482840751601 0.061809302369316227 0 -0.13997876878833329 0.08246694473213545 0 -0.15134275086396479 0.068792323345414408 0 -0.13671026352528751 0.068145517494759791 0 -0.13997876878833329 0.08246694473213545 0 -0.13671026352528751 0.068145517494759791 0 -0.12208143475935759 0.065967819306918404 0 -0.13671026352528751 0.068145517494759791 0 -0.13490496171646599 0.055676732624700423 0 -0.12208143475935759 0.065967819306918404 0 -0.13490496171646599 0.055676732624700423 0 -0.12208143475935759 0.065967819306918404 0 -0.1206257464305804 0.048221868699790837 0 -0.13490496171646599 0.055676732624700423 0 -0.13112251596765229 0.044014932433458727 0 -0.14095447640870629 0.045880834913129317 0 -0.13490496171646599 0.055676732624700423 0 -0.13112251596765229 0.044014932433458727 0 -0.1206257464305804 0.048221868699790837 0 -0.13112251596765229 0.044014932433458727 0 -0.12501595260848131 0.034124805769654681 0 -0.1206257464305804 0.048221868699790837 0 -0.12501595260848131 0.034124805769654681 0 -0.1341114426740275 0.036170420160018348 0 -0.13307880950329209 0.028578248748984899 0 -0.13112251596765229 0.044014932433458727 0 -0.12501595260848131 0.034124805769654681 0 -0.1341114426740275 0.036170420160018348 0 -0.1341114426740275 0.036170420160018348 0 -0.1402718369900276 0.032178571574481313 0 -0.13307880950329209 0.028578248748984899 0 -0.1341114426740275 0.036170420160018348 0 -0.1402718369900276 0.032178571574481313 0 -0.1414911285024763 0.038300272661719481 0 -0.1341114426740275 0.036170420160018348 0 -0.14095447640870629 0.045880834913129317 0 -0.1414911285024763 0.038300272661719481 0 -0.13112251596765229 0.044014932433458727 0 -0.1341114426740275 0.036170420160018348 0 -0.14095447640870629 0.045880834913129317 0 -0.1536622492041797 0.032190563179138598 0 -0.15062911680356761 0.041710690672504477 0 -0.14205340519962201 0.021612078975691552 0 -0.14095447640870629 0.045880834913129317 0 -0.15062911680356761 0.041710690672504477 0 -0.14888026820259681 0.050102069134937033 0 -0.1402718369900276 0.032178571574481313 0 -0.15062911680356761 0.041710690672504477 0 -0.14205340519962201 0.021612078975691552 0 -0.14095447640870629 0.045880834913129317 0 -0.1414911285024763 0.038300272661719481 0 -0.15062911680356761 0.041710690672504477 0 -0.15062911680356761 0.041710690672504477 0 -0.14205340519962201 0.021612078975691552 0 -0.1402718369900276 0.032178571574481313 0 -0.1414911285024763 0.038300272661719481 0 -0.15062911680356761 0.041710690672504477 0 -0.1536622492041797 0.032190563179138598 0 -0.15062911680356761 0.041710690672504477 0 -0.15522429673148699 0.043735674751497207 0 -0.15062911680356761 0.041710690672504477 0 -0.15522429673148699 0.043735674751497207 0 -0.15926138055936551 0.053035502721156022 0 -0.15134275086396479 0.068792323345414408 0 -0.13490496171646599 0.055676732624700423 0 -0.15062911680356761 0.041710690672504477 0 -0.15920482840751601 0.061809302369316227 0 -0.15062911680356761 0.041710690672504477 0 -0.14888026820259681 0.050102069134937033 0 -0.15920482840751601 0.061809302369316227 0 -0.15134275086396479 0.068792323345414408 0 -0.13490496171646599 0.055676732624700423 0 -0.15169853714254161 0.061275490230451202 0 -0.13490496171646599 0.055676732624700423 0 -0.15169853714254161 0.061275490230451202 0 -0.14684133447853051 0.054624504533311073 0 -0.15169853714254161 0.061275490230451202 0 -0.14684133447853051 0.054624504533311073 0 -0.15920482840751601 0.061809302369316227 0 -0.14888026820259681 0.050102069134937033 0 -0.14684133447853051 0.054624504533311073 0 -0.15920482840751601 0.061809302369316227 0 -0.14095447640870629 0.045880834913129317 0 -0.14888026820259681 0.050102069134937033 0 -0.14684133447853051 0.054624504533311073 0 -0.13490496171646599 0.055676732624700423 0 -0.14095447640870629 0.045880834913129317 0 -0.14684133447853051 0.054624504533311073 0 -0.13109881243327709 0.0081326543678140201 0 -0.13810827408933521 0.012366005653673479 0 -0.11800293007651901 0.01038142059859295 0 -0.13810827408933521 0.012366005653673479 0 -0.11800293007651901 0.01038142059859295 0 -0.1222869215680117 0.017313718406983161 0 -0.13810827408933521 0.012366005653673479 0 -0.11800293007651901 0.01038142059859295 0 -0.1389813292728462 -0.0041314115048315574 0 -0.14036526582836251 0.0043384128231400447 0 -0.13332203699051789 0.0022690528673805161 0 -0.14036526582836251 0.0043384128231400447 0 -0.13524064820567219 0.0063507101131484063 0 -0.1370425091540235 0.0098682076184574696 0 -0.13524064820567219 0.0063507101131484063 0 -0.13332203699051789 0.0022690528673805161 0 -0.13109881243327709 0.0081326543678140201 0 -0.14036526582836251 0.0043384128231400447 0 -0.13524064820567219 0.0063507101131484063 0 -0.13332203699051789 0.0022690528673805161 0 -0.12596177720057869 0.0033279213254498699 0 -0.13109881243327709 0.0081326543678140201 0 -0.11800293007651901 0.01038142059859295 0 -0.12840034748032511 -0.005234898154034457 0 -0.13332203699051789 0.0022690528673805161 0 -0.12596177720057869 0.0033279213254498699 0 -0.13332203699051789 0.0022690528673805161 0 -0.12596177720057869 0.0033279213254498699 0 -0.13109881243327709 0.0081326543678140201 0 -0.13109881243327709 0.0081326543678140201 0 -0.1370425091540235 0.0098682076184574696 0 -0.13810827408933521 0.012366005653673479 0 -0.13524064820567219 0.0063507101131484063 0 -0.13109881243327709 0.0081326543678140201 0 -0.1370425091540235 0.0098682076184574696 0 -0.1370425091540235 0.0098682076184574696 0 -0.13810827408933521 0.012366005653673479 0 -0.14036526582836251 0.0043384128231400447 0 -0.1370425091540235 0.0098682076184574696 0 -0.14348125088913261 0.0094794459179628199 0 -0.1370425091540235 0.0098682076184574696 0 -0.13810827408933521 0.012366005653673479 0 -0.14348125088913261 0.0094794459179628199 0 -0.13810827408933521 0.012366005653673479 0 -0.14084422282113521 0.01877815822157728 0 -0.13810827408933521 0.012366005653673479 0 -0.14084422282113521 0.01877815822157728 0 -0.1222869215680117 0.017313718406983161 0 -0.14205340519962201 0.021612078975691552 0 -0.14084422282113521 0.01877815822157728 0 -0.1239437689107258 0.021544793938335308 0 -0.14084422282113521 0.01877815822157728 0 -0.1239437689107258 0.021544793938335308 0 -0.1222869215680117 0.017313718406983161 0 -0.14205340519962201 0.021612078975691552 0 -0.1239437689107258 0.021544793938335308 0 -0.13307880950329209 0.028578248748984899 0 -0.14205340519962201 0.021612078975691552 0 -0.1239437689107258 0.021544793938335308 0 -0.14084422282113521 0.01877815822157728 0 -0.1222869215680117 0.017313718406983161 0 -0.12501595260848131 0.034124805769654681 0 -0.13307880950329209 0.028578248748984899 0 -0.1239437689107258 0.021544793938335308 0 -0.1402718369900276 0.032178571574481313 0 -0.13307880950329209 0.028578248748984899 0 -0.14205340519962201 0.021612078975691552 0 -0.14084422282113521 0.01877815822157728 0 -0.16674217808204231 0.02170380831686114 0 -0.14084422282113521 0.01877815822157728 0 -0.1546913252437557 0.013793381206361619 0 -0.16674217808204231 0.02170380831686114 0 -0.1536622492041797 0.032190563179138598 0 -0.14205340519962201 0.021612078975691552 0 -0.16674217808204231 0.02170380831686114 0 -0.14205340519962201 0.021612078975691552 0 -0.16674217808204231 0.02170380831686114 0 -0.14205340519962201 0.021612078975691552 0 -0.14084422282113521 0.01877815822157728 0 -0.16674217808204231 0.02170380831686114 0 -0.14205340519962201 0.021612078975691552 0 -0.14084422282113521 0.01877815822157728 0 -0.13810827408933521 0.012366005653673479 0 -0.1546913252437557 0.013793381206361619 0 -0.13810827408933521 0.012366005653673479 0 -0.14084422282113521 0.01877815822157728 0 -0.1546913252437557 0.013793381206361619 0 -0.13810827408933521 0.012366005653673479 0 -0.14348125088913261 0.0094794459179628199 0 -0.1546913252437557 0.013793381206361619 0 -0.14348125088913261 0.0094794459179628199 0 -0.1546913252437557 0.013793381206361619 0 -0.14784648343027251 0.0068856204455260018 0 -0.15403128436997779 0.010050700196760109 0 -0.15558770271658481 0.0053752369048400651 0 -0.15677833531862839 0.0097720461505167062 0 -0.1546913252437557 0.013793381206361619 0 -0.15403128436997779 0.010050700196760109 0 -0.15677833531862839 0.0097720461505167062 0 -0.1546913252437557 0.013793381206361619 0 -0.15403128436997779 0.010050700196760109 0 -0.14784648343027251 0.0068856204455260018 0 -0.14889658068365019 -0.00069782564997776378 0 -0.15558770271658481 0.0053752369048400651 0 -0.16339151125689591 0.00023796401850834239 0 -0.15403128436997779 0.010050700196760109 0 -0.15558770271658481 0.0053752369048400651 0 -0.14784648343027251 0.0068856204455260018 0 -0.14889658068365019 -0.00069782564997776378 0 -0.15558770271658481 0.0053752369048400651 0 -0.14784648343027251 0.0068856204455260018 0 -0.14889658068365019 -0.00069782564997776378 0 -0.14036526582836251 0.0043384128231400447 0 -0.14784648343027251 0.0068856204455260018 0 -0.14036526582836251 0.0043384128231400447 0 -0.14348125088913261 0.0094794459179628199 0 -0.14784648343027251 0.0068856204455260018 0 -0.1792959876873628 -0.0023096233249810011 0 -0.16339151125689591 0.00023796401850834239 0 -0.1703765659623139 0.014751805087031011 0 -0.1546913252437557 0.013793381206361619 0 -0.16280302894419529 0.0098688662941050446 0 -0.1703765659623139 0.014751805087031011 0 -0.1546913252437557 0.013793381206361619 0 -0.1703765659623139 0.014751805087031011 0 -0.15558770271658481 0.0053752369048400651 0 -0.16339151125689591 0.00023796401850834239 0 -0.16280302894419529 0.0098688662941050446 0 -0.1546913252437557 0.013793381206361619 0 -0.16280302894419529 0.0098688662941050446 0 -0.15677833531862839 0.0097720461505167062 0 -0.15558770271658481 0.0053752369048400651 0 -0.16280302894419529 0.0098688662941050446 0 -0.15677833531862839 0.0097720461505167062 0 -0.16339151125689591 0.00023796401850834239 0 -0.16280302894419529 0.0098688662941050446 0 -0.1703765659623139 0.014751805087031011 0 -0.1546913252437557 0.013793381206361619 0 -0.1703765659623139 0.014751805087031011 0 -0.16674217808204231 0.02170380831686114 0 -0.1703765659623139 0.014751805087031011 0 -0.16674217808204231 0.02170380831686114 0 -0.1703765659623139 0.014751805087031011 0 -0.16674217808204231 0.02170380831686114 0 -0.174497951736165 0.015958006385972969 0 -0.16674217808204231 0.02170380831686114 0 -0.16654785593609131 0.03080895961617167 0 -0.17847006983516461 0.021747382446244169 0 -0.17847006983516461 0.021747382446244169 0 -0.18611820203556659 0.031841757130643557 0 -0.19456652535937469 0.021807187656793271 0 -0.17847006983516461 0.021747382446244169 0 -0.19456652535937469 0.021807187656793271 0 -0.18920963841776209 0.015902572659653461 0 -0.16654785593609131 0.03080895961617167 0 -0.17847006983516461 0.021747382446244169 0 -0.18611820203556659 0.031841757130643557 0 -0.17847006983516461 0.021747382446244169 0 -0.19456652535937469 0.021807187656793271 0 -0.17847006983516461 0.021747382446244169 0 -0.174497951736165 0.015958006385972969 0 -0.18920963841776209 0.015902572659653461 0 -0.16674217808204231 0.02170380831686114 0 -0.17847006983516461 0.021747382446244169 0 -0.16674217808204231 0.02170380831686114 0 -0.17847006983516461 0.021747382446244169 0 -0.174497951736165 0.015958006385972969 0 -0.1792959876873628 -0.0023096233249810011 0 -0.1703765659623139 0.014751805087031011 0 -0.1792959876873628 -0.0023096233249810011 0 -0.1703765659623139 0.014751805087031011 0 -0.18920963841776209 0.015902572659653461 0 -0.1703765659623139 0.014751805087031011 0 -0.174497951736165 0.015958006385972969 0 -0.18920963841776209 0.015902572659653461 0 -0.1703765659623139 0.014751805087031011 0 -0.18920963841776209 0.015902572659653461 0 -0.1703765659623139 0.014751805087031011 0 -0.174497951736165 0.015958006385972969 0 -0.15062911680356761 0.041710690672504477 0 -0.15920482840751601 0.061809302369316227 0 -0.15926138055936551 0.053035502721156022 0 -0.1690459567721927 0.052509510039591027 0 -0.16377219058183701 0.049051234173667198 0 -0.1690227479731479 0.043987971573577117 0 -0.16416245333938939 0.053295313115573402 0 -0.1690459567721927 0.052509510039591027 0 -0.16377219058183701 0.049051234173667198 0 -0.1690459567721927 0.052509510039591027 0 -0.16457028544416241 0.058585005527879382 0 -0.17973428969149549 0.057955203761301012 0 -0.16416245333938939 0.053295313115573402 0 -0.1690459567721927 0.052509510039591027 0 -0.16457028544416241 0.058585005527879382 0 -0.16416245333938939 0.053295313115573402 0 -0.16457028544416241 0.058585005527879382 0 -0.15926138055936551 0.053035502721156022 0 -0.16457028544416241 0.058585005527879382 0 -0.15920482840751601 0.061809302369316227 0 -0.15926138055936551 0.053035502721156022 0 -0.1641208110248884 0.065372978028901546 0 -0.16457028544416241 0.058585005527879382 0 -0.15920482840751601 0.061809302369316227 0 -0.15522429673148699 0.043735674751497207 0 -0.15926138055936551 0.053035502721156022 0 -0.160266033533178 0.047126794336410413 0 -0.16416245333938939 0.053295313115573402 0 -0.15926138055936551 0.053035502721156022 0 -0.16377219058183701 0.049051234173667198 0 -0.15926138055936551 0.053035502721156022 0 -0.16377219058183701 0.049051234173667198 0 -0.160266033533178 0.047126794336410413 0 -0.1536622492041797 0.032190563179138598 0 -0.15522429673148699 0.043735674751497207 0 -0.16674217808204231 0.02170380831686114 0 -0.15522429673148699 0.043735674751497207 0 -0.160266033533178 0.047126794336410413 0 -0.16280626626002259 0.042684765699321253 0 -0.15522429673148699 0.043735674751497207 0 -0.16674217808204231 0.02170380831686114 0 -0.15522429673148699 0.043735674751497207 0 -0.16674217808204231 0.02170380831686114 0 -0.16654785593609131 0.03080895961617167 0 -0.15522429673148699 0.043735674751497207 0 -0.16654785593609131 0.03080895961617167 0 -0.16280626626002259 0.042684765699321253 0 -0.16377219058183701 0.049051234173667198 0 -0.160266033533178 0.047126794336410413 0 -0.16280626626002259 0.042684765699321253 0 -0.16654785593609131 0.03080895961617167 0 -0.16280626626002259 0.042684765699321253 0 -0.1690227479731479 0.043987971573577117 0 -0.16377219058183701 0.049051234173667198 0 -0.16280626626002259 0.042684765699321253 0 -0.1690227479731479 0.043987971573577117 0 -0.16654785593609131 0.03080895961617167 0 -0.18611820203556659 0.031841757130643557 0 -0.18489640432423801 0.044447213757694531 0 -0.16654785593609131 0.03080895961617167 0 -0.18489640432423801 0.044447213757694531 0 -0.16654785593609131 0.03080895961617167 0 -0.1690227479731479 0.043987971573577117 0 -0.18489640432423801 0.044447213757694531 0 -0.1690459567721927 0.052509510039591027 0 -0.1690227479731479 0.043987971573577117 0 -0.18489640432423801 0.044447213757694531 0 -0.1690459567721927 0.052509510039591027 0 -0.18489640432423801 0.044447213757694531 0 -0.17973428969149549 0.057955203761301012 0 -0.18489640432423801 0.044447213757694531 0 -0.17973428969149549 0.057955203761301012 0 -0.19149442394998981 0.060501872984031951 0 -0.18489640432423801 0.044447213757694531 0 -0.19149442394998981 0.060501872984031951 0 -0.20324495271238471 0.058085467899217369 0 -0.18489640432423801 0.044447213757694531 0 -0.2023855477792991 0.039725016821825117 0 -0.20324495271238471 0.058085467899217369 0 -0.18489640432423801 0.044447213757694531 0 -0.20324495271238471 0.058085467899217369 0 -0.18611820203556659 0.031841757130643557 0 -0.18489640432423801 0.044447213757694531 0 -0.2023855477792991 0.039725016821825117 0 -0.21203991199206471 0.02439652914886584 0 -0.22499314887784511 0.048192696193143342 0 -0.2023855477792991 0.039725016821825117 0 -0.21203991199206471 0.02439652914886584 0 -0.22499314887784511 0.048192696193143342 0 -0.20324495271238471 0.058085467899217369 0 -0.22499314887784511 0.048192696193143342 0 -0.22159350110053139 0.071723722040740248 0 -0.2023855477792991 0.039725016821825117 0 -0.20324495271238471 0.058085467899217369 0 -0.22499314887784511 0.048192696193143342 0 -0.1792959876873628 -0.0023096233249810011 0 -0.19812906014281079 -0.0011588557523601951 0 -0.18920963841776209 0.015902572659653461 0 -0.19812906014281079 -0.0011588557523601951 0 -0.18920963841776209 0.015902572659653461 0 -0.2080427108732103 0.017053340232273971 0 -0.19812906014281079 -0.0011588557523601951 0 -0.2080427108732103 0.017053340232273971 0 -0.18611820203556659 0.031841757130643557 0 -0.2023855477792991 0.039725016821825117 0 -0.19456652535937469 0.021807187656793271 0 -0.18920963841776209 0.015902572659653461 0 -0.2080427108732103 0.017053340232273971 0 -0.19456652535937469 0.021807187656793271 0 -0.21066298088358471 0.021866992867342401 0 -0.19456652535937469 0.021807187656793271 0 -0.18920963841776209 0.015902572659653461 0 -0.2080427108732103 0.017053340232273971 0 -0.2023855477792991 0.039725016821825117 0 -0.19456652535937469 0.021807187656793271 0 -0.21203991199206471 0.02439652914886584 0 -0.19456652535937469 0.021807187656793271 0 -0.21203991199206471 0.02439652914886584 0 -0.21066298088358471 0.021866992867342401 0 -0.21203991199206471 0.02439652914886584 0 -0.21066298088358471 0.021866992867342401 0 -0.2317240243499841 0.0219452436435464 0 -0.19456652535937469 0.021807187656793271 0 -0.21203991199206471 0.02439652914886584 0 -0.2080427108732103 0.017053340232273971 0 -0.21066298088358471 0.021866992867342401 0 -0.2317240243499841 0.0219452436435464 0 -0.19456652535937469 0.021807187656793271 0 -0.2080427108732103 0.017053340232273971 0 -0.21066298088358471 0.021866992867342401 0 -0.21203991199206471 0.02439652914886584 0 -0.21066298088358471 0.021866992867342401 0 -0.2080427108732103 0.017053340232273971 0 -0.21066298088358471 0.021866992867342401 0 -0.19812906014281079 -0.0011588557523601951 0 -0.2080427108732103 0.017053340232273971 0 -0.21629432593252851 0.0012050999811342169 0 -0.2080427108732103 0.017053340232273971 0 -0.21629432593252851 0.0012050999811342169 0 -0.2268867057034871 0.0038570250960634038 0 -0.2080427108732103 0.017053340232273971 0 -0.2268867057034871 0.0038570250960634038 0 -0.2338298070149068 0.01862902333454939 0 -0.2268867057034871 0.0038570250960634038 0 -0.2338298070149068 0.01862902333454939 0 -0.2418181857719659 0.004258266697818266 0 -0.2080427108732103 0.017053340232273971 0 -0.2338298070149068 0.01862902333454939 0 -0.21203991199206471 0.02439652914886584 0 -0.2373718629868308 0.026395586938146011 0 -0.23153971322327971 0.032980178395243732 0 -0.21203991199206471 0.02439652914886584 0 -0.2373718629868308 0.026395586938146011 0 -0.21066298088358471 0.021866992867342401 0 -0.2317240243499841 0.0219452436435464 0 -0.2080427108732103 0.017053340232273971 0 -0.2317240243499841 0.0219452436435464 0 -0.2338298070149068 0.01862902333454939 0 -0.21203991199206471 0.02439652914886584 0 -0.2317240243499841 0.0219452436435464 0 -0.2373718629868308 0.026395586938146011 0 -0.25961690315660341 0.020204706436823341 0 -0.2338298070149068 0.01862902333454939 0 -0.25278506781638349 0.022023494419750121 0 -0.2317240243499841 0.0219452436435464 0 -0.25278506781638349 0.022023494419750121 0 -0.2317240243499841 0.0219452436435464 0 -0.2373718629868308 0.026395586938146011 0 -0.25961690315660341 0.020204706436823341 0 -0.2338298070149068 0.01862902333454939 0 -0.2469926088680314 0.01124001012970397 0 -0.25278506781638349 0.022023494419750121 0 -0.2317240243499841 0.0219452436435464 0 -0.2338298070149068 0.01862902333454939 0 -0.25961690315660341 0.020204706436823341 0 -0.25278506781638349 0.022023494419750121 0 -0.2338298070149068 0.01862902333454939 0 -0.2338298070149068 0.01862902333454939 0 -0.2469926088680314 0.01124001012970397 0 -0.2418181857719659 0.004258266697818266 0 -0.25270553952864971 0.0018680440496249011 0 -0.2469926088680314 0.01124001012970397 0 -0.2418181857719659 0.004258266697818266 0 -0.22797993753131079 0.049548886569959608 0 -0.22499314887784511 0.048192696193143342 0 -0.23794638576362989 0.071988863237418432 0 -0.22499314887784511 0.048192696193143342 0 -0.23794638576362989 0.071988863237418432 0 -0.22797993753131079 0.049548886569959608 0 -0.23400939443817051 0.048017472023962122 0 -0.23794638576362989 0.071988863237418432 0 -0.22797993753131079 0.049548886569959608 0 -0.23400939443817051 0.048017472023962122 0 -0.22499314887784511 0.048192696193143342 0 -0.22797993753131079 0.049548886569959608 0 -0.23400939443817051 0.048017472023962122 0 -0.21203991199206471 0.02439652914886584 0 -0.22499314887784511 0.048192696193143342 0 -0.23153971322327971 0.032980178395243732 0 -0.23400939443817051 0.048017472023962122 0 -0.23153971322327971 0.032980178395243732 0 -0.23400939443817051 0.048017472023962122 0 -0.22499314887784511 0.048192696193143342 0 -0.23153971322327971 0.032980178395243732 0 -0.25047808913765168 0.043834607960738202 0 -0.23400939443817051 0.048017472023962122 0 -0.2412040688190005 0.036839839214625213 0 -0.23400939443817051 0.048017472023962122 0 -0.23153971322327971 0.032980178395243732 0 -0.2412040688190005 0.036839839214625213 0 -0.25047808913765168 0.043834607960738202 0 -0.23400939443817051 0.048017472023962122 0 -0.2373718629868308 0.026395586938146011 0 -0.23153971322327971 0.032980178395243732 0 -0.2412040688190005 0.036839839214625213 0 -0.25174092375244062 0.035023284547698721 0 -0.2373718629868308 0.026395586938146011 0 -0.2412040688190005 0.036839839214625213 0 -0.25047808913765168 0.043834607960738202 0 -0.25174092375244062 0.035023284547698721 0 -0.2412040688190005 0.036839839214625213 0 -0.23400939443817051 0.048017472023962122 0 -0.24696380288209371 0.058670431234190273 0 -0.23794638576362989 0.071988863237418432 0 -0.25047808913765168 0.043834607960738202 0 -0.23400939443817051 0.048017472023962122 0 -0.24696380288209371 0.058670431234190273 0 -0.23400939443817051 0.048017472023962122 0 -0.23794638576362989 0.071988863237418432 0 -0.25905735764668802 0.075267231092592313 0 -0.24696380288209371 0.058670431234190273 0 -0.23794638576362989 0.071988863237418432 0 -0.23794638576362989 0.071988863237418432 0 -0.24993185855770109 0.094007167637103553 0 -0.25905735764668802 0.075267231092592313 0 -0.23794638576362989 0.071988863237418432 0 -0.24993185855770109 0.094007167637103553 0 -0.23794638576362989 0.071988863237418432 0 -0.24013747541681221 0.085329879998233493 0 -0.24993185855770109 0.094007167637103553 0 -0.24013747541681221 0.085329879998233493 0 -0.24993185855770109 0.094007167637103553 0 -0.2424498302394166 0.099409251146059932 0 -0.23794638576362989 0.071988863237418432 0 -0.24013747541681221 0.085329879998233493 0 -0.24013747541681221 0.085329879998233493 0 -0.2424498302394166 0.099409251146059932 0 -0.24013747541681221 0.085329879998233493 0 -0.23353775777911029 0.090363716919964907 0 -0.2424498302394166 0.099409251146059932 0 -0.22646748895276389 0.086447884739385805 0 -0.21183711997585189 0.085032698135808146 0 -0.2354705372416965 0.098256544439772497 0 -0.21183711997585189 0.085032698135808146 0 -0.22090091872752199 0.097825705829343967 0 -0.2354705372416965 0.098256544439772497 0 -0.24013747541681221 0.085329879998233493 0 -0.22646748895276389 0.086447884739385805 0 -0.22159350110053139 0.071723722040740248 0 -0.21183711997585189 0.085032698135808146 0 -0.2354705372416965 0.098256544439772497 0 -0.24013747541681221 0.085329879998233493 0 -0.22159350110053139 0.071723722040740248 0 -0.24013747541681221 0.085329879998233493 0 -0.23353775777911029 0.090363716919964907 0 -0.22646748895276389 0.086447884739385805 0 -0.23353775777911029 0.090363716919964907 0 -0.22646748895276389 0.086447884739385805 0 -0.2354705372416965 0.098256544439772497 0 -0.22646748895276389 0.086447884739385805 0 -0.21798413606948319 0.07971755163531237 0 -0.21183711997585189 0.085032698135808146 0 -0.22646748895276389 0.086447884739385805 0 -0.22159350110053139 0.071723722040740248 0 -0.21798413606948319 0.07971755163531237 0 -0.22499314887784511 0.048192696193143342 0 -0.23794638576362989 0.071988863237418432 0 -0.22159350110053139 0.071723722040740248 0 -0.23794638576362989 0.071988863237418432 0 -0.24013747541681221 0.085329879998233493 0 -0.22159350110053139 0.071723722040740248 0 -0.20324495271238471 0.058085467899217369 0 -0.22159350110053139 0.071723722040740248 0 -0.21203843424878571 0.075665901625315293 0 -0.20324495271238471 0.058085467899217369 0 -0.21203843424878571 0.075665901625315293 0 -0.2013927703118237 0.070212627670103042 0 -0.20324495271238471 0.058085467899217369 0 -0.22159350110053139 0.071723722040740248 0 -0.21203843424878571 0.075665901625315293 0 -0.21183711997585189 0.085032698135808146 0 -0.2013927703118237 0.070212627670103042 0 -0.22159350110053139 0.071723722040740248 0 -0.21203843424878571 0.075665901625315293 0 -0.21798413606948319 0.07971755163531237 0 -0.21203843424878571 0.075665901625315293 0 -0.21798413606948319 0.07971755163531237 0 -0.21183711997585189 0.085032698135808146 0 -0.21183711997585189 0.085032698135808146 0 -0.21364905273465351 0.094669414494786261 0 -0.22090091872752199 0.097825705829343967 0 -0.21183711997585189 0.085032698135808146 0 -0.20728608779977489 0.090373269210392043 0 -0.21364905273465351 0.094669414494786261 0 -0.20728608779977489 0.090373269210392043 0 -0.2062441166489625 0.083434401190949151 0 -0.19684277561251601 0.089697178229915839 0 -0.20728608779977489 0.090373269210392043 0 -0.19684277561251601 0.089697178229915839 0 -0.20548633053437859 0.097848051715994422 0 -0.21183711997585189 0.085032698135808146 0 -0.20728608779977489 0.090373269210392043 0 -0.2062441166489625 0.083434401190949151 0 -0.21183711997585189 0.085032698135808146 0 -0.18820370271000719 0.071808851831843781 0 -0.2062441166489625 0.083434401190949151 0 -0.18762827234389839 0.083162614814046951 0 -0.2062441166489625 0.083434401190949151 0 -0.19684277561251601 0.089697178229915839 0 -0.18762827234389839 0.083162614814046951 0 -0.2062441166489625 0.083434401190949151 0 -0.18762827234389839 0.083162614814046951 0 -0.18820370271000719 0.071808851831843781 0 -0.21183711997585189 0.085032698135808146 0 -0.2062441166489625 0.083434401190949151 0 -0.18820370271000719 0.071808851831843781 0 -0.19684277561251601 0.089697178229915839 0 -0.18762827234389839 0.083162614814046951 0 -0.18852137663410851 0.098456874629307314 0 -0.21183711997585189 0.085032698135808146 0 -0.18820370271000719 0.071808851831843781 0 -0.2013927703118237 0.070212627670103042 0 -0.19149442394998981 0.060501872984031951 0 -0.18820370271000719 0.071808851831843781 0 -0.2013927703118237 0.070212627670103042 0 -0.19149442394998981 0.060501872984031951 0 -0.20324495271238471 0.058085467899217369 0 -0.2013927703118237 0.070212627670103042 0 -0.18702230323349259 0.115116545014083 0 -0.20803032522938161 0.11402292082147331 0 -0.19812225000728401 0.13588103396582199 0 -0.18702230323349259 0.115116545014083 0 -0.18852137663410851 0.098456874629307314 0 -0.20803032522938161 0.11402292082147331 0 -0.19684277561251601 0.089697178229915839 0 -0.18852137663410851 0.098456874629307314 0 -0.20548633053437859 0.097848051715994422 0 -0.18852137663410851 0.098456874629307314 0 -0.20803032522938161 0.11402292082147331 0 -0.18852137663410851 0.098456874629307314 0 -0.20548633053437859 0.097848051715994422 0 -0.20803032522938161 0.11402292082147331 0 -0.20548633053437859 0.097848051715994422 0 -0.21676422423494099 0.1017974510421176 0 -0.20803032522938161 0.11402292082147331 0 -0.21676422423494099 0.1017974510421176 0 -0.20803032522938161 0.11402292082147331 0 -0.22678365945046711 0.10937242103423531 0 -0.20728608779977489 0.090373269210392043 0 -0.20548633053437859 0.097848051715994422 0 -0.21364905273465351 0.094669414494786261 0 -0.20548633053437859 0.097848051715994422 0 -0.21364905273465351 0.094669414494786261 0 -0.21676422423494099 0.1017974510421176 0 -0.21364905273465351 0.094669414494786261 0 -0.21676422423494099 0.1017974510421176 0 -0.22090091872752199 0.097825705829343967 0 -0.20803032522938161 0.11402292082147331 0 -0.22753927382465461 0.12958896701363909 0 -0.20803032522938161 0.11402292082147331 0 -0.22678365945046711 0.10937242103423531 0 -0.22753927382465461 0.12958896701363909 0 -0.22678365945046711 0.10937242103423531 0 -0.2350780545366615 0.1173744633158746 0 -0.22753927382465461 0.12958896701363909 0 -0.22678365945046711 0.10937242103423531 0 -0.2350780545366615 0.1173744633158746 0 -0.23734707123668861 0.1102484637981288 0 -0.21676422423494099 0.1017974510421176 0 -0.22090091872752199 0.097825705829343967 0 -0.22678365945046711 0.10937242103423531 0 -0.22090091872752199 0.097825705829343967 0 -0.22678365945046711 0.10937242103423531 0 -0.2354705372416965 0.098256544439772497 0 -0.22678365945046711 0.10937242103423531 0 -0.2354705372416965 0.098256544439772497 0 -0.23734707123668861 0.1102484637981288 0 -0.23353775777911029 0.090363716919964907 0 -0.2354705372416965 0.098256544439772497 0 -0.2424498302394166 0.099409251146059932 0 -0.2354705372416965 0.098256544439772497 0 -0.2424498302394166 0.099409251146059932 0 -0.23734707123668861 0.1102484637981288 0 -0.2350780545366615 0.1173744633158746 0 -0.23734707123668861 0.1102484637981288 0 -0.24695327471520109 0.12682963905470179 0 -0.2350780545366615 0.1173744633158746 0 -0.24695327471520109 0.12682963905470179 0 -0.22753927382465461 0.12958896701363909 0 -0.2424498302394166 0.099409251146059932 0 -0.24695327471520109 0.12682963905470179 0 -0.2424498302394166 0.099409251146059932 0 -0.23734707123668861 0.1102484637981288 0 -0.24695327471520109 0.12682963905470179 0 -0.24695327471520109 0.12682963905470179 0 -0.22753927382465461 0.12958896701363909 0 -0.2401526395274321 0.14102527226065861 0 -0.25145671919098561 0.1542500269633435 0 -0.24695327471520109 0.12682963905470179 0 -0.22753927382465461 0.12958896701363909 0 -0.23066097340193339 0.1423980986316731 0 -0.2401526395274321 0.14102527226065861 0 -0.22753927382465461 0.12958896701363909 0 -0.23066097340193339 0.1423980986316731 0 -0.21635266264154321 0.1416997144697987 0 -0.22958645421770049 0.15153217266842911 0 -0.22201223222510591 0.16119842110069529 0 -0.21635266264154321 0.1416997144697987 0 -0.23066097340193339 0.1423980986316731 0 -0.22958645421770049 0.15153217266842911 0 -0.21635266264154321 0.1416997144697987 0 -0.23066097340193339 0.1423980986316731 0 -0.22958645421770049 0.15153217266842911 0 -0.23948433398949501 0.15222858802678119 0 -0.22958645421770049 0.15153217266842911 0 -0.23948433398949501 0.15222858802678119 0 -0.23436704056762181 0.16071961620052899 0 -0.25145671919098561 0.1542500269633435 0 -0.24695327471520109 0.12682963905470179 0 -0.2401526395274321 0.14102527226065861 0 -0.23066097340193339 0.1423980986316731 0 -0.23948433398949501 0.15222858802678119 0 -0.2401526395274321 0.14102527226065861 0 -0.25145671919098561 0.1542500269633435 0 -0.23948433398949501 0.15222858802678119 0 -0.2401526395274321 0.14102527226065861 0 -0.25651049738666898 0.17421130409669769 0 -0.24533755426446111 0.16301285454938561 0 -0.23587358550719101 0.17562755498664301 0 -0.25145671919098561 0.1542500269633435 0 -0.23948433398949501 0.15222858802678119 0 -0.24533755426446111 0.16301285454938561 0 -0.24533755426446111 0.16301285454938561 0 -0.23587358550719101 0.17562755498664301 0 -0.23436704056762181 0.16071961620052899 0 -0.23948433398949501 0.15222858802678119 0 -0.24533755426446111 0.16301285454938561 0 -0.23436704056762181 0.16071961620052899 0 -0.25705217047032991 0.1942822675306711 0 -0.25651049738666898 0.17421130409669769 0 -0.23587358550719101 0.17562755498664301 0 -0.23587358550719101 0.17562755498664301 0 -0.21463336418987 0.17801808422142121 0 -0.21990893146067969 0.1906197055929939 0 -0.23587358550719101 0.17562755498664301 0 -0.21463336418987 0.17801808422142121 0 -0.23587358550719101 0.17562755498664301 0 -0.22201223222510591 0.16119842110069529 0 -0.21463336418987 0.17801808422142121 0 -0.22958645421770049 0.15153217266842911 0 -0.23436704056762181 0.16071961620052899 0 -0.22201223222510591 0.16119842110069529 0 -0.23587358550719101 0.17562755498664301 0 -0.23436704056762181 0.16071961620052899 0 -0.22201223222510591 0.16119842110069529 0 -0.22201223222510591 0.16119842110069529 0 -0.20908532573140989 0.1596191345676026 0 -0.21463336418987 0.17801808422142121 0 -0.21463336418987 0.17801808422142121 0 -0.19339314287254919 0.18040861345619991 0 -0.21463336418987 0.17801808422142121 0 -0.19339314287254919 0.18040861345619991 0 -0.20224992677771161 0.1947273357926379 0 -0.20908532573140989 0.1596191345676026 0 -0.21463336418987 0.17801808422142121 0 -0.19339314287254919 0.18040861345619991 0 -0.20908532573140989 0.1596191345676026 0 -0.19339314287254919 0.18040861345619991 0 -0.20908532573140989 0.1596191345676026 0 -0.19339314287254919 0.18040861345619991 0 -0.1879964084306445 0.15341961106771579 0 -0.20908532573140989 0.1596191345676026 0 -0.1879964084306445 0.15341961106771579 0 -0.19812225000728401 0.13588103396582199 0 -0.1879964084306445 0.15341961106771579 0 -0.19812225000728401 0.13588103396582199 0 -0.17885324051130461 0.13058228394219901 0 -0.18702230323349259 0.115116545014083 0 -0.19812225000728401 0.13588103396582199 0 -0.17885324051130461 0.13058228394219901 0 -0.20803032522938161 0.11402292082147331 0 -0.19812225000728401 0.13588103396582199 0 -0.21635266264154321 0.1416997144697987 0 -0.20803032522938161 0.11402292082147331 0 -0.22753927382465461 0.12958896701363909 0 -0.21635266264154321 0.1416997144697987 0 -0.22201223222510591 0.16119842110069529 0 -0.20908532573140989 0.1596191345676026 0 -0.21635266264154321 0.1416997144697987 0 -0.20908532573140989 0.1596191345676026 0 -0.19812225000728401 0.13588103396582199 0 -0.21635266264154321 0.1416997144697987 0 -0.2229876842008939 0.24991080519960601 0 -0.23512752351027549 0.24223055166604651 0 -0.21430657745032181 0.23618137489376489 0 -0.23512752351027549 0.24223055166604651 0 -0.21430657745032181 0.23618137489376489 0 -0.25208198337917659 0.2279801846289822 0 -0.25594846957022921 0.24827972843832841 0 -0.23512752351027549 0.24223055166604651 0 -0.25594846957022921 0.24827972843832841 0 -0.23512752351027549 0.24223055166604651 0 -0.25208198337917659 0.2279801846289822 0 -0.22876752809315559 0.22021864499573779 0 -0.2474153432728794 0.21138255342884979 0 -0.25208198337917659 0.2279801846289822 0 -0.23512752351027549 0.24223055166604651 0 -0.22876752809315559 0.22021864499573779 0 -0.23512752351027549 0.24223055166604651 0 -0.22876752809315559 0.22021864499573779 0 -0.21430657745032181 0.23618137489376489 0 -0.22876752809315559 0.22021864499573779 0 -0.23313165883788831 0.19894357926003459 0 -0.21365612199073791 0.20578197370423279 0 -0.22876752809315559 0.22021864499573779 0 -0.2474153432728794 0.21138255342884979 0 -0.23313165883788831 0.19894357926003459 0 -0.25705217047032991 0.1942822675306711 0 -0.2474153432728794 0.21138255342884979 0 -0.23313165883788831 0.19894357926003459 0 -0.25705217047032991 0.1942822675306711 0 -0.23587358550719101 0.17562755498664301 0 -0.23313165883788831 0.19894357926003459 0 -0.23587358550719101 0.17562755498664301 0 -0.21990893146067969 0.1906197055929939 0 -0.23313165883788831 0.19894357926003459 0 -0.21990893146067969 0.1906197055929939 0 -0.23313165883788831 0.19894357926003459 0 -0.21365612199073791 0.20578197370423279 0 -0.21990893146067969 0.1906197055929939 0 -0.20224992677771161 0.1947273357926379 0 -0.21365612199073791 0.20578197370423279 0 -0.21463336418987 0.17801808422142121 0 -0.21990893146067969 0.1906197055929939 0 -0.20224992677771161 0.1947273357926379 0 -0.20224992677771161 0.1947273357926379 0 -0.1945648636509919 0.21030804549042759 0 -0.1780106257123022 0.20078783785300899 0 -0.19339314287254919 0.18040861345619991 0 -0.20224992677771161 0.1947273357926379 0 -0.1780106257123022 0.20078783785300899 0 -0.1945648636509919 0.21030804549042759 0 -0.18903506702654391 0.2213962281981029 0 -0.1794357280801285 0.21510722488518719 0 -0.1945648636509919 0.21030804549042759 0 -0.1972445175100481 0.22078228861890861 0 -0.18903506702654391 0.2213962281981029 0 -0.1945648636509919 0.21030804549042759 0 -0.20850263128272339 0.2199954433709953 0 -0.1972445175100481 0.22078228861890861 0 -0.20224992677771161 0.1947273357926379 0 -0.1945648636509919 0.21030804549042759 0 -0.21365612199073791 0.20578197370423279 0 -0.22876752809315559 0.22021864499573779 0 -0.21365612199073791 0.20578197370423279 0 -0.20850263128272339 0.2199954433709953 0 -0.1945648636509919 0.21030804549042759 0 -0.21365612199073791 0.20578197370423279 0 -0.20850263128272339 0.2199954433709953 0 -0.19348563139036751 0.230132198121485 0 -0.21430657745032181 0.23618137489376489 0 -0.20850263128272339 0.2199954433709953 0 -0.20158863165992591 0.22719654676658299 0 -0.21430657745032181 0.23618137489376489 0 -0.22876752809315559 0.22021864499573779 0 -0.20850263128272339 0.2199954433709953 0 -0.21430657745032181 0.23618137489376489 0 -0.19348563139036751 0.230132198121485 0 -0.20158863165992591 0.22719654676658299 0 -0.21430657745032181 0.23618137489376489 0 -0.1972445175100481 0.22078228861890861 0 -0.19348563139036751 0.230132198121485 0 -0.20158863165992591 0.22719654676658299 0 -0.20850263128272339 0.2199954433709953 0 -0.1972445175100481 0.22078228861890861 0 -0.20158863165992591 0.22719654676658299 0 -0.1972445175100481 0.22078228861890861 0 -0.18903506702654391 0.2213962281981029 0 -0.19348563139036751 0.230132198121485 0 -0.20853576436574031 0.25513691824332863 0 -0.18309065725424201 0.24417946049137459 0 -0.19348563139036751 0.230132198121485 0 -0.19985465761516821 0.24140748793748801 0 -0.18309065725424201 0.24417946049137459 0 -0.20853576436574031 0.25513691824332863 0 -0.19985465761516821 0.24140748793748801 0 -0.18309065725424201 0.24417946049137459 0 -0.19348563139036751 0.230132198121485 0 -0.19985465761516821 0.24140748793748801 0 -0.21430657745032181 0.23618137489376489 0 -0.19348563139036751 0.230132198121485 0 -0.18309065725424201 0.24417946049137459 0 -0.20853576436574031 0.25513691824332863 0 -0.19985465761516821 0.24140748793748801 0 -0.21430657745032181 0.23618137489376489 0 -0.20853576436574031 0.25513691824332863 0 -0.2229876842008939 0.24991080519960601 0 -0.21430657745032181 0.23618137489376489 0 -0.15789538802104619 0.24839852701308851 0 -0.16387291900983919 0.2327938317328577 0 -0.15235022461674899 0.23478351402165309 0 -0.15789538802104619 0.24839852701308851 0 -0.17315761247399131 0.23990198120818709 0 -0.16387291900983919 0.2327938317328577 0 -0.16742591043475999 0.26534803731031048 0 -0.18309065725424201 0.24417946049137459 0 -0.17315761247399131 0.23990198120818709 0 -0.19348563139036751 0.230132198121485 0 -0.18309065725424201 0.24417946049137459 0 -0.18127491221924891 0.2347240723076939 0 -0.18309065725424201 0.24417946049137459 0 -0.17315761247399131 0.23990198120818709 0 -0.18309065725424201 0.24417946049137459 0 -0.18127491221924891 0.2347240723076939 0 -0.17315761247399131 0.23990198120818709 0 -0.17805686997122119 0.22564963018566381 0 -0.16262810855207699 0.22116706224983451 0 -0.1794357280801285 0.21510722488518719 0 -0.18127491221924891 0.2347240723076939 0 -0.17315761247399131 0.23990198120818709 0 -0.17805686997122119 0.22564963018566381 0 -0.19348563139036751 0.230132198121485 0 -0.18127491221924891 0.2347240723076939 0 -0.17805686997122119 0.22564963018566381 0 -0.19348563139036751 0.230132198121485 0 -0.17805686997122119 0.22564963018566381 0 -0.18903506702654391 0.2213962281981029 0 -0.17805686997122119 0.22564963018566381 0 -0.1794357280801285 0.21510722488518719 0 -0.18903506702654391 0.2213962281981029 0 -0.19348563139036751 0.230132198121485 0 -0.17805686997122119 0.22564963018566381 0 -0.17805686997122119 0.22564963018566381 0 -0.16387291900983919 0.2327938317328577 0 -0.16262810855207699 0.22116706224983451 0 -0.17805686997122119 0.22564963018566381 0 -0.16262810855207699 0.22116706224983451 0 -0.17315761247399131 0.23990198120818709 0 -0.17805686997122119 0.22564963018566381 0 -0.16387291900983919 0.2327938317328577 0 -0.16387291900983919 0.2327938317328577 0 -0.16262810855207699 0.22116706224983451 0 -0.15235022461674899 0.23478351402165309 0 -0.16262810855207699 0.22116706224983451 0 -0.15235022461674899 0.23478351402165309 0 -0.16262810855207699 0.22116706224983451 0 -0.1780106257123022 0.20078783785300899 0 -0.16262810855207699 0.22116706224983451 0 -0.1578274649090439 0.20942546871088541 0 -0.1780106257123022 0.20078783785300899 0 -0.1945648636509919 0.21030804549042759 0 -0.1794357280801285 0.21510722488518719 0 -0.1780106257123022 0.20078783785300899 0 -0.16262810855207699 0.22116706224983451 0 -0.1794357280801285 0.21510722488518719 0 -0.1780106257123022 0.20078783785300899 0 -0.19339314287254919 0.18040861345619991 0 -0.1780106257123022 0.20078783785300899 0 -0.19339314287254919 0.18040861345619991 0 -0.1780106257123022 0.20078783785300899 0 -0.1729711837658133 0.18270704950103869 0 -0.1578274649090439 0.20942546871088541 0 -0.1780106257123022 0.20078783785300899 0 -0.16374995698592609 0.19536493342312461 0 -0.16374995698592609 0.19536493342312461 0 -0.1729711837658133 0.18270704950103869 0 -0.1525492246590775 0.18500548554587801 0 -0.1780106257123022 0.20078783785300899 0 -0.16374995698592609 0.19536493342312461 0 -0.1729711837658133 0.18270704950103869 0 -0.1578274649090439 0.20942546871088541 0 -0.16374995698592609 0.19536493342312461 0 -0.1537139327259896 0.1969286024197881 0 -0.16374995698592609 0.19536493342312461 0 -0.1537139327259896 0.1969286024197881 0 -0.1525492246590775 0.18500548554587801 0 -0.14072908434991091 0.19791852199926441 0 -0.1525492246590775 0.18500548554587801 0 -0.13212726555234169 0.18730392159071729 0 -0.1578274649090439 0.20942546871088541 0 -0.1537139327259896 0.1969286024197881 0 -0.14072908434991091 0.19791852199926441 0 -0.1537139327259896 0.1969286024197881 0 -0.14072908434991091 0.19791852199926441 0 -0.1525492246590775 0.18500548554587801 0 -0.14072908434991091 0.19791852199926441 0 -0.13212726555234169 0.18730392159071729 0 -0.1236307037907776 0.18641157528764349 0 -0.14072908434991091 0.19791852199926441 0 -0.1236307037907776 0.18641157528764349 0 -0.14072908434991091 0.19791852199926441 0 -0.12869720953577279 0.20058987215259139 0 -0.1236307037907776 0.18641157528764349 0 -0.12869720953577279 0.20058987215259139 0 -0.13954606302200129 0.21446096093844319 0 -0.1164640174919282 0.20775485962704279 0 -0.13954606302200129 0.21446096093844319 0 -0.1245314277594918 0.22646505888655741 0 -0.1164640174919282 0.20775485962704279 0 -0.14072908434991091 0.19791852199926441 0 -0.12869720953577279 0.20058987215259139 0 -0.13954606302200129 0.21446096093844319 0 -0.13954606302200129 0.21446096093844319 0 -0.1164640174919282 0.20775485962704279 0 -0.1578274649090439 0.20942546871088541 0 -0.14072908434991091 0.19791852199926441 0 -0.13954606302200129 0.21446096093844319 0 -0.1578274649090439 0.20942546871088541 0 -0.14072908434991091 0.19791852199926441 0 -0.16262810855207699 0.22116706224983451 0 -0.13954606302200129 0.21446096093844319 0 -0.16262810855207699 0.22116706224983451 0 -0.1578274649090439 0.20942546871088541 0 -0.13954606302200129 0.21446096093844319 0 -0.13954606302200129 0.21446096093844319 0 -0.13758441885599221 0.23340609657899 0 -0.15235022461674899 0.23478351402165309 0 -0.16262810855207699 0.22116706224983451 0 -0.13954606302200129 0.21446096093844319 0 -0.15235022461674899 0.23478351402165309 0 -0.13954606302200129 0.21446096093844319 0 -0.13758441885599221 0.23340609657899 0 -0.1245314277594918 0.22646505888655741 0 -0.13758441885599221 0.23340609657899 0 -0.12942203820027501 0.2429209832548074 0 -0.1245314277594918 0.22646505888655741 0 -0.13758441885599221 0.23340609657899 0 -0.12942203820027501 0.2429209832548074 0 -0.14207234068144359 0.24839996579348861 0 -0.12899558426369651 0.25668256891564828 0 -0.12942203820027501 0.2429209832548074 0 -0.14207234068144359 0.24839996579348861 0 -0.15789538802104619 0.24839852701308851 0 -0.14207234068144359 0.24839996579348861 0 -0.15235022461674899 0.23478351402165309 0 -0.13758441885599221 0.23340609657899 0 -0.14207234068144359 0.24839996579348861 0 -0.15235022461674899 0.23478351402165309 0 -0.14207234068144359 0.24839996579348861 0 -0.15235022461674899 0.23478351402165309 0 -0.17182331400101061 0.14889204332796771 0 -0.1592843425658238 0.1366930151951051 0 -0.1594007184901193 0.15791567316902549 0 -0.16435791917196541 0.12334525027483539 0 -0.1592843425658238 0.1366930151951051 0 -0.17885324051130461 0.13058228394219901 0 -0.17182331400101061 0.14889204332796771 0 -0.1592843425658238 0.1366930151951051 0 -0.17885324051130461 0.13058228394219901 0 -0.1879964084306445 0.15341961106771579 0 -0.17182331400101061 0.14889204332796771 0 -0.17885324051130461 0.13058228394219901 0 -0.1879964084306445 0.15341961106771579 0 -0.17182331400101061 0.14889204332796771 0 -0.17358186000716069 0.1658496332657928 0 -0.19339314287254919 0.18040861345619991 0 -0.1879964084306445 0.15341961106771579 0 -0.17358186000716069 0.1658496332657928 0 -0.19339314287254919 0.18040861345619991 0 -0.17358186000716069 0.1658496332657928 0 -0.1729711837658133 0.18270704950103869 0 -0.19339314287254919 0.18040861345619991 0 -0.1729711837658133 0.18270704950103869 0 -0.17358186000716069 0.1658496332657928 0 -0.1729711837658133 0.18270704950103869 0 -0.1574805304409648 0.171829395098857 0 -0.1729711837658133 0.18270704950103869 0 -0.1525492246590775 0.18500548554587801 0 -0.1729711837658133 0.18270704950103869 0 -0.1574805304409648 0.171829395098857 0 -0.1525492246590775 0.18500548554587801 0 -0.17182331400101061 0.14889204332796771 0 -0.17358186000716069 0.1658496332657928 0 -0.1594007184901193 0.15791567316902549 0 -0.17358186000716069 0.1658496332657928 0 -0.1574805304409648 0.171829395098857 0 -0.1594007184901193 0.15791567316902549 0 -0.14695752415316291 0.16310009391704669 0 -0.1317795605038723 0.16214326513475019 0 -0.14747011258598919 0.15154540047955689 0 -0.1574805304409648 0.171829395098857 0 -0.14695752415316291 0.16310009391704669 0 -0.13998332340068989 0.17567823471080679 0 -0.1594007184901193 0.15791567316902549 0 -0.14695752415316291 0.16310009391704669 0 -0.14747011258598919 0.15154540047955689 0 -0.1574805304409648 0.171829395098857 0 -0.1594007184901193 0.15791567316902549 0 -0.14695752415316291 0.16310009391704669 0 -0.1525492246590775 0.18500548554587801 0 -0.13212726555234169 0.18730392159071729 0 -0.1574805304409648 0.171829395098857 0 -0.1525492246590775 0.18500548554587801 0 -0.13998332340068989 0.17567823471080679 0 -0.1525492246590775 0.18500548554587801 0 -0.13212726555234169 0.18730392159071729 0 -0.13998332340068989 0.17567823471080679 0 -0.1317795605038723 0.16214326513475019 0 -0.1236307037907776 0.18641157528764349 0 -0.13998332340068989 0.17567823471080679 0 -0.1317795605038723 0.16214326513475019 0 -0.1236307037907776 0.18641157528764349 0 -0.13212726555234169 0.18730392159071729 0 -0.13998332340068989 0.17567823471080679 0 -0.1236307037907776 0.18641157528764349 0 -0.14695752415316291 0.16310009391704669 0 -0.13998332340068989 0.17567823471080679 0 -0.1317795605038723 0.16214326513475019 0 -0.13052546113766089 0.1576911719596133 0 -0.12679841337681741 0.14302004046627009 0 -0.1195820710926767 0.15079582998514041 0 -0.1317795605038723 0.16214326513475019 0 -0.13052546113766089 0.1576911719596133 0 -0.1399284172169678 0.1378749549818572 0 -0.13052546113766089 0.1576911719596133 0 -0.12679841337681741 0.14302004046627009 0 -0.1399284172169678 0.1378749549818572 0 -0.1317795605038723 0.16214326513475019 0 -0.14747011258598919 0.15154540047955689 0 -0.1399284172169678 0.1378749549818572 0 -0.1317795605038723 0.16214326513475019 0 -0.1399284172169678 0.1378749549818572 0 -0.1592843425658238 0.1366930151951051 0 -0.1594007184901193 0.15791567316902549 0 -0.14747011258598919 0.15154540047955689 0 -0.1592843425658238 0.1366930151951051 0 -0.14747011258598919 0.15154540047955689 0 -0.1399284172169678 0.1378749549818572 0 -0.14807727393006331 0.1136066448289642 0 -0.1592843425658238 0.1366930151951051 0 -0.1399284172169678 0.1378749549818572 0 -0.14807727393006331 0.1136066448289642 0 -0.1399284172169678 0.1378749549818572 0 -0.14807727393006331 0.1136066448289642 0 -0.1399284172169678 0.1378749549818572 0 -0.1273208436882502 0.13184136946553379 0 -0.12679841337681741 0.14302004046627009 0 -0.1399284172169678 0.1378749549818572 0 -0.1273208436882502 0.13184136946553379 0 -0.1273208436882502 0.13184136946553379 0 -0.1166352737485316 0.13689687593920599 0 -0.12487165153269369 0.1172532240967164 0 -0.1166352737485316 0.13689687593920599 0 -0.12487165153269369 0.1172532240967164 0 -0.1020925963200746 0.1229840861564018 0 -0.12679841337681741 0.14302004046627009 0 -0.1273208436882502 0.13184136946553379 0 -0.1166352737485316 0.13689687593920599 0 -0.10198870705995081 0.1387195622683062 0 -0.085684905780389412 0.13811563519617229 0 -0.1020925963200746 0.1229840861564018 0 -0.1166352737485316 0.13689687593920599 0 -0.10198870705995081 0.1387195622683062 0 -0.1020925963200746 0.1229840861564018 0 -0.094167546496882248 0.15076443647484339 0 -0.10694785587201069 0.15057137593253481 0 -0.094562085149506425 0.16684884275114689 0 -0.10198870705995081 0.1387195622683062 0 -0.094167546496882248 0.15076443647484339 0 -0.085684905780389412 0.13811563519617229 0 -0.10198870705995081 0.1387195622683062 0 -0.094167546496882248 0.15076443647484339 0 -0.10694785587201069 0.15057137593253481 0 -0.1166352737485316 0.13689687593920599 0 -0.10198870705995081 0.1387195622683062 0 -0.10694785587201069 0.15057137593253481 0 -0.10694785587201069 0.15057137593253481 0 -0.1195820710926767 0.15079582998514041 0 -0.1125437731435837 0.16227000735538 0 -0.1166352737485316 0.13689687593920599 0 -0.10694785587201069 0.15057137593253481 0 -0.1195820710926767 0.15079582998514041 0 -0.12679841337681741 0.14302004046627009 0 -0.1166352737485316 0.13689687593920599 0 -0.1195820710926767 0.15079582998514041 0 -0.13052546113766089 0.1576911719596133 0 -0.1125437731435837 0.16227000735538 0 -0.1317795605038723 0.16214326513475019 0 -0.1192626079770939 0.1718637641992922 0 -0.1125437731435837 0.16227000735538 0 -0.1317795605038723 0.16214326513475019 0 -0.13052546113766089 0.1576911719596133 0 -0.1125437731435837 0.16227000735538 0 -0.13052546113766089 0.1576911719596133 0 -0.1195820710926767 0.15079582998514041 0 -0.1125437731435837 0.16227000735538 0 -0.1192626079770939 0.1718637641992922 0 -0.1125437731435837 0.16227000735538 0 -0.10909639447014199 0.17663020901939519 0 -0.1317795605038723 0.16214326513475019 0 -0.1192626079770939 0.1718637641992922 0 -0.1236307037907776 0.18641157528764349 0 -0.1236307037907776 0.18641157528764349 0 -0.10909639447014199 0.17663020901939519 0 -0.10620662695742709 0.19079319137634251 0 -0.1192626079770939 0.1718637641992922 0 -0.1236307037907776 0.18641157528764349 0 -0.10909639447014199 0.17663020901939519 0 -0.1236307037907776 0.18641157528764349 0 -0.10909639447014199 0.17663020901939519 0 -0.10909639447014199 0.17663020901939519 0 -0.09426994723683986 0.181199352083947 0 -0.10620662695742709 0.19079319137634251 0 -0.10909639447014199 0.17663020901939519 0 -0.09426994723683986 0.181199352083947 0 -0.094562085149506425 0.16684884275114689 0 -0.1125437731435837 0.16227000735538 0 -0.10909639447014199 0.17663020901939519 0 -0.094562085149506425 0.16684884275114689 0 -0.10694785587201069 0.15057137593253481 0 -0.1125437731435837 0.16227000735538 0 -0.094562085149506425 0.16684884275114689 0 -0.1125437731435837 0.16227000735538 0 -0.094562085149506425 0.16684884275114689 0 -0.10909639447014199 0.17663020901939519 0 -0.094562085149506425 0.16684884275114689 0 -0.094167546496882248 0.15076443647484339 0 -0.094562085149506425 0.16684884275114689 0 -0.081206639268916636 0.1578608334173745 0 -0.094562085149506425 0.16684884275114689 0 -0.073441670689421271 0.17222691967779311 0 -0.094562085149506425 0.16684884275114689 0 -0.081206639268916636 0.1578608334173745 0 -0.073441670689421271 0.17222691967779311 0 -0.094562085149506425 0.16684884275114689 0 -0.081206639268916636 0.1578608334173745 0 -0.09426994723683986 0.181199352083947 0 -0.094562085149506425 0.16684884275114689 0 -0.073441670689421271 0.17222691967779311 0 -0.09426994723683986 0.181199352083947 0 -0.073441670689421271 0.17222691967779311 0 -0.08804295891770253 0.19949759759505739 0 -0.073441670689421271 0.17222691967779311 0 -0.052321256229336179 0.17760499660443951 0 -0.081206639268916636 0.1578608334173745 0 -0.06420326435282811 0.16211579315200389 0 -0.067851193388327027 0.14887282408360189 0 -0.081206639268916636 0.1578608334173745 0 -0.073441670689421271 0.17222691967779311 0 -0.06420326435282811 0.16211579315200389 0 -0.073441670689421271 0.17222691967779311 0 -0.06420326435282811 0.16211579315200389 0 -0.052321256229336179 0.17760499660443951 0 -0.081206639268916636 0.1578608334173745 0 -0.067851193388327027 0.14887282408360189 0 -0.067851193388327027 0.14887282408360189 0 -0.067525372260476502 0.13360057569094799 0 -0.059666141738533372 0.14296755965610389 0 -0.067851193388327027 0.14887282408360189 0 -0.067525372260476502 0.13360057569094799 0 -0.085684905780389412 0.13811563519617229 0 -0.085684905780389412 0.13811563519617229 0 -0.08200742577772116 0.1194424179093985 0 -0.1020925963200746 0.1229840861564018 0 -0.067525372260476502 0.13360057569094799 0 -0.085684905780389412 0.13811563519617229 0 -0.08200742577772116 0.1194424179093985 0 -0.094167546496882248 0.15076443647484339 0 -0.081206639268916636 0.1578608334173745 0 -0.085684905780389412 0.13811563519617229 0 -0.081206639268916636 0.1578608334173745 0 -0.067851193388327027 0.14887282408360189 0 -0.085684905780389412 0.13811563519617229 0 -0.1006430114982976 0.25487178582940301 0 -0.1145784192375378 0.25143447651753531 0 -0.10855351449511889 0.23131332272822491 0 -0.1006430114982976 0.25487178582940301 0 -0.10855351449511889 0.23131332272822491 0 -0.090119679326450916 0.24134328922432571 0 -0.1006430114982976 0.25487178582940301 0 -0.10855351449511889 0.23131332272822491 0 -0.1145784192375378 0.25143447651753531 0 -0.12942203820027501 0.2429209832548074 0 -0.1245314277594918 0.22646505888655741 0 -0.1145784192375378 0.25143447651753531 0 -0.1245314277594918 0.22646505888655741 0 -0.1145784192375378 0.25143447651753531 0 -0.1245314277594918 0.22646505888655741 0 -0.10855351449511889 0.23131332272822491 0 -0.10855351449511889 0.23131332272822491 0 -0.1164640174919282 0.20775485962704279 0 -0.1245314277594918 0.22646505888655741 0 -0.10855351449511889 0.23131332272822491 0 -0.1164640174919282 0.20775485962704279 0 -0.10855351449511889 0.23131332272822491 0 -0.092570319394773837 0.22724251522398231 0 -0.090119679326450916 0.24134328922432571 0 -0.10855351449511889 0.23131332272822491 0 -0.096620207202568142 0.21464825902150611 0 -0.092570319394773837 0.22724251522398231 0 -0.096620207202568142 0.21464825902150611 0 -0.1164640174919282 0.20775485962704279 0 -0.08804295891770253 0.19949759759505739 0 -0.10855351449511889 0.23131332272822491 0 -0.096620207202568142 0.21464825902150611 0 -0.1164640174919282 0.20775485962704279 0 -0.1164640174919282 0.20775485962704279 0 -0.08804295891770253 0.19949759759505739 0 -0.1236307037907776 0.18641157528764349 0 -0.1164640174919282 0.20775485962704279 0 -0.1236307037907776 0.18641157528764349 0 -0.1164640174919282 0.20775485962704279 0 -0.10620662695742709 0.19079319137634251 0 -0.12869720953577279 0.20058987215259139 0 -0.1236307037907776 0.18641157528764349 0 -0.1164640174919282 0.20775485962704279 0 -0.09426994723683986 0.181199352083947 0 -0.10620662695742709 0.19079319137634251 0 -0.08804295891770253 0.19949759759505739 0 -0.1164640174919282 0.20775485962704279 0 -0.10620662695742709 0.19079319137634251 0 -0.08804295891770253 0.19949759759505739 0 -0.073441670689421271 0.17222691967779311 0 -0.08804295891770253 0.19949759759505739 0 -0.05962190034347678 0.19124033556307249 0 -0.08804295891770253 0.19949759759505739 0 -0.067495270225844811 0.2056554830739076 0 -0.05962190034347678 0.19124033556307249 0 -0.08804295891770253 0.19949759759505739 0 -0.05962190034347678 0.19124033556307249 0 -0.083281252747960749 0.2099102135778726 0 -0.068819569957723647 0.22031832668810469 0 -0.056351969766902349 0.21839167910640811 0 -0.083281252747960749 0.2099102135778726 0 -0.056351969766902349 0.21839167910640811 0 -0.067495270225844811 0.2056554830739076 0 -0.083281252747960749 0.2099102135778726 0 -0.056351969766902349 0.21839167910640811 0 -0.083281252747960749 0.2099102135778726 0 -0.073916465091772451 0.22456047418283631 0 -0.068819569957723647 0.22031832668810469 0 -0.08804295891770253 0.19949759759505739 0 -0.067495270225844811 0.2056554830739076 0 -0.083281252747960749 0.2099102135778726 0 -0.083281252747960749 0.2099102135778726 0 -0.085407096545808747 0.22146445378407359 0 -0.073916465091772451 0.22456047418283631 0 -0.096620207202568142 0.21464825902150611 0 -0.08804295891770253 0.19949759759505739 0 -0.083281252747960749 0.2099102135778726 0 -0.096620207202568142 0.21464825902150611 0 -0.083281252747960749 0.2099102135778726 0 -0.085407096545808747 0.22146445378407359 0 -0.092570319394773837 0.22724251522398231 0 -0.083056827901788671 0.23093484539449879 0 -0.085407096545808747 0.22146445378407359 0 -0.096620207202568142 0.21464825902150611 0 -0.092570319394773837 0.22724251522398231 0 -0.085407096545808747 0.22146445378407359 0 -0.092570319394773837 0.22724251522398231 0 -0.083056827901788671 0.23093484539449879 0 -0.090119679326450916 0.24134328922432571 0 -0.083056827901788671 0.23093484539449879 0 -0.085407096545808747 0.22146445378407359 0 -0.073916465091772451 0.22456047418283631 0 -0.073916465091772451 0.22456047418283631 0 -0.068819569957723647 0.22031832668810469 0 -0.061728592224259082 0.22841093988530189 0 -0.073916465091772451 0.22456047418283631 0 -0.073270579150137405 0.24006349455727641 0 -0.061728592224259082 0.22841093988530189 0 -0.083056827901788671 0.23093484539449879 0 -0.073916465091772451 0.22456047418283631 0 -0.073270579150137405 0.24006349455727641 0 -0.073270579150137405 0.24006349455727641 0 -0.058591884429211552 0.2393404741760628 0 -0.061728592224259082 0.22841093988530189 0 -0.065723803714756585 0.2538989688338078 0 -0.073270579150137405 0.24006349455727641 0 -0.058591884429211552 0.2393404741760628 0 -0.083056827901788671 0.23093484539449879 0 -0.073270579150137405 0.24006349455727641 0 -0.090119679326450916 0.24134328922432571 0 -0.08292794313408404 0.26108007433224528 0 -0.073270579150137405 0.24006349455727641 0 -0.090119679326450916 0.24134328922432571 0 -0.039533266169263101 0.23785487022167839 0 -0.029422686785843841 0.22687314463494371 0 -0.031229665136684751 0.24941010873521891 0 -0.046352991746764771 0.25083809507332699 0 -0.039533266169263101 0.23785487022167839 0 -0.051127721007759072 0.2242981324432238 0 -0.046352991746764771 0.25083809507332699 0 -0.039533266169263101 0.23785487022167839 0 -0.031229665136684751 0.24941010873521891 0 -0.046352991746764771 0.25083809507332699 0 -0.051127721007759072 0.2242981324432238 0 -0.046352991746764771 0.25083809507332699 0 -0.058591884429211552 0.2393404741760628 0 -0.051127721007759072 0.2242981324432238 0 -0.056504585419954109 0.2506644888712648 0 -0.046352991746764771 0.25083809507332699 0 -0.058591884429211552 0.2393404741760628 0 -0.065723803714756585 0.2538989688338078 0 -0.056504585419954109 0.2506644888712648 0 -0.058591884429211552 0.2393404741760628 0 -0.058591884429211552 0.2393404741760628 0 -0.061728592224259082 0.22841093988530189 0 -0.051127721007759072 0.2242981324432238 0 -0.061728592224259082 0.22841093988530189 0 -0.051127721007759072 0.2242981324432238 0 -0.056351969766902349 0.21839167910640811 0 -0.068819569957723647 0.22031832668810469 0 -0.061728592224259082 0.22841093988530189 0 -0.056351969766902349 0.21839167910640811 0 -0.056351969766902349 0.21839167910640811 0 -0.029422686785843841 0.22687314463494371 0 -0.040990163819529753 0.21544435428860631 0 -0.056351969766902349 0.21839167910640811 0 -0.029422686785843841 0.22687314463494371 0 -0.051127721007759072 0.2242981324432238 0 -0.056351969766902349 0.21839167910640811 0 -0.029422686785843841 0.22687314463494371 0 -0.039533266169263101 0.23785487022167839 0 -0.051127721007759072 0.2242981324432238 0 -0.029422686785843841 0.22687314463494371 0 -0.040990163819529753 0.21544435428860631 0 -0.028173677643483011 0.2112952744356594 0 -0.029422686785843841 0.22687314463494371 0 -0.040990163819529753 0.21544435428860631 0 -0.041158556923520273 0.20235050745473679 0 -0.028173677643483011 0.2112952744356594 0 -0.040990163819529753 0.21544435428860631 0 -0.048216793532551337 0.21048350829534199 0 -0.041158556923520273 0.20235050745473679 0 -0.040990163819529753 0.21544435428860631 0 -0.056351969766902349 0.21839167910640811 0 -0.048216793532551337 0.21048350829534199 0 -0.056351969766902349 0.21839167910640811 0 -0.054366483620253009 0.20574749233161679 0 -0.048216793532551337 0.21048350829534199 0 -0.067495270225844811 0.2056554830739076 0 -0.056351969766902349 0.21839167910640811 0 -0.054366483620253009 0.20574749233161679 0 -0.054366483620253009 0.20574749233161679 0 -0.048216793532551337 0.21048350829534199 0 -0.041158556923520273 0.20235050745473679 0 -0.054366483620253009 0.20574749233161679 0 -0.05962190034347678 0.19124033556307249 0 -0.041158556923520273 0.20235050745473679 0 -0.067495270225844811 0.2056554830739076 0 -0.054366483620253009 0.20574749233161679 0 -0.05962190034347678 0.19124033556307249 0 -0.041158556923520273 0.20235050745473679 0 -0.026924668501121799 0.19571740423637521 0 -0.031200841769251302 0.1829830735310867 0 -0.05962190034347678 0.19124033556307249 0 -0.041158556923520273 0.20235050745473679 0 -0.031200841769251302 0.1829830735310867 0 -0.041158556923520273 0.20235050745473679 0 -0.026924668501121799 0.19571740423637521 0 -0.028173677643483011 0.2112952744356594 0 -0.026924668501121799 0.19571740423637521 0 -0.031200841769251302 0.1829830735310867 0 -0.023118816498344571 0.18504107072200979 0 -0.026924668501121799 0.19571740423637521 0 -0.015302724239832571 0.19920602613700769 0 -0.017827297889730451 0.2094144369589232 0 -0.026924668501121799 0.19571740423637521 0 -0.015302724239832571 0.19920602613700769 0 -0.023118816498344571 0.18504107072200979 0 -0.01001688574219833 0.18837733060589351 0 -0.015302724239832571 0.19920602613700769 0 -0.023118816498344571 0.18504107072200979 0 -0.015302724239832571 0.19920602613700769 0 -0.023118816498344571 0.18504107072200979 0 -0.01001688574219833 0.18837733060589351 0 -0.015302724239832571 0.19920602613700769 0 2.85446008654416e-05 0.19998527450235071 0 -0.015302724239832571 0.19920602613700769 0 -0.0074866319813214196 0.21337098155200621 0 -0.017827297889730451 0.2094144369589232 0 -0.015302724239832571 0.19920602613700769 0 -0.0074866319813214196 0.21337098155200621 0 -0.0074866319813214196 0.21337098155200621 0 0.0055283981975370426 0.21089665999440241 0 2.85446008654416e-05 0.19998527450235071 0 -0.015302724239832571 0.19920602613700769 0 -0.0074866319813214196 0.21337098155200621 0 2.85446008654416e-05 0.19998527450235071 0 -0.0074866319813214196 0.21337098155200621 0 -0.017827297889730451 0.2094144369589232 0 -0.018380885057115812 0.21917113772401239 0 -0.017827297889730451 0.2094144369589232 0 -0.028173677643483011 0.2112952744356594 0 -0.018380885057115812 0.21917113772401239 0 -0.026924668501121799 0.19571740423637521 0 -0.017827297889730451 0.2094144369589232 0 -0.028173677643483011 0.2112952744356594 0 -0.026924668501121799 0.19571740423637521 0 -0.028173677643483011 0.2112952744356594 0 -0.029422686785843841 0.22687314463494371 0 -0.018380885057115812 0.21917113772401239 0 -0.0085765501647025733 0.23343870337186631 0 -0.029422686785843841 0.22687314463494371 0 -0.0085765501647025733 0.23343870337186631 0 -0.029422686785843841 0.22687314463494371 0 -0.0085765501647025733 0.23343870337186631 0 -0.021069137539728191 0.2394937409107048 0 -0.028173677643483011 0.2112952744356594 0 -0.029422686785843841 0.22687314463494371 0 -0.028173677643483011 0.2112952744356594 0 -0.029422686785843841 0.22687314463494371 0 -0.018380885057115812 0.21917113772401239 0 -0.0074866319813214196 0.21337098155200621 0 -0.018380885057115812 0.21917113772401239 0 -0.0085765501647025733 0.23343870337186631 0 -0.0074866319813214196 0.21337098155200621 0 -0.0085765501647025733 0.23343870337186631 0 0.0069812978011627256 0.22219935279248579 0 -0.0085765501647025733 0.23343870337186631 0 -0.01504764807168163 0.2482530069007903 0 0.00088550965980978768 0.24807331653095191 0 -0.0085765501647025733 0.23343870337186631 0 -0.01504764807168163 0.2482530069007903 0 -0.021069137539728191 0.2394937409107048 0 -0.029422686785843841 0.22687314463494371 0 -0.021069137539728191 0.2394937409107048 0 -0.031229665136684751 0.24941010873521891 0 -0.01504764807168163 0.2482530069007903 0 -0.021069137539728191 0.2394937409107048 0 -0.031229665136684751 0.24941010873521891 0 -0.029422686785843841 0.22687314463494371 0 -0.031229665136684751 0.24941010873521891 0 -0.04995609569524484 0.13640437981421899 0 -0.052326999334059092 0.1526587577672455 0 -0.037585122142137488 0.15882406001043001 0 -0.039950857875745947 0.13677821076242619 0 -0.037585122142137488 0.15882406001043001 0 -0.028830525758819309 0.14328127394015541 0 -0.039950857875745947 0.13677821076242619 0 -0.04995609569524484 0.13640437981421899 0 -0.037585122142137488 0.15882406001043001 0 -0.04995609569524484 0.13640437981421899 0 -0.037585122142137488 0.15882406001043001 0 -0.03412948907819302 0.13114880640538229 0 -0.04995609569524484 0.13640437981421899 0 -0.03412948907819302 0.13114880640538229 0 -0.04995609569524484 0.13640437981421899 0 -0.046382238371680998 0.11870931278030331 0 -0.03412948907819302 0.13114880640538229 0 -0.039950857875745947 0.13677821076242619 0 -0.028830525758819309 0.14328127394015541 0 -0.03412948907819302 0.13114880640538229 0 -0.039950857875745947 0.13677821076242619 0 -0.04995609569524484 0.13640437981421899 0 -0.03412948907819302 0.13114880640538229 0 -0.039950857875745947 0.13677821076242619 0 -0.067525372260476502 0.13360057569094799 0 -0.04995609569524484 0.13640437981421899 0 -0.062537352415640041 0.1136036074314498 0 -0.04995609569524484 0.13640437981421899 0 -0.062537352415640041 0.1136036074314498 0 -0.067525372260476502 0.13360057569094799 0 -0.04995609569524484 0.13640437981421899 0 -0.059666141738533372 0.14296755965610389 0 -0.04995609569524484 0.13640437981421899 0 -0.059666141738533372 0.14296755965610389 0 -0.052326999334059092 0.1526587577672455 0 -0.067851193388327027 0.14887282408360189 0 -0.059666141738533372 0.14296755965610389 0 -0.052326999334059092 0.1526587577672455 0 -0.06420326435282811 0.16211579315200389 0 -0.067851193388327027 0.14887282408360189 0 -0.052326999334059092 0.1526587577672455 0 -0.06420326435282811 0.16211579315200389 0 -0.052326999334059092 0.1526587577672455 0 -0.052321256229336179 0.17760499660443951 0 -0.052326999334059092 0.1526587577672455 0 -0.052321256229336179 0.17760499660443951 0 -0.039728933233725838 0.1723136495535624 0 -0.073441670689421271 0.17222691967779311 0 -0.05962190034347678 0.19124033556307249 0 -0.052321256229336179 0.17760499660443951 0 -0.05962190034347678 0.19124033556307249 0 -0.052321256229336179 0.17760499660443951 0 -0.031200841769251302 0.1829830735310867 0 -0.05962190034347678 0.19124033556307249 0 -0.031200841769251302 0.1829830735310867 0 -0.052321256229336179 0.17760499660443951 0 -0.031200841769251302 0.1829830735310867 0 -0.052321256229336179 0.17760499660443951 0 -0.039728933233725838 0.1723136495535624 0 -0.031200841769251302 0.1829830735310867 0 -0.039728933233725838 0.1723136495535624 0 -0.031200841769251302 0.1829830735310867 0 -0.025214148589029761 0.1812437402066408 0 -0.039728933233725838 0.1723136495535624 0 -0.037585122142137488 0.15882406001043001 0 -0.025214148589029761 0.1812437402066408 0 -0.037585122142137488 0.15882406001043001 0 -0.025214148589029761 0.1812437402066408 0 -0.052326999334059092 0.1526587577672455 0 -0.039728933233725838 0.1723136495535624 0 -0.037585122142137488 0.15882406001043001 0 -0.037585122142137488 0.15882406001043001 0 -0.023161669164390719 0.15768299313179149 0 -0.025214148589029761 0.1812437402066408 0 -0.023161669164390719 0.15768299313179149 0 -0.025214148589029761 0.1812437402066408 0 -0.007567086654588712 0.15951829398201781 0 -0.031200841769251302 0.1829830735310867 0 -0.023118816498344571 0.18504107072200979 0 -0.031200841769251302 0.1829830735310867 0 -0.025214148589029761 0.1812437402066408 0 -0.023118816498344571 0.18504107072200979 0 -0.031200841769251302 0.1829830735310867 0 -0.025214148589029761 0.1812437402066408 0 -0.025214148589029761 0.1812437402066408 0 -0.023118816498344571 0.18504107072200979 0 -0.01001688574219833 0.18837733060589351 0 -0.023118816498344571 0.18504107072200979 0 -0.01001688574219833 0.18837733060589351 0 -0.025214148589029761 0.1812437402066408 0 -0.023118816498344571 0.18504107072200979 0 -0.01001688574219833 0.18837733060589351 0 -0.025214148589029761 0.1812437402066408 0 0.0014772893682009709 0.17348899044432239 0 -0.025214148589029761 0.1812437402066408 0 0.0014772893682009709 0.17348899044432239 0 -0.01001688574219833 0.18837733060589351 0 0.0014772893682009709 0.17348899044432239 0 2.85446008654416e-05 0.19998527450235071 0 -0.025214148589029761 0.1812437402066408 0 -0.007567086654588712 0.15951829398201781 0 0.0014772893682009709 0.17348899044432239 0 -0.007567086654588712 0.15951829398201781 0 0.0014772893682009709 0.17348899044432239 0 -0.007567086654588712 0.15951829398201781 0 -0.0045886143852285396 0.14767715404560641 0 0.0072551515649630621 0.15433743183182599 0 -0.0045886143852285396 0.14767715404560641 0 -0.016611462677378491 0.14554759751971341 0 -0.0091995940455661309 0.13633855334918829 0 -0.007567086654588712 0.15951829398201781 0 -0.0045886143852285396 0.14767715404560641 0 -0.016611462677378491 0.14554759751971341 0 -0.007567086654588712 0.15951829398201781 0 -0.016611462677378491 0.14554759751971341 0 -0.023161669164390719 0.15768299313179149 0 -0.016611462677378491 0.14554759751971341 0 -0.028830525758819309 0.14328127394015541 0 -0.023161669164390719 0.15768299313179149 0 -0.007567086654588712 0.15951829398201781 0 -0.016611462677378491 0.14554759751971341 0 -0.016611462677378491 0.14554759751971341 0 -0.028830525758819309 0.14328127394015541 0 -0.020973273624205702 0.13597187052850279 0 -0.037585122142137488 0.15882406001043001 0 -0.023161669164390719 0.15768299313179149 0 -0.028830525758819309 0.14328127394015541 0 -0.03412948907819302 0.13114880640538229 0 -0.01383348161270688 0.1244090699778533 0 -0.03412948907819302 0.13114880640538229 0 -0.020973273624205702 0.13597187052850279 0 -0.01383348161270688 0.1244090699778533 0 -0.03412948907819302 0.13114880640538229 0 -0.028830525758819309 0.14328127394015541 0 -0.020973273624205702 0.13597187052850279 0 -0.020973273624205702 0.13597187052850279 0 -0.0091995940455661309 0.13633855334918829 0 -0.01383348161270688 0.1244090699778533 0 -0.0091995940455661309 0.13633855334918829 0 -0.002990202890652265 0.12869964488887489 0 -0.01383348161270688 0.1244090699778533 0 -0.016611462677378491 0.14554759751971341 0 -0.020973273624205702 0.13597187052850279 0 -0.0091995940455661309 0.13633855334918829 0 -0.0091995940455661309 0.13633855334918829 0 -0.002990202890652265 0.12869964488887489 0 0.0046097382428844378 0.1363816226781332 0 -0.0045886143852285396 0.14767715404560641 0 -0.0091995940455661309 0.13633855334918829 0 0.0046097382428844378 0.1363816226781332 0 -0.0058878422109701224 0.114407013193442 0 -0.002972956979330543 0.10101968666615579 0 0.0064625258527795122 0.11766933355032499 0 -0.002990202890652265 0.12869964488887489 0 -0.01383348161270688 0.1244090699778533 0 0.0064625258527795122 0.11766933355032499 0 -0.01383348161270688 0.1244090699778533 0 0.0064625258527795122 0.11766933355032499 0 -0.01383348161270688 0.1244090699778533 0 -0.0058878422109701224 0.114407013193442 0 0.0064625258527795122 0.11766933355032499 0 -0.01383348161270688 0.1244090699778533 0 -0.0058878422109701224 0.114407013193442 0 -0.018551223028761488 0.1160842465357694 0 -0.0058878422109701224 0.114407013193442 0 -0.002972956979330543 0.10101968666615579 0 -0.018551223028761488 0.1160842465357694 0 -0.002972956979330543 0.10101968666615579 0 -0.016857057866280199 0.097851009437827124 0 -0.018551223028761488 0.1160842465357694 0 -0.002972956979330543 0.10101968666615579 0 -0.016857057866280199 0.097851009437827124 0 -0.0061649190793326078 0.088254058493460449 0 -0.002972956979330543 0.10101968666615579 0 -0.018551223028761488 0.1160842465357694 0 -0.016857057866280199 0.097851009437827124 0 -0.02785332257541389 0.1055597409617952 0 -0.018551223028761488 0.1160842465357694 0 -0.016857057866280199 0.097851009437827124 0 -0.02785332257541389 0.1055597409617952 0 -0.030813141426377592 0.09214771816539831 0 -0.03412948907819302 0.13114880640538229 0 -0.018551223028761488 0.1160842465357694 0 -0.033428673526205932 0.1152159074030715 0 -0.03412948907819302 0.13114880640538229 0 -0.01383348161270688 0.1244090699778533 0 -0.018551223028761488 0.1160842465357694 0 -0.02785332257541389 0.1055597409617952 0 -0.018551223028761488 0.1160842465357694 0 -0.033428673526205932 0.1152159074030715 0 -0.03412948907819302 0.13114880640538229 0 -0.018551223028761488 0.1160842465357694 0 -0.01076714796297867 0.065581128298583286 0 -8.7848539612993791e-05 0.070785135064982893 0 -0.0025709496334008031 0.061439292322251357 0 -0.01076714796297867 0.065581128298583286 0 -8.7848539612993791e-05 0.070785135064982893 0 -0.0092837384660982483 0.07692496897960717 0 -8.7848539612993791e-05 0.070785135064982893 0 -0.0092837384660982483 0.07692496897960717 0 -0.001241533317153726 0.080343616184783459 0 -0.01076714796297867 0.065581128298583286 0 -0.0092837384660982483 0.07692496897960717 0 -0.020964807750926729 0.071291905719554238 0 -0.0092837384660982483 0.07692496897960717 0 -0.0061649190793326078 0.088254058493460449 0 -0.018015179903266711 0.08460732651217541 0 -0.0092837384660982483 0.07692496897960717 0 -0.001241533317153726 0.080343616184783459 0 -0.0061649190793326078 0.088254058493460449 0 -0.016857057866280199 0.097851009437827124 0 -0.0061649190793326078 0.088254058493460449 0 -0.018015179903266711 0.08460732651217541 0 -0.016857057866280199 0.097851009437827124 0 -0.030813141426377592 0.09214771816539831 0 -0.018015179903266711 0.08460732651217541 0 -0.030813141426377592 0.09214771816539831 0 -0.029380455606675852 0.079723287988441749 0 -0.018015179903266711 0.08460732651217541 0 -0.029380455606675852 0.079723287988441749 0 -0.018015179903266711 0.08460732651217541 0 -0.020964807750926729 0.071291905719554238 0 -0.020964807750926729 0.071291905719554238 0 -0.037440723022008918 0.066951988998940351 0 -0.023909056693541771 0.058479119683474121 0 -0.029380455606675852 0.079723287988441749 0 -0.020964807750926729 0.071291905719554238 0 -0.037440723022008918 0.066951988998940351 0 -0.0092837384660982483 0.07692496897960717 0 -0.018015179903266711 0.08460732651217541 0 -0.020964807750926729 0.071291905719554238 0 -0.01076714796297867 0.065581128298583286 0 -0.020964807750926729 0.071291905719554238 0 -0.023909056693541771 0.058479119683474121 0 -0.029380455606675852 0.079723287988441749 0 -0.037440723022008918 0.066951988998940351 0 -0.040182755492286629 0.081465411287937509 0 -0.037440723022008918 0.066951988998940351 0 -0.040182755492286629 0.081465411287937509 0 -0.052029568530366548 0.077504777894248533 0 -0.030813141426377592 0.09214771816539831 0 -0.040182755492286629 0.081465411287937509 0 -0.046573721057094133 0.091827160025890336 0 -0.040182755492286629 0.081465411287937509 0 -0.046573721057094133 0.091827160025890336 0 -0.052029568530366548 0.077504777894248533 0 -0.030813141426377592 0.09214771816539831 0 -0.029380455606675852 0.079723287988441749 0 -0.040182755492286629 0.081465411287937509 0 -0.046573721057094133 0.091827160025890336 0 -0.057915635625982079 0.089207816372329482 0 -0.052029568530366548 0.077504777894248533 0 -0.057915635625982079 0.089207816372329482 0 -0.052029568530366548 0.077504777894248533 0 -0.066889503037371248 0.083159282034213383 0 -0.037440723022008918 0.066951988998940351 0 -0.052029568530366548 0.077504777894248533 0 -0.057230733226926428 0.062129825672885407 0 -0.052029568530366548 0.077504777894248533 0 -0.064100180534591752 0.072145467114212755 0 -0.057230733226926428 0.062129825672885407 0 -0.052029568530366548 0.077504777894248533 0 -0.066889503037371248 0.083159282034213383 0 -0.064100180534591752 0.072145467114212755 0 -0.03412948907819302 0.13114880640538229 0 -0.046382238371680998 0.11870931278030331 0 -0.033428673526205932 0.1152159074030715 0 -0.046382238371680998 0.11870931278030331 0 -0.033428673526205932 0.1152159074030715 0 -0.040227094576980017 0.1045774303321081 0 -0.02785332257541389 0.1055597409617952 0 -0.033428673526205932 0.1152159074030715 0 -0.040227094576980017 0.1045774303321081 0 -0.030813141426377592 0.09214771816539831 0 -0.046573721057094133 0.091827160025890336 0 -0.040227094576980017 0.1045774303321081 0 -0.02785332257541389 0.1055597409617952 0 -0.030813141426377592 0.09214771816539831 0 -0.040227094576980017 0.1045774303321081 0 -0.046382238371680998 0.11870931278030331 0 -0.040227094576980017 0.1045774303321081 0 -0.0553791240833265 0.1013288344757813 0 -0.0553791240833265 0.1013288344757813 0 -0.062537352415640041 0.1136036074314498 0 -0.063568044859670922 0.095620475072490857 0 -0.046573721057094133 0.091827160025890336 0 -0.057915635625982079 0.089207816372329482 0 -0.0553791240833265 0.1013288344757813 0 -0.046573721057094133 0.091827160025890336 0 -0.040227094576980017 0.1045774303321081 0 -0.0553791240833265 0.1013288344757813 0 -0.057915635625982079 0.089207816372329482 0 -0.0553791240833265 0.1013288344757813 0 -0.063568044859670922 0.095620475072490857 0 -0.046382238371680998 0.11870931278030331 0 -0.0553791240833265 0.1013288344757813 0 -0.062537352415640041 0.1136036074314498 0 -0.04995609569524484 0.13640437981421899 0 -0.046382238371680998 0.11870931278030331 0 -0.062537352415640041 0.1136036074314498 0 -0.062537352415640041 0.1136036074314498 0 -0.08200742577772116 0.1194424179093985 0 -0.080836217401658819 0.1041672745876972 0 -0.067525372260476502 0.13360057569094799 0 -0.062537352415640041 0.1136036074314498 0 -0.08200742577772116 0.1194424179093985 0 -0.08200742577772116 0.1194424179093985 0 -0.1020925963200746 0.1229840861564018 0 -0.095591246614764702 0.1044172153195955 0 -0.080836217401658819 0.1041672745876972 0 -0.088926453064133548 0.092570297229361831 0 -0.095591246614764702 0.1044172153195955 0 -0.08200742577772116 0.1194424179093985 0 -0.080836217401658819 0.1041672745876972 0 -0.095591246614764702 0.1044172153195955 0 -0.080836217401658819 0.1041672745876972 0 -0.0751186091360347 0.090802835048680336 0 -0.088926453064133548 0.092570297229361831 0 -0.062537352415640041 0.1136036074314498 0 -0.0751186091360347 0.090802835048680336 0 -0.062537352415640041 0.1136036074314498 0 -0.063568044859670922 0.095620475072490857 0 -0.0751186091360347 0.090802835048680336 0 -0.062537352415640041 0.1136036074314498 0 -0.080836217401658819 0.1041672745876972 0 -0.0751186091360347 0.090802835048680336 0 -0.066889503037371248 0.083159282034213383 0 -0.0751186091360347 0.090802835048680336 0 -0.073800865262641582 0.075132016982043373 0 -0.057915635625982079 0.089207816372329482 0 -0.063568044859670922 0.095620475072490857 0 -0.066889503037371248 0.083159282034213383 0 -0.063568044859670922 0.095620475072490857 0 -0.066889503037371248 0.083159282034213383 0 -0.0751186091360347 0.090802835048680336 0 -0.064100180534591752 0.072145467114212755 0 -0.073769875281456801 0.062250284543915652 0 -0.057230733226926428 0.062129825672885407 0 -0.066889503037371248 0.083159282034213383 0 -0.064100180534591752 0.072145467114212755 0 -0.073800865262641582 0.075132016982043373 0 -0.064100180534591752 0.072145467114212755 0 -0.073800865262641582 0.075132016982043373 0 -0.073769875281456801 0.062250284543915652 0 -0.0751186091360347 0.090802835048680336 0 -0.073800865262641582 0.075132016982043373 0 -0.087699865856429374 0.068002062665910801 0 -0.073800865262641582 0.075132016982043373 0 -0.087699865856429374 0.068002062665910801 0 -0.073769875281456801 0.062250284543915652 0 -0.0751186091360347 0.090802835048680336 0 -0.087699865856429374 0.068002062665910801 0 -0.0751186091360347 0.090802835048680336 0 -0.087699865856429374 0.068002062665910801 0 -0.083546629267146566 0.08164305050042818 0 -0.0751186091360347 0.090802835048680336 0 -0.083546629267146566 0.08164305050042818 0 -0.088926453064133548 0.092570297229361831 0 -0.083546629267146566 0.08164305050042818 0 -0.088926453064133548 0.092570297229361831 0 -0.1117626990277399 0.082054997616281808 0 -0.088926453064133548 0.092570297229361831 0 -0.1117626990277399 0.082054997616281808 0 -0.095591246614764702 0.1044172153195955 0 -0.083546629267146566 0.08164305050042818 0 -0.1117626990277399 0.082054997616281808 0 -0.087699865856429374 0.068002062665910801 0 -0.083546629267146566 0.08164305050042818 0 -0.1117626990277399 0.082054997616281808 0 -0.087699865856429374 0.068002062665910801 0 -0.1117626990277399 0.082054997616281808 0 -0.1075508008662165 0.062393031321195093 0 -0.12208143475935759 0.065967819306918404 0 -0.1117626990277399 0.082054997616281808 0 -0.1075508008662165 0.062393031321195093 0 -0.13997876878833329 0.08246694473213545 0 -0.12208143475935759 0.065967819306918404 0 -0.1117626990277399 0.082054997616281808 0 -0.12563820584504901 0.097245003939922525 0 -0.1117626990277399 0.082054997616281808 0 -0.1119912798680644 0.10479090542578361 0 -0.12563820584504901 0.097245003939922525 0 -0.1119912798680644 0.10479090542578361 0 -0.12487165153269369 0.1172532240967164 0 -0.1119912798680644 0.10479090542578361 0 -0.12487165153269369 0.1172532240967164 0 -0.1020925963200746 0.1229840861564018 0 -0.1119912798680644 0.10479090542578361 0 -0.1020925963200746 0.1229840861564018 0 -0.095591246614764702 0.1044172153195955 0 -0.1117626990277399 0.082054997616281808 0 -0.1119912798680644 0.10479090542578361 0 -0.095591246614764702 0.1044172153195955 0 -0.1058341326218296 0.021477508900980252 0 -0.1148427064858776 0.033957709100349807 0 -0.1007723957030702 0.034622645063258108 0 -0.1058341326218296 0.021477508900980252 0 -0.1007723957030702 0.034622645063258108 0 -0.093327070904005771 0.020117982884069911 0 -0.1058341326218296 0.021477508900980252 0 -0.09789758606370294 0.0083968355435111476 0 -0.093327070904005771 0.020117982884069911 0 -0.1153821316410879 -0.0010236762665647341 0 -0.10557149648225921 -0.0064916213480605391 0 -0.09789758606370294 0.0083968355435111476 0 -0.1058341326218296 0.021477508900980252 0 -0.09789758606370294 0.0083968355435111476 0 -0.11800293007651901 0.01038142059859295 0 -0.09789758606370294 0.0083968355435111476 0 -0.11800293007651901 0.01038142059859295 0 -0.1153821316410879 -0.0010236762665647341 0 -0.09789758606370294 0.0083968355435111476 0 -0.11800293007651901 0.01038142059859295 0 -0.1153821316410879 -0.0010236762665647341 0 -0.12596177720057869 0.0033279213254498699 0 -0.11800293007651901 0.01038142059859295 0 -0.1058341326218296 0.021477508900980252 0 -0.11800293007651901 0.01038142059859295 0 -0.1222869215680117 0.017313718406983161 0 -0.1058341326218296 0.021477508900980252 0 -0.1239437689107258 0.021544793938335308 0 -0.1058341326218296 0.021477508900980252 0 -0.1239437689107258 0.021544793938335308 0 -0.1175751023938664 0.027475121255701292 0 -0.1058341326218296 0.021477508900980252 0 -0.1239437689107258 0.021544793938335308 0 -0.1222869215680117 0.017313718406983161 0 -0.1058341326218296 0.021477508900980252 0 -0.1175751023938664 0.027475121255701292 0 -0.1148427064858776 0.033957709100349807 0 -0.12501595260848131 0.034124805769654681 0 -0.1239437689107258 0.021544793938335308 0 -0.1175751023938664 0.027475121255701292 0 -0.12501595260848131 0.034124805769654681 0 -0.1148427064858776 0.033957709100349807 0 -0.1206257464305804 0.048221868699790837 0 -0.1148427064858776 0.033957709100349807 0 -0.1206257464305804 0.048221868699790837 0 -0.1007723957030702 0.034622645063258108 0 -0.12501595260848131 0.034124805769654681 0 -0.1175751023938664 0.027475121255701292 0 -0.1148427064858776 0.033957709100349807 0 -0.12208143475935759 0.065967819306918404 0 -0.1206257464305804 0.048221868699790837 0 -0.1075508008662165 0.062393031321195093 0 -0.1206257464305804 0.048221868699790837 0 -0.1075508008662165 0.062393031321195093 0 -0.095584258256975155 0.047718408317073552 0 -0.1206257464305804 0.048221868699790837 0 -0.095584258256975155 0.047718408317073552 0 -0.087699865856429374 0.068002062665910801 0 -0.1075508008662165 0.062393031321195093 0 -0.095584258256975155 0.047718408317073552 0 -0.1206257464305804 0.048221868699790837 0 -0.095584258256975155 0.047718408317073552 0 -0.1007723957030702 0.034622645063258108 0 -0.095584258256975155 0.047718408317073552 0 -0.1007723957030702 0.034622645063258108 0 -0.08256503220925579 0.030240363932358238 0 -0.095584258256975155 0.047718408317073552 0 -0.070542770083369941 0.047214947934356259 0 -0.08256503220925579 0.030240363932358238 0 -0.087699865856429374 0.068002062665910801 0 -0.095584258256975155 0.047718408317073552 0 -0.073769875281456801 0.062250284543915652 0 -0.095584258256975155 0.047718408317073552 0 -0.070542770083369941 0.047214947934356259 0 -0.073769875281456801 0.062250284543915652 0 -0.095584258256975155 0.047718408317073552 0 -0.070542770083369941 0.047214947934356259 0 -0.070542770083369941 0.047214947934356259 0 -0.073769875281456801 0.062250284543915652 0 -0.057230733226926428 0.062129825672885407 0 -0.070542770083369941 0.047214947934356259 0 -0.08256503220925579 0.030240363932358238 0 -0.059524138636002817 0.022710923295179031 0 -0.08256503220925579 0.030240363932358238 0 -0.079661236795137924 0.0067390562276019028 0 -0.059524138636002817 0.022710923295179031 0 -0.1007723957030702 0.034622645063258108 0 -0.08256503220925579 0.030240363932358238 0 -0.093327070904005771 0.020117982884069911 0 -0.08256503220925579 0.030240363932358238 0 -0.093327070904005771 0.020117982884069911 0 -0.079661236795137924 0.0067390562276019028 0 -0.093892379325602404 -0.00586628390227204 0 -0.09789758606370294 0.0083968355435111476 0 -0.079661236795137924 0.0067390562276019028 0 -0.09789758606370294 0.0083968355435111476 0 -0.093327070904005771 0.020117982884069911 0 -0.079661236795137924 0.0067390562276019028 0 -0.062181816582292167 -0.0068704702636530127 0 -0.079661236795137924 0.0067390562276019028 0 -0.059524138636002817 0.022710923295179031 0 -0.062181816582292167 -0.0068704702636530127 0 -0.059524138636002817 0.022710923295179031 0 -0.040639973679054281 0.0068040604518520946 0 -0.038016365711047141 0.025729118710816758 0 -0.040639973679054281 0.0068040604518520946 0 -0.019098130775816399 0.020478591167357198 0 -0.059524138636002817 0.022710923295179031 0 -0.038016365711047141 0.025729118710816758 0 -0.040639973679054281 0.0068040604518520946 0 -0.070542770083369941 0.047214947934356259 0 -0.045501281909764671 0.046711487551638967 0 -0.070542770083369941 0.047214947934356259 0 -0.057230733226926428 0.062129825672885407 0 -0.045501281909764671 0.046711487551638967 0 -0.059524138636002817 0.022710923295179031 0 -0.038016365711047141 0.025729118710816758 0 -0.045501281909764671 0.046711487551638967 0 -0.070542770083369941 0.047214947934356259 0 -0.059524138636002817 0.022710923295179031 0 -0.045501281909764671 0.046711487551638967 0 -0.038016365711047141 0.025729118710816758 0 -0.045501281909764671 0.046711487551638967 0 -0.025318303554597538 0.031940531088056501 0 -0.045501281909764671 0.046711487551638967 0 -0.02045979373615928 0.046208027168921667 0 -0.037440723022008918 0.066951988998940351 0 -0.057230733226926428 0.062129825672885407 0 -0.045501281909764671 0.046711487551638967 0 -0.037440723022008918 0.066951988998940351 0 -0.045501281909764671 0.046711487551638967 0 -0.023909056693541771 0.058479119683474121 0 -0.045501281909764671 0.046711487551638967 0 -0.023909056693541771 0.058479119683474121 0 -0.02045979373615928 0.046208027168921667 0 -0.023909056693541771 0.058479119683474121 0 -0.02045979373615928 0.046208027168921667 0 -0.0084213626249035022 0.054429589785793042 0 -0.045501281909764671 0.046711487551638967 0 -0.02045979373615928 0.046208027168921667 0 -0.025318303554597538 0.031940531088056501 0 -0.02045979373615928 0.046208027168921667 0 -0.025318303554597538 0.031940531088056501 0 -0.01157016430034114 0.035696967618680422 0 -0.01157016430034114 0.035696967618680422 0 0.0045816944374460914 0.045704566786204368 0 0.0024437121274214321 0.034153121882862347 0 -0.02045979373615928 0.046208027168921667 0 0.0045816944374460914 0.045704566786204368 0 -0.02045979373615928 0.046208027168921667 0 -0.01157016430034114 0.035696967618680422 0 0.0045816944374460914 0.045704566786204368 0 -0.02045979373615928 0.046208027168921667 0 -0.0084213626249035022 0.054429589785793042 0 0.0045816944374460914 0.045704566786204368 0 -0.0084213626249035022 0.054429589785793042 0 0.00087887293432764579 0.054270215346659302 0 0.0045816944374460914 0.045704566786204368 0 -0.01076714796297867 0.065581128298583286 0 -0.0084213626249035022 0.054429589785793042 0 -0.0025709496334008031 0.061439292322251357 0 -0.0084213626249035022 0.054429589785793042 0 -0.0025709496334008031 0.061439292322251357 0 0.00087887293432764579 0.054270215346659302 0 -0.01076714796297867 0.065581128298583286 0 -0.023909056693541771 0.058479119683474121 0 -0.0084213626249035022 0.054429589785793042 0 -0.040639973679054281 0.0068040604518520946 0 -0.02608386252301563 0.00059812423972419666 0 -0.019098130775816399 0.020478591167357198 0 -0.040639973679054281 0.0068040604518520946 0 -0.019098130775816399 0.020478591167357198 0 -0.02608386252301563 0.00059812423972419666 0 -0.019098130775816399 0.020478591167357198 0 -0.009412669991658712 0.0081439603172063085 0 -0.038016365711047141 0.025729118710816758 0 -0.025318303554597538 0.031940531088056501 0 -0.019098130775816399 0.020478591167357198 0 -0.025318303554597538 0.031940531088056501 0 -0.01157016430034114 0.035696967618680422 0 -0.019098130775816399 0.020478591167357198 0 -0.019098130775816399 0.020478591167357198 0 -0.009412669991658712 0.0081439603172063085 0 0.0024437121274214321 0.034153121882862347 0 -0.019098130775816399 0.020478591167357198 0 0.0024437121274214321 0.034153121882862347 0 -0.01157016430034114 0.035696967618680422 0 -0.019098130775816399 0.020478591167357198 0 0.0024437121274214321 0.034153121882862347 0 -0.009412669991658712 0.0081439603172063085 0 0.006960468670982772 0.01781391294651043 0 0.0024437121274214321 0.034153121882862347 0 -0.009412669991658712 0.0081439603172063085 0 0.0024437121274214321 0.034153121882862347 0 -0.0059468681258598799 -0.0082163695027096424 0 -0.009412669991658712 0.0081439603172063085 0 0.0063099898206301838 0.001436693533877764 0 -0.009412669991658712 0.0081439603172063085 0 0.0063099898206301838 0.001436693533877764 0 0.006960468670982772 0.01781391294651043 0 0.0063099898206301838 0.001436693533877764 0 0.006960468670982772 0.01781391294651043 0 0.016407518996649419 0.0075721886099749322 0 0.0063099898206301838 0.001436693533877764 0 0.016407518996649419 0.0075721886099749322 0 0.018132236175202529 -0.0052721079898190608 0 0.006960468670982772 0.01781391294651043 0 0.01964367103188755 0.02491811498132929 0 0.016407518996649419 0.0075721886099749322 0 0.006960468670982772 0.01781391294651043 0 0.01135781387800008 0.030044047769023269 0 0.0024437121274214321 0.034153121882862347 0 0.006960468670982772 0.01781391294651043 0 0.01135781387800008 0.030044047769023269 0 0.01964367103188755 0.02491811498132929 0 0.01964367103188755 0.02491811498132929 0 0.034381998805671041 0.033722879503733628 0 0.0346408501027647 0.017174281313907049 0 0.01964367103188755 0.02491811498132929 0 0.018657784871159929 0.034651087992495742 0 0.034381998805671041 0.033722879503733628 0 0.01135781387800008 0.030044047769023269 0 0.01964367103188755 0.02491811498132929 0 0.018657784871159929 0.034651087992495742 0 0.01964367103188755 0.02491811498132929 0 0.0346408501027647 0.017174281313907049 0 0.03096007163375428 -0.00035271675513010031 0 0.01964367103188755 0.02491811498132929 0 0.03096007163375428 -0.00035271675513010031 0 0.01964367103188755 0.02491811498132929 0 0.016407518996649419 0.0075721886099749322 0 0.03096007163375428 -0.00035271675513010031 0 0.016407518996649419 0.0075721886099749322 0 0.03096007163375428 -0.00035271675513010031 0 0.018132236175202529 -0.0052721079898190608 0 0.014527320288925991 0.06066074569357674 0 0.01098493968000353 0.052889880293055982 0 0.005407298743430624 0.062710420262737473 0 0.014527320288925991 0.06066074569357674 0 0.01098493968000353 0.052889880293055982 0 0.00087887293432764579 0.054270215346659302 0 0.01098493968000353 0.052889880293055982 0 0.005407298743430624 0.062710420262737473 0 -0.0025709496334008031 0.061439292322251357 0 0.00087887293432764579 0.054270215346659302 0 0.005407298743430624 0.062710420262737473 0 0.00087887293432764579 0.054270215346659302 0 0.01098493968000353 0.052889880293055982 0 0.0045816944374460914 0.045704566786204368 0 0.00087887293432764579 0.054270215346659302 0 0.01098493968000353 0.052889880293055982 0 0.01098493968000353 0.052889880293055982 0 0.0024437121274214321 0.034153121882862347 0 0.01098493968000353 0.052889880293055982 0 0.0024437121274214321 0.034153121882862347 0 0.0092952515637120814 0.038502405595072821 0 0.01098493968000353 0.052889880293055982 0 0.0045816944374460914 0.045704566786204368 0 0.0024437121274214321 0.034153121882862347 0 0.01098493968000353 0.052889880293055982 0 0.0092952515637120814 0.038502405595072821 0 0.020457249667953491 0.044484479816824997 0 0.0024437121274214321 0.034153121882862347 0 0.0092952515637120814 0.038502405595072821 0 0.01135781387800008 0.030044047769023269 0 0.0024437121274214321 0.034153121882862347 0 0.0092952515637120814 0.038502405595072821 0 0.01135781387800008 0.030044047769023269 0 0.0092952515637120814 0.038502405595072821 0 0.018657784871159929 0.034651087992495742 0 0.018657784871159929 0.034651087992495742 0 0.020457249667953491 0.044484479816824997 0 0.034381998805671041 0.033722879503733628 0 0.020457249667953491 0.044484479816824997 0 0.031836662104240181 0.050041852062637289 0 0.034381998805671041 0.033722879503733628 0 0.0092952515637120814 0.038502405595072821 0 0.018657784871159929 0.034651087992495742 0 0.020457249667953491 0.044484479816824997 0 0.01098493968000353 0.052889880293055982 0 0.020457249667953491 0.044484479816824997 0 0.031836662104240181 0.050041852062637289 0 0.01098493968000353 0.052889880293055982 0 0.023115548128528628 0.05932459147205154 0 0.031836662104240181 0.050041852062637289 0 0.01098493968000353 0.052889880293055982 0 0.031836662104240181 0.050041852062637289 0 0.023115548128528628 0.05932459147205154 0 0.031836662104240181 0.050041852062637289 0 0.032646846799287359 0.066574475314377837 0 0.014527320288925991 0.06066074569357674 0 0.01098493968000353 0.052889880293055982 0 0.023115548128528628 0.05932459147205154 0 0.031836662104240181 0.050041852062637289 0 0.052688384528476601 0.047193823832215882 0 0.052688384528476601 0.047193823832215882 0 0.032646846799287359 0.066574475314377837 0 0.052688384528476601 0.047193823832215882 0 0.045133695533363223 0.070190294371823447 0 0.032646846799287359 0.066574475314377837 0 0.031836662104240181 0.050041852062637289 0 0.052688384528476601 0.047193823832215882 0 0.032646846799287359 0.066574475314377837 0 0.034381998805671041 0.033722879503733628 0 0.053025099592219349 0.032059638058849912 0 0.052688384528476601 0.047193823832215882 0 0.031836662104240181 0.050041852062637289 0 0.034381998805671041 0.033722879503733628 0 0.052688384528476601 0.047193823832215882 0 0.053025099592219349 0.032059638058849912 0 0.052688384528476601 0.047193823832215882 0 0.06820076959795586 0.032192972462863428 0 0.052688384528476601 0.047193823832215882 0 0.06820076959795586 0.032192972462863428 0 0.060625831074769147 0.046109689323740558 0 0.052688384528476601 0.047193823832215882 0 0.060625831074769147 0.046109689323740558 0 0.052688384528476601 0.047193823832215882 0 0.06820076959795586 0.032192972462863428 0 0.060625831074769147 0.046109689323740558 0 0.056429515457018187 0.063756011893082137 0 0.052688384528476601 0.047193823832215882 0 0.056429515457018187 0.063756011893082137 0 0.045133695533363223 0.070190294371823447 0 0.060625831074769147 0.046109689323740558 0 0.052688384528476601 0.047193823832215882 0 0.056429515457018187 0.063756011893082137 0 0.046182870400398167 0.0061301750704504049 0 0.0346408501027647 0.017174281313907049 0 0.03096007163375428 -0.00035271675513010031 0 0.046182870400398167 0.0061301750704504049 0 0.0346408501027647 0.017174281313907049 0 0.046733354222266238 0.020797059561058422 0 0.034381998805671041 0.033722879503733628 0 0.053025099592219349 0.032059638058849912 0 0.046733354222266238 0.020797059561058422 0 0.034381998805671041 0.033722879503733628 0 0.0346408501027647 0.017174281313907049 0 0.046733354222266238 0.020797059561058422 0 0.046733354222266238 0.020797059561058422 0 0.059369701975130293 0.023546885361556271 0 0.05611881184797899 0.01395182127903964 0 0.053025099592219349 0.032059638058849912 0 0.046733354222266238 0.020797059561058422 0 0.059369701975130293 0.023546885361556271 0 0.053025099592219349 0.032059638058849912 0 0.059369701975130293 0.023546885361556271 0 0.06820076959795586 0.032192972462863428 0 0.059369701975130293 0.023546885361556271 0 0.05611881184797899 0.01395182127903964 0 0.067667575606593922 0.0157813888083695 0 0.05611881184797899 0.01395182127903964 0 0.059577453075373633 0.0028886920442635182 0 0.067667575606593922 0.0157813888083695 0 0.046182870400398167 0.0061301750704504049 0 0.046733354222266238 0.020797059561058422 0 0.05611881184797899 0.01395182127903964 0 0.046182870400398167 0.0061301750704504049 0 0.05611881184797899 0.01395182127903964 0 0.059577453075373633 0.0028886920442635182 0 0.046182870400398167 0.0061301750704504049 0 0.059577453075373633 0.0028886920442635182 0 0.051713919816959893 -0.006156320578333473 0 0.076868649227946562 0.0023974133415296081 0 0.083713154667437478 0.0171921210935134 0 0.067667575606593922 0.0157813888083695 0 0.059577453075373633 0.0028886920442635182 0 0.076868649227946562 0.0023974133415296081 0 0.067667575606593922 0.0157813888083695 0 0.076868649227946562 0.0023974133415296081 0 0.091798790394525792 0.021105060070774131 0 0.076868649227946562 0.0023974133415296081 0 0.089100235194546407 0.0012405456441897389 0 0.091798790394525792 0.021105060070774131 0 0.076868649227946562 0.0023974133415296081 0 0.091798790394525792 0.021105060070774131 0 0.083713154667437478 0.0171921210935134 0 0.091798790394525792 0.021105060070774131 0 0.083713154667437478 0.0171921210935134 0 0.083655161843512182 0.030554743850272899 0 0.083713154667437478 0.0171921210935134 0 0.083655161843512182 0.030554743850272899 0 0.06820076959795586 0.032192972462863428 0 0.059369701975130293 0.023546885361556271 0 0.067667575606593922 0.0157813888083695 0 0.06820076959795586 0.032192972462863428 0 0.083713154667437478 0.0171921210935134 0 0.067667575606593922 0.0157813888083695 0 0.06820076959795586 0.032192972462863428 0 0.083713154667437478 0.0171921210935134 0 0.06820076959795586 0.032192972462863428 0 0.060625831074769147 0.046109689323740558 0 0.079708658044790201 0.04350326531611981 0 0.060625831074769147 0.046109689323740558 0 0.06820076959795586 0.032192972462863428 0 0.079708658044790201 0.04350326531611981 0 0.083655161843512182 0.030554743850272899 0 0.06820076959795586 0.032192972462863428 0 0.079708658044790201 0.04350326531611981 0 0.060625831074769147 0.046109689323740558 0 0.074116680264508489 0.061318406623265681 0 0.056429515457018187 0.063756011893082137 0 0.060625831074769147 0.046109689323740558 0 0.074116680264508489 0.061318406623265681 0 0.079708658044790201 0.04350326531611981 0 0.09085590821189711 0.058529375152556053 0 0.079708658044790201 0.04350326531611981 0 0.1067289315611033 0.039812706800019942 0 0.074116680264508489 0.061318406623265681 0 0.09085590821189711 0.058529375152556053 0 0.079708658044790201 0.04350326531611981 0 0.083655161843512182 0.030554743850272899 0 0.079708658044790201 0.04350326531611981 0 0.1067289315611033 0.039812706800019942 0 0.079708658044790201 0.04350326531611981 0 0.1067289315611033 0.039812706800019942 0 0.09085590821189711 0.058529375152556053 0 0.1067289315611033 0.039812706800019942 0 0.1062377758661717 0.070300184116425607 0 0.1067289315611033 0.039812706800019942 0 0.124212499191099 0.061719827646332881 0 0.1067289315611033 0.039812706800019942 0 0.124212499191099 0.061719827646332881 0 0.1062377758661717 0.070300184116425607 0 0.1067289315611033 0.039812706800019942 0 0.1129542739991219 0.024244635194652711 0 0.1315750017508765 0.036419111399327013 0 0.1067289315611033 0.039812706800019942 0 0.1315750017508765 0.036419111399327013 0 0.1067289315611033 0.039812706800019942 0 0.124212499191099 0.061719827646332881 0 0.1315750017508765 0.036419111399327013 0 0.1129542739991219 0.024244635194652711 0 0.1092808059993494 0.0085027741753977253 0 0.125387840289753 0.01538352352774606 0 0.1129542739991219 0.024244635194652711 0 0.125387840289753 0.01538352352774606 0 0.1315750017508765 0.036419111399327013 0 0.1092808059993494 0.0085027741753977253 0 0.125387840289753 0.01538352352774606 0 0.12202783944633749 -0.0073316576218664144 0 0.1092808059993494 0.0085027741753977253 0 0.10064342727750129 0.00058934272498819228 0 0.12202783944633749 -0.0073316576218664144 0 0.091798790394525792 0.021105060070774131 0 0.1092808059993494 0.0085027741753977253 0 0.10064342727750129 0.00058934272498819228 0 0.089100235194546407 0.0012405456441897389 0 0.091798790394525792 0.021105060070774131 0 0.10064342727750129 0.00058934272498819228 0 0.091798790394525792 0.021105060070774131 0 0.083655161843512182 0.030554743850272899 0 0.1067289315611033 0.039812706800019942 0 0.091798790394525792 0.021105060070774131 0 0.1129542739991219 0.024244635194652711 0 0.1092808059993494 0.0085027741753977253 0 0.091798790394525792 0.021105060070774131 0 0.1067289315611033 0.039812706800019942 0 0.1129542739991219 0.024244635194652711 0 0.091798790394525792 0.021105060070774131 0 0.1067289315611033 0.039812706800019942 0 0.10305880996787541 0.1090900040609694 0 0.105967649141885 0.095896940370498937 0 0.084000805696942293 0.098040018905282689 0 0.1117894989197904 0.1200956887940666 0 0.091590660048331829 0.1165454459281916 0 0.098876615735245157 0.12871147572778691 0 0.10305880996787541 0.1090900040609694 0 0.1117894989197904 0.1200956887940666 0 0.091590660048331829 0.1165454459281916 0 0.1219454360324275 0.1148719263068074 0 0.1117894989197904 0.1200956887940666 0 0.13489894359539181 0.13472556589356019 0 0.10305880996787541 0.1090900040609694 0 0.1219454360324275 0.1148719263068074 0 0.1117894989197904 0.1200956887940666 0 0.105967649141885 0.095896940370498937 0 0.1219454360324275 0.1148719263068074 0 0.10305880996787541 0.1090900040609694 0 0.105967649141885 0.095896940370498937 0 0.1219454360324275 0.1148719263068074 0 0.105967649141885 0.095896940370498937 0 0.1219454360324275 0.1148719263068074 0 0.1321133547611395 0.099434398338385313 0 0.105967649141885 0.095896940370498937 0 0.12090769655260469 0.08386504732098958 0 0.1321133547611395 0.099434398338385313 0 0.105967649141885 0.095896940370498937 0 0.12090769655260469 0.08386504732098958 0 0.1062377758661717 0.070300184116425607 0 0.124212499191099 0.061719827646332881 0 0.12090769655260469 0.08386504732098958 0 0.1062377758661717 0.070300184116425607 0 0.09085590821189711 0.058529375152556053 0 0.1062377758661717 0.070300184116425607 0 0.087221429101161846 0.076816326667198745 0 0.105967649141885 0.095896940370498937 0 0.1062377758661717 0.070300184116425607 0 0.087221429101161846 0.076816326667198745 0 0.105967649141885 0.095896940370498937 0 0.087221429101161846 0.076816326667198745 0 0.084000805696942293 0.098040018905282689 0 0.087221429101161846 0.076816326667198745 0 0.069707114477541257 0.078961437143074353 0 0.084000805696942293 0.098040018905282689 0 0.074116680264508489 0.061318406623265681 0 0.09085590821189711 0.058529375152556053 0 0.087221429101161846 0.076816326667198745 0 0.087221429101161846 0.076816326667198745 0 0.069707114477541257 0.078961437143074353 0 0.074116680264508489 0.061318406623265681 0 0.069707114477541257 0.078961437143074353 0 0.056429515457018187 0.063756011893082137 0 0.074116680264508489 0.061318406623265681 0 0.087221429101161846 0.076816326667198745 0 0.069707114477541257 0.078961437143074353 0 0.069707114477541257 0.078961437143074353 0 0.063506987760354794 0.095200990574131061 0 0.084000805696942293 0.098040018905282689 0 0.063506987760354794 0.095200990574131061 0 0.084000805696942293 0.098040018905282689 0 0.064473110434638811 0.1161842170833645 0 0.10305880996787541 0.1090900040609694 0 0.084000805696942293 0.098040018905282689 0 0.091590660048331829 0.1165454459281916 0 0.091590660048331829 0.1165454459281916 0 0.064473110434638811 0.1161842170833645 0 0.0817851125305461 0.13065570204674401 0 0.084000805696942293 0.098040018905282689 0 0.091590660048331829 0.1165454459281916 0 0.064473110434638811 0.1161842170833645 0 0.064473110434638811 0.1161842170833645 0 0.0817851125305461 0.13065570204674401 0 0.064473110434638811 0.1161842170833645 0 0.047161108338731023 0.1017127321199857 0 0.040832167180651899 0.12763151684790669 0 0.064473110434638811 0.1161842170833645 0 0.047161108338731023 0.1017127321199857 0 0.063506987760354794 0.095200990574131061 0 0.064473110434638811 0.1161842170833645 0 0.047161108338731023 0.1017127321199857 0 0.047161108338731023 0.1017127321199857 0 0.043395425025128727 0.098564914256530856 0 0.052192799853920453 0.081106547618948852 0 0.047161108338731023 0.1017127321199857 0 0.043395425025128727 0.098564914256530856 0 0.03726832522096675 0.1073889000878543 0 0.047161108338731023 0.1017127321199857 0 0.043395425025128727 0.098564914256530856 0 0.043395425025128727 0.098564914256530856 0 0.03726832522096675 0.1073889000878543 0 0.028194392242055642 0.09810574009205246 0 0.047161108338731023 0.1017127321199857 0 0.03726832522096675 0.1073889000878543 0 0.040832167180651899 0.12763151684790669 0 0.047161108338731023 0.1017127321199857 0 0.040832167180651899 0.12763151684790669 0 0.03726832522096675 0.1073889000878543 0 0.026758533318265911 0.1109295971227966 0 0.040832167180651899 0.12763151684790669 0 0.069707114477541257 0.078961437143074353 0 0.056429515457018187 0.063756011893082137 0 0.052192799853920453 0.081106547618948852 0 0.056429515457018187 0.063756011893082137 0 0.052192799853920453 0.081106547618948852 0 0.056429515457018187 0.063756011893082137 0 0.052192799853920453 0.081106547618948852 0 0.045133695533363223 0.070190294371823447 0 0.063506987760354794 0.095200990574131061 0 0.047161108338731023 0.1017127321199857 0 0.052192799853920453 0.081106547618948852 0 0.069707114477541257 0.078961437143074353 0 0.052192799853920453 0.081106547618948852 0 0.069707114477541257 0.078961437143074353 0 0.063506987760354794 0.095200990574131061 0 0.052192799853920453 0.081106547618948852 0 0.047161108338731023 0.1017127321199857 0 0.052192799853920453 0.081106547618948852 0 0.052192799853920453 0.081106547618948852 0 0.032399054462011849 0.083530837207749231 0 0.045133695533363223 0.070190294371823447 0 0.052192799853920453 0.081106547618948852 0 0.032399054462011849 0.083530837207749231 0 0.043395425025128727 0.098564914256530856 0 0.052192799853920453 0.081106547618948852 0 0.032399054462011849 0.083530837207749231 0 0.043395425025128727 0.098564914256530856 0 0.032399054462011849 0.083530837207749231 0 0.028194392242055642 0.09810574009205246 0 0.032399054462011849 0.083530837207749231 0 0.045133695533363223 0.070190294371823447 0 0.032646846799287359 0.066574475314377837 0 0.032646846799287359 0.066574475314377837 0 0.012605309070102599 0.085955126796544545 0 0.032646846799287359 0.066574475314377837 0 0.01872938870383644 0.068772108958873479 0 0.012605309070102599 0.085955126796544545 0 0.014527320288925991 0.06066074569357674 0 0.023115548128528628 0.05932459147205154 0 0.01872938870383644 0.068772108958873479 0 0.023115548128528628 0.05932459147205154 0 0.032646846799287359 0.066574475314377837 0 0.01872938870383644 0.068772108958873479 0 0.032399054462011849 0.083530837207749231 0 0.012605309070102599 0.085955126796544545 0 0.028194392242055642 0.09810574009205246 0 0.032399054462011849 0.083530837207749231 0 0.012605309070102599 0.085955126796544545 0 0.032399054462011849 0.083530837207749231 0 0.032646846799287359 0.066574475314377837 0 0.012605309070102599 0.085955126796544545 0 -0.002972956979330543 0.10101968666615579 0 -0.0061649190793326078 0.088254058493460449 0 0.012605309070102599 0.085955126796544545 0 -0.001241533317153726 0.080343616184783459 0 -0.0061649190793326078 0.088254058493460449 0 0.012605309070102599 0.085955126796544545 0 -0.0061649190793326078 0.088254058493460449 0 0.012605309070102599 0.085955126796544545 0 -0.002972956979330543 0.10101968666615579 0 0.012605309070102599 0.085955126796544545 0 -0.001241533317153726 0.080343616184783459 0 0.012605309070102599 0.085955126796544545 0 0.0055069616114183789 0.077107370891031896 0 0.012605309070102599 0.085955126796544545 0 0.01075191923233984 0.071345605517818989 0 0.0055069616114183789 0.077107370891031896 0 0.01872938870383644 0.068772108958873479 0 0.012605309070102599 0.085955126796544545 0 0.01075191923233984 0.071345605517818989 0 -8.7848539612993791e-05 0.070785135064982893 0 -0.001241533317153726 0.080343616184783459 0 0.0055069616114183789 0.077107370891031896 0 -8.7848539612993791e-05 0.070785135064982893 0 0.01075191923233984 0.071345605517818989 0 0.0055069616114183789 0.077107370891031896 0 -8.7848539612993791e-05 0.070785135064982893 0 -0.0025709496334008031 0.061439292322251357 0 0.005407298743430624 0.062710420262737473 0 -8.7848539612993791e-05 0.070785135064982893 0 0.01075191923233984 0.071345605517818989 0 0.005407298743430624 0.062710420262737473 0 0.014527320288925991 0.06066074569357674 0 0.01872938870383644 0.068772108958873479 0 0.01075191923233984 0.071345605517818989 0 0.014527320288925991 0.06066074569357674 0 0.01075191923233984 0.071345605517818989 0 0.005407298743430624 0.062710420262737473 0 0.026758533318265911 0.1109295971227966 0 0.0064625258527795122 0.11766933355032499 0 0.026758533318265911 0.1109295971227966 0 0.0064625258527795122 0.11766933355032499 0 0.020746941812664059 0.12675583575180241 0 0.026758533318265911 0.1109295971227966 0 0.020746941812664059 0.12675583575180241 0 0.040832167180651899 0.12763151684790669 0 0.03726832522096675 0.1073889000878543 0 0.026758533318265911 0.1109295971227966 0 0.028194392242055642 0.09810574009205246 0 0.012605309070102599 0.085955126796544545 0 0.028194392242055642 0.09810574009205246 0 0.01321963120813574 0.1029601371021785 0 0.026758533318265911 0.1109295971227966 0 0.028194392242055642 0.09810574009205246 0 0.01321963120813574 0.1029601371021785 0 -0.002972956979330543 0.10101968666615579 0 0.012605309070102599 0.085955126796544545 0 0.01321963120813574 0.1029601371021785 0 -0.002972956979330543 0.10101968666615579 0 0.01321963120813574 0.1029601371021785 0 0.0064625258527795122 0.11766933355032499 0 0.026758533318265911 0.1109295971227966 0 0.01321963120813574 0.1029601371021785 0 0.0064625258527795122 0.11766933355032499 0 0.0064625258527795122 0.11766933355032499 0 0.0046097382428844378 0.1363816226781332 0 0.020746941812664059 0.12675583575180241 0 -0.002990202890652265 0.12869964488887489 0 0.0064625258527795122 0.11766933355032499 0 0.0046097382428844378 0.1363816226781332 0 0.0046097382428844378 0.1363816226781332 0 0.020746941812664059 0.12675583575180241 0 0.023717337135745881 0.14255999025510169 0 0.020746941812664059 0.12675583575180241 0 0.023717337135745881 0.14255999025510169 0 0.040832167180651899 0.12763151684790669 0 0.023717337135745881 0.14255999025510169 0 0.0072551515649630621 0.15433743183182599 0 0.02588224568276418 0.16639853958577391 0 0.023717337135745881 0.14255999025510169 0 0.02588224568276418 0.16639853958577391 0 0.0410599447456702 0.1448129152003185 0 -0.0045886143852285396 0.14767715404560641 0 0.0046097382428844378 0.1363816226781332 0 0.0072551515649630621 0.15433743183182599 0 0.0046097382428844378 0.1363816226781332 0 0.023717337135745881 0.14255999025510169 0 0.0072551515649630621 0.15433743183182599 0 0.0014772893682009709 0.17348899044432239 0 0.02588224568276418 0.16639853958577391 0 -0.007567086654588712 0.15951829398201781 0 0.0072551515649630621 0.15433743183182599 0 0.0014772893682009709 0.17348899044432239 0 0.0072551515649630621 0.15433743183182599 0 0.0014772893682009709 0.17348899044432239 0 0.02588224568276418 0.16639853958577391 0 0.0014772893682009709 0.17348899044432239 0 0.018549681322812209 0.1797979034114168 0 0.02588224568276418 0.16639853958577391 0 0.0014772893682009709 0.17348899044432239 0 0.018549681322812209 0.1797979034114168 0 0.015717928964432491 0.1954862683910496 0 0.0014772893682009709 0.17348899044432239 0 0.015717928964432491 0.1954862683910496 0 0.018549681322812209 0.1797979034114168 0 0.039254112388155189 0.18528452566613771 0 0.015717928964432491 0.1954862683910496 0 0.018549681322812209 0.1797979034114168 0 0.02588224568276418 0.16639853958577391 0 0.039254112388155189 0.18528452566613771 0 0.02588224568276418 0.16639853958577391 0 0.050287201997327183 0.15930808872722491 0 0.02588224568276418 0.16639853958577391 0 0.039254112388155189 0.18528452566613771 0 0.050287201997327183 0.15930808872722491 0 0.02588224568276418 0.16639853958577391 0 0.050287201997327183 0.15930808872722491 0 0.0410599447456702 0.1448129152003185 0 0.055444824755866227 0.18055085444485891 0 0.056152601439054713 0.19740451465182429 0 0.073360842082397154 0.17697898994153591 0 0.039254112388155189 0.18528452566613771 0 0.055444824755866227 0.18055085444485891 0 0.050287201997327183 0.15930808872722491 0 0.055444824755866227 0.18055085444485891 0 0.050287201997327183 0.15930808872722491 0 0.073360842082397154 0.17697898994153591 0 0.050287201997327183 0.15930808872722491 0 0.058854949200120722 0.1384683462957057 0 0.074692158311890106 0.1522176378686759 0 0.050287201997327183 0.15930808872722491 0 0.058854949200120722 0.1384683462957057 0 0.0410599447456702 0.1448129152003185 0 0.050287201997327183 0.15930808872722491 0 0.074692158311890106 0.1522176378686759 0 0.064473110434638811 0.1161842170833645 0 0.058854949200120722 0.1384683462957057 0 0.040832167180651899 0.12763151684790669 0 0.058854949200120722 0.1384683462957057 0 0.040832167180651899 0.12763151684790669 0 0.0410599447456702 0.1448129152003185 0 0.023717337135745881 0.14255999025510169 0 0.040832167180651899 0.12763151684790669 0 0.0410599447456702 0.1448129152003185 0 0.02507016235747982 0.23632375022303909 0 0.017838681413984741 0.24979402228366321 0 0.03233416839974175 0.2489544859283227 0 0.02507016235747982 0.23632375022303909 0 0.032890526868695188 0.2355606516934107 0 0.03233416839974175 0.2489544859283227 0 0.02507016235747982 0.23632375022303909 0 0.017838681413984741 0.24979402228366321 0 0.013271297860741261 0.23699095498905889 0 -0.0085765501647025733 0.23343870337186631 0 0.00088550965980978768 0.24807331653095191 0 0.013271297860741261 0.23699095498905889 0 0.017838681413984741 0.24979402228366321 0 0.00088550965980978768 0.24807331653095191 0 0.013271297860741261 0.23699095498905889 0 -0.0085765501647025733 0.23343870337186631 0 0.013271297860741261 0.23699095498905889 0 0.0069812978011627256 0.22219935279248579 0 0.013271297860741261 0.23699095498905889 0 0.0069812978011627256 0.22219935279248579 0 0.018654686261109929 0.2251339840275943 0 0.0069812978011627256 0.22219935279248579 0 0.018654686261109929 0.2251339840275943 0 0.01536817595698122 0.2142399623086618 0 0.018654686261109929 0.2251339840275943 0 0.029958568560663909 0.21748354633777689 0 0.01536817595698122 0.2142399623086618 0 0.02507016235747982 0.23632375022303909 0 0.018654686261109929 0.2251339840275943 0 0.029958568560663909 0.21748354633777689 0 0.02507016235747982 0.23632375022303909 0 0.029958568560663909 0.21748354633777689 0 0.032890526868695188 0.2355606516934107 0 0.02507016235747982 0.23632375022303909 0 0.013271297860741261 0.23699095498905889 0 0.018654686261109929 0.2251339840275943 0 0.029958568560663909 0.21748354633777689 0 0.015717928964432491 0.1954862683910496 0 0.029958568560663909 0.21748354633777689 0 0.015717928964432491 0.1954862683910496 0 0.03013361407369294 0.20176201990668041 0 0.029958568560663909 0.21748354633777689 0 0.01536817595698122 0.2142399623086618 0 0.015717928964432491 0.1954862683910496 0 0.0069812978011627256 0.22219935279248579 0 0.01536817595698122 0.2142399623086618 0 0.0055283981975370426 0.21089665999440241 0 0.01536817595698122 0.2142399623086618 0 0.0055283981975370426 0.21089665999440241 0 0.015717928964432491 0.1954862683910496 0 -0.0074866319813214196 0.21337098155200621 0 0.0069812978011627256 0.22219935279248579 0 0.0055283981975370426 0.21089665999440241 0 0.0055283981975370426 0.21089665999440241 0 2.85446008654416e-05 0.19998527450235071 0 0.015717928964432491 0.1954862683910496 0 0.0014772893682009709 0.17348899044432239 0 2.85446008654416e-05 0.19998527450235071 0 0.015717928964432491 0.1954862683910496 0 0.039254112388155189 0.18528452566613771 0 0.015717928964432491 0.1954862683910496 0 0.03013361407369294 0.20176201990668041 0 0.039254112388155189 0.18528452566613771 0 0.041726660272525237 0.2123826749753209 0 0.039254112388155189 0.18528452566613771 0 0.03013361407369294 0.20176201990668041 0 0.041726660272525237 0.2123826749753209 0 0.039254112388155189 0.18528452566613771 0 0.056152601439054713 0.19740451465182429 0 0.041726660272525237 0.2123826749753209 0 0.039254112388155189 0.18528452566613771 0 0.055444824755866227 0.18055085444485891 0 0.056152601439054713 0.19740451465182429 0 0.056152601439054713 0.19740451465182429 0 0.054562228086521308 0.2112393118125713 0 0.066753244118473623 0.21547489222594041 0 0.056152601439054713 0.19740451465182429 0 0.054562228086521308 0.2112393118125713 0 0.041726660272525237 0.2123826749753209 0 0.054562228086521308 0.2112393118125713 0 0.053616406516031681 0.21969516539719969 0 0.066753244118473623 0.21547489222594041 0 0.054562228086521308 0.2112393118125713 0 0.041726660272525237 0.2123826749753209 0 0.053616406516031681 0.21969516539719969 0 0.029958568560663909 0.21748354633777689 0 0.03013361407369294 0.20176201990668041 0 0.041726660272525237 0.2123826749753209 0 0.029958568560663909 0.21748354633777689 0 0.044199208156895299 0.23948082428450421 0 0.032890526868695188 0.2355606516934107 0 0.041726660272525237 0.2123826749753209 0 0.048434873333588688 0.23291710237415361 0 0.044199208156895299 0.23948082428450421 0 0.041726660272525237 0.2123826749753209 0 0.044199208156895299 0.23948082428450421 0 0.029958568560663909 0.21748354633777689 0 0.041726660272525237 0.2123826749753209 0 0.044199208156895299 0.23948082428450421 0 0.029958568560663909 0.21748354633777689 0 0.044199208156895299 0.23948082428450421 0 0.041726660272525237 0.2123826749753209 0 0.053616406516031681 0.21969516539719969 0 0.048434873333588688 0.23291710237415361 0 0.053616406516031681 0.21969516539719969 0 0.058463538778437768 0.22918225276081469 0 0.066753244118473623 0.21547489222594041 0 0.058463538778437768 0.22918225276081469 0 0.048434873333588688 0.23291710237415361 0 0.054232478801014977 0.2385381964721639 0 0.053616406516031681 0.21969516539719969 0 0.058463538778437768 0.22918225276081469 0 0.048434873333588688 0.23291710237415361 0 0.048434873333588688 0.23291710237415361 0 0.047115823194557101 0.24398607078087781 0 0.048434873333588688 0.23291710237415361 0 0.054232478801014977 0.2385381964721639 0 0.047115823194557101 0.24398607078087781 0 0.058463538778437768 0.22918225276081469 0 0.054232478801014977 0.2385381964721639 0 0.062186065708265001 0.239673295934169 0 0.054232478801014977 0.2385381964721639 0 0.062186065708265001 0.239673295934169 0 0.058518839622773981 0.24778572398198129 0 0.054232478801014977 0.2385381964721639 0 0.058518839622773981 0.24778572398198129 0 0.047115823194557101 0.24398607078087781 0 0.044199208156895299 0.23948082428450421 0 0.045696806982089111 0.2558939165554 0 0.047115823194557101 0.24398607078087781 0 0.045696806982089111 0.2558939165554 0 0.047115823194557101 0.24398607078087781 0 0.044199208156895299 0.23948082428450421 0 0.045696806982089111 0.2558939165554 0 0.044199208156895299 0.23948082428450421 0 0.03233416839974175 0.2489544859283227 0 0.045696806982089111 0.2558939165554 0 0.047115823194557101 0.24398607078087781 0 0.044199208156895299 0.23948082428450421 0 0.048434873333588688 0.23291710237415361 0 0.047115823194557101 0.24398607078087781 0 0.044199208156895299 0.23948082428450421 0 0.044199208156895299 0.23948082428450421 0 0.032890526868695188 0.2355606516934107 0 0.03233416839974175 0.2489544859283227 0 0.077707739147207855 0.2416774616703872 0 0.091686663970712234 0.22501387660854921 0 0.099731874317695465 0.24985293073329701 0 0.077707739147207855 0.2416774616703872 0 0.099731874317695465 0.24985293073329701 0 0.078417065127001528 0.25542291653636751 0 0.067166870208718157 0.2499189894128038 0 0.077707739147207855 0.2416774616703872 0 0.078417065127001528 0.25542291653636751 0 0.062186065708265001 0.239673295934169 0 0.067166870208718157 0.2499189894128038 0 0.077707739147207855 0.2416774616703872 0 0.062186065708265001 0.239673295934169 0 0.058518839622773981 0.24778572398198129 0 0.067166870208718157 0.2499189894128038 0 0.062186065708265001 0.239673295934169 0 0.077707739147207855 0.2416774616703872 0 0.07135945034461931 0.23020435583997209 0 0.07135945034461931 0.23020435583997209 0 0.091686663970712234 0.22501387660854921 0 0.066753244118473623 0.21547489222594041 0 0.058463538778437768 0.22918225276081469 0 0.062186065708265001 0.239673295934169 0 0.07135945034461931 0.23020435583997209 0 0.058463538778437768 0.22918225276081469 0 0.07135945034461931 0.23020435583997209 0 0.066753244118473623 0.21547489222594041 0 0.077707739147207855 0.2416774616703872 0 0.07135945034461931 0.23020435583997209 0 0.091686663970712234 0.22501387660854921 0 0.091686663970712234 0.22501387660854921 0 0.066753244118473623 0.21547489222594041 0 0.08364145362372899 0.20017482248380131 0 0.091686663970712234 0.22501387660854921 0 0.08364145362372899 0.20017482248380131 0 0.091686663970712234 0.22501387660854921 0 0.08364145362372899 0.20017482248380131 0 0.1018967256046146 0.20465728726930621 0 0.056152601439054713 0.19740451465182429 0 0.066753244118473623 0.21547489222594041 0 0.08364145362372899 0.20017482248380131 0 0.056152601439054713 0.19740451465182429 0 0.08364145362372899 0.20017482248380131 0 0.073360842082397154 0.17697898994153591 0 0.1174994169627787 0.199557139317595 0 0.1018967256046146 0.20465728726930621 0 0.10524747635865341 0.18225069913187539 0 0.08364145362372899 0.20017482248380131 0 0.1018967256046146 0.20465728726930621 0 0.10524747635865341 0.18225069913187539 0 0.1174994169627787 0.199557139317595 0 0.10524747635865341 0.18225069913187539 0 0.13401370196462301 0.18625671408579239 0 0.1174994169627787 0.199557139317595 0 0.11389479325977329 0.21675114194993161 0 0.13062194412085021 0.216213135278647 0 0.1174994169627787 0.199557139317595 0 0.11389479325977329 0.21675114194993161 0 0.1018967256046146 0.20465728726930621 0 0.091686663970712234 0.22501387660854921 0 0.11389479325977329 0.21675114194993161 0 0.1018967256046146 0.20465728726930621 0 0.091686663970712234 0.22501387660854921 0 0.11389479325977329 0.21675114194993161 0 0.1139328840467112 0.23504878008133179 0 0.11389479325977329 0.21675114194993161 0 0.12661249763807161 0.22976002836239379 0 0.13062194412085021 0.216213135278647 0 0.11389479325977329 0.21675114194993161 0 0.1139328840467112 0.23504878008133179 0 0.12661249763807161 0.22976002836239379 0 0.1139328840467112 0.23504878008133179 0 0.13021875367858421 0.24629350709804379 0 0.1161354712562372 0.25826233395786952 0 0.1139328840467112 0.23504878008133179 0 0.13021875367858421 0.24629350709804379 0 0.12661249763807161 0.22976002836239379 0 0.1139328840467112 0.23504878008133179 0 0.099731874317695465 0.24985293073329701 0 0.1161354712562372 0.25826233395786952 0 0.091686663970712234 0.22501387660854921 0 0.1139328840467112 0.23504878008133179 0 0.099731874317695465 0.24985293073329701 0 0.091686663970712234 0.22501387660854921 0 0.099731874317695465 0.24985293073329701 0 0.074692158311890106 0.1522176378686759 0 0.093954297712290524 0.16339593344467571 0 0.099097114626452473 0.14512718701012459 0 0.0817851125305461 0.13065570204674401 0 0.074692158311890106 0.1522176378686759 0 0.099097114626452473 0.14512718701012459 0 0.074692158311890106 0.1522176378686759 0 0.099097114626452473 0.14512718701012459 0 0.0817851125305461 0.13065570204674401 0 0.099097114626452473 0.14512718701012459 0 0.0817851125305461 0.13065570204674401 0 0.099097114626452473 0.14512718701012459 0 0.098876615735245157 0.12871147572778691 0 0.091590660048331829 0.1165454459281916 0 0.0817851125305461 0.13065570204674401 0 0.098876615735245157 0.12871147572778691 0 0.064473110434638811 0.1161842170833645 0 0.058854949200120722 0.1384683462957057 0 0.0817851125305461 0.13065570204674401 0 0.058854949200120722 0.1384683462957057 0 0.0817851125305461 0.13065570204674401 0 0.074692158311890106 0.1522176378686759 0 0.08364145362372899 0.20017482248380131 0 0.073360842082397154 0.17697898994153591 0 0.10524747635865341 0.18225069913187539 0 0.073360842082397154 0.17697898994153591 0 0.093954297712290524 0.16339593344467571 0 0.10524747635865341 0.18225069913187539 0 0.050287201997327183 0.15930808872722491 0 0.074692158311890106 0.1522176378686759 0 0.073360842082397154 0.17697898994153591 0 0.074692158311890106 0.1522176378686759 0 0.073360842082397154 0.17697898994153591 0 0.093954297712290524 0.16339593344467571 0 0.093954297712290524 0.16339593344467571 0 0.1173738971820586 0.16040515327116781 0 0.099097114626452473 0.14512718701012459 0 0.093954297712290524 0.16339593344467571 0 0.10524747635865341 0.18225069913187539 0 0.1173738971820586 0.16040515327116781 0 0.10524747635865341 0.18225069913187539 0 0.1206657775241074 0.17607647532135309 0 0.1173738971820586 0.16040515327116781 0 0.10524747635865341 0.18225069913187539 0 0.1206657775241074 0.17607647532135309 0 0.13401370196462301 0.18625671408579239 0 0.10524747635865341 0.18225069913187539 0 0.13401370196462301 0.18625671408579239 0 0.1206657775241074 0.17607647532135309 0 0.1173738971820586 0.16040515327116781 0 0.13565067973766401 0.17568311953221211 0 0.1173738971820586 0.16040515327116781 0 0.11699802911092259 0.13992637645184369 0 0.12837079276064339 0.1462685767480974 0 0.1173738971820586 0.16040515327116781 0 0.099097114626452473 0.14512718701012459 0 0.11699802911092259 0.13992637645184369 0 0.099097114626452473 0.14512718701012459 0 0.11699802911092259 0.13992637645184369 0 0.1173738971820586 0.16040515327116781 0 0.099097114626452473 0.14512718701012459 0 0.099097114626452473 0.14512718701012459 0 0.098876615735245157 0.12871147572778691 0 0.1101206925511041 0.1311333548598089 0 0.099097114626452473 0.14512718701012459 0 0.1101206925511041 0.1311333548598089 0 0.11699802911092259 0.13992637645184369 0 0.1117894989197904 0.1200956887940666 0 0.098876615735245157 0.12871147572778691 0 0.1101206925511041 0.1311333548598089 0 0.1101206925511041 0.1311333548598089 0 0.11699802911092259 0.13992637645184369 0 0.13489894359539181 0.13472556589356019 0 0.1117894989197904 0.1200956887940666 0 0.13489894359539181 0.13472556589356019 0 0.1117894989197904 0.1200956887940666 0 0.1101206925511041 0.1311333548598089 0 0.13489894359539181 0.13472556589356019 0 0.11699802911092259 0.13992637645184369 0 0.13489894359539181 0.13472556589356019 0 0.12837079276064339 0.1462685767480974 0 0.11699802911092259 0.13992637645184369 0 0.13489894359539181 0.13472556589356019 0 0.1219454360324275 0.1148719263068074 0 0.13489894359539181 0.13472556589356019 0 0.1379232229229698 0.13384691224311601 0 0.13489894359539181 0.13472556589356019 0 0.14296046387128891 0.13982906589223909 0 0.13489894359539181 0.13472556589356019 0 0.1379232229229698 0.13384691224311601 0 0.14296046387128891 0.13982906589223909 0 0.13489894359539181 0.13472556589356019 0 0.14296046387128891 0.13982906589223909 0 0.13555104450363259 0.1426142669838559 0 0.13489894359539181 0.13472556589356019 0 0.1379232229229698 0.13384691224311601 0 0.1379232229229698 0.13384691224311601 0 0.14296046387128891 0.13982906589223909 0 0.1379232229229698 0.13384691224311601 0 0.1498139855451954 0.1303922505360087 0 0.1379232229229698 0.13384691224311601 0 0.1498139855451954 0.1303922505360087 0 0.1410660005545086 0.12285819987487979 0 0.1379232229229698 0.13384691224311601 0 0.14296046387128891 0.13982906589223909 0 0.1498139855451954 0.1303922505360087 0 0.14296046387128891 0.13982906589223909 0 0.1498139855451954 0.1303922505360087 0 0.15807965683894479 0.13868797399944541 0 0.1498139855451954 0.1303922505360087 0 0.16083222345230669 0.12688303905401929 0 0.15048158465318701 0.11964416541157991 0 0.1498139855451954 0.1303922505360087 0 0.16083222345230669 0.12688303905401929 0 0.15807965683894479 0.13868797399944541 0 0.14296046387128891 0.13982906589223909 0 0.1544189378124978 0.15343698189308841 0 0.13703204941121161 0.15367152114005911 0 0.14296046387128891 0.13982906589223909 0 0.15807965683894479 0.13868797399944541 0 0.16744072458088319 0.1553267643688718 0 0.14296046387128891 0.13982906589223909 0 0.16744072458088319 0.1553267643688718 0 0.14296046387128891 0.13982906589223909 0 0.1544189378124978 0.15343698189308841 0 0.16744072458088319 0.1553267643688718 0 0.14296046387128891 0.13982906589223909 0 0.1544189378124978 0.15343698189308841 0 0.1173738971820586 0.16040515327116781 0 0.13703204941121161 0.15367152114005911 0 0.12837079276064339 0.1462685767480974 0 0.13703204941121161 0.15367152114005911 0 0.13555104450363259 0.1426142669838559 0 0.12837079276064339 0.1462685767480974 0 0.14296046387128891 0.13982906589223909 0 0.13703204941121161 0.15367152114005911 0 0.13555104450363259 0.1426142669838559 0 0.13489894359539181 0.13472556589356019 0 0.13555104450363259 0.1426142669838559 0 0.12837079276064339 0.1462685767480974 0 0.1173738971820586 0.16040515327116781 0 0.13565067973766401 0.17568311953221211 0 0.1173738971820586 0.16040515327116781 0 0.13371898311038169 0.16411017992858479 0 0.13565067973766401 0.17568311953221211 0 0.1173738971820586 0.16040515327116781 0 0.13703204941121161 0.15367152114005911 0 0.13371898311038169 0.16411017992858479 0 0.13371898311038169 0.16411017992858479 0 0.13565067973766401 0.17568311953221211 0 0.14481930611059279 0.16668092577090041 0 0.13703204941121161 0.15367152114005911 0 0.13371898311038169 0.16411017992858479 0 0.14481930611059279 0.16668092577090041 0 0.1206657775241074 0.17607647532135309 0 0.13565067973766401 0.17568311953221211 0 0.13401370196462301 0.18625671408579239 0 0.13565067973766401 0.17568311953221211 0 0.13401370196462301 0.18625671408579239 0 0.1462281517818067 0.17884473880898591 0 0.1462281517818067 0.17884473880898591 0 0.15387714352556131 0.17534020561631539 0 0.16277992757059251 0.19026272903970931 0 0.13401370196462301 0.18625671408579239 0 0.1462281517818067 0.17884473880898591 0 0.16277992757059251 0.19026272903970931 0 0.13565067973766401 0.17568311953221211 0 0.1462281517818067 0.17884473880898591 0 0.14481930611059279 0.16668092577090041 0 0.1462281517818067 0.17884473880898591 0 0.15387714352556131 0.17534020561631539 0 0.14481930611059279 0.16668092577090041 0 0.1544189378124978 0.15343698189308841 0 0.13703204941121161 0.15367152114005911 0 0.14481930611059279 0.16668092577090041 0 0.15387714352556131 0.17534020561631539 0 0.14481930611059279 0.16668092577090041 0 0.15491922737903649 0.166005057309731 0 0.1544189378124978 0.15343698189308841 0 0.14481930611059279 0.16668092577090041 0 0.15491922737903649 0.166005057309731 0 0.1544189378124978 0.15343698189308841 0 0.16587741175370549 0.16704489789393859 0 0.16744072458088319 0.1553267643688718 0 0.1544189378124978 0.15343698189308841 0 0.16587741175370549 0.16704489789393859 0 0.1544189378124978 0.15343698189308841 0 0.15491922737903649 0.166005057309731 0 0.16587741175370549 0.16704489789393859 0 0.15387714352556131 0.17534020561631539 0 0.15491922737903649 0.166005057309731 0 0.16587741175370549 0.16704489789393859 0 0.16587741175370549 0.16704489789393859 0 0.16744072458088319 0.1553267643688718 0 0.16587741175370549 0.16704489789393859 0 0.17811348699856089 0.16208336127868869 0 0.16744072458088319 0.1553267643688718 0 0.15387714352556131 0.17534020561631539 0 0.16587741175370549 0.16704489789393859 0 0.16277992757059251 0.19026272903970931 0 0.16587741175370549 0.16704489789393859 0 0.1693799342480492 0.18189966189820811 0 0.16277992757059251 0.19026272903970931 0 0.16587741175370549 0.16704489789393859 0 0.16277992757059251 0.19026272903970931 0 0.16587741175370549 0.16704489789393859 0 0.1693799342480492 0.18189966189820811 0 0.1755782417742667 0.17856546169114401 0 0.16587741175370549 0.16704489789393859 0 0.1755782417742667 0.17856546169114401 0 0.1693799342480492 0.18189966189820811 0 0.1755782417742667 0.17856546169114401 0 0.17328415589363169 0.19172555896804061 0 0.1755782417742667 0.17856546169114401 0 0.17328415589363169 0.19172555896804061 0 0.1755782417742667 0.17856546169114401 0 0.1806832334955551 0.1846280751669665 0 0.17328415589363169 0.19172555896804061 0 0.1755782417742667 0.17856546169114401 0 0.1806832334955551 0.1846280751669665 0 0.1755782417742667 0.17856546169114401 0 0.18260175012963531 0.17156769784197659 0 0.18037716476716509 0.168887930755486 0 0.1755782417742667 0.17856546169114401 0 0.1835506443345602 0.17767265330958271 0 0.18260175012963531 0.17156769784197659 0 0.1835506443345602 0.17767265330958271 0 0.18260175012963531 0.17156769784197659 0 0.18968830478837431 0.17186477992740321 0 0.1835506443345602 0.17767265330958271 0 0.1806832334955551 0.1846280751669665 0 0.19254365914839089 0.18230279779989819 0 0.1755782417742667 0.17856546169114401 0 0.1835506443345602 0.17767265330958271 0 0.1806832334955551 0.1846280751669665 0 0.1755782417742667 0.17856546169114401 0 0.17811348699856089 0.16208336127868869 0 0.18037716476716509 0.168887930755486 0 0.1755782417742667 0.17856546169114401 0 0.17811348699856089 0.16208336127868869 0 0.16587741175370549 0.16704489789393859 0 0.1755782417742667 0.17856546169114401 0 0.17811348699856089 0.16208336127868869 0 0.17811348699856089 0.16208336127868869 0 0.16744072458088319 0.1553267643688718 0 0.17811348699856089 0.16208336127868869 0 0.18037716476716509 0.168887930755486 0 0.1846509180027962 0.16463352539770451 0 0.18260175012963531 0.17156769784197659 0 0.18037716476716509 0.168887930755486 0 0.1846509180027962 0.16463352539770451 0 0.18260175012963531 0.17156769784197659 0 0.1846509180027962 0.16463352539770451 0 0.18968830478837431 0.17186477992740321 0 0.1846509180027962 0.16463352539770451 0 0.18496726425053739 0.16010495500626809 0 0.19142473801821791 0.16138061389181371 0 0.17811348699856089 0.16208336127868869 0 0.18496726425053739 0.16010495500626809 0 0.18511565181917339 0.15362064264443509 0 0.17811348699856089 0.16208336127868869 0 0.1846509180027962 0.16463352539770451 0 0.18496726425053739 0.16010495500626809 0 0.18496726425053739 0.16010495500626809 0 0.18511565181917339 0.15362064264443509 0 0.19142473801821791 0.16138061389181371 0 0.18511565181917339 0.15362064264443509 0 0.1817772565496576 0.1430046144910937 0 0.194146769711075 0.14934831103158999 0 0.17811348699856089 0.16208336127868869 0 0.18511565181917339 0.15362064264443509 0 0.1817772565496576 0.1430046144910937 0 0.17811348699856089 0.16208336127868869 0 0.17431165425938791 0.15003129177429331 0 0.1817772565496576 0.1430046144910937 0 0.17811348699856089 0.16208336127868869 0 0.1817772565496576 0.1430046144910937 0 0.17811348699856089 0.16208336127868869 0 0.17431165425938791 0.15003129177429331 0 0.16744072458088319 0.1553267643688718 0 0.17431165425938791 0.15003129177429331 0 0.1817772565496576 0.1430046144910937 0 0.1693508867450482 0.14100875014608891 0 0.1817772565496576 0.1430046144910937 0 0.17666320208108099 0.12744119018527569 0 0.194146769711075 0.14934831103158999 0 0.17666320208108099 0.12744119018527569 0 0.194146769711075 0.14934831103158999 0 0.1817772565496576 0.1430046144910937 0 0.17666320208108099 0.12744119018527569 0 0.1693508867450482 0.14100875014608891 0 0.17666320208108099 0.12744119018527569 0 0.16083222345230669 0.12688303905401929 0 0.1693508867450482 0.14100875014608891 0 0.16083222345230669 0.12688303905401929 0 0.15807965683894479 0.13868797399944541 0 0.1693508867450482 0.14100875014608891 0 0.15807965683894479 0.13868797399944541 0 0.16744072458088319 0.1553267643688718 0 0.1693508867450482 0.14100875014608891 0 0.17431165425938791 0.15003129177429331 0 0.16744072458088319 0.1553267643688718 0 0.1693508867450482 0.14100875014608891 0 0.16744072458088319 0.1553267643688718 0 0.1693508867450482 0.14100875014608891 0 0.15585359634222551 0.24121601116273569 0 0.14127785153066469 0.23432286649356329 0 0.15749480773260721 0.22987843415054901 0 0.15585359634222551 0.24121601116273569 0 0.16431863944532379 0.24929897214185001 0 0.1470062354836712 0.25173867832156249 0 0.15585359634222551 0.24121601116273569 0 0.14127785153066469 0.23432286649356329 0 0.1470062354836712 0.25173867832156249 0 0.13021875367858421 0.24629350709804379 0 0.12661249763807161 0.22976002836239379 0 0.14127785153066469 0.23432286649356329 0 0.13021875367858421 0.24629350709804379 0 0.14127785153066469 0.23432286649356329 0 0.1470062354836712 0.25173867832156249 0 0.12661249763807161 0.22976002836239379 0 0.14127785153066469 0.23432286649356329 0 0.13062194412085021 0.216213135278647 0 0.14127785153066469 0.23432286649356329 0 0.1464585217628338 0.21832588855231219 0 0.13062194412085021 0.216213135278647 0 0.1464585217628338 0.21832588855231219 0 0.16013736765160111 0.21007058159512931 0 0.15749480773260721 0.22987843415054901 0 0.14127785153066469 0.23432286649356329 0 0.1464585217628338 0.21832588855231219 0 0.15749480773260721 0.22987843415054901 0 0.1498677951913221 0.2076468141478191 0 0.1464585217628338 0.21832588855231219 0 0.16013736765160111 0.21007058159512931 0 0.1498677951913221 0.2076468141478191 0 0.1549480561169112 0.20155470195702321 0 0.16013736765160111 0.21007058159512931 0 0.1498677951913221 0.2076468141478191 0 0.1413609926828463 0.20838044733723279 0 0.1470071340541291 0.19823868304543499 0 0.1498677951913221 0.2076468141478191 0 0.1413609926828463 0.20838044733723279 0 0.1464585217628338 0.21832588855231219 0 0.1413609926828463 0.20838044733723279 0 0.1464585217628338 0.21832588855231219 0 0.13062194412085021 0.216213135278647 0 0.1174994169627787 0.199557139317595 0 0.13062194412085021 0.216213135278647 0 0.1328495682850965 0.2014777156619505 0 0.1413609926828463 0.20838044733723279 0 0.13062194412085021 0.216213135278647 0 0.1328495682850965 0.2014777156619505 0 0.1413609926828463 0.20838044733723279 0 0.1328495682850965 0.2014777156619505 0 0.1470071340541291 0.19823868304543499 0 0.1174994169627787 0.199557139317595 0 0.13401370196462301 0.18625671408579239 0 0.1328495682850965 0.2014777156619505 0 0.13401370196462301 0.18625671408579239 0 0.1328495682850965 0.2014777156619505 0 0.1470071340541291 0.19823868304543499 0 0.1470071340541291 0.19823868304543499 0 0.1549480561169112 0.20155470195702321 0 0.16277992757059251 0.19026272903970931 0 0.13401370196462301 0.18625671408579239 0 0.16277992757059251 0.19026272903970931 0 0.13401370196462301 0.18625671408579239 0 0.1470071340541291 0.19823868304543499 0 0.16277992757059251 0.19026272903970931 0 0.1498677951913221 0.2076468141478191 0 0.1470071340541291 0.19823868304543499 0 0.1549480561169112 0.20155470195702321 0 0.16277992757059251 0.19026272903970931 0 0.1666938091603076 0.19983313879260969 0 0.16013736765160111 0.21007058159512931 0 0.16277992757059251 0.19026272903970931 0 0.16013736765160111 0.21007058159512931 0 0.1549480561169112 0.20155470195702321 0 0.16277992757059251 0.19026272903970931 0 0.16013736765160111 0.21007058159512931 0 0.1666938091603076 0.19983313879260969 0 0.17328415589363169 0.19172555896804061 0 0.17057378552540481 0.20727368556755979 0 0.16277992757059251 0.19026272903970931 0 0.17328415589363169 0.19172555896804061 0 0.16277992757059251 0.19026272903970931 0 0.1666938091603076 0.19983313879260969 0 0.17328415589363169 0.19172555896804061 0 0.1693799342480492 0.18189966189820811 0 0.16277992757059251 0.19026272903970931 0 0.17328415589363169 0.19172555896804061 0 0.17328415589363169 0.19172555896804061 0 0.18396140773954919 0.20487584912749579 0 0.1976642260491398 0.19512075328231149 0 0.1806832334955551 0.1846280751669665 0 0.17328415589363169 0.19172555896804061 0 0.1976642260491398 0.19512075328231149 0 0.17328415589363169 0.19172555896804061 0 0.1976642260491398 0.19512075328231149 0 0.17328415589363169 0.19172555896804061 0 0.17057378552540481 0.20727368556755979 0 0.17328415589363169 0.19172555896804061 0 0.18396140773954919 0.20487584912749579 0 0.17057378552540481 0.20727368556755979 0 0.18396140773954919 0.20487584912749579 0 0.17809453790125479 0.21632905393999491 0 0.17057378552540481 0.20727368556755979 0 0.18396140773954919 0.20487584912749579 0 0.17809453790125479 0.21632905393999491 0 0.1890983943469397 0.21851322133144441 0 0.17809453790125479 0.21632905393999491 0 0.17057378552540481 0.20727368556755979 0 0.1678634151571779 0.22282181216707911 0 0.17057378552540481 0.20727368556755979 0 0.1678634151571779 0.22282181216707911 0 0.17057378552540481 0.20727368556755979 0 0.16013736765160111 0.21007058159512931 0 0.1678634151571779 0.22282181216707911 0 0.1666938091603076 0.19983313879260969 0 0.17057378552540481 0.20727368556755979 0 0.16013736765160111 0.21007058159512931 0 0.16013736765160111 0.21007058159512931 0 0.15749480773260721 0.22987843415054901 0 0.1678634151571779 0.22282181216707911 0 0.16013736765160111 0.21007058159512931 0 0.15749480773260721 0.22987843415054901 0 0.15749480773260721 0.22987843415054901 0 0.1678634151571779 0.22282181216707911 0 0.16998216910540789 0.23686656310176191 0 0.17809453790125479 0.21632905393999491 0 0.1678634151571779 0.22282181216707911 0 0.17998631488077149 0.227804954932597 0 0.17998631488077149 0.227804954932597 0 0.19153899192486021 0.22728379161935261 0 0.1890983943469397 0.21851322133144441 0 0.17809453790125479 0.21632905393999491 0 0.17998631488077149 0.227804954932597 0 0.1890983943469397 0.21851322133144441 0 0.17998631488077149 0.227804954932597 0 0.1831710770965688 0.24054394903561149 0 0.19153899192486021 0.22728379161935261 0 0.1678634151571779 0.22282181216707911 0 0.17998631488077149 0.227804954932597 0 0.16998216910540789 0.23686656310176191 0 0.17998631488077149 0.227804954932597 0 0.1831710770965688 0.24054394903561149 0 0.16998216910540789 0.23686656310176191 0 0.1831710770965688 0.24054394903561149 0 0.1740603542668569 0.24557828143113711 0 0.16998216910540789 0.23686656310176191 0 0.1831710770965688 0.24054394903561149 0 0.19338201909312711 0.24905444508389901 0 0.17876953142012739 0.25560364144532532 0 0.1831710770965688 0.24054394903561149 0 0.1740603542668569 0.24557828143113711 0 0.17876953142012739 0.25560364144532532 0 0.1740603542668569 0.24557828143113711 0 0.16431863944532379 0.24929897214185001 0 0.16998216910540789 0.23686656310176191 0 0.15585359634222551 0.24121601116273569 0 0.15749480773260721 0.22987843415054901 0 0.16998216910540789 0.23686656310176191 0 0.15585359634222551 0.24121601116273569 0 0.16431863944532379 0.24929897214185001 0 0.16998216910540789 0.23686656310176191 0 0.19329060642472931 0.23612174913658521 0 0.215472082308197 0.25382136174294828 0 0.2075346102370236 0.22989716791568091 0 0.22083749221131721 0.23844346533068669 0 0.215472082308197 0.25382136174294828 0 0.19329060642472931 0.23612174913658521 0 0.2075346102370236 0.22989716791568091 0 0.215472082308197 0.25382136174294828 0 0.19338201909312711 0.24905444508389901 0 0.19329060642472931 0.23612174913658521 0 0.215472082308197 0.25382136174294828 0 0.1831710770965688 0.24054394903561149 0 0.19329060642472931 0.23612174913658521 0 0.1831710770965688 0.24054394903561149 0 0.19338201909312711 0.24905444508389901 0 0.19329060642472931 0.23612174913658521 0 0.1831710770965688 0.24054394903561149 0 0.19329060642472931 0.23612174913658521 0 0.19153899192486021 0.22728379161935261 0 0.19329060642472931 0.23612174913658521 0 0.2075346102370236 0.22989716791568091 0 0.19329060642472931 0.23612174913658521 0 0.19153899192486021 0.22728379161935261 0 0.2075346102370236 0.22989716791568091 0 0.19153899192486021 0.22728379161935261 0 0.19790456306299731 0.21965966488142899 0 0.2075346102370236 0.22989716791568091 0 0.19153899192486021 0.22728379161935261 0 0.19790456306299731 0.21965966488142899 0 0.1890983943469397 0.21851322133144441 0 0.19790456306299731 0.21965966488142899 0 0.2075346102370236 0.22989716791568091 0 0.2061632398513559 0.21149746215073381 0 0.2075346102370236 0.22989716791568091 0 0.2061632398513559 0.21149746215073381 0 0.23189814337747891 0.21925038679575171 0 0.2061632398513559 0.21149746215073381 0 0.21358280549891401 0.19725321398066911 0 0.23189814337747891 0.21925038679575171 0 0.2061632398513559 0.21149746215073381 0 0.19468124135151579 0.2078309144067956 0 0.1976642260491398 0.19512075328231149 0 0.19790456306299731 0.21965966488142899 0 0.2061632398513559 0.21149746215073381 0 0.19468124135151579 0.2078309144067956 0 0.19790456306299731 0.21965966488142899 0 0.1890983943469397 0.21851322133144441 0 0.19468124135151579 0.2078309144067956 0 0.18396140773954919 0.20487584912749579 0 0.1890983943469397 0.21851322133144441 0 0.19468124135151579 0.2078309144067956 0 0.18396140773954919 0.20487584912749579 0 0.19468124135151579 0.2078309144067956 0 0.1976642260491398 0.19512075328231149 0 0.1976642260491398 0.19512075328231149 0 0.21358280549891401 0.19725321398066911 0 0.21163033734106901 0.17125543187790421 0 0.2061632398513559 0.21149746215073381 0 0.1976642260491398 0.19512075328231149 0 0.21358280549891401 0.19725321398066911 0 0.2337856900478337 0.19901635570143489 0 0.2291139049710629 0.19316255272421839 0 0.23327483263481319 0.21597417095762991 0 0.2337856900478337 0.19901635570143489 0 0.2291139049710629 0.19316255272421839 0 0.2337856900478337 0.19901635570143489 0 0.2291139049710629 0.19316255272421839 0 0.24110881751561861 0.19355153676030101 0 0.2291139049710629 0.19316255272421839 0 0.24110881751561861 0.19355153676030101 0 0.23869978074016249 0.186174492585298 0 0.24110881751561861 0.19355153676030101 0 0.23869978074016249 0.186174492585298 0 0.24447756995520301 0.1851938032857614 0 0.24110881751561861 0.19355153676030101 0 0.24785602693145789 0.18947148817661541 0 0.24447756995520301 0.1851938032857614 0 0.24110881751561861 0.19355153676030101 0 0.24785602693145789 0.18947148817661541 0 0.25061386337834979 0.19610877606118021 0 0.24110881751561861 0.19355153676030101 0 0.24613184410308109 0.2016685561764188 0 0.25061386337834979 0.19610877606118021 0 0.24110881751561861 0.19355153676030101 0 0.24613184410308109 0.2016685561764188 0 0.23982396415605661 0.2020839761096731 0 0.2337856900478337 0.19901635570143489 0 0.23982396415605661 0.2020839761096731 0 0.23783530161625299 0.20821894445486619 0 0.2337856900478337 0.19901635570143489 0 0.24110881751561861 0.19355153676030101 0 0.23982396415605661 0.2020839761096731 0 0.239081971737344 0.2161110782353009 0 0.25594839705947597 0.20874050773367539 0 0.239081971737344 0.2161110782353009 0 0.26047456910592293 0.21661542335539441 0 0.2337856900478337 0.19901635570143489 0 0.23783530161625299 0.20821894445486619 0 0.23327483263481319 0.21597417095762991 0 0.23783530161625299 0.20821894445486619 0 0.24382788568456751 0.2075160308113484 0 0.239081971737344 0.2161110782353009 0 0.24382788568456751 0.2075160308113484 0 0.239081971737344 0.2161110782353009 0 0.25594839705947597 0.20874050773367539 0 0.23982396415605661 0.2020839761096731 0 0.23783530161625299 0.20821894445486619 0 0.24382788568456751 0.2075160308113484 0 0.24613184410308109 0.2016685561764188 0 0.24382788568456751 0.2075160308113484 0 0.25594839705947597 0.20874050773367539 0 0.24613184410308109 0.2016685561764188 0 0.23982396415605661 0.2020839761096731 0 0.24382788568456751 0.2075160308113484 0 0.23783530161625299 0.20821894445486619 0 0.239081971737344 0.2161110782353009 0 0.23327483263481319 0.21597417095762991 0 0.239081971737344 0.2161110782353009 0 0.23327483263481319 0.21597417095762991 0 0.23189814337747891 0.21925038679575171 0 0.239081971737344 0.2161110782353009 0 0.23189814337747891 0.21925038679575171 0 0.239081971737344 0.2161110782353009 0 0.23327483263481319 0.21597417095762991 0 0.2291139049710629 0.19316255272421839 0 0.23327483263481319 0.21597417095762991 0 0.23189814337747891 0.21925038679575171 0 0.21358280549891401 0.19725321398066911 0 0.2291139049710629 0.19316255272421839 0 0.23189814337747891 0.21925038679575171 0 0.2291139049710629 0.19316255272421839 0 0.23189814337747891 0.21925038679575171 0 0.23189814337747891 0.21925038679575171 0 0.23465887965939131 0.2451180100106207 0 0.22083749221131721 0.23844346533068669 0 0.23189814337747891 0.21925038679575171 0 0.23465887965939131 0.2451180100106207 0 0.2075346102370236 0.22989716791568091 0 0.23189814337747891 0.21925038679575171 0 0.22083749221131721 0.23844346533068669 0 0.2075346102370236 0.22989716791568091 0 0.23189814337747891 0.21925038679575171 0 0.239081971737344 0.2161110782353009 0 0.23965073367047171 0.2272018045865469 0 0.25077693712520399 0.23232828641164041 0 0.239081971737344 0.2161110782353009 0 0.23189814337747891 0.21925038679575171 0 0.23965073367047171 0.2272018045865469 0 0.23189814337747891 0.21925038679575171 0 0.23965073367047171 0.2272018045865469 0 0.23465887965939131 0.2451180100106207 0 0.23465887965939131 0.2451180100106207 0 0.25398509206044312 0.25273715779978062 0 0.25077693712520399 0.23232828641164041 0 0.23965073367047171 0.2272018045865469 0 0.23465887965939131 0.2451180100106207 0 0.25077693712520399 0.23232828641164041 0 0.23465887965939131 0.2451180100106207 0 0.22083749221131721 0.23844346533068669 0 0.215472082308197 0.25382136174294828 0 0.2162982724764935 0.15323733937488751 0 0.2153196328305971 0.13597548837296999 0 0.194146769711075 0.14934831103158999 0 0.2153196328305971 0.13597548837296999 0 0.2178027584688276 0.1172935188688151 0 0.19971535109395391 0.1248358288567358 0 0.17666320208108099 0.12744119018527569 0 0.194146769711075 0.14934831103158999 0 0.19971535109395391 0.1248358288567358 0 0.2153196328305971 0.13597548837296999 0 0.194146769711075 0.14934831103158999 0 0.19971535109395391 0.1248358288567358 0 0.18511565181917339 0.15362064264443509 0 0.194146769711075 0.14934831103158999 0 0.19142473801821791 0.16138061389181371 0 0.194146769711075 0.14934831103158999 0 0.21163033734106901 0.17125543187790421 0 0.194146769711075 0.14934831103158999 0 0.19142473801821791 0.16138061389181371 0 0.21163033734106901 0.17125543187790421 0 0.19142473801821791 0.16138061389181371 0 0.18968830478837431 0.17186477992740321 0 0.21163033734106901 0.17125543187790421 0 0.1846509180027962 0.16463352539770451 0 0.19142473801821791 0.16138061389181371 0 0.18968830478837431 0.17186477992740321 0 0.18968830478837431 0.17186477992740321 0 0.19254365914839089 0.18230279779989819 0 0.21163033734106901 0.17125543187790421 0 0.1976642260491398 0.19512075328231149 0 0.19254365914839089 0.18230279779989819 0 0.21163033734106901 0.17125543187790421 0 0.1806832334955551 0.1846280751669665 0 0.1976642260491398 0.19512075328231149 0 0.19254365914839089 0.18230279779989819 0 0.1835506443345602 0.17767265330958271 0 0.18968830478837431 0.17186477992740321 0 0.19254365914839089 0.18230279779989819 0 0.21358280549891401 0.19725321398066911 0 0.2291139049710629 0.19316255272421839 0 0.21163033734106901 0.17125543187790421 0 0.2162982724764935 0.15323733937488751 0 0.21163033734106901 0.17125543187790421 0 0.22597078057490941 0.16371201877427211 0 0.2162982724764935 0.15323733937488751 0 0.194146769711075 0.14934831103158999 0 0.21163033734106901 0.17125543187790421 0 0.2291139049710629 0.19316255272421839 0 0.21163033734106901 0.17125543187790421 0 0.2291139049710629 0.19316255272421839 0 0.22597078057490941 0.16371201877427211 0 0.2367281930158586 0.17673027689341261 0 0.2291139049710629 0.19316255272421839 0 0.22597078057490941 0.16371201877427211 0 0.2291139049710629 0.19316255272421839 0 0.21163033734106901 0.17125543187790421 0 0.22597078057490941 0.16371201877427211 0 0.2291139049710629 0.19316255272421839 0 0.23869978074016249 0.186174492585298 0 0.2367281930158586 0.17673027689341261 0 0.23869978074016249 0.186174492585298 0 0.2367281930158586 0.17673027689341261 0 0.2448668508328023 0.17958307231821441 0 0.2367281930158586 0.17673027689341261 0 0.2448668508328023 0.17958307231821441 0 0.24455774856214241 0.17102345849015249 0 0.24826169011726351 0.1757427330452076 0 0.24455774856214241 0.17102345849015249 0 0.25332315553631768 0.17359911323978389 0 0.24826169011726351 0.1757427330452076 0 0.2448668508328023 0.17958307231821441 0 0.24455774856214241 0.17102345849015249 0 0.24826169011726351 0.1757427330452076 0 0.2448668508328023 0.17958307231821441 0 0.25029900553779161 0.17876528813267961 0 0.2448668508328023 0.17958307231821441 0 0.24957516736416391 0.18398373333817489 0 0.25029900553779161 0.17876528813267961 0 0.2448668508328023 0.17958307231821441 0 0.24957516736416391 0.18398373333817489 0 0.24447756995520301 0.1851938032857614 0 0.24785602693145789 0.18947148817661541 0 0.24957516736416391 0.18398373333817489 0 0.24447756995520301 0.1851938032857614 0 0.23869978074016249 0.186174492585298 0 0.2448668508328023 0.17958307231821441 0 0.24447756995520301 0.1851938032857614 0 0.22597078057490941 0.16371201877427211 0 0.24287743397325001 0.16192299849150479 0 0.23442384192481691 0.1458954468177012 0 0.22597078057490941 0.16371201877427211 0 0.2367281930158586 0.17673027689341261 0 0.24287743397325001 0.16192299849150479 0 0.2367281930158586 0.17673027689341261 0 0.24455774856214241 0.17102345849015249 0 0.24287743397325001 0.16192299849150479 0 0.24455774856214241 0.17102345849015249 0 0.24287743397325001 0.16192299849150479 0 0.25332315553631768 0.17359911323978389 0 0.24287743397325001 0.16192299849150479 0 0.2485295647427305 0.14688504715929099 0 0.25674810777089307 0.1552815608667327 0 0.24287743397325001 0.16192299849150479 0 0.2485295647427305 0.14688504715929099 0 0.23442384192481691 0.1458954468177012 0 0.2485295647427305 0.14688504715929099 0 0.23442384192481691 0.1458954468177012 0 0.24842538003922371 0.13436122112683491 0 0.2162982724764935 0.15323733937488751 0 0.22597078057490941 0.16371201877427211 0 0.23442384192481691 0.1458954468177012 0 0.2162982724764935 0.15323733937488751 0 0.2153196328305971 0.13597548837296999 0 0.23442384192481691 0.1458954468177012 0 0.2153196328305971 0.13597548837296999 0 0.23442384192481691 0.1458954468177012 0 0.23196927132725539 0.12953691121200281 0 0.2153196328305971 0.13597548837296999 0 0.23196927132725539 0.12953691121200281 0 0.2178027584688276 0.1172935188688151 0 0.23196927132725539 0.12953691121200281 0 0.24842538003922371 0.13436122112683491 0 0.243198239670641 0.11554456854911439 0 0.23442384192481691 0.1458954468177012 0 0.23196927132725539 0.12953691121200281 0 0.24842538003922371 0.13436122112683491 0 0.243198239670641 0.11554456854911439 0 0.24934266385504561 0.098137529887377728 0 0.22103726934769161 0.096427824513096921 0 0.243198239670641 0.11554456854911439 0 0.22103726934769161 0.096427824513096921 0 0.23196927132725539 0.12953691121200281 0 0.243198239670641 0.11554456854911439 0 0.2178027584688276 0.1172935188688151 0 0.243198239670641 0.11554456854911439 0 0.22103726934769161 0.096427824513096921 0 0.2178027584688276 0.1172935188688151 0 0.2178027584688276 0.1172935188688151 0 0.1939531776576171 0.1047661421299825 0 0.19971535109395391 0.1248358288567358 0 0.22103726934769161 0.096427824513096921 0 0.2178027584688276 0.1172935188688151 0 0.1939531776576171 0.1047661421299825 0 0.17666320208108099 0.12744119018527569 0 0.1939531776576171 0.1047661421299825 0 0.19971535109395391 0.1248358288567358 0 0.19887629902474219 0.077311080477079436 0 0.19259730616114809 0.062186607447375128 0 0.17671532870179291 0.058194336441062089 0 0.19887629902474219 0.077311080477079436 0 0.17671532870179291 0.058194336441062089 0 0.1939531776576171 0.1047661421299825 0 0.19887629902474219 0.077311080477079436 0 0.18371816063826571 0.087834299226487583 0 0.19887629902474219 0.077311080477079436 0 0.18371816063826571 0.087834299226487583 0 0.18117457830892139 0.072746820442044641 0 0.22103726934769161 0.096427824513096921 0 0.19887629902474219 0.077311080477079436 0 0.22103726934769161 0.096427824513096921 0 0.1939531776576171 0.1047661421299825 0 0.19887629902474219 0.077311080477079436 0 0.22103726934769161 0.096427824513096921 0 0.19887629902474219 0.077311080477079436 0 0.2269862823272909 0.071794089892792221 0 0.19887629902474219 0.077311080477079436 0 0.21831686861142821 0.05431606743370114 0 0.19259730616114809 0.062186607447375128 0 0.19887629902474219 0.077311080477079436 0 0.2269862823272909 0.071794089892792221 0 0.21831686861142821 0.05431606743370114 0 0.22103726934769161 0.096427824513096921 0 0.2269862823272909 0.071794089892792221 0 0.24833339802783469 0.078003237367376341 0 0.24934266385504561 0.098137529887377728 0 0.22103726934769161 0.096427824513096921 0 0.24833339802783469 0.078003237367376341 0 0.2269862823272909 0.071794089892792221 0 0.24833339802783469 0.078003237367376341 0 0.24836757662475781 0.052912239672707209 0 0.24836757662475781 0.052912239672707209 0 0.23881440283601951 0.037772767319185593 0 0.21831686861142821 0.05431606743370114 0 0.24836757662475781 0.052912239672707209 0 0.23881440283601951 0.037772767319185593 0 0.2588329008117537 0.041664494009963693 0 0.23881440283601951 0.037772767319185593 0 0.21979358942907559 0.03669664076496084 0 0.23134106925385281 0.022792583532445811 0 0.23881440283601951 0.037772767319185593 0 0.21979358942907559 0.03669664076496084 0 0.21831686861142821 0.05431606743370114 0 0.2269862823272909 0.071794089892792221 0 0.24836757662475781 0.052912239672707209 0 0.21831686861142821 0.05431606743370114 0 0.23820147174060999 0.01135906833182147 0 0.2485809188977687 0.0003435598250259543 0 0.25656892618750982 0.019346841867646659 0 0.23820147174060999 0.01135906833182147 0 0.2485809188977687 0.0003435598250259543 0 0.2310181963881548 0.00012559392120288501 0 0.23881440283601951 0.037772767319185593 0 0.23134106925385281 0.022792583532445811 0 0.25656892618750982 0.019346841867646659 0 0.23134106925385281 0.022792583532445811 0 0.25656892618750982 0.019346841867646659 0 0.23820147174060999 0.01135906833182147 0 0.23134106925385281 0.022792583532445811 0 0.25656892618750982 0.019346841867646659 0 0.21979358942907559 0.03669664076496084 0 0.23134106925385281 0.022792583532445811 0 0.2061132123201958 0.026238325197245661 0 0.23820147174060999 0.01135906833182147 0 0.23134106925385281 0.022792583532445811 0 0.21856570435417549 0.013181959559224479 0 0.23820147174060999 0.01135906833182147 0 0.2310181963881548 0.00012559392120288501 0 0.21856570435417549 0.013181959559224479 0 0.2310181963881548 0.00012559392120288501 0 0.21856570435417549 0.013181959559224479 0 0.2310181963881548 0.00012559392120288501 0 0.21856570435417549 0.013181959559224479 0 0.21663534476304699 -0.001567312408006177 0 0.20400220656931661 0.0066988266659244004 0 0.21856570435417549 0.013181959559224479 0 0.2061132123201958 0.026238325197245661 0 0.20400220656931661 0.0066988266659244004 0 0.21856570435417549 0.013181959559224479 0 0.21663534476304699 -0.001567312408006177 0 0.23134106925385281 0.022792583532445811 0 0.2061132123201958 0.026238325197245661 0 0.23134106925385281 0.022792583532445811 0 0.21856570435417549 0.013181959559224479 0 0.2061132123201958 0.026238325197245661 0 0.21856570435417549 0.013181959559224479 0 0.2061132123201958 0.026238325197245661 0 0.2061132123201958 0.026238325197245661 0 0.18796293240655881 0.013168398402936529 0 0.18126714213042269 0.029631920597938979 0 0.2061132123201958 0.026238325197245661 0 0.18126714213042269 0.029631920597938979 0 0.20400220656931661 0.0066988266659244004 0 0.2061132123201958 0.026238325197245661 0 0.18796293240655881 0.013168398402936529 0 0.20400220656931661 0.0066988266659244004 0 0.18796293240655881 0.013168398402936529 0 0.1937811550467875 -0.0023769228609781712 0 0.18796293240655881 0.013168398402936529 0 0.1819249663380034 0.0033868337313615361 0 0.1937811550467875 -0.0023769228609781712 0 0.21831686861142821 0.05431606743370114 0 0.2058215898621899 0.043176283772491442 0 0.19259730616114809 0.062186607447375128 0 0.21979358942907559 0.03669664076496084 0 0.2061132123201958 0.026238325197245661 0 0.2058215898621899 0.043176283772491442 0 0.21979358942907559 0.03669664076496084 0 0.21831686861142821 0.05431606743370114 0 0.2058215898621899 0.043176283772491442 0 0.2061132123201958 0.026238325197245661 0 0.2058215898621899 0.043176283772491442 0 0.19167330675161379 0.041378482393690297 0 0.2061132123201958 0.026238325197245661 0 0.19167330675161379 0.041378482393690297 0 0.18126714213042269 0.029631920597938979 0 0.2061132123201958 0.026238325197245661 0 0.19167330675161379 0.041378482393690297 0 0.2058215898621899 0.043176283772491442 0 0.19167330675161379 0.041378482393690297 0 0.19259730616114809 0.062186607447375128 0 0.19167330675161379 0.041378482393690297 0 0.19259730616114809 0.062186607447375128 0 0.17723340118303119 0.056518639590134631 0 0.19259730616114809 0.062186607447375128 0 0.17723340118303119 0.056518639590134631 0 0.17671532870179291 0.058194336441062089 0 0.17671532870179291 0.058194336441062089 0 0.17400956054240271 0.066020048558742564 0 0.16920682825026079 0.062680311271497868 0 0.17723340118303119 0.056518639590134631 0 0.17380471320087981 0.049178347777495739 0 0.1793444417302654 0.04572848564477739 0 0.17723340118303119 0.056518639590134631 0 0.17671532870179291 0.058194336441062089 0 0.17380471320087981 0.049178347777495739 0 0.19167330675161379 0.041378482393690297 0 0.17723340118303119 0.056518639590134631 0 0.1793444417302654 0.04572848564477739 0 0.19167330675161379 0.041378482393690297 0 0.17723340118303119 0.056518639590134631 0 0.19167330675161379 0.041378482393690297 0 0.17808905010859141 0.03836388038681586 0 0.1793444417302654 0.04572848564477739 0 0.19167330675161379 0.041378482393690297 0 0.17808905010859141 0.03836388038681586 0 0.18126714213042269 0.029631920597938979 0 0.17808905010859141 0.03836388038681586 0 0.16625611547211899 0.038410954287288357 0 0.18126714213042269 0.029631920597938979 0 0.17808905010859141 0.03836388038681586 0 0.17267745441647331 0.042270341575131258 0 0.16625611547211899 0.038410954287288357 0 0.17380471320087981 0.049178347777495739 0 0.17593776069101091 0.043876205703343912 0 0.1793444417302654 0.04572848564477739 0 0.17808905010859141 0.03836388038681586 0 0.17593776069101091 0.043876205703343912 0 0.1793444417302654 0.04572848564477739 0 0.17808905010859141 0.03836388038681586 0 0.17593776069101091 0.043876205703343912 0 0.17267745441647331 0.042270341575131258 0 0.17380471320087981 0.049178347777495739 0 0.17593776069101091 0.043876205703343912 0 0.17267745441647331 0.042270341575131258 0 0.16625611547211899 0.038410954287288357 0 0.15642107194064961 0.033025515998632987 0 0.18126714213042269 0.029631920597938979 0 0.17380471320087981 0.049178347777495739 0 0.16625611547211899 0.038410954287288357 0 0.15455435837884371 0.039077592405044742 0 0.17380471320087981 0.049178347777495739 0 0.17267745441647331 0.042270341575131258 0 0.16625611547211899 0.038410954287288357 0 0.15642107194064961 0.033025515998632987 0 0.18126714213042269 0.029631920597938979 0 0.16625611547211899 0.038410954287288357 0 0.15642107194064961 0.033025515998632987 0 0.15455435837884371 0.039077592405044742 0 0.17671532870179291 0.058194336441062089 0 0.15455435837884371 0.039077592405044742 0 0.17671532870179291 0.058194336441062089 0 0.16168212540793581 0.055802777998291572 0 0.15455435837884371 0.039077592405044742 0 0.17671532870179291 0.058194336441062089 0 0.17380471320087981 0.049178347777495739 0 0.15455435837884371 0.039077592405044742 0 0.16168212540793581 0.055802777998291572 0 0.15336159848741451 0.062863649789936152 0 0.1621859536724439 0.064240963775829676 0 0.16168212540793581 0.055802777998291572 0 0.16920682825026079 0.062680311271497868 0 0.1621859536724439 0.064240963775829676 0 0.17671532870179291 0.058194336441062089 0 0.16168212540793581 0.055802777998291572 0 0.16920682825026079 0.062680311271497868 0 0.1819249663380034 0.0033868337313615361 0 0.17429287537050769 0.010109121803244281 0 0.16965506028777491 0.001191154427040698 0 0.1819249663380034 0.0033868337313615361 0 0.16965506028777491 0.001191154427040698 0 0.18796293240655881 0.013168398402936529 0 0.1819249663380034 0.0033868337313615361 0 0.17429287537050769 0.010109121803244281 0 0.17429287537050769 0.010109121803244281 0 0.17543225000247251 0.01936322124780011 0 0.16680325762560799 0.015956639060601008 0 0.18796293240655881 0.013168398402936529 0 0.17429287537050769 0.010109121803244281 0 0.17543225000247251 0.01936322124780011 0 0.18796293240655881 0.013168398402936529 0 0.17543225000247251 0.01936322124780011 0 0.18126714213042269 0.029631920597938979 0 0.17543225000247251 0.01936322124780011 0 0.18126714213042269 0.029631920597938979 0 0.1667181124048093 0.024795290502178751 0 0.15642107194064961 0.033025515998632987 0 0.18126714213042269 0.029631920597938979 0 0.1667181124048093 0.024795290502178751 0 0.15642107194064961 0.033025515998632987 0 0.1667181124048093 0.024795290502178751 0 0.1591877119859933 0.026137282094363608 0 0.1591877119859933 0.026137282094363608 0 0.1598582375599388 0.020428226003431811 0 0.15241578355080321 0.024208892626406759 0 0.1667181124048093 0.024795290502178751 0 0.1591877119859933 0.026137282094363608 0 0.1598582375599388 0.020428226003431811 0 0.1598582375599388 0.020428226003431811 0 0.16680325762560799 0.015956639060601008 0 0.1586679460664086 0.012665541075199399 0 0.1667181124048093 0.024795290502178751 0 0.1598582375599388 0.020428226003431811 0 0.16680325762560799 0.015956639060601008 0 0.17543225000247251 0.01936322124780011 0 0.1667181124048093 0.024795290502178751 0 0.16680325762560799 0.015956639060601008 0 0.16965506028777491 0.001191154427040698 0 0.15433944833467919 0.0062616994464962461 0 0.14584144986705619 -0.0030702515974127282 0 0.17429287537050769 0.010109121803244281 0 0.16680325762560799 0.015956639060601008 0 0.16585012434951099 0.0083784337317516985 0 0.16680325762560799 0.015956639060601008 0 0.16585012434951099 0.0083784337317516985 0 0.1586679460664086 0.012665541075199399 0 0.16585012434951099 0.0083784337317516985 0 0.1586679460664086 0.012665541075199399 0 0.15433944833467919 0.0062616994464962461 0 0.16585012434951099 0.0083784337317516985 0 0.16965506028777491 0.001191154427040698 0 0.15433944833467919 0.0062616994464962461 0 0.17429287537050769 0.010109121803244281 0 0.16585012434951099 0.0083784337317516985 0 0.16965506028777491 0.001191154427040698 0 0.16585012434951099 0.0083784337317516985 0 0.16965506028777491 0.001191154427040698 0 0.15433944833467919 0.0062616994464962461 0 0.14884268545133991 0.015837339946170662 0 0.13765514584181521 0.0076051518222601689 0 0.15433944833467919 0.0062616994464962461 0 0.13765514584181521 0.0076051518222601689 0 0.14584144986705619 -0.0030702515974127282 0 0.1586679460664086 0.012665541075199399 0 0.15433944833467919 0.0062616994464962461 0 0.14884268545133991 0.015837339946170662 0 0.15642107194064961 0.033025515998632987 0 0.15241578355080321 0.024208892626406759 0 0.13954332838801481 0.024286952886435412 0 0.14884268545133991 0.015837339946170662 0 0.13954332838801481 0.024286952886435412 0 0.13765514584181521 0.0076051518222601689 0 0.15642107194064961 0.033025515998632987 0 0.13954332838801481 0.024286952886435412 0 0.1315750017508765 0.036419111399327013 0 0.14884268545133991 0.015837339946170662 0 0.15241578355080321 0.024208892626406759 0 0.13954332838801481 0.024286952886435412 0 0.1598582375599388 0.020428226003431811 0 0.1586679460664086 0.012665541075199399 0 0.14884268545133991 0.015837339946170662 0 0.1598582375599388 0.020428226003431811 0 0.14884268545133991 0.015837339946170662 0 0.15241578355080321 0.024208892626406759 0 0.15642107194064961 0.033025515998632987 0 0.1591877119859933 0.026137282094363608 0 0.15241578355080321 0.024208892626406759 0 0.13954332838801481 0.024286952886435412 0 0.125387840289753 0.01538352352774606 0 0.1315750017508765 0.036419111399327013 0 0.13954332838801481 0.024286952886435412 0 0.125387840289753 0.01538352352774606 0 0.13765514584181521 0.0076051518222601689 0 0.125387840289753 0.01538352352774606 0 0.13765514584181521 0.0076051518222601689 0 0.12202783944633749 -0.0073316576218664144 0 0.16168212540793581 0.055802777998291572 0 0.15061896577031239 0.051700226534028802 0 0.15455435837884371 0.039077592405044742 0 0.14111405497517349 0.057113794213801257 0 0.15061896577031239 0.051700226534028802 0 0.14685669056317119 0.043467248110166959 0 0.14111405497517349 0.057113794213801257 0 0.15061896577031239 0.051700226534028802 0 0.15336159848741451 0.062863649789936152 0 0.16168212540793581 0.055802777998291572 0 0.15061896577031239 0.051700226534028802 0 0.15336159848741451 0.062863649789936152 0 0.15642107194064961 0.033025515998632987 0 0.1315750017508765 0.036419111399327013 0 0.15061896577031239 0.051700226534028802 0 0.15455435837884371 0.039077592405044742 0 0.14685669056317119 0.043467248110166959 0 0.15642107194064961 0.033025515998632987 0 0.14685669056317119 0.043467248110166959 0 0.1315750017508765 0.036419111399327013 0 0.15642107194064961 0.033025515998632987 0 0.15455435837884371 0.039077592405044742 0 0.14685669056317119 0.043467248110166959 0 0.14111405497517349 0.057113794213801257 0 0.14685669056317119 0.043467248110166959 0 0.1315750017508765 0.036419111399327013 0 0.124212499191099 0.061719827646332881 0 0.14111405497517349 0.057113794213801257 0 0.1315750017508765 0.036419111399327013 0 0.124212499191099 0.061719827646332881 0 0.14111405497517349 0.057113794213801257 0 0.14169606682109301 0.083626948492647152 0 0.124212499191099 0.061719827646332881 0 0.14169606682109301 0.083626948492647152 0 0.124212499191099 0.061719827646332881 0 0.12090769655260469 0.08386504732098958 0 0.14169606682109301 0.083626948492647152 0 0.15506211923305849 0.077477757306768466 0 0.15336159848741451 0.062863649789936152 0 0.14169606682109301 0.083626948492647152 0 0.14111405497517349 0.057113794213801257 0 0.15336159848741451 0.062863649789936152 0 0.14169606682109301 0.083626948492647152 0 0.15506211923305849 0.077477757306768466 0 0.14169606682109301 0.083626948492647152 0 0.15917963445108699 0.10553406933896139 0 0.12090769655260469 0.08386504732098958 0 0.14169606682109301 0.083626948492647152 0 0.1321133547611395 0.099434398338385313 0 0.1219454360324275 0.1148719263068074 0 0.1321133547611395 0.099434398338385313 0 0.14151607926283699 0.11255326825403041 0 0.1219454360324275 0.1148719263068074 0 0.1379232229229698 0.13384691224311601 0 0.1219454360324275 0.1148719263068074 0 0.1379232229229698 0.13384691224311601 0 0.1410660005545086 0.12285819987487979 0 0.1219454360324275 0.1148719263068074 0 0.1410660005545086 0.12285819987487979 0 0.14151607926283699 0.11255326825403041 0 0.14151607926283699 0.11255326825403041 0 0.15048158465318701 0.11964416541157991 0 0.15917963445108699 0.10553406933896139 0 0.1498139855451954 0.1303922505360087 0 0.1410660005545086 0.12285819987487979 0 0.15048158465318701 0.11964416541157991 0 0.1410660005545086 0.12285819987487979 0 0.14151607926283699 0.11255326825403041 0 0.15048158465318701 0.11964416541157991 0 0.14169606682109301 0.083626948492647152 0 0.1321133547611395 0.099434398338385313 0 0.15917963445108699 0.10553406933896139 0 0.1321133547611395 0.099434398338385313 0 0.14151607926283699 0.11255326825403041 0 0.15917963445108699 0.10553406933896139 0 0.14169606682109301 0.083626948492647152 0 0.15917963445108699 0.10553406933896139 0 0.17666320208108099 0.12744119018527569 0 0.1939531776576171 0.1047661421299825 0 0.15917963445108699 0.10553406933896139 0 0.1939531776576171 0.1047661421299825 0 0.15917963445108699 0.10553406933896139 0 0.18371816063826571 0.087834299226487583 0 0.17666320208108099 0.12744119018527569 0 0.16083222345230669 0.12688303905401929 0 0.15917963445108699 0.10553406933896139 0 0.17666320208108099 0.12744119018527569 0 0.15917963445108699 0.10553406933896139 0 0.16083222345230669 0.12688303905401929 0 0.15048158465318701 0.11964416541157991 0 0.15917963445108699 0.10553406933896139 0 0.18371816063826571 0.087834299226487583 0 0.18117457830892139 0.072746820442044641 0 0.16914740934410691 0.082388958293313122 0 0.19887629902474219 0.077311080477079436 0 0.17671532870179291 0.058194336441062089 0 0.18117457830892139 0.072746820442044641 0 0.18117457830892139 0.072746820442044641 0 0.17400956054240271 0.066020048558742564 0 0.16894150690863571 0.070458726080365686 0 0.17671532870179291 0.058194336441062089 0 0.18117457830892139 0.072746820442044641 0 0.17400956054240271 0.066020048558742564 0 0.18117457830892139 0.072746820442044641 0 0.16894150690863571 0.070458726080365686 0 0.16914740934410691 0.082388958293313122 0 0.15506211923305849 0.077477757306768466 0 0.16894150690863571 0.070458726080365686 0 0.16914740934410691 0.082388958293313122 0 0.17400956054240271 0.066020048558742564 0 0.16894150690863571 0.070458726080365686 0 0.16920682825026079 0.062680311271497868 0 0.16894150690863571 0.070458726080365686 0 0.16920682825026079 0.062680311271497868 0 0.1621859536724439 0.064240963775829676 0 0.15506211923305849 0.077477757306768466 0 0.15336159848741451 0.062863649789936152 0 0.1621859536724439 0.064240963775829676 0 0.15506211923305849 0.077477757306768466 0 0.16894150690863571 0.070458726080365686 0 0.1621859536724439 0.064240963775829676 0 0.15917963445108699 0.10553406933896139 0 0.18371816063826571 0.087834299226487583 0 0.16914740934410691 0.082388958293313122 0 0.15506211923305849 0.077477757306768466 0 0.15917963445108699 0.10553406933896139 0 0.16914740934410691 0.082388958293313122 0 0.10270531565245961 0.48469484421015657 0 0.1041223454863304 0.46731758483831409 0 0.087322570509631312 0.47648738748685981 0 0.10270531565245961 0.48469484421015657 0 0.1143130726789493 0.5 0 0.085415668273359668 0.5 0 0.10270531565245961 0.48469484421015657 0 0.1143130726789493 0.5 0 0.12235292131402729 0.47966924872560912 0 0.10270531565245961 0.48469484421015657 0 0.12235292131402729 0.47966924872560912 0 0.1041223454863304 0.46731758483831409 0 0.12235292131402729 0.47966924872560912 0 0.1184020728772099 0.46488677192158401 0 0.1041223454863304 0.46731758483831409 0 0.12235292131402729 0.47966924872560912 0 0.1184020728772099 0.46488677192158401 0 0.13120714967448319 0.46015920542284949 0 0.1184020728772099 0.46488677192158401 0 0.1101720905286208 0.45506894446684842 0 0.12041356572887441 0.44591644938472352 0 0.1184020728772099 0.46488677192158401 0 0.12041356572887441 0.44591644938472352 0 0.13120714967448319 0.46015920542284949 0 0.1184020728772099 0.46488677192158401 0 0.1101720905286208 0.45506894446684842 0 0.1041223454863304 0.46731758483831409 0 0.12041356572887441 0.44591644938472352 0 0.1154472923075002 0.43233503678826479 0 0.12551471678323209 0.43628230179449962 0 0.1101720905286208 0.45506894446684842 0 0.12041356572887441 0.44591644938472352 0 0.1110830460665773 0.44116844913693998 0 0.12041356572887441 0.44591644938472352 0 0.1110830460665773 0.44116844913693998 0 0.1154472923075002 0.43233503678826479 0 0.1110830460665773 0.44116844913693998 0 0.10084498409653581 0.45056269691558498 0 0.1004155384557195 0.43902973862043698 0 0.1101720905286208 0.45506894446684842 0 0.1110830460665773 0.44116844913693998 0 0.10084498409653581 0.45056269691558498 0 0.10084498409653581 0.45056269691558498 0 0.088897775017236211 0.45368829162553082 0 0.093059066956516126 0.44322754982621809 0 0.1004155384557195 0.43902973862043698 0 0.093059066956516126 0.44322754982621809 0 0.091005784301211021 0.43194802823591621 0 0.10084498409653581 0.45056269691558498 0 0.1004155384557195 0.43902973862043698 0 0.093059066956516126 0.44322754982621809 0 0.10084498409653581 0.45056269691558498 0 0.1041223454863304 0.46731758483831409 0 0.088897775017236211 0.45368829162553082 0 0.1101720905286208 0.45506894446684842 0 0.10084498409653581 0.45056269691558498 0 0.1041223454863304 0.46731758483831409 0 0.088897775017236211 0.45368829162553082 0 0.073843733497757302 0.46125151824130012 0 0.087322570509631312 0.47648738748685981 0 0.1041223454863304 0.46731758483831409 0 0.088897775017236211 0.45368829162553082 0 0.087322570509631312 0.47648738748685981 0 0.088897775017236211 0.45368829162553082 0 0.074674396554397768 0.44294294779245108 0 0.073843733497757302 0.46125151824130012 0 0.093059066956516126 0.44322754982621809 0 0.085247902050121893 0.43929415082561268 0 0.091005784301211021 0.43194802823591621 0 0.088897775017236211 0.45368829162553082 0 0.093059066956516126 0.44322754982621809 0 0.085247902050121893 0.43929415082561268 0 0.088897775017236211 0.45368829162553082 0 0.085247902050121893 0.43929415082561268 0 0.074674396554397768 0.44294294779245108 0 0.074674396554397768 0.44294294779245108 0 0.064252840930597285 0.44960264553369839 0 0.073843733497757302 0.46125151824130012 0 0.074674396554397768 0.44294294779245108 0 0.06181621036973349 0.43838075011596922 0 0.068560106641958662 0.43154975366548981 0 0.074674396554397768 0.44294294779245108 0 0.064252840930597285 0.44960264553369839 0 0.06181621036973349 0.43838075011596922 0 0.073843733497757302 0.46125151824130012 0 0.069325685907130202 0.48106329080057608 0 0.057312575406592473 0.46210122661916458 0 0.064252840930597285 0.44960264553369839 0 0.073843733497757302 0.46125151824130012 0 0.057312575406592473 0.46210122661916458 0 0.073843733497757302 0.46125151824130012 0 0.069325685907130202 0.48106329080057608 0 0.087322570509631312 0.47648738748685981 0 0.10270531565245961 0.48469484421015657 0 0.087322570509631312 0.47648738748685981 0 0.085415668273359668 0.5 0 0.069325685907130202 0.48106329080057608 0 0.087322570509631312 0.47648738748685981 0 0.085415668273359668 0.5 0 0.069325685907130202 0.48106329080057608 0 0.085415668273359668 0.5 0 0.056518263867770091 0.5 0 0.056518263867770091 0.5 0 0.051559625247600563 0.47907080373663052 0 0.04377076099640384 0.48641969303658761 0 0.069325685907130202 0.48106329080057608 0 0.056518263867770091 0.5 0 0.051559625247600563 0.47907080373663052 0 0.051559625247600563 0.47907080373663052 0 0.044607496430191879 0.46699832326929819 0 0.057312575406592473 0.46210122661916458 0 0.069325685907130202 0.48106329080057608 0 0.051559625247600563 0.47907080373663052 0 0.057312575406592473 0.46210122661916458 0 0.037362478088395747 0.4757755187073302 0 0.029088942264681349 0.48759099213486218 0 0.031918434586907837 0.46367463508671503 0 0.051559625247600563 0.47907080373663052 0 0.037362478088395747 0.4757755187073302 0 0.044607496430191879 0.46699832326929819 0 0.051559625247600563 0.47907080373663052 0 0.037362478088395747 0.4757755187073302 0 0.04377076099640384 0.48641969303658761 0 0.035406979593264401 0.48435465725236898 0 0.037362478088395747 0.4757755187073302 0 0.029088942264681349 0.48759099213486218 0 0.035406979593264401 0.48435465725236898 0 0.037362478088395747 0.4757755187073302 0 0.04377076099640384 0.48641969303658761 0 0.037362478088395747 0.4757755187073302 0 0.031918434586907837 0.46367463508671503 0 0.044607496430191879 0.46699832326929819 0 0.04377076099640384 0.48641969303658761 0 0.031405737023576262 0.48763242513069621 0 0.027620859462180469 0.50000000000000266 0 0.056518263867770091 0.5 0 0.04377076099640384 0.48641969303658761 0 0.027620859462180469 0.50000000000000266 0 0.035406979593264401 0.48435465725236898 0 0.04377076099640384 0.48641969303658761 0 0.031405737023576262 0.48763242513069621 0 0.035406979593264401 0.48435465725236898 0 0.031405737023576262 0.48763242513069621 0 0.029088942264681349 0.48759099213486218 0 0.027620859462180469 0.50000000000000266 0 0.029088942264681349 0.48759099213486218 0 0.027620859462180469 0.50000000000000266 0 0.0174866415671492 0.49338277824891541 0 0.0046437197017198386 0.5 0 0.0174866415671492 0.49338277824891541 0 0.029088942264681349 0.48759099213486218 0 0.0074717582378100618 0.48720439565609158 0 0.027620859462180469 0.50000000000000266 0 0.0174866415671492 0.49338277824891541 0 0.029088942264681349 0.48759099213486218 0 0.029088942264681349 0.48759099213486218 0 0.0074717582378100618 0.48720439565609158 0 0.031405737023576262 0.48763242513069621 0 0.027620859462180469 0.50000000000000266 0 0.029088942264681349 0.48759099213486218 0 0.031405737023576262 0.48763242513069621 0 0.029088942264681349 0.48759099213486218 0 0.029088942264681349 0.48759099213486218 0 0.031918434586907837 0.46367463508671503 0 0.029088942264681349 0.48759099213486218 0 0.02082195329715093 0.47448738852965361 0 0.0074717582378100618 0.48720439565609158 0 0.029088942264681349 0.48759099213486218 0 0.02082195329715093 0.47448738852965361 0 0.031918434586907837 0.46367463508671503 0 0.02082195329715093 0.47448738852965361 0 0.0074717582378100618 0.48720439565609158 0 0.008981499347734314 0.46553819631796101 0 -0.0047780101938374427 0.47190419893922408 0 0.0074717582378100618 0.48720439565609158 0 0.008981499347734314 0.46553819631796101 0 -0.0039163893020063394 0.49232368272422727 0 0.0074717582378100618 0.48720439565609158 0 0.0046437197017198386 0.5 0 0.0174866415671492 0.49338277824891541 0 0.0074717582378100618 0.48720439565609158 0 0.0046437197017198386 0.5 0 -0.0021977797239108991 0.45880013985398022 0 -0.0072629850960212738 0.44530142717588928 0 0.0105979247129312 0.44688373374106849 0 -0.0072629850960212738 0.44530142717588928 0 0.0105979247129312 0.44688373374106849 0 0.0028100250070855872 0.43285207765557687 0 -0.0021977797239108991 0.45880013985398022 0 0.0105979247129312 0.44688373374106849 0 0.008981499347734314 0.46553819631796101 0 0.0105979247129312 0.44688373374106849 0 0.008981499347734314 0.46553819631796101 0 0.01973411830486135 0.45879835385206758 0 -0.0021977797239108991 0.45880013985398022 0 -0.0047780101938374427 0.47190419893922408 0 0.008981499347734314 0.46553819631796101 0 0.02082195329715093 0.47448738852965361 0 0.01973411830486135 0.45879835385206758 0 0.031918434586907837 0.46367463508671503 0 0.02082195329715093 0.47448738852965361 0 0.008981499347734314 0.46553819631796101 0 0.01973411830486135 0.45879835385206758 0 0.01973411830486135 0.45879835385206758 0 0.02312813045925529 0.445651814726298 0 0.031918434586907837 0.46367463508671503 0 0.02312813045925529 0.445651814726298 0 0.03474792690913335 0.43975827803856782 0 0.031918434586907837 0.46367463508671503 0 0.0105979247129312 0.44688373374106849 0 0.01973411830486135 0.45879835385206758 0 0.02312813045925529 0.445651814726298 0 0.0105979247129312 0.44688373374106849 0 0.02312813045925529 0.445651814726298 0 0.02126134256548845 0.43837433043250579 0 0.0105979247129312 0.44688373374106849 0 0.02126134256548845 0.43837433043250579 0 0.01536177691627633 0.43225237840703162 0 0.02312813045925529 0.445651814726298 0 0.02126134256548845 0.43837433043250579 0 0.03075070798142596 0.43399649471642449 0 0.02312813045925529 0.445651814726298 0 0.03474792690913335 0.43975827803856782 0 0.03075070798142596 0.43399649471642449 0 0.02312813045925529 0.445651814726298 0 0.03075070798142596 0.43399649471642449 0 0.03474792690913335 0.43975827803856782 0 0.031918434586907837 0.46367463508671503 0 0.044884368821462767 0.45436943219665038 0 0.03474792690913335 0.43975827803856782 0 0.031918434586907837 0.46367463508671503 0 0.03474792690913335 0.43975827803856782 0 0.044884368821462767 0.45436943219665038 0 0.03474792690913335 0.43975827803856782 0 0.045447522223526847 0.44188089923668622 0 0.044884368821462767 0.45436943219665038 0 0.03474792690913335 0.43975827803856782 0 0.045447522223526847 0.44188089923668622 0 0.043194542646565783 0.43346681714188728 0 0.031918434586907837 0.46367463508671503 0 0.044884368821462767 0.45436943219665038 0 0.044607496430191879 0.46699832326929819 0 0.044884368821462767 0.45436943219665038 0 0.044607496430191879 0.46699832326929819 0 0.057312575406592473 0.46210122661916458 0 0.044884368821462767 0.45436943219665038 0 0.057312575406592473 0.46210122661916458 0 0.054262306638377562 0.44684128106688481 0 0.045447522223526847 0.44188089923668622 0 0.054262306638377562 0.44684128106688481 0 0.051860322078352478 0.43471273269914013 0 0.045447522223526847 0.44188089923668622 0 0.044884368821462767 0.45436943219665038 0 0.054262306638377562 0.44684128106688481 0 0.064252840930597285 0.44960264553369839 0 0.057312575406592473 0.46210122661916458 0 0.054262306638377562 0.44684128106688481 0 0.054262306638377562 0.44684128106688481 0 0.06181621036973349 0.43838075011596922 0 0.051860322078352478 0.43471273269914013 0 0.064252840930597285 0.44960264553369839 0 0.054262306638377562 0.44684128106688481 0 0.06181621036973349 0.43838075011596922 0 0.06181621036973349 0.43838075011596922 0 0.059541891631065297 0.42787632878768161 0 0.051860322078352478 0.43471273269914013 0 0.059541891631065297 0.42787632878768161 0 0.050085837478721119 0.42364616111271719 0 0.058118226453747313 0.41705439248338261 0 0.059541891631065297 0.42787632878768161 0 0.058118226453747313 0.41705439248338261 0 0.067015172297364811 0.42168439004786168 0 0.059541891631065297 0.42787632878768161 0 0.050085837478721119 0.42364616111271719 0 0.051860322078352478 0.43471273269914013 0 0.050085837478721119 0.42364616111271719 0 0.051860322078352478 0.43471273269914013 0 0.043194542646565783 0.43346681714188728 0 0.050085837478721119 0.42364616111271719 0 0.058118226453747313 0.41705439248338261 0 0.051015133334143023 0.40301112767815839 0 0.058118226453747313 0.41705439248338261 0 0.051015133334143023 0.40301112767815839 0 0.064706772880911284 0.40804706931976781 0 0.036462924480491328 0.42526221670237452 0 0.039905476419212188 0.39616395738690968 0 0.036462924480491328 0.42526221670237452 0 0.051015133334143023 0.40301112767815839 0 0.036462924480491328 0.42526221670237452 0 0.039905476419212188 0.39616395738690968 0 0.051015133334143023 0.40301112767815839 0 0.050085837478721119 0.42364616111271719 0 0.036462924480491328 0.42526221670237452 0 0.051015133334143023 0.40301112767815839 0 0.036462924480491328 0.42526221670237452 0 0.029796807660165521 0.40885794471338338 0 0.039905476419212188 0.39616395738690968 0 0.045447522223526847 0.44188089923668622 0 0.051860322078352478 0.43471273269914013 0 0.043194542646565783 0.43346681714188728 0 0.050085837478721119 0.42364616111271719 0 0.043194542646565783 0.43346681714188728 0 0.036462924480491328 0.42526221670237452 0 0.036462924480491328 0.42526221670237452 0 0.03075070798142596 0.43399649471642449 0 0.03474792690913335 0.43975827803856782 0 0.036462924480491328 0.42526221670237452 0 0.03474792690913335 0.43975827803856782 0 0.036462924480491328 0.42526221670237452 0 0.03075070798142596 0.43399649471642449 0 0.03474792690913335 0.43975827803856782 0 0.043194542646565783 0.43346681714188728 0 0.036462924480491328 0.42526221670237452 0 0.03474792690913335 0.43975827803856782 0 0.03075070798142596 0.43399649471642449 0 0.036462924480491328 0.42526221670237452 0 0.03075070798142596 0.43399649471642449 0 0.01911697960774561 0.41722707994827818 0 0.03075070798142596 0.43399649471642449 0 0.01911697960774561 0.41722707994827818 0 0.01536177691627633 0.43225237840703162 0 0.03075070798142596 0.43399649471642449 0 0.01911697960774561 0.41722707994827818 0 0.02126134256548845 0.43837433043250579 0 0.03075070798142596 0.43399649471642449 0 0.01536177691627633 0.43225237840703162 0 0.029796807660165521 0.40885794471338338 0 0.01911697960774561 0.41722707994827818 0 0.023701850133213451 0.39677852481597148 0 0.036462924480491328 0.42526221670237452 0 0.029796807660165521 0.40885794471338338 0 0.01911697960774561 0.41722707994827818 0 0.01911697960774561 0.41722707994827818 0 0.0074832512340659001 0.40045766518013137 0 -0.0060861808982948934 0.41915061822671279 0 0.01911697960774561 0.41722707994827818 0 0.0074832512340659001 0.40045766518013137 0 0.01911697960774561 0.41722707994827818 0 0.0028100250070855872 0.43285207765557687 0 0.01536177691627633 0.43225237840703162 0 -0.0060861808982948934 0.41915061822671279 0 0.01911697960774561 0.41722707994827818 0 0.0028100250070855872 0.43285207765557687 0 0.0105979247129312 0.44688373374106849 0 0.0028100250070855872 0.43285207765557687 0 0.01536177691627633 0.43225237840703162 0 -0.004150477139613834 0.38368825041198462 0 0.01419306656496839 0.38457483971546469 0 0.0062038194441939101 0.37327343350035691 0 -0.004150477139613834 0.38368825041198462 0 0.01419306656496839 0.38457483971546469 0 0.0074832512340659001 0.40045766518013137 0 0.01419306656496839 0.38457483971546469 0 0.019588042439580001 0.37020061130682591 0 0.0062038194441939101 0.37327343350035691 0 -0.004150477139613834 0.38368825041198462 0 0.0074832512340659001 0.40045766518013137 0 0.01419306656496839 0.38457483971546469 0 0.0074832512340659001 0.40045766518013137 0 0.023701850133213451 0.39677852481597148 0 0.029796807660165521 0.40885794471338338 0 0.023701850133213451 0.39677852481597148 0 0.039905476419212188 0.39616395738690968 0 0.01911697960774561 0.41722707994827818 0 0.0074832512340659001 0.40045766518013137 0 0.023701850133213451 0.39677852481597148 0 0.01419306656496839 0.38457483971546469 0 0.023701850133213451 0.39677852481597148 0 0.031618527247137353 0.38176113082211283 0 0.01419306656496839 0.38457483971546469 0 0.031618527247137353 0.38176113082211283 0 0.019588042439580001 0.37020061130682591 0 0.031618527247137353 0.38176113082211283 0 0.039905476419212188 0.39616395738690968 0 0.047105075011965397 0.37883386253073159 0 0.039905476419212188 0.39616395738690968 0 0.047105075011965397 0.37883386253073159 0 0.050898256738278691 0.38969224656243551 0 0.031618527247137353 0.38176113082211283 0 0.047105075011965397 0.37883386253073159 0 0.040397780672758968 0.37033962033736301 0 0.023701850133213451 0.39677852481597148 0 0.031618527247137353 0.38176113082211283 0 0.039905476419212188 0.39616395738690968 0 0.051015133334143023 0.40301112767815839 0 0.06556734218779417 0.38076003865394198 0 0.066630769906461773 0.39571292769865818 0 0.051015133334143023 0.40301112767815839 0 0.050898256738278691 0.38969224656243551 0 0.06556734218779417 0.38076003865394198 0 0.051015133334143023 0.40301112767815839 0 0.06556734218779417 0.38076003865394198 0 0.039905476419212188 0.39616395738690968 0 0.051015133334143023 0.40301112767815839 0 0.050898256738278691 0.38969224656243551 0 0.051015133334143023 0.40301112767815839 0 0.066630769906461773 0.39571292769865818 0 0.064706772880911284 0.40804706931976781 0 0.047105075011965397 0.37883386253073159 0 0.050898256738278691 0.38969224656243551 0 0.06556734218779417 0.38076003865394198 0 0.047105075011965397 0.37883386253073159 0 0.06556734218779417 0.38076003865394198 0 0.057670465824007568 0.37050965234164868 0 0.079828637011504625 0.37557197076475018 0 0.066630769906461773 0.39571292769865818 0 0.06556734218779417 0.38076003865394198 0 0.079828637011504625 0.37557197076475018 0 0.066630769906461773 0.39571292769865818 0 0.079828637011504625 0.37557197076475018 0 0.083555456983591986 0.39007875244644491 0 0.066630769906461773 0.39571292769865818 0 0.079828637011504625 0.37557197076475018 0 0.083555456983591986 0.39007875244644491 0 0.095679426135252599 0.3763123455179137 0 0.083555456983591986 0.39007875244644491 0 0.095679426135252599 0.3763123455179137 0 0.098007780223550833 0.3918924924892776 0 0.08707883600547639 0.40002147544471378 0 0.098007780223550833 0.3918924924892776 0 0.095387908891425871 0.40480300134208552 0 0.08707883600547639 0.40002147544471378 0 0.085638999307606656 0.41245228613990648 0 0.095387908891425871 0.40480300134208552 0 0.083555456983591986 0.39007875244644491 0 0.08707883600547639 0.40002147544471378 0 0.098007780223550833 0.3918924924892776 0 0.083555456983591986 0.39007875244644491 0 0.08707883600547639 0.40002147544471378 0 0.077026623737149982 0.4035233184336261 0 0.08707883600547639 0.40002147544471378 0 0.077026623737149982 0.4035233184336261 0 0.085638999307606656 0.41245228613990648 0 0.083555456983591986 0.39007875244644491 0 0.077026623737149982 0.4035233184336261 0 0.066630769906461773 0.39571292769865818 0 0.077026623737149982 0.4035233184336261 0 0.066630769906461773 0.39571292769865818 0 0.064706772880911284 0.40804706931976781 0 0.064706772880911284 0.40804706931976781 0 0.067015172297364811 0.42168439004786168 0 0.074548907338851847 0.41482739955226539 0 0.058118226453747313 0.41705439248338261 0 0.064706772880911284 0.40804706931976781 0 0.067015172297364811 0.42168439004786168 0 0.067015172297364811 0.42168439004786168 0 0.074548907338851847 0.41482739955226539 0 0.080102207373379475 0.42683352453955692 0 0.077026623737149982 0.4035233184336261 0 0.064706772880911284 0.40804706931976781 0 0.074548907338851847 0.41482739955226539 0 0.074674396554397768 0.44294294779245108 0 0.068560106641958662 0.43154975366548981 0 0.080102207373379475 0.42683352453955692 0 0.06181621036973349 0.43838075011596922 0 0.059541891631065297 0.42787632878768161 0 0.068560106641958662 0.43154975366548981 0 0.059541891631065297 0.42787632878768161 0 0.067015172297364811 0.42168439004786168 0 0.068560106641958662 0.43154975366548981 0 0.067015172297364811 0.42168439004786168 0 0.068560106641958662 0.43154975366548981 0 0.080102207373379475 0.42683352453955692 0 0.085247902050121893 0.43929415082561268 0 0.074674396554397768 0.44294294779245108 0 0.080102207373379475 0.42683352453955692 0 0.085247902050121893 0.43929415082561268 0 0.080102207373379475 0.42683352453955692 0 0.091005784301211021 0.43194802823591621 0 0.080102207373379475 0.42683352453955692 0 0.091298024024537364 0.42187859730416938 0 0.091005784301211021 0.43194802823591621 0 0.077026623737149982 0.4035233184336261 0 0.074548907338851847 0.41482739955226539 0 0.085638999307606656 0.41245228613990648 0 0.074548907338851847 0.41482739955226539 0 0.080102207373379475 0.42683352453955692 0 0.085638999307606656 0.41245228613990648 0 0.080102207373379475 0.42683352453955692 0 0.091298024024537364 0.42187859730416938 0 0.085638999307606656 0.41245228613990648 0 0.091298024024537364 0.42187859730416938 0 0.085638999307606656 0.41245228613990648 0 0.099621049243459214 0.41404488991125349 0 0.085638999307606656 0.41245228613990648 0 0.099621049243459214 0.41404488991125349 0 0.095387908891425871 0.40480300134208552 0 0.099621049243459214 0.41404488991125349 0 0.095387908891425871 0.40480300134208552 0 0.1046245008887276 0.40241993665856418 0 0.091298024024537364 0.42187859730416938 0 0.099621049243459214 0.41404488991125349 0 0.1005925048162026 0.42194486132273568 0 0.099621049243459214 0.41404488991125349 0 0.108670462892203 0.42171816122362171 0 0.111223087211305 0.41189054169896439 0 0.099621049243459214 0.41404488991125349 0 0.108670462892203 0.42171816122362171 0 0.1005925048162026 0.42194486132273568 0 0.099621049243459214 0.41404488991125349 0 0.111223087211305 0.41189054169896439 0 0.1046245008887276 0.40241993665856418 0 0.1004155384557195 0.43902973862043698 0 0.091005784301211021 0.43194802823591621 0 0.09946145458279966 0.42982356677487421 0 0.091298024024537364 0.42187859730416938 0 0.091005784301211021 0.43194802823591621 0 0.09946145458279966 0.42982356677487421 0 0.091298024024537364 0.42187859730416938 0 0.09946145458279966 0.42982356677487421 0 0.1005925048162026 0.42194486132273568 0 0.108670462892203 0.42171816122362171 0 0.1005925048162026 0.42194486132273568 0 0.10703230002003999 0.43023704897778059 0 0.09946145458279966 0.42982356677487421 0 0.1005925048162026 0.42194486132273568 0 0.10703230002003999 0.43023704897778059 0 0.1110830460665773 0.44116844913693998 0 0.1004155384557195 0.43902973862043698 0 0.10703230002003999 0.43023704897778059 0 0.1004155384557195 0.43902973862043698 0 0.09946145458279966 0.42982356677487421 0 0.10703230002003999 0.43023704897778059 0 0.1110830460665773 0.44116844913693998 0 0.10703230002003999 0.43023704897778059 0 0.1154472923075002 0.43233503678826479 0 0.108670462892203 0.42171816122362171 0 0.1154472923075002 0.43233503678826479 0 0.1181098237377903 0.42001744941265001 0 0.108670462892203 0.42171816122362171 0 0.10703230002003999 0.43023704897778059 0 0.1154472923075002 0.43233503678826479 0 0.1154472923075002 0.43233503678826479 0 0.1181098237377903 0.42001744941265001 0 0.12566510918902241 0.42603110249203691 0 0.1154472923075002 0.43233503678826479 0 0.12551471678323209 0.43628230179449962 0 0.12566510918902241 0.42603110249203691 0 0.111223087211305 0.41189054169896439 0 0.12088926845273219 0.41107423133913479 0 0.11542341805291791 0.40206858164856268 0 0.108670462892203 0.42171816122362171 0 0.111223087211305 0.41189054169896439 0 0.1181098237377903 0.42001744941265001 0 0.111223087211305 0.41189054169896439 0 0.1181098237377903 0.42001744941265001 0 0.12088926845273219 0.41107423133913479 0 0.1181098237377903 0.42001744941265001 0 0.12611194534131129 0.41803627143245148 0 0.12566510918902241 0.42603110249203691 0 0.1181098237377903 0.42001744941265001 0 0.12088926845273219 0.41107423133913479 0 0.12611194534131129 0.41803627143245148 0 0.12367122236305091 0.40291932300474881 0 0.11542341805291791 0.40206858164856268 0 0.1224309636384853 0.39424558908014268 0 0.12088926845273219 0.41107423133913479 0 0.12367122236305091 0.40291932300474881 0 0.11542341805291791 0.40206858164856268 0 0.111223087211305 0.41189054169896439 0 0.11542341805291791 0.40206858164856268 0 0.1046245008887276 0.40241993665856418 0 0.11542341805291791 0.40206858164856268 0 0.1104916279352339 0.39247054723990232 0 0.1046245008887276 0.40241993665856418 0 0.1104916279352339 0.39247054723990232 0 0.1224309636384853 0.39424558908014268 0 0.1168121604002689 0.38755722797936021 0 0.11542341805291791 0.40206858164856268 0 0.1104916279352339 0.39247054723990232 0 0.1224309636384853 0.39424558908014268 0 0.1224309636384853 0.39424558908014268 0 0.1237394943858382 0.38287856340405407 0 0.1168121604002689 0.38755722797936021 0 0.1237394943858382 0.38287856340405407 0 0.1183145894866222 0.37254728463195758 0 0.12422236049568711 0.37286996463571792 0 0.1237394943858382 0.38287856340405407 0 0.1105865556415183 0.3806342121933417 0 0.1183145894866222 0.37254728463195758 0 0.1237394943858382 0.38287856340405407 0 0.1105865556415183 0.3806342121933417 0 0.1168121604002689 0.38755722797936021 0 0.1104916279352339 0.39247054723990232 0 0.1105865556415183 0.3806342121933417 0 0.1168121604002689 0.38755722797936021 0 0.1104916279352339 0.39247054723990232 0 0.1105865556415183 0.3806342121933417 0 0.098007780223550833 0.3918924924892776 0 0.1105865556415183 0.3806342121933417 0 0.095679426135252599 0.3763123455179137 0 0.098007780223550833 0.3918924924892776 0 0.098007780223550833 0.3918924924892776 0 0.095387908891425871 0.40480300134208552 0 0.1046245008887276 0.40241993665856418 0 0.1104916279352339 0.39247054723990232 0 0.098007780223550833 0.3918924924892776 0 0.1046245008887276 0.40241993665856418 0 0.1070791557839355 0.35334283170613939 0 0.1062243712215879 0.33529005689693281 0 0.093026504116547476 0.3554310138308423 0 0.1070791557839355 0.35334283170613939 0 0.1087125046869815 0.36553556696218492 0 0.093026504116547476 0.3554310138308423 0 0.1062243712215879 0.33529005689693281 0 0.093026504116547476 0.3554310138308423 0 0.095679426135252599 0.3763123455179137 0 0.1087125046869815 0.36553556696218492 0 0.093026504116547476 0.3554310138308423 0 0.1105865556415183 0.3806342121933417 0 0.095679426135252599 0.3763123455179137 0 0.1087125046869815 0.36553556696218492 0 0.1183145894866222 0.37254728463195758 0 0.12422236049568711 0.37286996463571792 0 0.12035324311062499 0.35711468913459782 0 0.1087125046869815 0.36553556696218492 0 0.1183145894866222 0.37254728463195758 0 0.12035324311062499 0.35711468913459782 0 0.1105865556415183 0.3806342121933417 0 0.1087125046869815 0.36553556696218492 0 0.1183145894866222 0.37254728463195758 0 0.12035324311062499 0.35711468913459782 0 0.1202892335989563 0.33976786824025368 0 0.13221664095018201 0.35014749629635927 0 0.12035324311062499 0.35711468913459782 0 0.1062243712215879 0.33529005689693281 0 0.12035324311062499 0.35711468913459782 0 0.1202892335989563 0.33976786824025368 0 0.1062243712215879 0.33529005689693281 0 0.1070791557839355 0.35334283170613939 0 0.12035324311062499 0.35711468913459782 0 0.1062243712215879 0.33529005689693281 0 0.1070791557839355 0.35334283170613939 0 0.1087125046869815 0.36553556696218492 0 0.12035324311062499 0.35711468913459782 0 0.1202892335989563 0.33976786824025368 0 0.11686360599624381 0.33095294433543332 0 0.124019467980922 0.32483926763957599 0 0.11686360599624381 0.33095294433543332 0 0.1145467239359276 0.32258950867394071 0 0.1062243712215879 0.33529005689693281 0 0.1202892335989563 0.33976786824025368 0 0.11686360599624381 0.33095294433543332 0 0.1062243712215879 0.33529005689693281 0 0.1145467239359276 0.32258950867394071 0 0.1062243712215879 0.33529005689693281 0 0.124019467980922 0.32483926763957599 0 0.1145467239359276 0.32258950867394071 0 0.1158222950116625 0.2995310389827926 0 0.11686360599624381 0.33095294433543332 0 0.124019467980922 0.32483926763957599 0 0.1145467239359276 0.32258950867394071 0 0.1145467239359276 0.32258950867394071 0 0.1062243712215879 0.33529005689693281 0 0.1060529418246777 0.31055512479959979 0 0.1062243712215879 0.33529005689693281 0 0.08436341015289546 0.3353134236804543 0 0.091447234214829462 0.31246406036791963 0 0.1062243712215879 0.33529005689693281 0 0.091447234214829462 0.31246406036791963 0 0.1062243712215879 0.33529005689693281 0 0.091447234214829462 0.31246406036791963 0 0.1060529418246777 0.31055512479959979 0 0.1062243712215879 0.33529005689693281 0 0.08436341015289546 0.3353134236804543 0 0.093026504116547476 0.3554310138308423 0 0.08436341015289546 0.3353134236804543 0 0.076340862612684857 0.32194422496173808 0 0.091447234214829462 0.31246406036791963 0 0.076340862612684857 0.32194422496173808 0 0.074703605125389358 0.30744866433048768 0 0.091447234214829462 0.31246406036791963 0 0.076340862612684857 0.32194422496173808 0 0.063585935158962825 0.31802955285024431 0 0.067604128411347164 0.33646542357958481 0 0.076340862612684857 0.32194422496173808 0 0.063585935158962825 0.31802955285024431 0 0.074703605125389358 0.30744866433048768 0 0.08436341015289546 0.3353134236804543 0 0.067604128411347164 0.33646542357958481 0 0.075012395538120877 0.35114610101534588 0 0.08436341015289546 0.3353134236804543 0 0.076340862612684857 0.32194422496173808 0 0.067604128411347164 0.33646542357958481 0 0.067604128411347164 0.33646542357958481 0 0.075012395538120877 0.35114610101534588 0 0.056839377626643393 0.35482210948620863 0 0.075012395538120877 0.35114610101534588 0 0.067815935668594854 0.36474590074326801 0 0.056839377626643393 0.35482210948620863 0 0.075012395538120877 0.35114610101534588 0 0.079657594207286242 0.36092782243336791 0 0.067815935668594854 0.36474590074326801 0 0.08436341015289546 0.3353134236804543 0 0.075012395538120877 0.35114610101534588 0 0.093026504116547476 0.3554310138308423 0 0.075012395538120877 0.35114610101534588 0 0.093026504116547476 0.3554310138308423 0 0.079657594207286242 0.36092782243336791 0 0.079828637011504625 0.37557197076475018 0 0.095679426135252599 0.3763123455179137 0 0.093026504116547476 0.3554310138308423 0 0.079828637011504625 0.37557197076475018 0 0.093026504116547476 0.3554310138308423 0 0.079828637011504625 0.37557197076475018 0 0.093026504116547476 0.3554310138308423 0 0.079657594207286242 0.36092782243336791 0 0.06556734218779417 0.38076003865394198 0 0.067815935668594854 0.36474590074326801 0 0.057670465824007568 0.37050965234164868 0 0.06556734218779417 0.38076003865394198 0 0.079828637011504625 0.37557197076475018 0 0.067815935668594854 0.36474590074326801 0 0.079828637011504625 0.37557197076475018 0 0.079657594207286242 0.36092782243336791 0 0.067815935668594854 0.36474590074326801 0 0.067815935668594854 0.36474590074326801 0 0.057670465824007568 0.37050965234164868 0 0.056839377626643393 0.35482210948620863 0 0.057670465824007568 0.37050965234164868 0 0.048324899193462202 0.36449108824873772 0 0.056839377626643393 0.35482210948620863 0 0.047105075011965397 0.37883386253073159 0 0.057670465824007568 0.37050965234164868 0 0.048324899193462202 0.36449108824873772 0 0.048324899193462202 0.36449108824873772 0 0.056839377626643393 0.35482210948620863 0 0.039835510502507408 0.3540446547558645 0 0.056839377626643393 0.35482210948620863 0 0.039835510502507408 0.3540446547558645 0 0.050681725657792963 0.33952195189147988 0 0.039835510502507408 0.3540446547558645 0 0.031746069870676852 0.34796547571947462 0 0.024190603584266258 0.35503126697343979 0 0.039835510502507408 0.3540446547558645 0 0.031382449140145811 0.36633277356309268 0 0.024190603584266258 0.35503126697343979 0 0.039835510502507408 0.3540446547558645 0 0.038777416371232117 0.34222533101045621 0 0.050681725657792963 0.33952195189147988 0 0.039835510502507408 0.3540446547558645 0 0.031746069870676852 0.34796547571947462 0 0.038777416371232117 0.34222533101045621 0 0.039835510502507408 0.3540446547558645 0 0.040397780672758968 0.37033962033736301 0 0.031382449140145811 0.36633277356309268 0 0.048324899193462202 0.36449108824873772 0 0.039835510502507408 0.3540446547558645 0 0.040397780672758968 0.37033962033736301 0 0.047105075011965397 0.37883386253073159 0 0.048324899193462202 0.36449108824873772 0 0.040397780672758968 0.37033962033736301 0 0.031618527247137353 0.38176113082211283 0 0.040397780672758968 0.37033962033736301 0 0.031382449140145811 0.36633277356309268 0 0.031618527247137353 0.38176113082211283 0 0.031382449140145811 0.36633277356309268 0 0.019588042439580001 0.37020061130682591 0 0.019588042439580001 0.37020061130682591 0 0.024190603584266258 0.35503126697343979 0 0.011464293397979899 0.36166246094420079 0 0.031382449140145811 0.36633277356309268 0 0.019588042439580001 0.37020061130682591 0 0.024190603584266258 0.35503126697343979 0 0.031746069870676852 0.34796547571947462 0 0.024190603584266258 0.35503126697343979 0 0.01502527837195727 0.34129839812199397 0 0.024190603584266258 0.35503126697343979 0 0.014697212850486301 0.35194681686904222 0 0.01502527837195727 0.34129839812199397 0 0.024190603584266258 0.35503126697343979 0 0.014697212850486301 0.35194681686904222 0 0.011464293397979899 0.36166246094420079 0 0.014697212850486301 0.35194681686904222 0 0.0066395844086457254 0.35398603674928802 0 0.011464293397979899 0.36166246094420079 0 -0.0066383489898997287 0.3516789742192023 0 0.01502527837195727 0.34129839812199397 0 -0.0066383489898997287 0.3516789742192023 0 -0.0056504473026433794 0.34491711882203457 0 0.01502527837195727 0.34129839812199397 0 -0.0066383489898997287 0.3516789742192023 0 0.0066395844086457254 0.35398603674928802 0 0.01502527837195727 0.34129839812199397 0 0.014697212850486301 0.35194681686904222 0 0.0066395844086457254 0.35398603674928802 0 0.01502527837195727 0.34129839812199397 0 -0.001350513587295121 0.36334353359200078 0 0.0062038194441939101 0.37327343350035691 0 0.011464293397979899 0.36166246094420079 0 -0.001350513587295121 0.36334353359200078 0 0.0066395844086457254 0.35398603674928802 0 0.011464293397979899 0.36166246094420079 0 -0.0031500679266970328 0.37235994501025532 0 -0.001350513587295121 0.36334353359200078 0 0.0062038194441939101 0.37327343350035691 0 0.019588042439580001 0.37020061130682591 0 0.0062038194441939101 0.37327343350035691 0 0.011464293397979899 0.36166246094420079 0 0.014912243763184551 0.31663687769044152 0 0.0025099612645411548 0.33066677424314039 0 0.020766273651064249 0.32780049386590632 0 0.014912243763184551 0.31663687769044152 0 0.0026064872402043211 0.31829916110798218 0 0.00058719434909508333 0.30536543201503269 0 0.014912243763184551 0.31663687769044152 0 0.0026064872402043211 0.31829916110798218 0 0.0025099612645411548 0.33066677424314039 0 0.0025099612645411548 0.33066677424314039 0 0.01502527837195727 0.34129839812199397 0 0.020766273651064249 0.32780049386590632 0 -0.0056504473026433794 0.34491711882203457 0 0.01502527837195727 0.34129839812199397 0 -0.0056504473026433794 0.34491711882203457 0 0.0025099612645411548 0.33066677424314039 0 0.01502527837195727 0.34129839812199397 0 0.01502527837195727 0.34129839812199397 0 0.03930560676546007 0.32966397548611942 0 0.01502527837195727 0.34129839812199397 0 0.031481213001058633 0.33841823651518721 0 0.01502527837195727 0.34129839812199397 0 0.031481213001058633 0.33841823651518721 0 0.03930560676546007 0.32966397548611942 0 0.01502527837195727 0.34129839812199397 0 0.020766273651064249 0.32780049386590632 0 0.03930560676546007 0.32966397548611942 0 0.031746069870676852 0.34796547571947462 0 0.01502527837195727 0.34129839812199397 0 0.031481213001058633 0.33841823651518721 0 0.020766273651064249 0.32780049386590632 0 0.030570061648765069 0.32012891215554978 0 0.03930560676546007 0.32966397548611942 0 0.014912243763184551 0.31663687769044152 0 0.030570061648765069 0.32012891215554978 0 0.02565760207543857 0.30963233120659911 0 0.014912243763184551 0.31663687769044152 0 0.020766273651064249 0.32780049386590632 0 0.030570061648765069 0.32012891215554978 0 0.030570061648765069 0.32012891215554978 0 0.039056934619555457 0.31161320669514792 0 0.02565760207543857 0.30963233120659911 0 0.030570061648765069 0.32012891215554978 0 0.03930560676546007 0.32966397548611942 0 0.039056934619555457 0.31161320669514792 0 0.031746069870676852 0.34796547571947462 0 0.031481213001058633 0.33841823651518721 0 0.038777416371232117 0.34222533101045621 0 0.031481213001058633 0.33841823651518721 0 0.038777416371232117 0.34222533101045621 0 0.03930560676546007 0.32966397548611942 0 0.038777416371232117 0.34222533101045621 0 0.03930560676546007 0.32966397548611942 0 0.050681725657792963 0.33952195189147988 0 0.067604128411347164 0.33646542357958481 0 0.056839377626643393 0.35482210948620863 0 0.050681725657792963 0.33952195189147988 0 0.063585935158962825 0.31802955285024431 0 0.067604128411347164 0.33646542357958481 0 0.050681725657792963 0.33952195189147988 0 0.063585935158962825 0.31802955285024431 0 0.03930560676546007 0.32966397548611942 0 0.050681725657792963 0.33952195189147988 0 0.063585935158962825 0.31802955285024431 0 0.03930560676546007 0.32966397548611942 0 0.039056934619555457 0.31161320669514792 0 0.063585935158962825 0.31802955285024431 0 0.03930560676546007 0.32966397548611942 0 0.063585935158962825 0.31802955285024431 0 0.050160195848486973 0.29968320102453022 0 0.039056934619555457 0.31161320669514792 0 0.063585935158962825 0.31802955285024431 0 0.050160195848486973 0.29968320102453022 0 0.06239707347420681 0.29679249884603742 0 0.050160195848486973 0.29968320102453022 0 0.051702015575205117 0.28836599380376432 0 0.042376870800822017 0.28375356162527388 0 0.050160195848486973 0.29968320102453022 0 0.06239707347420681 0.29679249884603742 0 0.051702015575205117 0.28836599380376432 0 0.060017040498892532 0.2836266631822742 0 0.06239707347420681 0.29679249884603742 0 0.051702015575205117 0.28836599380376432 0 0.060017040498892532 0.2836266631822742 0 0.051702015575205117 0.28836599380376432 0 0.047717822446775963 0.27804344868961439 0 0.051702015575205117 0.28836599380376432 0 0.042376870800822017 0.28375356162527388 0 0.047717822446775963 0.27804344868961439 0 0.042376870800822017 0.28375356162527388 0 0.034898288547423738 0.29291192892725759 0 0.039056934619555457 0.31161320669514792 0 0.042376870800822017 0.28375356162527388 0 0.034898288547423738 0.29291192892725759 0 0.030975403547972239 0.28021023830354919 0 0.034898288547423738 0.29291192892725759 0 0.039056934619555457 0.31161320669514792 0 0.027183945221345231 0.29607070908505928 0 0.042376870800822017 0.28375356162527388 0 0.039056934619555457 0.31161320669514792 0 0.050160195848486973 0.29968320102453022 0 0.042376870800822017 0.28375356162527388 0 0.039056934619555457 0.31161320669514792 0 0.039056934619555457 0.31161320669514792 0 0.02565760207543857 0.30963233120659911 0 0.027183945221345231 0.29607070908505928 0 0.014912243763184551 0.31663687769044152 0 0.02565760207543857 0.30963233120659911 0 0.014679991087637489 0.29878358393346288 0 0.02565760207543857 0.30963233120659911 0 0.027183945221345231 0.29607070908505928 0 0.014679991087637489 0.29878358393346288 0 0.027183945221345231 0.29607070908505928 0 0.014679991087637489 0.29878358393346288 0 0.019204083315011559 0.27821408809548059 0 0.027183945221345231 0.29607070908505928 0 0.019204083315011559 0.27821408809548059 0 0.030975403547972239 0.28021023830354919 0 0.034898288547423738 0.29291192892725759 0 0.027183945221345231 0.29607070908505928 0 0.030975403547972239 0.28021023830354919 0 0.00053487780174995073 0.28678206550816487 0 0.014679991087637489 0.29878358393346288 0 0.019204083315011559 0.27821408809548059 0 0.00053487780174995073 0.28678206550816487 0 0.019204083315011559 0.27821408809548059 0 0.014912243763184551 0.31663687769044152 0 0.00058719434909508333 0.30536543201503269 0 0.014679991087637489 0.29878358393346288 0 0.00053487780174995073 0.28678206550816487 0 0.00058719434909508333 0.30536543201503269 0 0.014679991087637489 0.29878358393346288 0 -0.0088196961060734262 0.26254782721285791 0 0.00088550965980978768 0.24807331653095191 0 0.0082581070309755353 0.26254997493767268 0 0.017838681413984741 0.24979402228366321 0 0.00088550965980978768 0.24807331653095191 0 0.0082581070309755353 0.26254997493767268 0 -0.00039553516225181059 0.27348999383948841 0 0.00053487780174995073 0.28678206550816487 0 0.019204083315011559 0.27821408809548059 0 -0.00039553516225181059 0.27348999383948841 0 0.0082581070309755353 0.26254997493767268 0 0.019204083315011559 0.27821408809548059 0 0.0082581070309755353 0.26254997493767268 0 0.019204083315011559 0.27821408809548059 0 0.023626958376800421 0.26172495389362649 0 0.019204083315011559 0.27821408809548059 0 0.023626958376800421 0.26172495389362649 0 0.033751306924090417 0.26859804832376771 0 0.019204083315011559 0.27821408809548059 0 0.030975403547972239 0.28021023830354919 0 0.033751306924090417 0.26859804832376771 0 0.023626958376800421 0.26172495389362649 0 0.033852310170680557 0.25879285117527923 0 0.033751306924090417 0.26859804832376771 0 0.017838681413984741 0.24979402228366321 0 0.0082581070309755353 0.26254997493767268 0 0.023626958376800421 0.26172495389362649 0 0.017838681413984741 0.24979402228366321 0 0.03233416839974175 0.2489544859283227 0 0.023626958376800421 0.26172495389362649 0 0.03233416839974175 0.2489544859283227 0 0.023626958376800421 0.26172495389362649 0 0.033852310170680557 0.25879285117527923 0 0.03233416839974175 0.2489544859283227 0 0.033852310170680557 0.25879285117527923 0 0.045696806982089111 0.2558939165554 0 0.033852310170680557 0.25879285117527923 0 0.045696806982089111 0.2558939165554 0 0.033751306924090417 0.26859804832376771 0 0.045696806982089111 0.2558939165554 0 0.047717822446775963 0.27804344868961439 0 0.042376870800822017 0.28375356162527388 0 0.045696806982089111 0.2558939165554 0 0.047717822446775963 0.27804344868961439 0 0.042376870800822017 0.28375356162527388 0 0.045696806982089111 0.2558939165554 0 0.033751306924090417 0.26859804832376771 0 0.042376870800822017 0.28375356162527388 0 0.045696806982089111 0.2558939165554 0 0.042376870800822017 0.28375356162527388 0 0.030975403547972239 0.28021023830354919 0 0.033751306924090417 0.26859804832376771 0 0.060017040498892532 0.2836266631822742 0 0.061892960201314351 0.26681206730989188 0 0.047717822446775963 0.27804344868961439 0 0.045696806982089111 0.2558939165554 0 0.061892960201314351 0.26681206730989188 0 0.047717822446775963 0.27804344868961439 0 0.058518839622773981 0.24778572398198129 0 0.047115823194557101 0.24398607078087781 0 0.061892960201314351 0.26681206730989188 0 0.047115823194557101 0.24398607078087781 0 0.061892960201314351 0.26681206730989188 0 0.047115823194557101 0.24398607078087781 0 0.045696806982089111 0.2558939165554 0 0.061892960201314351 0.26681206730989188 0 0.067166870208718157 0.2499189894128038 0 0.061892960201314351 0.26681206730989188 0 0.078417065127001528 0.25542291653636751 0 0.058518839622773981 0.24778572398198129 0 0.067166870208718157 0.2499189894128038 0 0.061892960201314351 0.26681206730989188 0 0.061892960201314351 0.26681206730989188 0 0.078417065127001528 0.25542291653636751 0 0.0855858817600718 0.26885313355545742 0 0.099731874317695465 0.24985293073329701 0 0.078417065127001528 0.25542291653636751 0 0.0855858817600718 0.26885313355545742 0 0.0855858817600718 0.26885313355545742 0 0.076670097208071927 0.28963806383890578 0 0.09098517734324095 0.28273825983839518 0 0.060017040498892532 0.2836266631822742 0 0.061892960201314351 0.26681206730989188 0 0.076670097208071927 0.28963806383890578 0 0.061892960201314351 0.26681206730989188 0 0.076670097208071927 0.28963806383890578 0 0.061892960201314351 0.26681206730989188 0 0.0855858817600718 0.26885313355545742 0 0.076670097208071927 0.28963806383890578 0 0.060017040498892532 0.2836266631822742 0 0.06239707347420681 0.29679249884603742 0 0.076670097208071927 0.28963806383890578 0 0.06239707347420681 0.29679249884603742 0 0.076670097208071927 0.28963806383890578 0 0.074703605125389358 0.30744866433048768 0 0.063585935158962825 0.31802955285024431 0 0.06239707347420681 0.29679249884603742 0 0.074703605125389358 0.30744866433048768 0 0.076670097208071927 0.28963806383890578 0 0.091447234214829462 0.31246406036791963 0 0.093849142717050305 0.29836920724600252 0 0.076670097208071927 0.28963806383890578 0 0.074703605125389358 0.30744866433048768 0 0.091447234214829462 0.31246406036791963 0 0.076670097208071927 0.28963806383890578 0 0.091447234214829462 0.31246406036791963 0 0.076670097208071927 0.28963806383890578 0 0.09098517734324095 0.28273825983839518 0 0.093849142717050305 0.29836920724600252 0 0.09098517734324095 0.28273825983839518 0 0.093849142717050305 0.29836920724600252 0 0.1077770846646787 0.27469198485804502 0 0.093849142717050305 0.29836920724600252 0 0.1158222950116625 0.2995310389827926 0 0.1077770846646787 0.27469198485804502 0 0.093849142717050305 0.29836920724600252 0 0.1158222950116625 0.2995310389827926 0 0.093849142717050305 0.29836920724600252 0 0.1060529418246777 0.31055512479959979 0 0.1158222950116625 0.2995310389827926 0 0.091447234214829462 0.31246406036791963 0 0.093849142717050305 0.29836920724600252 0 0.1060529418246777 0.31055512479959979 0 0.124019467980922 0.32483926763957599 0 0.1158222950116625 0.2995310389827926 0 0.1302552749380797 0.31079236428715601 0 0.1145467239359276 0.32258950867394071 0 0.1060529418246777 0.31055512479959979 0 0.1158222950116625 0.2995310389827926 0 0.124019467980922 0.32483926763957599 0 0.1158222950116625 0.2995310389827926 0 0.1158222950116625 0.2995310389827926 0 0.1077770846646787 0.27469198485804502 0 0.1158222950116625 0.2995310389827926 0 0.1077770846646787 0.27469198485804502 0 0.1329967677557283 0.27314925115310429 0 0.1161354712562372 0.25826233395786952 0 0.1077770846646787 0.27469198485804502 0 0.1329967677557283 0.27314925115310429 0 0.099731874317695465 0.24985293073329701 0 0.1077770846646787 0.27469198485804502 0 0.099731874317695465 0.24985293073329701 0 0.0855858817600718 0.26885313355545742 0 0.1077770846646787 0.27469198485804502 0 0.099731874317695465 0.24985293073329701 0 0.1161354712562372 0.25826233395786952 0 0.1077770846646787 0.27469198485804502 0 0.0855858817600718 0.26885313355545742 0 0.09098517734324095 0.28273825983839518 0 0.1077770846646787 0.27469198485804502 0 0.1329967677557283 0.27314925115310429 0 0.15088181555769031 0.28131328752907148 0 0.15737180414950069 0.26615146188007788 0 0.16431863944532379 0.24929897214185001 0 0.1470062354836712 0.25173867832156249 0 0.15737180414950069 0.26615146188007788 0 0.1470062354836712 0.25173867832156249 0 0.1329967677557283 0.27314925115310429 0 0.15737180414950069 0.26615146188007788 0 0.13021875367858421 0.24629350709804379 0 0.1470062354836712 0.25173867832156249 0 0.1329967677557283 0.27314925115310429 0 0.13021875367858421 0.24629350709804379 0 0.1161354712562372 0.25826233395786952 0 0.1329967677557283 0.27314925115310429 0 0.1158222950116625 0.2995310389827926 0 0.1329967677557283 0.27314925115310429 0 0.14571512637431339 0.30111162422217458 0 0.1158222950116625 0.2995310389827926 0 0.1302552749380797 0.31079236428715601 0 0.14571512637431339 0.30111162422217458 0 0.1158222950116625 0.2995310389827926 0 0.14571512637431339 0.30111162422217458 0 0.1302552749380797 0.31079236428715601 0 0.14571512637431339 0.30111162422217458 0 0.14075104112300171 0.31910228331630469 0 0.14571512637431339 0.30111162422217458 0 0.1564634226180126 0.31610018705142662 0 0.14075104112300171 0.31910228331630469 0 0.1329967677557283 0.27314925115310429 0 0.14571512637431339 0.30111162422217458 0 0.15088181555769031 0.28131328752907148 0 0.14571512637431339 0.30111162422217458 0 0.15088181555769031 0.28131328752907148 0 0.17082489041758231 0.28238326632438943 0 0.14571512637431339 0.30111162422217458 0 0.17082489041758231 0.28238326632438943 0 0.17560795773696419 0.30269220946155828 0 0.14571512637431339 0.30111162422217458 0 0.17560795773696419 0.30269220946155828 0 0.14571512637431339 0.30111162422217458 0 0.17560795773696419 0.30269220946155828 0 0.1564634226180126 0.31610018705142662 0 0.17560795773696419 0.30269220946155828 0 0.19436451337997909 0.30860858567295929 0 0.18640899458570981 0.32541995731161999 0 0.17082489041758231 0.28238326632438943 0 0.17560795773696419 0.30269220946155828 0 0.19748659397779189 0.28892176957637178 0 0.17082489041758231 0.28238326632438943 0 0.17876953142012739 0.25560364144532532 0 0.18903708459449811 0.27220255477790012 0 0.17082489041758231 0.28238326632438943 0 0.18903708459449811 0.27220255477790012 0 0.19748659397779189 0.28892176957637178 0 0.15088181555769031 0.28131328752907148 0 0.17082489041758231 0.28238326632438943 0 0.15737180414950069 0.26615146188007788 0 0.17082489041758231 0.28238326632438943 0 0.15737180414950069 0.26615146188007788 0 0.17876953142012739 0.25560364144532532 0 0.16431863944532379 0.24929897214185001 0 0.15737180414950069 0.26615146188007788 0 0.17876953142012739 0.25560364144532532 0 0.1740603542668569 0.24557828143113711 0 0.16431863944532379 0.24929897214185001 0 0.17876953142012739 0.25560364144532532 0 0.19338201909312711 0.24905444508389901 0 0.1959728559656442 0.25864618293520458 0 0.215472082308197 0.25382136174294828 0 0.17876953142012739 0.25560364144532532 0 0.1959728559656442 0.25864618293520458 0 0.18903708459449811 0.27220255477790012 0 0.19338201909312711 0.24905444508389901 0 0.17876953142012739 0.25560364144532532 0 0.1959728559656442 0.25864618293520458 0 0.1959728559656442 0.25864618293520458 0 0.18903708459449811 0.27220255477790012 0 0.20467894048159879 0.26697516021149759 0 0.18903708459449811 0.27220255477790012 0 0.20467894048159879 0.26697516021149759 0 0.19748659397779189 0.28892176957637178 0 0.20467894048159879 0.26697516021149759 0 0.21373789328687881 0.27919619470753398 0 0.215472082308197 0.25382136174294828 0 0.20467894048159879 0.26697516021149759 0 0.21373789328687881 0.27919619470753398 0 0.19748659397779189 0.28892176957637178 0 0.1959728559656442 0.25864618293520458 0 0.20467894048159879 0.26697516021149759 0 0.215472082308197 0.25382136174294828 0 0.23465887965939131 0.2451180100106207 0 0.215472082308197 0.25382136174294828 0 0.23741961594129679 0.27098563322549041 0 0.215472082308197 0.25382136174294828 0 0.23741961594129679 0.27098563322549041 0 0.21373789328687881 0.27919619470753398 0 0.215472082308197 0.25382136174294828 0 0.23741961594129679 0.27098563322549041 0 0.23741961594129679 0.27098563322549041 0 0.24650843718412591 0.26919395211786851 0 0.25353023683459691 0.28358509316426711 0 0.23741961594129679 0.27098563322549041 0 0.23767080286386971 0.26641672105132669 0 0.24650843718412591 0.26919395211786851 0 0.23741961594129679 0.27098563322549041 0 0.25353023683459691 0.28358509316426711 0 0.23767080286386971 0.26641672105132669 0 0.25398509206044312 0.25273715779978062 0 0.23465887965939131 0.2451180100106207 0 0.23767080286386971 0.26641672105132669 0 0.25398509206044312 0.25273715779978062 0 0.23767080286386971 0.26641672105132669 0 0.24650843718412591 0.26919395211786851 0 0.25398509206044312 0.25273715779978062 0 0.23465887965939131 0.2451180100106207 0 0.23741961594129679 0.27098563322549041 0 0.23767080286386971 0.26641672105132669 0 0.23465887965939131 0.2451180100106207 0 0.23741961594129679 0.27098563322549041 0 0.2402372625883806 0.29738649675490952 0 0.24305490923546261 0.32378736028432897 0 0.2402372625883806 0.29738649675490952 0 0.22805700337934939 0.30763018062476871 0 0.24305490923546261 0.32378736028432897 0 0.2402372625883806 0.29738649675490952 0 0.24305490923546261 0.32378736028432897 0 0.25329309507291348 0.31038483680889672 0 0.2402372625883806 0.29738649675490952 0 0.25353023683459691 0.28358509316426711 0 0.25329309507291348 0.31038483680889672 0 0.23741961594129679 0.27098563322549041 0 0.2402372625883806 0.29738649675490952 0 0.23741961594129679 0.27098563322549041 0 0.2402372625883806 0.29738649675490952 0 0.25353023683459691 0.28358509316426711 0 0.23741961594129679 0.27098563322549041 0 0.2402372625883806 0.29738649675490952 0 0.22281295975178861 0.29410087320172179 0 0.21373789328687881 0.27919619470753398 0 0.23741961594129679 0.27098563322549041 0 0.22281295975178861 0.29410087320172179 0 0.2402372625883806 0.29738649675490952 0 0.22281295975178861 0.29410087320172179 0 0.22805700337934939 0.30763018062476871 0 0.22281295975178861 0.29410087320172179 0 0.22805700337934939 0.30763018062476871 0 0.20921861990523949 0.30388452061437371 0 0.22805700337934939 0.30763018062476871 0 0.20921861990523949 0.30388452061437371 0 0.22232752285984991 0.31994778955241238 0 0.21373789328687881 0.27919619470753398 0 0.22281295975178861 0.29410087320172179 0 0.20921861990523949 0.30388452061437371 0 0.21373789328687881 0.27919619470753398 0 0.20921861990523949 0.30388452061437371 0 0.19748659397779189 0.28892176957637178 0 0.17560795773696419 0.30269220946155828 0 0.19748659397779189 0.28892176957637178 0 0.19436451337997909 0.30860858567295929 0 0.20921861990523949 0.30388452061437371 0 0.19748659397779189 0.28892176957637178 0 0.19436451337997909 0.30860858567295929 0 0.20921861990523949 0.30388452061437371 0 0.19436451337997909 0.30860858567295929 0 0.20310040069419019 0.32212447140087258 0 0.20310040069419019 0.32212447140087258 0 0.19560299409067369 0.33570128941083199 0 0.18640899458570981 0.32541995731161999 0 0.19436451337997909 0.30860858567295929 0 0.20310040069419019 0.32212447140087258 0 0.18640899458570981 0.32541995731161999 0 0.19560299409067369 0.33570128941083199 0 0.19602982417383741 0.3508442440756438 0 0.1798915999748468 0.34352537595102173 0 0.19560299409067369 0.33570128941083199 0 0.21258415102478431 0.33659239831500209 0 0.19602982417383741 0.3508442440756438 0 0.20310040069419019 0.32212447140087258 0 0.19560299409067369 0.33570128941083199 0 0.21258415102478431 0.33659239831500209 0 0.20310040069419019 0.32212447140087258 0 0.21258415102478431 0.33659239831500209 0 0.22232752285984991 0.31994778955241238 0 0.20921861990523949 0.30388452061437371 0 0.20310040069419019 0.32212447140087258 0 0.22232752285984991 0.31994778955241238 0 0.22232752285984991 0.31994778955241238 0 0.2315746298552768 0.33038658687379668 0 0.24305490923546261 0.32378736028432897 0 0.22805700337934939 0.30763018062476871 0 0.22232752285984991 0.31994778955241238 0 0.24305490923546261 0.32378736028432897 0 0.21258415102478431 0.33659239831500209 0 0.2315746298552768 0.33038658687379668 0 0.23162683545034479 0.34403310342448068 0 0.21258415102478431 0.33659239831500209 0 0.22232752285984991 0.31994778955241238 0 0.2315746298552768 0.33038658687379668 0 0.2315746298552768 0.33038658687379668 0 0.24305490923546261 0.32378736028432897 0 0.25305595331124309 0.33718458045352662 0 0.2315746298552768 0.33038658687379668 0 0.23162683545034479 0.34403310342448068 0 0.25305595331124309 0.33718458045352662 0 0.24305490923546261 0.32378736028432897 0 0.25305595331124309 0.33718458045352662 0 0.25329309507291348 0.31038483680889672 0 0.23045162735198621 0.3667579202054479 0 0.24393639915047591 0.38024899017705938 0 0.25281881154957259 0.36398432409815629 0 0.23162683545034479 0.34403310342448068 0 0.23045162735198621 0.3667579202054479 0 0.25281881154957259 0.36398432409815629 0 0.23162683545034479 0.34403310342448068 0 0.25281881154957259 0.36398432409815629 0 0.25305595331124309 0.33718458045352662 0 0.21258415102478431 0.33659239831500209 0 0.23162683545034479 0.34403310342448068 0 0.21452306769130439 0.35494977226997487 0 0.23162683545034479 0.34403310342448068 0 0.23045162735198621 0.3667579202054479 0 0.21452306769130439 0.35494977226997487 0 0.23045162735198621 0.3667579202054479 0 0.2134089854017239 0.373703237153372 0 0.2268508713881473 0.38310954295525651 0 0.23045162735198621 0.3667579202054479 0 0.2134089854017239 0.373703237153372 0 0.21452306769130439 0.35494977226997487 0 0.2134089854017239 0.373703237153372 0 0.21452306769130439 0.35494977226997487 0 0.20177279714613211 0.36378165814244751 0 0.2134089854017239 0.373703237153372 0 0.20177279714613211 0.36378165814244751 0 0.20003674803913651 0.37745425632420748 0 0.21452306769130439 0.35494977226997487 0 0.19602982417383741 0.3508442440756438 0 0.20177279714613211 0.36378165814244751 0 0.21258415102478431 0.33659239831500209 0 0.21452306769130439 0.35494977226997487 0 0.19602982417383741 0.3508442440756438 0 0.19602982417383741 0.3508442440756438 0 0.20177279714613211 0.36378165814244751 0 0.1843475703023657 0.35915921535504808 0 0.20177279714613211 0.36378165814244751 0 0.18999153622034279 0.37133286947626321 0 0.1843475703023657 0.35915921535504808 0 0.20177279714613211 0.36378165814244751 0 0.18999153622034279 0.37133286947626321 0 0.20003674803913651 0.37745425632420748 0 0.18999153622034279 0.37133286947626321 0 0.17757151297994869 0.37075781550769138 0 0.1833912539748502 0.37686253000451081 0 0.17757151297994869 0.37075781550769138 0 0.16659027287669259 0.3599575918133831 0 0.1843475703023657 0.35915921535504808 0 0.18999153622034279 0.37133286947626321 0 0.17757151297994869 0.37075781550769138 0 0.1843475703023657 0.35915921535504808 0 0.17757151297994869 0.37075781550769138 0 0.1663985043173643 0.37350940688971779 0 0.16659027287669259 0.3599575918133831 0 0.17757151297994869 0.37075781550769138 0 0.1663985043173643 0.37350940688971779 0 0.17018337254548749 0.38048090182338767 0 0.1663985043173643 0.37350940688971779 0 0.16659027287669259 0.3599575918133831 0 0.1594294023463973 0.36760016719416011 0 0.16659027287669259 0.3599575918133831 0 0.1594294023463973 0.36760016719416011 0 0.1528939125147398 0.35801245413153471 0 0.1663985043173643 0.37350940688971779 0 0.1594294023463973 0.36760016719416011 0 0.15757995275747869 0.37624985548628609 0 0.16659027287669259 0.3599575918133831 0 0.16146042531682131 0.34411952721397499 0 0.1798915999748468 0.34352537595102173 0 0.16659027287669259 0.3599575918133831 0 0.16146042531682131 0.34411952721397499 0 0.1528939125147398 0.35801245413153471 0 0.16659027287669259 0.3599575918133831 0 0.1843475703023657 0.35915921535504808 0 0.1798915999748468 0.34352537595102173 0 0.19602982417383741 0.3508442440756438 0 0.1843475703023657 0.35915921535504808 0 0.1798915999748468 0.34352537595102173 0 0.1798915999748468 0.34352537595102173 0 0.18640899458570981 0.32541995731161999 0 0.16878778156230539 0.32674425542144819 0 0.19560299409067369 0.33570128941083199 0 0.1798915999748468 0.34352537595102173 0 0.18640899458570981 0.32541995731161999 0 0.17560795773696419 0.30269220946155828 0 0.18640899458570981 0.32541995731161999 0 0.16878778156230539 0.32674425542144819 0 0.16878778156230539 0.32674425542144819 0 0.1564634226180126 0.31610018705142662 0 0.1514552062934782 0.3308505628356469 0 0.17560795773696419 0.30269220946155828 0 0.16878778156230539 0.32674425542144819 0 0.1564634226180126 0.31610018705142662 0 0.16146042531682131 0.34411952721397499 0 0.16878778156230539 0.32674425542144819 0 0.1514552062934782 0.3308505628356469 0 0.16146042531682131 0.34411952721397499 0 0.1798915999748468 0.34352537595102173 0 0.16878778156230539 0.32674425542144819 0 0.16146042531682131 0.34411952721397499 0 0.1514552062934782 0.3308505628356469 0 0.14576261373787519 0.34533116894656979 0 0.1514552062934782 0.3308505628356469 0 0.13846293489619321 0.33404620429104792 0 0.14576261373787519 0.34533116894656979 0 0.1564634226180126 0.31610018705142662 0 0.1514552062934782 0.3308505628356469 0 0.14075104112300171 0.31910228331630469 0 0.1514552062934782 0.3308505628356469 0 0.14075104112300171 0.31910228331630469 0 0.13846293489619321 0.33404620429104792 0 0.124019467980922 0.32483926763957599 0 0.14075104112300171 0.31910228331630469 0 0.13846293489619321 0.33404620429104792 0 0.124019467980922 0.32483926763957599 0 0.1302552749380797 0.31079236428715601 0 0.14075104112300171 0.31910228331630469 0 0.13846293489619321 0.33404620429104792 0 0.13221664095018201 0.35014749629635927 0 0.14576261373787519 0.34533116894656979 0 0.1202892335989563 0.33976786824025368 0 0.124019467980922 0.32483926763957599 0 0.13221664095018201 0.35014749629635927 0 0.124019467980922 0.32483926763957599 0 0.13221664095018201 0.35014749629635927 0 0.124019467980922 0.32483926763957599 0 0.13846293489619321 0.33404620429104792 0 0.13221664095018201 0.35014749629635927 0 0.13221664095018201 0.35014749629635927 0 0.14576261373787519 0.34533116894656979 0 0.14370853163228781 0.35413343335312603 0 0.13221664095018201 0.35014749629635927 0 0.1439609593263543 0.36304261403804022 0 0.14370853163228781 0.35413343335312603 0 0.13221664095018201 0.35014749629635927 0 0.1439609593263543 0.36304261403804022 0 0.14041381391944199 0.3754557249531425 0 0.12035324311062499 0.35711468913459782 0 0.134482114999663 0.37893932137226211 0 0.12035324311062499 0.35711468913459782 0 0.13221664095018201 0.35014749629635927 0 0.14041381391944199 0.3754557249531425 0 0.12422236049568711 0.37286996463571792 0 0.12035324311062499 0.35711468913459782 0 0.134482114999663 0.37893932137226211 0 0.13221664095018201 0.35014749629635927 0 0.14041381391944199 0.3754557249531425 0 0.12035324311062499 0.35711468913459782 0 0.134482114999663 0.37893932137226211 0 0.14041381391944199 0.3754557249531425 0 0.1439609593263543 0.36304261403804022 0 0.1463030999773362 0.37168321764761819 0 0.14041381391944199 0.3754557249531425 0 0.1439609593263543 0.36304261403804022 0 0.1463030999773362 0.37168321764761819 0 0.1513921059325273 0.36918627201293802 0 0.1594294023463973 0.36760016719416011 0 0.1513921059325273 0.36918627201293802 0 0.15757995275747869 0.37624985548628609 0 0.1513921059325273 0.36918627201293802 0 0.14944552073102099 0.37904825958635258 0 0.15757995275747869 0.37624985548628609 0 0.1463030999773362 0.37168321764761819 0 0.1513921059325273 0.36918627201293802 0 0.14944552073102099 0.37904825958635258 0 0.1439609593263543 0.36304261403804022 0 0.1513921059325273 0.36918627201293802 0 0.1528939125147398 0.35801245413153471 0 0.1594294023463973 0.36760016719416011 0 0.1513921059325273 0.36918627201293802 0 0.1528939125147398 0.35801245413153471 0 0.16146042531682131 0.34411952721397499 0 0.1528939125147398 0.35801245413153471 0 0.14576261373787519 0.34533116894656979 0 0.1439609593263543 0.36304261403804022 0 0.1528939125147398 0.35801245413153471 0 0.14370853163228781 0.35413343335312603 0 0.1528939125147398 0.35801245413153471 0 0.14576261373787519 0.34533116894656979 0 0.14370853163228781 0.35413343335312603 0 0.1486109868887015 0.400763953609926 0 0.15505387058696191 0.38493276804108389 0 0.15900107475309641 0.39139960350327779 0 0.1486109868887015 0.400763953609926 0 0.134482114999663 0.37893932137226211 0 0.14041381391944199 0.3754557249531425 0 0.1486109868887015 0.400763953609926 0 0.15505387058696191 0.38493276804108389 0 0.14944552073102099 0.37904825958635258 0 0.1486109868887015 0.400763953609926 0 0.134482114999663 0.37893932137226211 0 0.1486109868887015 0.400763953609926 0 0.14944552073102099 0.37904825958635258 0 0.14041381391944199 0.3754557249531425 0 0.1486109868887015 0.400763953609926 0 0.14041381391944199 0.3754557249531425 0 0.15505387058696191 0.38493276804108389 0 0.14944552073102099 0.37904825958635258 0 0.15757995275747869 0.37624985548628609 0 0.1463030999773362 0.37168321764761819 0 0.14944552073102099 0.37904825958635258 0 0.14041381391944199 0.3754557249531425 0 0.1486109868887015 0.400763953609926 0 0.134482114999663 0.37893932137226211 0 0.1322488063462158 0.39172312499569178 0 0.1237394943858382 0.38287856340405407 0 0.12422236049568711 0.37286996463571792 0 0.134482114999663 0.37893932137226211 0 0.1224309636384853 0.39424558908014268 0 0.1237394943858382 0.38287856340405407 0 0.1322488063462158 0.39172312499569178 0 0.1237394943858382 0.38287856340405407 0 0.134482114999663 0.37893932137226211 0 0.1322488063462158 0.39172312499569178 0 0.1486109868887015 0.400763953609926 0 0.13196075334332821 0.4013775048384412 0 0.1325616273864946 0.4114004119947231 0 0.1224309636384853 0.39424558908014268 0 0.1322488063462158 0.39172312499569178 0 0.13196075334332821 0.4013775048384412 0 0.1486109868887015 0.400763953609926 0 0.1322488063462158 0.39172312499569178 0 0.13196075334332821 0.4013775048384412 0 0.12367122236305091 0.40291932300474881 0 0.13196075334332821 0.4013775048384412 0 0.1325616273864946 0.4114004119947231 0 0.12367122236305091 0.40291932300474881 0 0.1224309636384853 0.39424558908014268 0 0.13196075334332821 0.4013775048384412 0 0.12088926845273219 0.41107423133913479 0 0.1325616273864946 0.4114004119947231 0 0.12611194534131129 0.41803627143245148 0 0.1486109868887015 0.400763953609926 0 0.1325616273864946 0.4114004119947231 0 0.14060770498175479 0.41577841645132901 0 0.12088926845273219 0.41107423133913479 0 0.12367122236305091 0.40291932300474881 0 0.1325616273864946 0.4114004119947231 0 0.1325616273864946 0.4114004119947231 0 0.12611194534131129 0.41803627143245148 0 0.13333389794051709 0.42165816192371292 0 0.14060770498175479 0.41577841645132901 0 0.13333389794051709 0.42165816192371292 0 0.14108476773993631 0.42522623013309041 0 0.1325616273864946 0.4114004119947231 0 0.14060770498175479 0.41577841645132901 0 0.13333389794051709 0.42165816192371292 0 0.12551471678323209 0.43628230179449962 0 0.12566510918902241 0.42603110249203691 0 0.13393066770490819 0.43298524377978442 0 0.13333389794051709 0.42165816192371292 0 0.12566510918902241 0.42603110249203691 0 0.13393066770490819 0.43298524377978442 0 0.12611194534131129 0.41803627143245148 0 0.13333389794051709 0.42165816192371292 0 0.12566510918902241 0.42603110249203691 0 0.13333389794051709 0.42165816192371292 0 0.13393066770490819 0.43298524377978442 0 0.14108476773993631 0.42522623013309041 0 0.13393066770490819 0.43298524377978442 0 0.1425073380141918 0.432612695387327 0 0.1423074511050357 0.44054082532264588 0 0.13393066770490819 0.43298524377978442 0 0.1425073380141918 0.432612695387327 0 0.14108476773993631 0.42522623013309041 0 0.1425073380141918 0.432612695387327 0 0.1517657704567407 0.43621896759236978 0 0.1423074511050357 0.44054082532264588 0 0.1425073380141918 0.432612695387327 0 0.14786114682965321 0.42764916258421221 0 0.1517657704567407 0.43621896759236978 0 0.1425073380141918 0.432612695387327 0 0.14786114682965321 0.42764916258421221 0 0.14108476773993631 0.42522623013309041 0 0.14786114682965321 0.42764916258421221 0 0.14108476773993631 0.42522623013309041 0 0.14744724495312439 0.41984332459519208 0 0.14786114682965321 0.42764916258421221 0 0.15589704296048851 0.42325916918759099 0 0.1517657704567407 0.43621896759236978 0 0.14786114682965321 0.42764916258421221 0 0.15589704296048851 0.42325916918759099 0 0.14744724495312439 0.41984332459519208 0 0.1486109868887015 0.400763953609926 0 0.15589704296048851 0.42325916918759099 0 0.16228851600149141 0.42189140420548282 0 0.1486109868887015 0.400763953609926 0 0.16228851600149141 0.42189140420548282 0 0.1486109868887015 0.400763953609926 0 0.15589704296048851 0.42325916918759099 0 0.14744724495312439 0.41984332459519208 0 0.1486109868887015 0.400763953609926 0 0.14060770498175479 0.41577841645132901 0 0.14744724495312439 0.41984332459519208 0 0.1486109868887015 0.400763953609926 0 0.15589704296048851 0.42325916918759099 0 0.14060770498175479 0.41577841645132901 0 0.14108476773993631 0.42522623013309041 0 0.14744724495312439 0.41984332459519208 0 0.1486109868887015 0.400763953609926 0 0.1638878867079005 0.4069118269261679 0 0.16228851600149141 0.42189140420548282 0 0.1638878867079005 0.4069118269261679 0 0.16756389663812821 0.41452835154741008 0 0.16228851600149141 0.42189140420548282 0 0.16756389663812821 0.41452835154741008 0 0.168578021459908 0.42083585349580072 0 0.16228851600149141 0.42189140420548282 0 0.16756389663812821 0.41452835154741008 0 0.168578021459908 0.42083585349580072 0 0.17341592550887441 0.4202625733283244 0 0.16756389663812821 0.41452835154741008 0 0.17450934061055459 0.41356655661282138 0 0.17341592550887441 0.4202625733283244 0 0.1638878867079005 0.4069118269261679 0 0.16756389663812821 0.41452835154741008 0 0.17284233307316771 0.40715878317956922 0 0.16756389663812821 0.41452835154741008 0 0.17284233307316771 0.40715878317956922 0 0.17450934061055459 0.41356655661282138 0 0.15589704296048851 0.42325916918759099 0 0.1631830990322749 0.44575438476525608 0 0.15589704296048851 0.42325916918759099 0 0.16228851600149141 0.42189140420548282 0 0.1631830990322749 0.44575438476525608 0 0.16228851600149141 0.42189140420548282 0 0.17596604511428171 0.44301885480103909 0 0.1631830990322749 0.44575438476525608 0 0.15589704296048851 0.42325916918759099 0 0.1517657704567407 0.43621896759236978 0 0.1631830990322749 0.44575438476525608 0 0.16228851600149141 0.42189140420548282 0 0.17104374769113809 0.4266610849019854 0 0.17596604511428171 0.44301885480103909 0 0.16228851600149141 0.42189140420548282 0 0.17596604511428171 0.44301885480103909 0 0.168578021459908 0.42083585349580072 0 0.16228851600149141 0.42189140420548282 0 0.17104374769113809 0.4266610849019854 0 0.168578021459908 0.42083585349580072 0 0.17104374769113809 0.4266610849019854 0 0.17341592550887441 0.4202625733283244 0 0.17104374769113809 0.4266610849019854 0 0.17677178831311119 0.42859706698235828 0 0.17596604511428171 0.44301885480103909 0 0.17677178831311119 0.42859706698235828 0 0.18416264123687601 0.43190352896121859 0 0.17596604511428171 0.44301885480103909 0 0.17677178831311119 0.42859706698235828 0 0.18127078533859409 0.42373140104529139 0 0.17341592550887441 0.4202625733283244 0 0.17104374769113809 0.4266610849019854 0 0.17677178831311119 0.42859706698235828 0 0.17341592550887441 0.4202625733283244 0 0.17677178831311119 0.42859706698235828 0 0.18127078533859409 0.42373140104529139 0 0.18416264123687601 0.43190352896121859 0 0.18127078533859409 0.42373140104529139 0 0.18416264123687601 0.43190352896121859 0 0.1883289550460874 0.42509253559457139 0 0.18127078533859409 0.42373140104529139 0 0.186855818752201 0.41820156071556741 0 0.1883289550460874 0.42509253559457139 0 0.1794392483615965 0.40677821380603868 0 0.17450934061055459 0.41356655661282138 0 0.1808586653523464 0.41291048741869207 0 0.1794392483615965 0.40677821380603868 0 0.17284233307316771 0.40715878317956922 0 0.17450934061055459 0.41356655661282138 0 0.18127078533859409 0.42373140104529139 0 0.17341592550887441 0.4202625733283244 0 0.17981325723708841 0.41822593161842919 0 0.17450934061055459 0.41356655661282138 0 0.17341592550887441 0.4202625733283244 0 0.17981325723708841 0.41822593161842919 0 0.17450934061055459 0.41356655661282138 0 0.17981325723708841 0.41822593161842919 0 0.1808586653523464 0.41291048741869207 0 0.17981325723708841 0.41822593161842919 0 0.186855818752201 0.41820156071556741 0 0.1808586653523464 0.41291048741869207 0 0.18127078533859409 0.42373140104529139 0 0.17981325723708841 0.41822593161842919 0 0.186855818752201 0.41820156071556741 0 0.186855818752201 0.41820156071556741 0 0.18710926999104191 0.4117317783393018 0 0.1808586653523464 0.41291048741869207 0 0.18710926999104191 0.4117317783393018 0 0.1808586653523464 0.41291048741869207 0 0.18572496523129781 0.4059297113120558 0 0.1794392483615965 0.40677821380603868 0 0.1808586653523464 0.41291048741869207 0 0.18572496523129781 0.4059297113120558 0 0.1794392483615965 0.40677821380603868 0 0.185000356513708 0.39962851021585682 0 0.17868611294235051 0.40022894436704459 0 0.1794392483615965 0.40677821380603868 0 0.18572496523129781 0.4059297113120558 0 0.185000356513708 0.39962851021585682 0 0.185000356513708 0.39962851021585682 0 0.18452432960057799 0.39330367097471319 0 0.19153822900533049 0.39878711887188267 0 0.185000356513708 0.39962851021585682 0 0.18452432960057799 0.39330367097471319 0 0.17868611294235051 0.40022894436704459 0 0.17868611294235051 0.40022894436704459 0 0.17007401552943591 0.39903665144280842 0 0.17557628042497331 0.39035409894860668 0 0.18452432960057799 0.39330367097471319 0 0.17868611294235051 0.40022894436704459 0 0.17557628042497331 0.39035409894860668 0 0.17284233307316771 0.40715878317956922 0 0.17868611294235051 0.40022894436704459 0 0.17007401552943591 0.39903665144280842 0 0.1794392483615965 0.40677821380603868 0 0.17284233307316771 0.40715878317956922 0 0.17868611294235051 0.40022894436704459 0 0.1638878867079005 0.4069118269261679 0 0.17007401552943591 0.39903665144280842 0 0.16194757211647839 0.39809181757181089 0 0.1638878867079005 0.4069118269261679 0 0.17284233307316771 0.40715878317956922 0 0.17007401552943591 0.39903665144280842 0 0.17007401552943591 0.39903665144280842 0 0.16677876320933149 0.3905298469185744 0 0.17557628042497331 0.39035409894860668 0 0.17007401552943591 0.39903665144280842 0 0.16194757211647839 0.39809181757181089 0 0.16677876320933149 0.3905298469185744 0 0.1486109868887015 0.400763953609926 0 0.16194757211647839 0.39809181757181089 0 0.15900107475309641 0.39139960350327779 0 0.16194757211647839 0.39809181757181089 0 0.15900107475309641 0.39139960350327779 0 0.16677876320933149 0.3905298469185744 0 0.1486109868887015 0.400763953609926 0 0.1638878867079005 0.4069118269261679 0 0.16194757211647839 0.39809181757181089 0 0.15505387058696191 0.38493276804108389 0 0.1626141809640087 0.38267963137499372 0 0.15757995275747869 0.37624985548628609 0 0.1663985043173643 0.37350940688971779 0 0.1626141809640087 0.38267963137499372 0 0.15757995275747869 0.37624985548628609 0 0.15900107475309641 0.39139960350327779 0 0.1626141809640087 0.38267963137499372 0 0.16677876320933149 0.3905298469185744 0 0.15505387058696191 0.38493276804108389 0 0.15900107475309641 0.39139960350327779 0 0.1626141809640087 0.38267963137499372 0 0.16677876320933149 0.3905298469185744 0 0.17018337254548749 0.38048090182338767 0 0.17557628042497331 0.39035409894860668 0 0.1626141809640087 0.38267963137499372 0 0.16677876320933149 0.3905298469185744 0 0.17018337254548749 0.38048090182338767 0 0.1663985043173643 0.37350940688971779 0 0.1626141809640087 0.38267963137499372 0 0.17018337254548749 0.38048090182338767 0 0.17757151297994869 0.37075781550769138 0 0.177771034103547 0.38126253221531581 0 0.1833912539748502 0.37686253000451081 0 0.17757151297994869 0.37075781550769138 0 0.17018337254548749 0.38048090182338767 0 0.177771034103547 0.38126253221531581 0 0.177771034103547 0.38126253221531581 0 0.17557628042497331 0.39035409894860668 0 0.18239010796837879 0.38591457140083779 0 0.17018337254548749 0.38048090182338767 0 0.177771034103547 0.38126253221531581 0 0.17557628042497331 0.39035409894860668 0 0.18452432960057799 0.39330367097471319 0 0.17557628042497331 0.39035409894860668 0 0.18239010796837879 0.38591457140083779 0 0.18239010796837879 0.38591457140083779 0 0.18704144959236249 0.38782624014717793 0 0.1893410229495219 0.38225397813802853 0 0.18452432960057799 0.39330367097471319 0 0.18239010796837879 0.38591457140083779 0 0.18704144959236249 0.38782624014717793 0 0.18239010796837879 0.38591457140083779 0 0.1833912539748502 0.37686253000451081 0 0.1893410229495219 0.38225397813802853 0 0.177771034103547 0.38126253221531581 0 0.18239010796837879 0.38591457140083779 0 0.1833912539748502 0.37686253000451081 0 0.18999153622034279 0.37133286947626321 0 0.1893410229495219 0.38225397813802853 0 0.20003674803913651 0.37745425632420748 0 0.18999153622034279 0.37133286947626321 0 0.1833912539748502 0.37686253000451081 0 0.1893410229495219 0.38225397813802853 0 0.1893410229495219 0.38225397813802853 0 0.1985546256029119 0.38899493489812559 0 0.19152564682006201 0.39148549528664511 0 0.18704144959236249 0.38782624014717793 0 0.1893410229495219 0.38225397813802853 0 0.19152564682006201 0.39148549528664511 0 0.1893410229495219 0.38225397813802853 0 0.1985546256029119 0.38899493489812559 0 0.20003674803913651 0.37745425632420748 0 0.1985546256029119 0.38899493489812559 0 0.20003674803913651 0.37745425632420748 0 0.20597615288589091 0.38511314585946871 0 0.19190802821600081 0.40521868792592358 0 0.19153822900533049 0.39878711887188267 0 0.1980569754628822 0.4044482656556963 0 0.18572496523129781 0.4059297113120558 0 0.185000356513708 0.39962851021585682 0 0.19190802821600081 0.40521868792592358 0 0.185000356513708 0.39962851021585682 0 0.19190802821600081 0.40521868792592358 0 0.19153822900533049 0.39878711887188267 0 0.19153822900533049 0.39878711887188267 0 0.19152564682006201 0.39148549528664511 0 0.19826159792556289 0.39727424262442429 0 0.18452432960057799 0.39330367097471319 0 0.18704144959236249 0.38782624014717793 0 0.19152564682006201 0.39148549528664511 0 0.18452432960057799 0.39330367097471319 0 0.19153822900533049 0.39878711887188267 0 0.19152564682006201 0.39148549528664511 0 0.1985546256029119 0.38899493489812559 0 0.19826159792556289 0.39727424262442429 0 0.2059161725978654 0.39415228724802609 0 0.19826159792556289 0.39727424262442429 0 0.20441826455146389 0.4028280356782829 0 0.2059161725978654 0.39415228724802609 0 0.1985546256029119 0.38899493489812559 0 0.19152564682006201 0.39148549528664511 0 0.19826159792556289 0.39727424262442429 0 0.19153822900533049 0.39878711887188267 0 0.19826159792556289 0.39727424262442429 0 0.1980569754628822 0.4044482656556963 0 0.19826159792556289 0.39727424262442429 0 0.1980569754628822 0.4044482656556963 0 0.20441826455146389 0.4028280356782829 0 0.1980569754628822 0.4044482656556963 0 0.20441826455146389 0.4028280356782829 0 0.20114285864432971 0.41057304448706727 0 0.20441826455146389 0.4028280356782829 0 0.2059161725978654 0.39415228724802609 0 0.2135601630401219 0.40077555705308648 0 0.20441826455146389 0.4028280356782829 0 0.2135601630401219 0.40077555705308648 0 0.2091442684056555 0.40920224811219902 0 0.2059161725978654 0.39415228724802609 0 0.2135601630401219 0.40077555705308648 0 0.2146554589903171 0.38922895093875121 0 0.2135601630401219 0.40077555705308648 0 0.2146554589903171 0.38922895093875121 0 0.22375670611480361 0.39503038942460339 0 0.2135601630401219 0.40077555705308648 0 0.22161519510325581 0.40315064189054778 0 0.2166885500202422 0.4099515784252678 0 0.2134089854017239 0.373703237153372 0 0.20003674803913651 0.37745425632420748 0 0.20597615288589091 0.38511314585946871 0 0.2059161725978654 0.39415228724802609 0 0.20597615288589091 0.38511314585946871 0 0.2146554589903171 0.38922895093875121 0 0.1985546256029119 0.38899493489812559 0 0.2059161725978654 0.39415228724802609 0 0.20597615288589091 0.38511314585946871 0 0.2134089854017239 0.373703237153372 0 0.20597615288589091 0.38511314585946871 0 0.2146554589903171 0.38922895093875121 0 0.2134089854017239 0.373703237153372 0 0.2146554589903171 0.38922895093875121 0 0.2268508713881473 0.38310954295525651 0 0.23045162735198621 0.3667579202054479 0 0.2268508713881473 0.38310954295525651 0 0.24393639915047591 0.38024899017705938 0 0.2268508713881473 0.38310954295525651 0 0.22375670611480361 0.39503038942460339 0 0.23489605131957719 0.39368776983230558 0 0.2146554589903171 0.38922895093875121 0 0.2268508713881473 0.38310954295525651 0 0.22375670611480361 0.39503038942460339 0 0.2135601630401219 0.40077555705308648 0 0.22375670611480361 0.39503038942460339 0 0.22161519510325581 0.40315064189054778 0 0.22375670611480361 0.39503038942460339 0 0.22161519510325581 0.40315064189054778 0 0.22970964599632779 0.40693014124781851 0 0.22375670611480361 0.39503038942460339 0 0.23489605131957719 0.39368776983230558 0 0.22970964599632779 0.40693014124781851 0 0.23489605131957719 0.39368776983230558 0 0.24393639915047591 0.38024899017705938 0 0.25119773096792741 0.400751040894679 0 0.23489605131957719 0.39368776983230558 0 0.22970964599632779 0.40693014124781851 0 0.25119773096792741 0.400751040894679 0 0.2268508713881473 0.38310954295525651 0 0.23489605131957719 0.39368776983230558 0 0.24393639915047591 0.38024899017705938 0 0.24555395667834359 0.41749769150369959 0 0.23064723571995319 0.43702362403291428 0 0.25604981483700262 0.43940876693209419 0 0.24555395667834359 0.41749769150369959 0 0.22970964599632779 0.40693014124781851 0 0.25119773096792741 0.400751040894679 0 0.24555395667834359 0.41749769150369959 0 0.2200189901831042 0.4164107702089499 0 0.24555395667834359 0.41749769150369959 0 0.22970964599632779 0.40693014124781851 0 0.2200189901831042 0.4164107702089499 0 0.22970964599632779 0.40693014124781851 0 0.2200189901831042 0.4164107702089499 0 0.2166885500202422 0.4099515784252678 0 0.22161519510325581 0.40315064189054778 0 0.22970964599632779 0.40693014124781851 0 0.2166885500202422 0.4099515784252678 0 0.24555395667834359 0.41749769150369959 0 0.2200189901831042 0.4164107702089499 0 0.23064723571995319 0.43702362403291428 0 0.2200189901831042 0.4164107702089499 0 0.23064723571995319 0.43702362403291428 0 0.23064723571995319 0.43702362403291428 0 0.21543547626607781 0.42620861456076248 0 0.214771153112263 0.43844867814249772 0 0.2200189901831042 0.4164107702089499 0 0.23064723571995319 0.43702362403291428 0 0.21543547626607781 0.42620861456076248 0 0.21543547626607781 0.42620861456076248 0 0.20626355903984961 0.42956273908754139 0 0.214771153112263 0.43844867814249772 0 0.21543547626607781 0.42620861456076248 0 0.20626355903984961 0.42956273908754139 0 0.2069076575812771 0.42124380502131381 0 0.20626355903984961 0.42956273908754139 0 0.2069076575812771 0.42124380502131381 0 0.20079455269066199 0.42380347331087431 0 0.20626355903984961 0.42956273908754139 0 0.20267989208257711 0.4401060392698804 0 0.214771153112263 0.43844867814249772 0 0.2135601630401219 0.40077555705308648 0 0.2166885500202422 0.4099515784252678 0 0.2091442684056555 0.40920224811219902 0 0.2200189901831042 0.4164107702089499 0 0.2166885500202422 0.4099515784252678 0 0.2166885500202422 0.4099515784252678 0 0.21266882943180521 0.41609790329205659 0 0.2091442684056555 0.40920224811219902 0 0.2200189901831042 0.4164107702089499 0 0.21543547626607781 0.42620861456076248 0 0.21266882943180521 0.41609790329205659 0 0.21543547626607781 0.42620861456076248 0 0.21266882943180521 0.41609790329205659 0 0.2069076575812771 0.42124380502131381 0 0.2200189901831042 0.4164107702089499 0 0.2166885500202422 0.4099515784252678 0 0.21266882943180521 0.41609790329205659 0 0.2200189901831042 0.4164107702089499 0 0.21266882943180521 0.41609790329205659 0 0.2069076575812771 0.42124380502131381 0 0.2062619261984969 0.41474032722147458 0 0.2000216018607712 0.4170497726551734 0 0.21266882943180521 0.41609790329205659 0 0.2069076575812771 0.42124380502131381 0 0.2062619261984969 0.41474032722147458 0 0.20441826455146389 0.4028280356782829 0 0.2091442684056555 0.40920224811219902 0 0.20114285864432971 0.41057304448706727 0 0.2062619261984969 0.41474032722147458 0 0.2091442684056555 0.40920224811219902 0 0.20114285864432971 0.41057304448706727 0 0.21266882943180521 0.41609790329205659 0 0.2062619261984969 0.41474032722147458 0 0.2091442684056555 0.40920224811219902 0 0.1980569754628822 0.4044482656556963 0 0.20114285864432971 0.41057304448706727 0 0.19379358156273341 0.41233727990281788 0 0.20114285864432971 0.41057304448706727 0 0.2000216018607712 0.4170497726551734 0 0.19379358156273341 0.41233727990281788 0 0.2000216018607712 0.4170497726551734 0 0.19415769351052331 0.42125437411500039 0 0.19379358156273341 0.41233727990281788 0 0.2062619261984969 0.41474032722147458 0 0.20114285864432971 0.41057304448706727 0 0.2000216018607712 0.4170497726551734 0 0.2069076575812771 0.42124380502131381 0 0.2000216018607712 0.4170497726551734 0 0.20079455269066199 0.42380347331087431 0 0.2000216018607712 0.4170497726551734 0 0.19415769351052331 0.42125437411500039 0 0.20079455269066199 0.42380347331087431 0 0.186855818752201 0.41820156071556741 0 0.19415769351052331 0.42125437411500039 0 0.19379358156273341 0.41233727990281788 0 0.186855818752201 0.41820156071556741 0 0.19415769351052331 0.42125437411500039 0 0.1883289550460874 0.42509253559457139 0 0.186855818752201 0.41820156071556741 0 0.18710926999104191 0.4117317783393018 0 0.19379358156273341 0.41233727990281788 0 0.19190802821600081 0.40521868792592358 0 0.1980569754628822 0.4044482656556963 0 0.19379358156273341 0.41233727990281788 0 0.18710926999104191 0.4117317783393018 0 0.19190802821600081 0.40521868792592358 0 0.19379358156273341 0.41233727990281788 0 0.18710926999104191 0.4117317783393018 0 0.18572496523129781 0.4059297113120558 0 0.19190802821600081 0.40521868792592358 0 0.20626355903984961 0.42956273908754139 0 0.19519783639224281 0.43037181313577938 0 0.20267989208257711 0.4401060392698804 0 0.20626355903984961 0.42956273908754139 0 0.20079455269066199 0.42380347331087431 0 0.19519783639224281 0.43037181313577938 0 0.19415769351052331 0.42125437411500039 0 0.20079455269066199 0.42380347331087431 0 0.19519783639224281 0.43037181313577938 0 0.18416264123687601 0.43190352896121859 0 0.1883289550460874 0.42509253559457139 0 0.19519783639224281 0.43037181313577938 0 0.19415769351052331 0.42125437411500039 0 0.1883289550460874 0.42509253559457139 0 0.19519783639224281 0.43037181313577938 0 0.18416264123687601 0.43190352896121859 0 0.19519783639224281 0.43037181313577938 0 0.19160535936112069 0.44416607706433131 0 0.19160535936112069 0.44416607706433131 0 0.20267989208257711 0.4401060392698804 0 0.20221137797732119 0.45461420648948841 0 0.19519783639224281 0.43037181313577938 0 0.19160535936112069 0.44416607706433131 0 0.20267989208257711 0.4401060392698804 0 0.19160535936112069 0.44416607706433131 0 0.18964357422707201 0.46414630539659552 0 0.20221137797732119 0.45461420648948841 0 0.18964357422707201 0.46414630539659552 0 0.20221137797732119 0.45461420648948841 0 0.20520914669221099 0.46850526690136179 0 0.20520914669221099 0.46850526690136179 0 0.21402273151952461 0.46070764445619189 0 0.21707615726092161 0.47694870784039473 0 0.20221137797732119 0.45461420648948841 0 0.20520914669221099 0.46850526690136179 0 0.21402273151952461 0.46070764445619189 0 0.20221137797732119 0.45461420648948841 0 0.21402273151952461 0.46070764445619189 0 0.21140877250843651 0.44892486388803871 0 0.21402273151952461 0.46070764445619189 0 0.21140877250843651 0.44892486388803871 0 0.22335870785049641 0.45074775108213477 0 0.20267989208257711 0.4401060392698804 0 0.21140877250843651 0.44892486388803871 0 0.214771153112263 0.43844867814249772 0 0.20267989208257711 0.4401060392698804 0 0.20221137797732119 0.45461420648948841 0 0.21140877250843651 0.44892486388803871 0 0.21140877250843651 0.44892486388803871 0 0.214771153112263 0.43844867814249772 0 0.22335870785049641 0.45074775108213477 0 0.23064723571995319 0.43702362403291428 0 0.22335870785049641 0.45074775108213477 0 0.24127548125680109 0.45763647785687922 0 0.23064723571995319 0.43702362403291428 0 0.214771153112263 0.43844867814249772 0 0.22335870785049641 0.45074775108213477 0 0.22335870785049641 0.45074775108213477 0 0.22877797544026299 0.46262189055252462 0 0.24127548125680109 0.45763647785687922 0 0.22877797544026299 0.46262189055252462 0 0.24127548125680109 0.45763647785687922 0 0.2312626580485713 0.47584567003179168 0 0.21402273151952461 0.46070764445619189 0 0.22877797544026299 0.46262189055252462 0 0.21707615726092161 0.47694870784039473 0 0.21402273151952461 0.46070764445619189 0 0.22335870785049641 0.45074775108213477 0 0.22877797544026299 0.46262189055252462 0 0.24127548125680109 0.45763647785687922 0 0.25190372679364897 0.4782493316808441 0 0.23064723571995319 0.43702362403291428 0 0.24127548125680109 0.45763647785687922 0 0.23064723571995319 0.43702362403291428 0 0.24127548125680109 0.45763647785687922 0 0.25604981483700262 0.43940876693209419 0 0.24348481177892969 0.48733819645857762 0 0.22990269030130669 0.5 0 0.25880009470689608 0.5 0 0.24348481177892969 0.48733819645857762 0 0.2312626580485713 0.47584567003179168 0 0.22990269030130669 0.5 0 0.24127548125680109 0.45763647785687922 0 0.2414613409263168 0.47809388152379723 0 0.25190372679364897 0.4782493316808441 0 0.24348481177892969 0.48733819645857762 0 0.2414613409263168 0.47809388152379723 0 0.25190372679364897 0.4782493316808441 0 0.24127548125680109 0.45763647785687922 0 0.25510243067217869 0.47228498483834208 0 0.25190372679364897 0.4782493316808441 0 0.24127548125680109 0.45763647785687922 0 0.2414613409263168 0.47809388152379723 0 0.2312626580485713 0.47584567003179168 0 0.24348481177892969 0.48733819645857762 0 0.2414613409263168 0.47809388152379723 0 0.2312626580485713 0.47584567003179168 0 0.2312626580485713 0.47584567003179168 0 0.22990269030130669 0.5 0 0.21707615726092161 0.47694870784039473 0 0.22877797544026299 0.46262189055252462 0 0.2312626580485713 0.47584567003179168 0 0.21707615726092161 0.47694870784039473 0 0.22990269030130669 0.5 0 0.20332110333986231 0.48527375599215178 0 0.21707615726092161 0.47694870784039473 0 0.22990269030130669 0.5 0 0.20332110333986231 0.48527375599215178 0 0.20100528589571739 0.5 0 0.20520914669221099 0.46850526690136179 0 0.20332110333986231 0.48527375599215178 0 0.21707615726092161 0.47694870784039473 0 0.18964357422707201 0.46414630539659552 0 0.20332110333986231 0.48527375599215178 0 0.1831178333018415 0.48281332284079509 0 0.18964357422707201 0.46414630539659552 0 0.20520914669221099 0.46850526690136179 0 0.20332110333986231 0.48527375599215178 0 0.18964357422707201 0.46414630539659552 0 0.20332110333986231 0.48527375599215178 0 0.20332110333986231 0.48527375599215178 0 0.18988802600688731 0.49202176970823669 0 0.1831178333018415 0.48281332284079509 0 0.20100528589571739 0.5 0 0.18988802600688731 0.49202176970823669 0 0.1721078814901281 0.5 0 0.20332110333986231 0.48527375599215178 0 0.20100528589571739 0.5 0 0.18988802600688731 0.49202176970823669 0 0.1721078814901281 0.5 0 0.1614407300011407 0.48281044435934589 0 0.1831178333018415 0.48281332284079509 0 0.18988802600688731 0.49202176970823669 0 0.1721078814901281 0.5 0 0.1831178333018415 0.48281332284079509 0 0.1721078814901281 0.5 0 0.1614407300011407 0.48281044435934589 0 0.1432104770845388 0.5 0 0.1614407300011407 0.48281044435934589 0 0.1831178333018415 0.48281332284079509 0 0.17046915510406119 0.46824960034292118 0 0.1614407300011407 0.48281044435934589 0 0.17046915510406119 0.46824960034292118 0 0.1558601619206314 0.4698319210302293 0 0.18964357422707201 0.46414630539659552 0 0.1831178333018415 0.48281332284079509 0 0.17046915510406119 0.46824960034292118 0 0.18964357422707201 0.46414630539659552 0 0.17596604511428171 0.44301885480103909 0 0.18964357422707201 0.46414630539659552 0 0.17596604511428171 0.44301885480103909 0 0.17046915510406119 0.46824960034292118 0 0.19160535936112069 0.44416607706433131 0 0.18964357422707201 0.46414630539659552 0 0.17596604511428171 0.44301885480103909 0 0.18416264123687601 0.43190352896121859 0 0.19160535936112069 0.44416607706433131 0 0.17596604511428171 0.44301885480103909 0 0.17596604511428171 0.44301885480103909 0 0.1631830990322749 0.44575438476525608 0 0.17046915510406119 0.46824960034292118 0 0.1631830990322749 0.44575438476525608 0 0.17046915510406119 0.46824960034292118 0 0.1558601619206314 0.4698319210302293 0 0.1631830990322749 0.44575438476525608 0 0.17046915510406119 0.46824960034292118 0 0.1631830990322749 0.44575438476525608 0 0.14895412909991609 0.45686144951720492 0 0.1558601619206314 0.4698319210302293 0 0.14895412909991609 0.45686144951720492 0 0.14387887110564321 0.47596782194213039 0 0.1558601619206314 0.4698319210302293 0 0.14895412909991609 0.45686144951720492 0 0.13120714967448319 0.46015920542284949 0 0.14387887110564321 0.47596782194213039 0 0.1517657704567407 0.43621896759236978 0 0.1631830990322749 0.44575438476525608 0 0.14931107885324771 0.44599676991000381 0 0.1631830990322749 0.44575438476525608 0 0.14895412909991609 0.45686144951720492 0 0.14931107885324771 0.44599676991000381 0 0.14931107885324771 0.44599676991000381 0 0.1407793515437076 0.44954038534007862 0 0.1423074511050357 0.44054082532264588 0 0.14895412909991609 0.45686144951720492 0 0.14931107885324771 0.44599676991000381 0 0.1407793515437076 0.44954038534007862 0 0.1517657704567407 0.43621896759236978 0 0.14931107885324771 0.44599676991000381 0 0.1423074511050357 0.44054082532264588 0 0.12041356572887441 0.44591644938472352 0 0.13211694898585541 0.44414367652768849 0 0.13120714967448319 0.46015920542284949 0 0.1407793515437076 0.44954038534007862 0 0.13211694898585541 0.44414367652768849 0 0.13120714967448319 0.46015920542284949 0 0.13393066770490819 0.43298524377978442 0 0.1423074511050357 0.44054082532264588 0 0.13211694898585541 0.44414367652768849 0 0.1407793515437076 0.44954038534007862 0 0.1423074511050357 0.44054082532264588 0 0.13211694898585541 0.44414367652768849 0 0.12551471678323209 0.43628230179449962 0 0.13393066770490819 0.43298524377978442 0 0.13211694898585541 0.44414367652768849 0 0.12041356572887441 0.44591644938472352 0 0.12551471678323209 0.43628230179449962 0 0.13211694898585541 0.44414367652768849 0 0.14895412909991609 0.45686144951720492 0 0.1407793515437076 0.44954038534007862 0 0.13120714967448319 0.46015920542284949 0 0.12235292131402729 0.47966924872560912 0 0.13120714967448319 0.46015920542284949 0 0.14387887110564321 0.47596782194213039 0 0.12235292131402729 0.47966924872560912 0 0.1432104770845388 0.5 0 0.14387887110564321 0.47596782194213039 0 0.1143130726789493 0.5 0 0.12235292131402729 0.47966924872560912 0 0.1432104770845388 0.5 0 0.1614407300011407 0.48281044435934589 0 0.1432104770845388 0.5 0 0.14387887110564321 0.47596782194213039 0 0.1614407300011407 0.48281044435934589 0 0.14387887110564321 0.47596782194213039 0 0.1558601619206314 0.4698319210302293 0 0.35838775428692432 0.4748499862663173 0 0.3513348642230561 0.46452285385091457 0 0.34172730778473148 0.47592753118299919 0 0.35838775428692432 0.4748499862663173 0 0.35832852732922571 0.48751622343040951 0 0.34172730778473148 0.47592753118299919 0 0.35838775428692432 0.4748499862663173 0 0.36737987295398161 0.46714868473339638 0 0.3513348642230561 0.46452285385091457 0 0.34549230792366409 0.5 0 0.35832852732922571 0.48751622343040951 0 0.34172730778473148 0.47592753118299919 0 0.34549230792366409 0.5 0 0.35832852732922571 0.48751622343040951 0 0.37438971232925339 0.50000000000000022 0 0.35832852732922571 0.48751622343040951 0 0.37438971232925339 0.50000000000000022 0 0.37305003487519378 0.48239898235694528 0 0.35838775428692432 0.4748499862663173 0 0.35832852732922571 0.48751622343040951 0 0.37305003487519378 0.48239898235694528 0 0.35838775428692432 0.4748499862663173 0 0.37305003487519378 0.48239898235694528 0 0.36737987295398161 0.46714868473339638 0 0.36737987295398161 0.46714868473339638 0 0.35148653697361421 0.447618627203826 0 0.37916557093245612 0.45961252230899219 0 0.35148653697361421 0.447618627203826 0 0.37916557093245612 0.45961252230899219 0 0.36448973851479871 0.43870942010348118 0 0.37916557093245612 0.45961252230899219 0 0.36448973851479871 0.43870942010348118 0 0.35148653697361421 0.447618627203826 0 0.37916557093245612 0.45961252230899219 0 0.36448973851479871 0.43870942010348118 0 0.38089838367807488 0.44323460032203821 0 0.37916557093245612 0.45961252230899219 0 0.36448973851479871 0.43870942010348118 0 0.35148653697361421 0.447618627203826 0 0.35148653697361421 0.447618627203826 0 0.33769284911602898 0.45706943986803439 0 0.35148653697361421 0.447618627203826 0 0.33672892750007399 0.44122385127733282 0 0.36737987295398161 0.46714868473339638 0 0.35148653697361421 0.447618627203826 0 0.3513348642230561 0.46452285385091457 0 0.35148653697361421 0.447618627203826 0 0.3513348642230561 0.46452285385091457 0 0.33769284911602898 0.45706943986803439 0 0.33769284911602898 0.45706943986803439 0 0.32389916125844381 0.46652025253224277 0 0.34172730778473148 0.47592753118299919 0 0.33769284911602898 0.45706943986803439 0 0.33672892750007399 0.44122385127733282 0 0.32389916125844381 0.46652025253224277 0 0.3513348642230561 0.46452285385091457 0 0.33769284911602898 0.45706943986803439 0 0.34172730778473148 0.47592753118299919 0 0.33672892750007399 0.44122385127733282 0 0.32389916125844381 0.46652025253224277 0 0.33769284911602898 0.45706943986803439 0 0.32389916125844381 0.46652025253224277 0 0.35148653697361421 0.447618627203826 0 0.33769284911602898 0.45706943986803439 0 0.33672892750007399 0.44122385127733282 0 0.33672892750007399 0.44122385127733282 0 0.32098034023316541 0.43439966427663113 0 0.33672892750007399 0.44122385127733282 0 0.31880201662512681 0.44907767723183151 0 0.32098034023316541 0.43439966427663113 0 0.33672892750007399 0.44122385127733282 0 0.31880201662512681 0.44907767723183151 0 0.32389916125844381 0.46652025253224277 0 0.31880201662512681 0.44907767723183151 0 0.30830885580473549 0.4517440430211872 0 0.31068880960917461 0.44149688970138268 0 0.31880201662512681 0.44907767723183151 0 0.31068880960917461 0.44149688970138268 0 0.32098034023316541 0.43439966427663113 0 0.31880201662512681 0.44907767723183151 0 0.32389916125844381 0.46652025253224277 0 0.31339607985675361 0.46126587153591792 0 0.31880201662512681 0.44907767723183151 0 0.31339607985675361 0.46126587153591792 0 0.30830885580473549 0.4517440430211872 0 0.32389916125844381 0.46652025253224277 0 0.31339607985675361 0.46126587153591792 0 0.31645915198497188 0.47161781125544427 0 0.32389916125844381 0.46652025253224277 0 0.32825697932558962 0.48586632126248269 0 0.31357121614303418 0.48688382259717139 0 0.32389916125844381 0.46652025253224277 0 0.31357121614303418 0.48688382259717139 0 0.32389916125844381 0.46652025253224277 0 0.31645915198497188 0.47161781125544427 0 0.31357121614303418 0.48688382259717139 0 0.32389916125844381 0.46652025253224277 0 0.31645915198497188 0.47161781125544427 0 0.32389916125844381 0.46652025253224277 0 0.34172730778473148 0.47592753118299919 0 0.32825697932558962 0.48586632126248269 0 0.34549230792366409 0.5 0 0.32825697932558962 0.48586632126248269 0 0.31659490351807468 0.5 0 0.34549230792366409 0.5 0 0.34172730778473148 0.47592753118299919 0 0.32825697932558962 0.48586632126248269 0 0.32825697932558962 0.48586632126248269 0 0.31357121614303418 0.48688382259717139 0 0.31659490351807468 0.5 0 0.31357121614303418 0.48688382259717139 0 0.31659490351807468 0.5 0 0.29985856145552597 0.48675486373350529 0 0.31659490351807468 0.5 0 0.29985856145552597 0.48675486373350529 0 0.28769749911248538 0.5 0 0.31645915198497188 0.47161781125544427 0 0.30562690506826501 0.47747479653702651 0 0.30426648577590171 0.46521419719879942 0 0.31357121614303418 0.48688382259717139 0 0.29985856145552597 0.48675486373350529 0 0.30562690506826501 0.47747479653702651 0 0.31645915198497188 0.47161781125544427 0 0.31357121614303418 0.48688382259717139 0 0.30562690506826501 0.47747479653702651 0 0.29985856145552597 0.48675486373350529 0 0.30562690506826501 0.47747479653702651 0 0.29316958950475219 0.47419496667468242 0 0.30562690506826501 0.47747479653702651 0 0.29316958950475219 0.47419496667468242 0 0.30426648577590171 0.46521419719879942 0 0.29316958950475219 0.47419496667468242 0 0.28540059710346238 0.48402841539116581 0 0.27565173732233211 0.4722899391102906 0 0.29985856145552597 0.48675486373350529 0 0.29316958950475219 0.47419496667468242 0 0.28540059710346238 0.48402841539116581 0 0.29985856145552597 0.48675486373350529 0 0.28540059710346238 0.48402841539116581 0 0.28769749911248538 0.5 0 0.28540059710346238 0.48402841539116581 0 0.28769749911248538 0.5 0 0.27062559812221643 0.48690230743735069 0 0.28769749911248538 0.5 0 0.27062559812221643 0.48690230743735069 0 0.25880009470689608 0.5 0 0.28540059710346238 0.48402841539116581 0 0.27062559812221643 0.48690230743735069 0 0.27565173732233211 0.4722899391102906 0 0.27062559812221643 0.48690230743735069 0 0.27565173732233211 0.4722899391102906 0 0.26213867577746403 0.47944199994142678 0 0.27565173732233211 0.4722899391102906 0 0.26213867577746403 0.47944199994142678 0 0.25510243067217869 0.47228498483834208 0 0.24348481177892969 0.48733819645857762 0 0.25190372679364897 0.4782493316808441 0 0.25680294993578279 0.48717037237361638 0 0.26213867577746403 0.47944199994142678 0 0.25190372679364897 0.4782493316808441 0 0.25680294993578279 0.48717037237361638 0 0.26213867577746403 0.47944199994142678 0 0.25510243067217869 0.47228498483834208 0 0.25190372679364897 0.4782493316808441 0 0.24348481177892969 0.48733819645857762 0 0.25680294993578279 0.48717037237361638 0 0.25880009470689608 0.5 0 0.27062559812221643 0.48690230743735069 0 0.25680294993578279 0.48717037237361638 0 0.25880009470689608 0.5 0 0.27062559812221643 0.48690230743735069 0 0.26213867577746403 0.47944199994142678 0 0.25680294993578279 0.48717037237361638 0 0.25604981483700262 0.43940876693209419 0 0.25668481252002029 0.45644394892255657 0 0.27286665994600529 0.45589932607079342 0 0.24127548125680109 0.45763647785687922 0 0.25604981483700262 0.43940876693209419 0 0.25668481252002029 0.45644394892255657 0 0.24127548125680109 0.45763647785687922 0 0.25510243067217869 0.47228498483834208 0 0.25668481252002029 0.45644394892255657 0 0.25510243067217869 0.47228498483834208 0 0.27286665994600529 0.45589932607079342 0 0.25510243067217869 0.47228498483834208 0 0.25668481252002029 0.45644394892255657 0 0.27286665994600529 0.45589932607079342 0 0.27565173732233211 0.4722899391102906 0 0.27286665994600529 0.45589932607079342 0 0.29316795184716382 0.45533039221728749 0 0.27565173732233211 0.4722899391102906 0 0.25510243067217869 0.47228498483834208 0 0.27286665994600529 0.45589932607079342 0 0.27286665994600529 0.45589932607079342 0 0.27265907179410581 0.4383515932761447 0 0.29063088921983188 0.4395136673032447 0 0.25604981483700262 0.43940876693209419 0 0.27286665994600529 0.45589932607079342 0 0.27265907179410581 0.4383515932761447 0 0.27286665994600529 0.45589932607079342 0 0.29063088921983188 0.4395136673032447 0 0.27286665994600529 0.45589932607079342 0 0.29063088921983188 0.4395136673032447 0 0.29316795184716382 0.45533039221728749 0 0.29063088921983188 0.4395136673032447 0 0.29316795184716382 0.45533039221728749 0 0.30087851582110092 0.44389396792708452 0 0.29316958950475219 0.47419496667468242 0 0.29316795184716382 0.45533039221728749 0 0.30426648577590171 0.46521419719879942 0 0.29316958950475219 0.47419496667468242 0 0.27565173732233211 0.4722899391102906 0 0.29316795184716382 0.45533039221728749 0 0.29316795184716382 0.45533039221728749 0 0.30426648577590171 0.46521419719879942 0 0.30830885580473549 0.4517440430211872 0 0.31339607985675361 0.46126587153591792 0 0.30426648577590171 0.46521419719879942 0 0.30830885580473549 0.4517440430211872 0 0.31339607985675361 0.46126587153591792 0 0.31645915198497188 0.47161781125544427 0 0.30426648577590171 0.46521419719879942 0 0.30087851582110092 0.44389396792708452 0 0.31068880960917461 0.44149688970138268 0 0.3052317529662561 0.42757547727593109 0 0.29316795184716382 0.45533039221728749 0 0.30087851582110092 0.44389396792708452 0 0.30830885580473549 0.4517440430211872 0 0.30087851582110092 0.44389396792708452 0 0.30830885580473549 0.4517440430211872 0 0.31068880960917461 0.44149688970138268 0 0.29063088921983188 0.4395136673032447 0 0.30839511849365858 0.42312800853569588 0 0.29662388966882258 0.41967153409319408 0 0.29063088921983188 0.4395136673032447 0 0.30839511849365858 0.42312800853569588 0 0.3052317529662561 0.42757547727593109 0 0.31068880960917461 0.44149688970138268 0 0.3052317529662561 0.42757547727593109 0 0.32098034023316541 0.43439966427663113 0 0.29063088921983188 0.4395136673032447 0 0.30839511849365858 0.42312800853569588 0 0.29063088921983188 0.4395136673032447 0 0.30087851582110092 0.44389396792708452 0 0.3052317529662561 0.42757547727593109 0 0.30839511849365858 0.42312800853569588 0 0.3052317529662561 0.42757547727593109 0 0.31534677132879041 0.42668951861558219 0 0.3118963101495254 0.41044289597678341 0 0.30409282917664221 0.41495067931030749 0 0.30654401291861888 0.40598864631295623 0 0.30839511849365858 0.42312800853569588 0 0.3118963101495254 0.41044289597678341 0 0.30409282917664221 0.41495067931030749 0 0.30409282917664221 0.41495067931030749 0 0.29869942913787428 0.40967987228354819 0 0.29662388966882258 0.41967153409319408 0 0.30839511849365858 0.42312800853569588 0 0.30409282917664221 0.41495067931030749 0 0.29662388966882258 0.41967153409319408 0 0.30409282917664221 0.41495067931030749 0 0.29869942913787428 0.40967987228354819 0 0.30654401291861888 0.40598864631295623 0 0.29662388966882258 0.41967153409319408 0 0.27108892317358307 0.41858461279844678 0 0.29662388966882258 0.41967153409319408 0 0.27108892317358307 0.41858461279844678 0 0.28969694848289862 0.40515383611545169 0 0.29869942913787428 0.40967987228354819 0 0.29662388966882258 0.41967153409319408 0 0.28969694848289862 0.40515383611545169 0 0.29063088921983188 0.4395136673032447 0 0.29662388966882258 0.41967153409319408 0 0.27108892317358307 0.41858461279844678 0 0.27265907179410581 0.4383515932761447 0 0.29063088921983188 0.4395136673032447 0 0.27108892317358307 0.41858461279844678 0 0.25604981483700262 0.43940876693209419 0 0.27265907179410581 0.4383515932761447 0 0.27108892317358307 0.41858461279844678 0 0.27108892317358307 0.41858461279844678 0 0.27173809176039038 0.39930213227027872 0 0.28969694848289862 0.40515383611545169 0 0.24555395667834359 0.41749769150369959 0 0.27108892317358307 0.41858461279844678 0 0.25119773096792741 0.400751040894679 0 0.24555395667834359 0.41749769150369959 0 0.27108892317358307 0.41858461279844678 0 0.24555395667834359 0.41749769150369959 0 0.25604981483700262 0.43940876693209419 0 0.27108892317358307 0.41858461279844678 0 0.24393639915047591 0.38024899017705938 0 0.26212832571306799 0.38533439321218849 0 0.25281881154957259 0.36398432409815629 0 0.24393639915047591 0.38024899017705938 0 0.26212832571306799 0.38533439321218849 0 0.25119773096792741 0.400751040894679 0 0.27108892317358307 0.41858461279844678 0 0.25119773096792741 0.400751040894679 0 0.27173809176039038 0.39930213227027872 0 0.26212832571306799 0.38533439321218849 0 0.25119773096792741 0.400751040894679 0 0.27173809176039038 0.39930213227027872 0 0.26212832571306799 0.38533439321218849 0 0.27173809176039038 0.39930213227027872 0 0.28481684368457272 0.38537550860885739 0 0.26212832571306799 0.38533439321218849 0 0.28481684368457272 0.38537550860885739 0 0.27342890527498948 0.36826940003736669 0 0.28481684368457272 0.38537550860885739 0 0.3016880130414098 0.39490565183277337 0 0.30366008425072688 0.37287556525433152 0 0.28481684368457272 0.38537550860885739 0 0.28969694848289862 0.40515383611545169 0 0.3016880130414098 0.39490565183277337 0 0.27173809176039038 0.39930213227027872 0 0.28481684368457272 0.38537550860885739 0 0.28969694848289862 0.40515383611545169 0 0.29869942913787428 0.40967987228354819 0 0.28969694848289862 0.40515383611545169 0 0.3016880130414098 0.39490565183277337 0 0.3016880130414098 0.39490565183277337 0 0.31675513421030732 0.38293303543673701 0 0.31460124259230182 0.39928868188140748 0 0.29869942913787428 0.40967987228354819 0 0.3016880130414098 0.39490565183277337 0 0.30654401291861888 0.40598864631295623 0 0.3016880130414098 0.39490565183277337 0 0.30654401291861888 0.40598864631295623 0 0.31460124259230182 0.39928868188140748 0 0.3118963101495254 0.41044289597678341 0 0.30654401291861888 0.40598864631295623 0 0.31460124259230182 0.39928868188140748 0 0.3016880130414098 0.39490565183277337 0 0.31675513421030732 0.38293303543673701 0 0.30366008425072688 0.37287556525433152 0 0.31675513421030732 0.38293303543673701 0 0.32921846673721278 0.38847179283279948 0 0.31460124259230182 0.39928868188140748 0 0.31675513421030732 0.38293303543673701 0 0.33502502428237868 0.37521854370073748 0 0.32921846673721278 0.38847179283279948 0 0.33502502428237868 0.37521854370073748 0 0.32921846673721278 0.38847179283279948 0 0.34571442632368449 0.38711296746516488 0 0.32921846673721278 0.38847179283279948 0 0.33982368606581481 0.40357703369606451 0 0.34571442632368449 0.38711296746516488 0 0.32921846673721278 0.38847179283279948 0 0.33982368606581481 0.40357703369606451 0 0.33982368606581481 0.40357703369606451 0 0.31460124259230182 0.39928868188140748 0 0.3261593477674854 0.40674234976814699 0 0.33982368606581481 0.40357703369606451 0 0.31460124259230182 0.39928868188140748 0 0.32921846673721278 0.38847179283279948 0 0.33982368606581481 0.40357703369606451 0 0.31460124259230182 0.39928868188140748 0 0.3118963101495254 0.41044289597678341 0 0.31460124259230182 0.39928868188140748 0 0.3261593477674854 0.40674234976814699 0 0.30839511849365858 0.42312800853569588 0 0.3118963101495254 0.41044289597678341 0 0.3261593477674854 0.40674234976814699 0 0.30839511849365858 0.42312800853569588 0 0.32286348849249991 0.42088797736160471 0 0.3261593477674854 0.40674234976814699 0 0.30839511849365858 0.42312800853569588 0 0.3261593477674854 0.40674234976814699 0 0.32286348849249991 0.42088797736160471 0 0.3261593477674854 0.40674234976814699 0 0.33509769938676598 0.41425186108717049 0 0.3052317529662561 0.42757547727593109 0 0.31534677132879041 0.42668951861558219 0 0.32098034023316541 0.43439966427663113 0 0.3052317529662561 0.42757547727593109 0 0.32098034023316541 0.43439966427663113 0 0.32286348849249991 0.42088797736160471 0 0.31534677132879041 0.42668951861558219 0 0.32098034023316541 0.43439966427663113 0 0.30839511849365858 0.42312800853569588 0 0.32286348849249991 0.42088797736160471 0 0.31534677132879041 0.42668951861558219 0 0.32286348849249991 0.42088797736160471 0 0.32098034023316541 0.43439966427663113 0 0.33295658631345471 0.42551412198737532 0 0.33672892750007399 0.44122385127733282 0 0.3491124759547693 0.41680725593413631 0 0.33672892750007399 0.44122385127733282 0 0.33295658631345471 0.42551412198737532 0 0.3491124759547693 0.41680725593413631 0 0.33672892750007399 0.44122385127733282 0 0.32098034023316541 0.43439966427663113 0 0.33295658631345471 0.42551412198737532 0 0.33295658631345471 0.42551412198737532 0 0.33509769938676598 0.41425186108717049 0 0.3491124759547693 0.41680725593413631 0 0.33982368606581481 0.40357703369606451 0 0.3261593477674854 0.40674234976814699 0 0.33509769938676598 0.41425186108717049 0 0.32286348849249991 0.42088797736160471 0 0.33295658631345471 0.42551412198737532 0 0.33509769938676598 0.41425186108717049 0 0.33982368606581481 0.40357703369606451 0 0.33509769938676598 0.41425186108717049 0 0.3491124759547693 0.41680725593413631 0 0.33982368606581481 0.40357703369606451 0 0.3491124759547693 0.41680725593413631 0 0.35455247008070728 0.40608124022642228 0 0.3491124759547693 0.41680725593413631 0 0.36566872182588289 0.41958301539168502 0 0.35455247008070728 0.40608124022642228 0 0.33982368606581481 0.40357703369606451 0 0.3491124759547693 0.41680725593413631 0 0.3491124759547693 0.41680725593413631 0 0.35455247008070728 0.40608124022642228 0 0.35148653697361421 0.447618627203826 0 0.33672892750007399 0.44122385127733282 0 0.3491124759547693 0.41680725593413631 0 0.36448973851479871 0.43870942010348118 0 0.3491124759547693 0.41680725593413631 0 0.36448973851479871 0.43870942010348118 0 0.35148653697361421 0.447618627203826 0 0.3491124759547693 0.41680725593413631 0 0.36448973851479871 0.43870942010348118 0 0.38257877939809359 0.42631562531645828 0 0.36448973851479871 0.43870942010348118 0 0.36566872182588289 0.41958301539168502 0 0.38257877939809359 0.42631562531645828 0 0.36448973851479871 0.43870942010348118 0 0.3491124759547693 0.41680725593413631 0 0.36566872182588289 0.41958301539168502 0 0.35455247008070728 0.40608124022642228 0 0.37761014518104669 0.41000153537792627 0 0.36566872182588289 0.41958301539168502 0 0.35455247008070728 0.40608124022642228 0 0.37761014518104669 0.41000153537792627 0 0.36845380941905859 0.39908025642724382 0 0.37687563285233688 0.39431665601437171 0 0.37761014518104669 0.41000153537792627 0 0.36845380941905859 0.39908025642724382 0 0.35455247008070728 0.40608124022642228 0 0.37761014518104669 0.41000153537792627 0 0.36477698956214327 0.38592159409025489 0 0.35455247008070728 0.40608124022642228 0 0.36845380941905859 0.39908025642724382 0 0.36477698956214327 0.38592159409025489 0 0.35455247008070728 0.40608124022642228 0 0.36845380941905859 0.39908025642724382 0 0.36477698956214327 0.38592159409025489 0 0.37687563285233688 0.39431665601437171 0 0.36477698956214327 0.38592159409025489 0 0.36953045059790451 0.37430413223039288 0 0.37687563285233688 0.39431665601437171 0 0.36477698956214327 0.38592159409025489 0 0.35267570332879827 0.37508713922886339 0 0.36953045059790451 0.37430413223039288 0 0.36477698956214327 0.38592159409025489 0 0.34571442632368449 0.38711296746516488 0 0.34841386164052501 0.39761954733979399 0 0.33502502428237868 0.37521854370073748 0 0.34571442632368449 0.38711296746516488 0 0.35267570332879827 0.37508713922886339 0 0.36477698956214327 0.38592159409025489 0 0.34571442632368449 0.38711296746516488 0 0.35267570332879827 0.37508713922886339 0 0.33982368606581481 0.40357703369606451 0 0.34571442632368449 0.38711296746516488 0 0.34841386164052501 0.39761954733979399 0 0.36477698956214327 0.38592159409025489 0 0.34841386164052501 0.39761954733979399 0 0.35455247008070728 0.40608124022642228 0 0.33982368606581481 0.40357703369606451 0 0.35455247008070728 0.40608124022642228 0 0.33982368606581481 0.40357703369606451 0 0.34841386164052501 0.39761954733979399 0 0.35455247008070728 0.40608124022642228 0 0.34633040784524399 0.35616032441716661 0 0.36700314030297781 0.34478345677327288 0 0.34466336558513189 0.33255551108855569 0 0.34633040784524399 0.35616032441716661 0 0.36953045059790451 0.37430413223039288 0 0.33502502428237868 0.37521854370073748 0 0.35267570332879827 0.37508713922886339 0 0.34633040784524399 0.35616032441716661 0 0.35267570332879827 0.37508713922886339 0 0.34633040784524399 0.35616032441716661 0 0.36953045059790451 0.37430413223039288 0 0.34633040784524399 0.35616032441716661 0 0.36953045059790451 0.37430413223039288 0 0.37369468919951088 0.35907910419446792 0 0.34633040784524399 0.35616032441716661 0 0.36700314030297781 0.34478345677327288 0 0.37369468919951088 0.35907910419446792 0 0.36700314030297781 0.34478345677327288 0 0.36204109367764109 0.32732810517046479 0 0.37883672891443032 0.32674520451184891 0 0.36204109367764109 0.32732810517046479 0 0.36813471475473442 0.3102348612285305 0 0.37883672891443032 0.32674520451184891 0 0.36204109367764109 0.32732810517046479 0 0.34466336558513189 0.33255551108855569 0 0.34386088406995358 0.30994909768180962 0 0.36204109367764109 0.32732810517046479 0 0.34386088406995358 0.30994909768180962 0 0.36813471475473442 0.3102348612285305 0 0.36700314030297781 0.34478345677327288 0 0.34466336558513189 0.33255551108855569 0 0.36700314030297781 0.34478345677327288 0 0.36204109367764109 0.32732810517046479 0 0.34466336558513189 0.33255551108855569 0 0.34466336558513189 0.33255551108855569 0 0.32232359086728612 0.32032756540383861 0 0.32313036509258342 0.33801651660394022 0 0.34633040784524399 0.35616032441716661 0 0.34466336558513189 0.33255551108855569 0 0.32313036509258342 0.33801651660394022 0 0.34466336558513189 0.33255551108855569 0 0.32232359086728612 0.32032756540383861 0 0.34466336558513189 0.33255551108855569 0 0.32232359086728612 0.32032756540383861 0 0.34386088406995358 0.30994909768180962 0 0.32232359086728612 0.32032756540383861 0 0.32313036509258342 0.33801651660394022 0 0.29993032233992278 0.31987270879071378 0 0.32313036509258342 0.33801651660394022 0 0.32086195012813939 0.36339588334820172 0 0.30215567499189872 0.35373710893872701 0 0.34633040784524399 0.35616032441716661 0 0.32313036509258342 0.33801651660394022 0 0.32086195012813939 0.36339588334820172 0 0.34633040784524399 0.35616032441716661 0 0.32313036509258342 0.33801651660394022 0 0.33502502428237868 0.37521854370073748 0 0.34633040784524399 0.35616032441716661 0 0.32086195012813939 0.36339588334820172 0 0.31675513421030732 0.38293303543673701 0 0.33502502428237868 0.37521854370073748 0 0.32086195012813939 0.36339588334820172 0 0.31675513421030732 0.38293303543673701 0 0.32086195012813939 0.36339588334820172 0 0.30366008425072688 0.37287556525433152 0 0.32086195012813939 0.36339588334820172 0 0.30366008425072688 0.37287556525433152 0 0.30215567499189872 0.35373710893872701 0 0.30366008425072688 0.37287556525433152 0 0.30215567499189872 0.35373710893872701 0 0.28943264760909482 0.36610873064450911 0 0.30215567499189872 0.35373710893872701 0 0.28310172984328602 0.35028607038326293 0 0.29520931809985618 0.33774313904261782 0 0.30215567499189872 0.35373710893872701 0 0.28310172984328602 0.35028607038326293 0 0.28943264760909482 0.36610873064450911 0 0.28481684368457272 0.38537550860885739 0 0.30366008425072688 0.37287556525433152 0 0.28943264760909482 0.36610873064450911 0 0.28310172984328602 0.35028607038326293 0 0.28943264760909482 0.36610873064450911 0 0.27342890527498948 0.36826940003736669 0 0.28481684368457272 0.38537550860885739 0 0.28943264760909482 0.36610873064450911 0 0.27342890527498948 0.36826940003736669 0 0.28310172984328602 0.35028607038326293 0 0.26670498883617461 0.35034255087415389 0 0.27560104678936259 0.33130058220140352 0 0.28310172984328602 0.35028607038326293 0 0.27342890527498948 0.36826940003736669 0 0.26670498883617461 0.35034255087415389 0 0.25281881154957259 0.36398432409815629 0 0.25305595331124309 0.33718458045352662 0 0.26670498883617461 0.35034255087415389 0 0.25281881154957259 0.36398432409815629 0 0.25305595331124309 0.33718458045352662 0 0.26212832571306799 0.38533439321218849 0 0.27342890527498948 0.36826940003736669 0 0.25281881154957259 0.36398432409815629 0 0.27342890527498948 0.36826940003736669 0 0.26670498883617461 0.35034255087415389 0 0.25281881154957259 0.36398432409815629 0 0.25305595331124309 0.33718458045352662 0 0.25329309507291348 0.31038483680889672 0 0.26352199865884518 0.32120719569081019 0 0.25305595331124309 0.33718458045352662 0 0.25329309507291348 0.31038483680889672 0 0.26670498883617461 0.35034255087415389 0 0.25305595331124309 0.33718458045352662 0 0.27560104678936259 0.33130058220140352 0 0.26352199865884518 0.32120719569081019 0 0.25305595331124309 0.33718458045352662 0 0.27560104678936259 0.33130058220140352 0 0.26352199865884518 0.32120719569081019 0 0.27560104678936259 0.33130058220140352 0 0.27673027958726232 0.30172890097748728 0 0.27560104678936259 0.33130058220140352 0 0.29993032233992278 0.31987270879071378 0 0.27673027958726232 0.30172890097748728 0 0.28310172984328602 0.35028607038326293 0 0.27560104678936259 0.33130058220140352 0 0.29520931809985618 0.33774313904261782 0 0.27560104678936259 0.33130058220140352 0 0.29520931809985618 0.33774313904261782 0 0.29993032233992278 0.31987270879071378 0 0.32313036509258342 0.33801651660394022 0 0.30215567499189872 0.35373710893872701 0 0.29520931809985618 0.33774313904261782 0 0.32313036509258342 0.33801651660394022 0 0.29993032233992278 0.31987270879071378 0 0.32313036509258342 0.33801651660394022 0 0.29520931809985618 0.33774313904261782 0 0.29993032233992278 0.31987270879071378 0 0.32232359086728612 0.32032756540383861 0 0.29993032233992278 0.31987270879071378 0 0.3113374689609793 0.30973630020671677 0 0.3113374689609793 0.30973630020671677 0 0.28885886506253089 0.30302611122270112 0 0.31399556760051012 0.2947095146343286 0 0.29993032233992278 0.31987270879071378 0 0.3113374689609793 0.30973630020671677 0 0.28885886506253089 0.30302611122270112 0 0.28885886506253089 0.30302611122270112 0 0.31399556760051012 0.2947095146343286 0 0.29689690550169762 0.29099638672395928 0 0.28885886506253089 0.30302611122270112 0 0.31399556760051012 0.2947095146343286 0 0.29689690550169762 0.29099638672395928 0 0.30036311621955969 0.27860294623160159 0 0.31399556760051012 0.2947095146343286 0 0.30036311621955969 0.27860294623160159 0 0.32014567456597193 0.27890874693922407 0 0.31399556760051012 0.2947095146343286 0 0.29689690550169762 0.29099638672395928 0 0.28437007312418949 0.28764697480720619 0 0.30036311621955969 0.27860294623160159 0 0.29689690550169762 0.29099638672395928 0 0.28437007312418949 0.28764697480720619 0 0.28885886506253089 0.30302611122270112 0 0.29993032233992278 0.31987270879071378 0 0.27673027958726232 0.30172890097748728 0 0.29993032233992278 0.31987270879071378 0 0.28885886506253089 0.30302611122270112 0 0.27673027958726232 0.30172890097748728 0 0.28437007312418949 0.28764697480720619 0 0.28885886506253089 0.30302611122270112 0 0.27673027958726232 0.30172890097748728 0 0.28437007312418949 0.28764697480720619 0 0.27083492837245349 0.28790688706271611 0 0.26870912394376079 0.2786665793019098 0 0.27673027958726232 0.30172890097748728 0 0.27083492837245349 0.28790688706271611 0 0.25353023683459691 0.28358509316426711 0 0.28437007312418949 0.28764697480720619 0 0.27673027958726232 0.30172890097748728 0 0.27083492837245349 0.28790688706271611 0 0.27673027958726232 0.30172890097748728 0 0.25353023683459691 0.28358509316426711 0 0.27083492837245349 0.28790688706271611 0 0.25353023683459691 0.28358509316426711 0 0.26870912394376079 0.2786665793019098 0 0.27673027958726232 0.30172890097748728 0 0.25353023683459691 0.28358509316426711 0 0.25329309507291348 0.31038483680889672 0 0.25353023683459691 0.28358509316426711 0 0.25329309507291348 0.31038483680889672 0 0.26352199865884518 0.32120719569081019 0 0.27673027958726232 0.30172890097748728 0 0.25329309507291348 0.31038483680889672 0 0.24650843718412591 0.26919395211786851 0 0.25398509206044312 0.25273715779978062 0 0.25558273639654477 0.26558548812881883 0 0.26524016071700141 0.26413701512202298 0 0.25398509206044312 0.25273715779978062 0 0.27029938125701652 0.23905759454823461 0 0.26524016071700141 0.26413701512202298 0 0.25398509206044312 0.25273715779978062 0 0.25558273639654477 0.26558548812881883 0 0.24650843718412591 0.26919395211786851 0 0.25558273639654477 0.26558548812881883 0 0.2536048889712339 0.27514854402737771 0 0.24650843718412591 0.26919395211786851 0 0.25353023683459691 0.28358509316426711 0 0.2536048889712339 0.27514854402737771 0 0.25353023683459691 0.28358509316426711 0 0.2536048889712339 0.27514854402737771 0 0.25353023683459691 0.28358509316426711 0 0.2536048889712339 0.27514854402737771 0 0.26870912394376079 0.2786665793019098 0 0.26524016071700141 0.26413701512202298 0 0.2536048889712339 0.27514854402737771 0 0.26870912394376079 0.2786665793019098 0 0.26524016071700141 0.26413701512202298 0 0.25558273639654477 0.26558548812881883 0 0.2536048889712339 0.27514854402737771 0 0.28437007312418949 0.28764697480720619 0 0.26870912394376079 0.2786665793019098 0 0.28238968936122222 0.270825131058332 0 0.26524016071700141 0.26413701512202298 0 0.26870912394376079 0.2786665793019098 0 0.28238968936122222 0.270825131058332 0 0.26524016071700141 0.26413701512202298 0 0.2809675523218696 0.25355925146020758 0 0.27029938125701652 0.23905759454823461 0 0.26524016071700141 0.26413701512202298 0 0.2809675523218696 0.25355925146020758 0 0.28238968936122222 0.270825131058332 0 0.2809675523218696 0.25355925146020758 0 0.29550463703949342 0.25991575979077208 0 0.28238968936122222 0.270825131058332 0 0.2809675523218696 0.25355925146020758 0 0.29550463703949342 0.25991575979077208 0 0.29678440371011888 0.24307370556277841 0 0.29550463703949342 0.25991575979077208 0 0.28238968936122222 0.270825131058332 0 0.30036311621955969 0.27860294623160159 0 0.28437007312418949 0.28764697480720619 0 0.28238968936122222 0.270825131058332 0 0.30036311621955969 0.27860294623160159 0 0.29550463703949342 0.25991575979077208 0 0.30036311621955969 0.27860294623160159 0 0.31011476514784447 0.26589981410619801 0 0.30036311621955969 0.27860294623160159 0 0.31011476514784447 0.26589981410619801 0 0.32014567456597193 0.27890874693922407 0 0.29550463703949342 0.25991575979077208 0 0.31011476514784447 0.26589981410619801 0 0.31143487286052479 0.24960829041979429 0 0.29550463703949342 0.25991575979077208 0 0.31143487286052479 0.24960829041979429 0 0.29678440371011888 0.24307370556277841 0 0.31011476514784447 0.26589981410619801 0 0.32642867714654672 0.26414797261407158 0 0.31143487286052479 0.24960829041979429 0 0.32642867714654672 0.26414797261407158 0 0.31143487286052479 0.24960829041979429 0 0.32695742650894299 0.24863159543286659 0 0.32642867714654672 0.26414797261407158 0 0.33572441640103989 0.25535339327538847 0 0.32695742650894299 0.24863159543286659 0 0.32642867714654672 0.26414797261407158 0 0.33572441640103989 0.25535339327538847 0 0.34263673311675558 0.26443116517662069 0 0.33572441640103989 0.25535339327538847 0 0.33759354501032202 0.24640330669272961 0 0.32695742650894299 0.24863159543286659 0 0.33572441640103989 0.25535339327538847 0 0.34530148617732931 0.25293808089256031 0 0.33759354501032202 0.24640330669272961 0 0.33572441640103989 0.25535339327538847 0 0.34263673311675558 0.26443116517662069 0 0.34530148617732931 0.25293808089256031 0 0.32642867714654672 0.26414797261407158 0 0.32014567456597193 0.27890874693922407 0 0.33913227013848929 0.28639291804595612 0 0.32642867714654672 0.26414797261407158 0 0.34263673311675558 0.26443116517662069 0 0.33913227013848929 0.28639291804595612 0 0.31011476514784447 0.26589981410619801 0 0.32642867714654672 0.26414797261407158 0 0.32014567456597193 0.27890874693922407 0 0.32014567456597193 0.27890874693922407 0 0.31399556760051012 0.2947095146343286 0 0.33913227013848929 0.28639291804595612 0 0.31399556760051012 0.2947095146343286 0 0.32711238114601898 0.30460812566719569 0 0.33913227013848929 0.28639291804595612 0 0.31399556760051012 0.2947095146343286 0 0.33913227013848929 0.28639291804595612 0 0.3113374689609793 0.30973630020671677 0 0.31399556760051012 0.2947095146343286 0 0.32711238114601898 0.30460812566719569 0 0.32232359086728612 0.32032756540383861 0 0.3113374689609793 0.30973630020671677 0 0.32711238114601898 0.30460812566719569 0 0.32711238114601898 0.30460812566719569 0 0.33913227013848929 0.28639291804595612 0 0.34386088406995358 0.30994909768180962 0 0.32232359086728612 0.32032756540383861 0 0.32711238114601898 0.30460812566719569 0 0.34386088406995358 0.30994909768180962 0 0.33913227013848929 0.28639291804595612 0 0.35604854478917769 0.29537610804476871 0 0.36426897267646841 0.27807632145758371 0 0.33913227013848929 0.28639291804595612 0 0.36426897267646841 0.27807632145758371 0 0.35604854478917769 0.29537610804476871 0 0.34386088406995358 0.30994909768180962 0 0.36813471475473442 0.3102348612285305 0 0.33913227013848929 0.28639291804595612 0 0.35604854478917769 0.29537610804476871 0 0.34386088406995358 0.30994909768180962 0 0.35604854478917769 0.29537610804476871 0 0.36813471475473442 0.3102348612285305 0 0.37211252604082512 0.29567532744911879 0 0.37211252604082512 0.29567532744911879 0 0.36426897267646841 0.27807632145758371 0 0.3868113024672955 0.28377166577842933 0 0.35604854478917769 0.29537610804476871 0 0.37211252604082512 0.29567532744911879 0 0.36426897267646841 0.27807632145758371 0 0.36426897267646841 0.27807632145758371 0 0.3723595181343462 0.26296861477319489 0 0.3868113024672955 0.28377166577842933 0 0.36426897267646841 0.27807632145758371 0 0.3723595181343462 0.26296861477319489 0 0.35761962490711069 0.25950611190258838 0 0.3723595181343462 0.26296861477319489 0 0.35790773380139518 0.2421655637679615 0 0.3723595181343462 0.26296861477319489 0 0.35761962490711069 0.25950611190258838 0 0.35635595121308561 0.2444178214999522 0 0.35761962490711069 0.25950611190258838 0 0.35187027320809761 0.24999291344836919 0 0.35635595121308561 0.2444178214999522 0 0.35761962490711069 0.25950611190258838 0 0.34530148617732931 0.25293808089256031 0 0.35187027320809761 0.24999291344836919 0 0.34263673311675558 0.26443116517662069 0 0.35761962490711069 0.25950611190258838 0 0.35151666924038738 0.27196624785533208 0 0.34263673311675558 0.26443116517662069 0 0.35761962490711069 0.25950611190258838 0 0.34530148617732931 0.25293808089256031 0 0.36426897267646841 0.27807632145758371 0 0.35761962490711069 0.25950611190258838 0 0.35151666924038738 0.27196624785533208 0 0.34263673311675558 0.26443116517662069 0 0.33913227013848929 0.28639291804595612 0 0.35151666924038738 0.27196624785533208 0 0.33913227013848929 0.28639291804595612 0 0.36426897267646841 0.27807632145758371 0 0.35151666924038738 0.27196624785533208 0 0.4051487165088386 0.26954860224946597 0 0.3868113024672955 0.28377166577842933 0 0.40580379216200241 0.2852372504739073 0 0.4051487165088386 0.26954860224946597 0 0.38875338614226429 0.26626225210246512 0 0.3868113024672955 0.28377166577842933 0 0.4051487165088386 0.26954860224946597 0 0.39954909065444377 0.25342682901835939 0 0.38875338614226429 0.26626225210246512 0 0.3723595181343462 0.26296861477319489 0 0.38875338614226429 0.26626225210246512 0 0.38080769010326959 0.2437726261408891 0 0.39954909065444377 0.25342682901835939 0 0.38875338614226429 0.26626225210246512 0 0.38080769010326959 0.2437726261408891 0 0.3723595181343462 0.26296861477319489 0 0.38875338614226429 0.26626225210246512 0 0.3868113024672955 0.28377166577842933 0 0.3723595181343462 0.26296861477319489 0 0.3868113024672955 0.28377166577842933 0 0.37211252604082512 0.29567532744911879 0 0.3868113024672955 0.28377166577842933 0 0.38513347036204681 0.30886174880752049 0 0.36813471475473442 0.3102348612285305 0 0.37211252604082512 0.29567532744911879 0 0.38513347036204681 0.30886174880752049 0 0.3868113024672955 0.28377166577842933 0 0.38513347036204681 0.30886174880752049 0 0.40126308680024492 0.30457471678366382 0 0.3868113024672955 0.28377166577842933 0 0.40126308680024492 0.30457471678366382 0 0.40580379216200241 0.2852372504739073 0 0.3868113024672955 0.28377166577842933 0 0.40126308680024492 0.30457471678366382 0 0.40580379216200241 0.2852372504739073 0 0.41890071551584218 0.29245270116191691 0 0.41692748109534628 0.27846132050272487 0 0.40126308680024492 0.30457471678366382 0 0.40580379216200241 0.2852372504739073 0 0.41890071551584218 0.29245270116191691 0 0.41890071551584218 0.29245270116191691 0 0.42935750655020161 0.27983020524741231 0 0.41692748109534628 0.27846132050272487 0 0.40126308680024492 0.30457471678366382 0 0.41890071551584218 0.29245270116191691 0 0.42320987627293521 0.3109907548244788 0 0.42320987627293521 0.3109907548244788 0 0.4368425502143235 0.29562195913931461 0 0.44704267405554421 0.31417605983184888 0 0.41890071551584218 0.29245270116191691 0 0.42320987627293521 0.3109907548244788 0 0.4368425502143235 0.29562195913931461 0 0.4368425502143235 0.29562195913931461 0 0.42935750655020161 0.27983020524741231 0 0.44408261788513492 0.27929901272118718 0 0.41890071551584218 0.29245270116191691 0 0.4368425502143235 0.29562195913931461 0 0.42935750655020161 0.27983020524741231 0 0.43621601551768879 0.26872808570538642 0 0.42935750655020161 0.27983020524741231 0 0.44408261788513492 0.27929901272118718 0 0.43621601551768879 0.26872808570538642 0 0.42344925432667868 0.26697447622062798 0 0.42935750655020161 0.27983020524741231 0 0.42344925432667868 0.26697447622062798 0 0.42935750655020161 0.27983020524741231 0 0.41692748109534628 0.27846132050272487 0 0.4051487165088386 0.26954860224946597 0 0.42344925432667868 0.26697447622062798 0 0.41692748109534628 0.27846132050272487 0 0.4051487165088386 0.26954860224946597 0 0.40580379216200241 0.2852372504739073 0 0.41692748109534628 0.27846132050272487 0 0.41475247591194558 0.25829002942350038 0 0.428622552693947 0.25424575186154869 0 0.41120590355403042 0.24383871844810079 0 0.4051487165088386 0.26954860224946597 0 0.42344925432667868 0.26697447622062798 0 0.41475247591194558 0.25829002942350038 0 0.4051487165088386 0.26954860224946597 0 0.39954909065444377 0.25342682901835939 0 0.41475247591194558 0.25829002942350038 0 0.39954909065444377 0.25342682901835939 0 0.41475247591194558 0.25829002942350038 0 0.41120590355403042 0.24383871844810079 0 0.428622552693947 0.25424575186154869 0 0.43393869947683061 0.26057855854911999 0 0.44565075365080892 0.25391537210433102 0 0.42344925432667868 0.26697447622062798 0 0.41475247591194558 0.25829002942350038 0 0.428622552693947 0.25424575186154869 0 0.42344925432667868 0.26697447622062798 0 0.428622552693947 0.25424575186154869 0 0.43393869947683061 0.26057855854911999 0 0.43621601551768879 0.26872808570538642 0 0.42344925432667868 0.26697447622062798 0 0.43393869947683061 0.26057855854911999 0 0.43621601551768879 0.26872808570538642 0 0.43393869947683061 0.26057855854911999 0 0.44003175123974558 0.26248785068131703 0 0.44565075365080892 0.25391537210433102 0 0.44548742997978868 0.26691549421394523 0 0.46705348302688049 0.27032529387134607 0 0.43393869947683061 0.26057855854911999 0 0.44003175123974558 0.26248785068131703 0 0.44565075365080892 0.25391537210433102 0 0.44003175123974558 0.26248785068131703 0 0.44565075365080892 0.25391537210433102 0 0.44548742997978868 0.26691549421394523 0 0.44408261788513492 0.27929901272118718 0 0.44548742997978868 0.26691549421394523 0 0.46705348302688049 0.27032529387134607 0 0.43621601551768879 0.26872808570538642 0 0.44003175123974558 0.26248785068131703 0 0.44548742997978868 0.26691549421394523 0 0.43621601551768879 0.26872808570538642 0 0.44408261788513492 0.27929901272118718 0 0.44548742997978868 0.26691549421394523 0 0.44408261788513492 0.27929901272118718 0 0.46705348302688049 0.27032529387134607 0 0.45751791638300382 0.29362633230391882 0 0.44565075365080892 0.25391537210433102 0 0.46138535146865078 0.25986318177818613 0 0.46736471789704642 0.24683503431080081 0 0.44565075365080892 0.25391537210433102 0 0.46705348302688049 0.27032529387134607 0 0.46138535146865078 0.25986318177818613 0 0.44565075365080892 0.25391537210433102 0 0.46705348302688049 0.27032529387134607 0 0.46705348302688049 0.27032529387134607 0 0.46138535146865078 0.25986318177818613 0 0.46705348302688049 0.27032529387134607 0 0.46138535146865078 0.25986318177818613 0 0.47127410900802558 0.26127216818492283 0 0.46138535146865078 0.25986318177818613 0 0.47127410900802558 0.26127216818492283 0 0.46736471789704642 0.24683503431080081 0 0.4810033667923308 0.25469290306139392 0 0.47127410900802558 0.26127216818492283 0 0.46736471789704642 0.24683503431080081 0 0.4810033667923308 0.25469290306139392 0 0.4774434221816663 0.26849741257148041 0 0.48800862114497301 0.26842693822641572 0 0.4810033667923308 0.25469290306139392 0 0.47127410900802558 0.26127216818492283 0 0.4774434221816663 0.26849741257148041 0 0.46705348302688049 0.27032529387134607 0 0.47901391766147888 0.27949561010553509 0 0.4774434221816663 0.26849741257148041 0 0.46705348302688049 0.27032529387134607 0 0.47803565535125342 0.29059594509099163 0 0.46705348302688049 0.27032529387134607 0 0.47127410900802558 0.26127216818492283 0 0.4774434221816663 0.26849741257148041 0 0.46705348302688049 0.27032529387134607 0 0.47901391766147888 0.27949561010553509 0 0.47803565535125342 0.29059594509099163 0 0.46705348302688049 0.27032529387134607 0 0.47901391766147888 0.27949561010553509 0 0.47901391766147888 0.27949561010553509 0 0.4774434221816663 0.26849741257148041 0 0.48800862114497301 0.26842693822641572 0 0.5 0.27614879170073092 0 0.48800862114497301 0.26842693822641572 0 0.48921763598654489 0.28598812858578571 0 0.47901391766147888 0.27949561010553509 0 0.48800862114497301 0.26842693822641572 0 0.48921763598654489 0.28598812858578571 0 0.4810033667923308 0.25469290306139392 0 0.48800862114497301 0.26842693822641572 0 0.5 0.24865456378595491 0 0.5 0.27614879170073092 0 0.48800862114497301 0.26842693822641572 0 0.5 0.24865456378595491 0 0.4890677797533558 0.29777342240073051 0 0.48901782767562513 0.31086659631063768 0 0.47803565535125342 0.29059594509099163 0 0.4890677797533558 0.29777342240073051 0 0.48901782767562513 0.31086659631063768 0 0.5 0.30364301961550699 0 0.4890677797533558 0.29777342240073051 0 0.5 0.30364301961550699 0 0.48921763598654489 0.28598812858578571 0 0.5 0.27614879170073092 0 0.5 0.30364301961550699 0 0.48921763598654489 0.28598812858578571 0 0.4890677797533558 0.29777342240073051 0 0.48921763598654489 0.28598812858578571 0 0.47803565535125342 0.29059594509099163 0 0.47901391766147888 0.27949561010553509 0 0.48921763598654489 0.28598812858578571 0 0.47803565535125342 0.29059594509099163 0 0.48901782767562513 0.31086659631063768 0 0.47803565535125342 0.29059594509099163 0 0.46902708209863958 0.30665741789595852 0 0.48901782767562513 0.31086659631063768 0 0.47803565535125342 0.29059594509099163 0 0.46902708209863958 0.30665741789595852 0 0.45751791638300382 0.29362633230391882 0 0.44704267405554421 0.31417605983184888 0 0.47803565535125342 0.29059594509099163 0 0.46902708209863958 0.30665741789595852 0 0.45751791638300382 0.29362633230391882 0 0.46705348302688049 0.27032529387134607 0 0.47803565535125342 0.29059594509099163 0 0.45751791638300382 0.29362633230391882 0 0.4368425502143235 0.29562195913931461 0 0.44408261788513492 0.27929901272118718 0 0.45751791638300382 0.29362633230391882 0 0.4368425502143235 0.29562195913931461 0 0.45751791638300382 0.29362633230391882 0 0.44704267405554421 0.31417605983184888 0 0.44704267405554421 0.31417605983184888 0 0.4556381825688548 0.33179912771787168 0 0.43199760980502883 0.33450736567228778 0 0.4556381825688548 0.33179912771787168 0 0.45266064646862519 0.35074524423640979 0 0.43199760980502883 0.33450736567228778 0 0.4556381825688548 0.33179912771787168 0 0.47352133702777172 0.32402215594239497 0 0.46963808682068309 0.34551719415758209 0 0.4556381825688548 0.33179912771787168 0 0.46963808682068309 0.34551719415758209 0 0.45266064646862519 0.35074524423640979 0 0.44704267405554421 0.31417605983184888 0 0.4556381825688548 0.33179912771787168 0 0.47352133702777172 0.32402215594239497 0 0.46902708209863958 0.30665741789595852 0 0.44704267405554421 0.31417605983184888 0 0.47352133702777172 0.32402215594239497 0 0.44704267405554421 0.31417605983184888 0 0.47352133702777172 0.32402215594239497 0 0.48901782767562513 0.31086659631063768 0 0.46902708209863958 0.30665741789595852 0 0.47352133702777172 0.32402215594239497 0 0.47352133702777172 0.32402215594239497 0 0.48499097461808077 0.33713147893874013 0 0.46963808682068309 0.34551719415758209 0 0.47352133702777172 0.32402215594239497 0 0.48499097461808077 0.33713147893874013 0 0.49999999999999922 0.33386825205294091 0 0.47352133702777172 0.32402215594239497 0 0.49999999999999922 0.33386825205294091 0 0.48499097461808077 0.33713147893874013 0 0.500000000000002 0.33642347059258132 0 0.48344117128396358 0.35596873604332818 0 0.47352133702777172 0.32402215594239497 0 0.49999999999999811 0.33113724753028312 0 0.49999999999999922 0.33386825205294091 0 0.48499097461808077 0.33713147893874013 0 0.500000000000002 0.33642347059258132 0 0.49999999999999922 0.33386825205294091 0 0.48901782767562513 0.31086659631063768 0 0.49999999999999811 0.33113724753028312 0 0.48901782767562513 0.31086659631063768 0 0.5 0.30364301961550699 0 0.49999999999999811 0.33113724753028312 0 0.48901782767562513 0.31086659631063768 0 0.47352133702777172 0.32402215594239497 0 0.49999999999999811 0.33113724753028312 0 0.5 0.36440658626122202 0 0.48344117128396358 0.35596873604332818 0 0.4854099925682725 0.37630873426704942 0 0.500000000000002 0.33642347059258132 0 0.48344117128396358 0.35596873604332818 0 0.500000000000002 0.33642347059258132 0 0.5 0.36440658626122202 0 0.48344117128396358 0.35596873604332818 0 0.48499097461808077 0.33713147893874013 0 0.48344117128396358 0.35596873604332818 0 0.46963808682068309 0.34551719415758209 0 0.48344117128396358 0.35596873604332818 0 0.46963808682068309 0.34551719415758209 0 0.46688234256792388 0.37551400149407421 0 0.48344117128396358 0.35596873604332818 0 0.46688234256792388 0.37551400149407421 0 0.48344117128396358 0.35596873604332818 0 0.46688234256792388 0.37551400149407421 0 0.4854099925682725 0.37630873426704942 0 0.45266064646862519 0.35074524423640979 0 0.44886640661146671 0.37359078980782118 0 0.46688234256792388 0.37551400149407421 0 0.46963808682068309 0.34551719415758209 0 0.45266064646862519 0.35074524423640979 0 0.46688234256792388 0.37551400149407421 0 0.45266064646862519 0.35074524423640979 0 0.43463443231024501 0.35777259436705611 0 0.43199760980502883 0.33450736567228778 0 0.44886640661146671 0.37359078980782118 0 0.43463443231024501 0.35777259436705611 0 0.43391955533703069 0.37827574289734073 0 0.45266064646862519 0.35074524423640979 0 0.44886640661146671 0.37359078980782118 0 0.43463443231024501 0.35777259436705611 0 0.41751559682217709 0.36149221884986099 0 0.43463443231024501 0.35777259436705611 0 0.43391955533703069 0.37827574289734073 0 0.41751559682217709 0.36149221884986099 0 0.43391955533703069 0.37827574289734073 0 0.41751559682217709 0.36149221884986099 0 0.40141626106290051 0.37190831309887917 0 0.40234660280330609 0.35878015730227791 0 0.41751559682217709 0.36149221884986099 0 0.40141626106290051 0.37190831309887917 0 0.4183719073389443 0.38666899019627238 0 0.41751559682217709 0.36149221884986099 0 0.40234660280330609 0.35878015730227791 0 0.4011116383073236 0.34470869480238142 0 0.41751559682217709 0.36149221884986099 0 0.41664954325681219 0.34593043577570298 0 0.4011116383073236 0.34470869480238142 0 0.41751559682217709 0.36149221884986099 0 0.4011116383073236 0.34470869480238142 0 0.41751559682217709 0.36149221884986099 0 0.41664954325681219 0.34593043577570298 0 0.43463443231024501 0.35777259436705611 0 0.41664954325681219 0.34593043577570298 0 0.43463443231024501 0.35777259436705611 0 0.43199760980502883 0.33450736567228778 0 0.42320987627293521 0.3109907548244788 0 0.44704267405554421 0.31417605983184888 0 0.43199760980502883 0.33450736567228778 0 0.40126308680024492 0.30457471678366382 0 0.42320987627293521 0.3109907548244788 0 0.40324496282418371 0.32723448046450532 0 0.42320987627293521 0.3109907548244788 0 0.43199760980502883 0.33450736567228778 0 0.40324496282418371 0.32723448046450532 0 0.41664954325681219 0.34593043577570298 0 0.40324496282418371 0.32723448046450532 0 0.4011116383073236 0.34470869480238142 0 0.41664954325681219 0.34593043577570298 0 0.43199760980502883 0.33450736567228778 0 0.40324496282418371 0.32723448046450532 0 0.40324496282418371 0.32723448046450532 0 0.38790787707394769 0.34009664780199972 0 0.4011116383073236 0.34470869480238142 0 0.38513347036204681 0.30886174880752049 0 0.40126308680024492 0.30457471678366382 0 0.40324496282418371 0.32723448046450532 0 0.38513347036204681 0.30886174880752049 0 0.40324496282418371 0.32723448046450532 0 0.37883672891443032 0.32674520451184891 0 0.36813471475473442 0.3102348612285305 0 0.38513347036204681 0.30886174880752049 0 0.37883672891443032 0.32674520451184891 0 0.40324496282418371 0.32723448046450532 0 0.37883672891443032 0.32674520451184891 0 0.38790787707394769 0.34009664780199972 0 0.36700314030297781 0.34478345677327288 0 0.37883672891443032 0.32674520451184891 0 0.38790787707394769 0.34009664780199972 0 0.36700314030297781 0.34478345677327288 0 0.38934291502082341 0.35701140245799012 0 0.36700314030297781 0.34478345677327288 0 0.37369468919951088 0.35907910419446792 0 0.38934291502082341 0.35701140245799012 0 0.36700314030297781 0.34478345677327288 0 0.38790787707394769 0.34009664780199972 0 0.38934291502082341 0.35701140245799012 0 0.37369468919951088 0.35907910419446792 0 0.38934291502082341 0.35701140245799012 0 0.38534296184634081 0.37095017840506989 0 0.36953045059790451 0.37430413223039288 0 0.37369468919951088 0.35907910419446792 0 0.38534296184634081 0.37095017840506989 0 0.38934291502082341 0.35701140245799012 0 0.38534296184634081 0.37095017840506989 0 0.40141626106290051 0.37190831309887917 0 0.38934291502082341 0.35701140245799012 0 0.40141626106290051 0.37190831309887917 0 0.40234660280330609 0.35878015730227791 0 0.38790787707394769 0.34009664780199972 0 0.38934291502082341 0.35701140245799012 0 0.4011116383073236 0.34470869480238142 0 0.38934291502082341 0.35701140245799012 0 0.40234660280330609 0.35878015730227791 0 0.4011116383073236 0.34470869480238142 0 0.39273049335056498 0.39244794004361933 0 0.40771718231578907 0.40851753522974099 0 0.41593053610322528 0.41059174785684582 0 0.39133605524232312 0.4043806209434031 0 0.39273049335056498 0.39244794004361933 0 0.40771718231578907 0.40851753522974099 0 0.39273049335056498 0.39244794004361933 0 0.41593053610322528 0.41059174785684582 0 0.40141626106290051 0.37190831309887917 0 0.39273049335056498 0.39244794004361933 0 0.4183719073389443 0.38666899019627238 0 0.38534296184634081 0.37095017840506989 0 0.40141626106290051 0.37190831309887917 0 0.39273049335056498 0.39244794004361933 0 0.36953045059790451 0.37430413223039288 0 0.38534296184634081 0.37095017840506989 0 0.39273049335056498 0.39244794004361933 0 0.36953045059790451 0.37430413223039288 0 0.39273049335056498 0.39244794004361933 0 0.37687563285233688 0.39431665601437171 0 0.36953045059790451 0.37430413223039288 0 0.39273049335056498 0.39244794004361933 0 0.39133605524232312 0.4043806209434031 0 0.39273049335056498 0.39244794004361933 0 0.37687563285233688 0.39431665601437171 0 0.39133605524232312 0.4043806209434031 0 0.37687563285233688 0.39431665601437171 0 0.37761014518104669 0.41000153537792627 0 0.37761014518104669 0.41000153537792627 0 0.38257877939809359 0.42631562531645828 0 0.40066782028138592 0.41392183052943138 0 0.37761014518104669 0.41000153537792627 0 0.40066782028138592 0.41392183052943138 0 0.39133605524232312 0.4043806209434031 0 0.37761014518104669 0.41000153537792627 0 0.40066782028138592 0.41392183052943138 0 0.36566872182588289 0.41958301539168502 0 0.37761014518104669 0.41000153537792627 0 0.38257877939809359 0.42631562531645828 0 0.38257877939809359 0.42631562531645828 0 0.39421562763267948 0.44288398707886478 0 0.38089838367807488 0.44323460032203821 0 0.36448973851479871 0.43870942010348118 0 0.38257877939809359 0.42631562531645828 0 0.38089838367807488 0.44323460032203821 0 0.38257877939809359 0.42631562531645828 0 0.40458006412417807 0.42975731730080252 0 0.40066782028138592 0.41392183052943138 0 0.38257877939809359 0.42631562531645828 0 0.40458006412417807 0.42975731730080252 0 0.39421562763267948 0.44288398707886478 0 0.39133605524232312 0.4043806209434031 0 0.40066782028138592 0.41392183052943138 0 0.40771718231578907 0.40851753522974099 0 0.38257877939809359 0.42631562531645828 0 0.40066782028138592 0.41392183052943138 0 0.39133605524232312 0.4043806209434031 0 0.40771718231578907 0.40851753522974099 0 0.40458006412417807 0.42975731730080252 0 0.40066782028138592 0.41392183052943138 0 0.40843410068837011 0.4213347811559901 0 0.40066782028138592 0.41392183052943138 0 0.40771718231578907 0.40851753522974099 0 0.40771718231578907 0.40851753522974099 0 0.41593053610322528 0.41059174785684582 0 0.40771718231578907 0.40851753522974099 0 0.41560778033672319 0.41646194147789928 0 0.41593053610322528 0.41059174785684582 0 0.40066782028138592 0.41392183052943138 0 0.40771718231578907 0.40851753522974099 0 0.41560778033672319 0.41646194147789928 0 0.40066782028138592 0.41392183052943138 0 0.40843410068837011 0.4213347811559901 0 0.41560778033672319 0.41646194147789928 0 0.40066782028138592 0.41392183052943138 0 0.41560778033672319 0.41646194147789928 0 0.40843410068837011 0.4213347811559901 0 0.41560778033672319 0.41646194147789928 0 0.41253211138220958 0.42473384634933331 0 0.40458006412417807 0.42975731730080252 0 0.42150650037956711 0.43138134546264151 0 0.41288590376227507 0.44486501626515368 0 0.40458006412417807 0.42975731730080252 0 0.41253211138220958 0.42473384634933331 0 0.42150650037956711 0.43138134546264151 0 0.40458006412417807 0.42975731730080252 0 0.40843410068837011 0.4213347811559901 0 0.41253211138220958 0.42473384634933331 0 0.41560778033672319 0.41646194147789928 0 0.41253211138220958 0.42473384634933331 0 0.42150650037956711 0.43138134546264151 0 0.42150650037956711 0.43138134546264151 0 0.4369479020774133 0.4270285731265826 0 0.43190204333071092 0.44375628948270412 0 0.41560778033672319 0.41646194147789928 0 0.42150650037956711 0.43138134546264151 0 0.4369479020774133 0.4270285731265826 0 0.41593053610322528 0.41059174785684582 0 0.4369479020774133 0.4270285731265826 0 0.41560778033672319 0.41646194147789928 0 0.41593053610322528 0.41059174785684582 0 0.4369479020774133 0.4270285731265826 0 0.41593053610322528 0.41059174785684582 0 0.4369479020774133 0.4270285731265826 0 0.43775391417813592 0.41610305633576589 0 0.41593053610322528 0.41059174785684582 0 0.43775391417813592 0.41610305633576589 0 0.41593053610322528 0.41059174785684582 0 0.42989273054609117 0.40126817752804622 0 0.43775391417813592 0.41610305633576589 0 0.42989273054609117 0.40126817752804622 0 0.43775391417813592 0.41610305633576589 0 0.44204621664109472 0.40772178827981731 0 0.42989273054609117 0.40126817752804622 0 0.43872922139760889 0.39992035213349508 0 0.44204621664109472 0.40772178827981731 0 0.42989273054609117 0.40126817752804622 0 0.43719817815062051 0.39069879109931549 0 0.4183719073389443 0.38666899019627238 0 0.42989273054609117 0.40126817752804622 0 0.43719817815062051 0.39069879109931549 0 0.43872922139760889 0.39992035213349508 0 0.39273049335056498 0.39244794004361933 0 0.41593053610322528 0.41059174785684582 0 0.4183719073389443 0.38666899019627238 0 0.41593053610322528 0.41059174785684582 0 0.42989273054609117 0.40126817752804622 0 0.4183719073389443 0.38666899019627238 0 0.41751559682217709 0.36149221884986099 0 0.4183719073389443 0.38666899019627238 0 0.43391955533703069 0.37827574289734073 0 0.43719817815062051 0.39069879109931549 0 0.4183719073389443 0.38666899019627238 0 0.43391955533703069 0.37827574289734073 0 0.44886640661146671 0.37359078980782118 0 0.43391955533703069 0.37827574289734073 0 0.45032351385188429 0.3950592669448203 0 0.43719817815062051 0.39069879109931549 0 0.43391955533703069 0.37827574289734073 0 0.45032351385188429 0.3950592669448203 0 0.43391955533703069 0.37827574289734073 0 0.45032351385188429 0.3950592669448203 0 0.43872922139760889 0.39992035213349508 0 0.44658536795335763 0.3994715991896457 0 0.44204621664109472 0.40772178827981731 0 0.43719817815062051 0.39069879109931549 0 0.43872922139760889 0.39992035213349508 0 0.44658536795335763 0.3994715991896457 0 0.43719817815062051 0.39069879109931549 0 0.45032351385188429 0.3950592669448203 0 0.44658536795335763 0.3994715991896457 0 0.45032351385188429 0.3950592669448203 0 0.44658536795335763 0.3994715991896457 0 0.44658536795335763 0.3994715991896457 0 0.45123705084278531 0.4062609598690195 0 0.44204621664109472 0.40772178827981731 0 0.45032351385188429 0.3950592669448203 0 0.44658536795335763 0.3994715991896457 0 0.45123705084278531 0.4062609598690195 0 0.45032351385188429 0.3950592669448203 0 0.47116043255994361 0.41637832392094137 0 0.45032351385188429 0.3950592669448203 0 0.47116043255994361 0.41637832392094137 0 0.45123705084278531 0.4062609598690195 0 0.45032351385188429 0.3950592669448203 0 0.47672644898947508 0.39326464560675961 0 0.47116043255994361 0.41637832392094137 0 0.45032351385188429 0.3950592669448203 0 0.46688234256792388 0.37551400149407421 0 0.44886640661146671 0.37359078980782118 0 0.45032351385188429 0.3950592669448203 0 0.46688234256792388 0.37551400149407421 0 0.45032351385188429 0.3950592669448203 0 0.46688234256792388 0.37551400149407421 0 0.47672644898947508 0.39326464560675961 0 0.46688234256792388 0.37551400149407421 0 0.47672644898947508 0.39326464560675961 0 0.4854099925682725 0.37630873426704942 0 0.47672644898947508 0.39326464560675961 0 0.48724151718325248 0.40638125976418349 0 0.47116043255994361 0.41637832392094137 0 0.47672644898947508 0.39326464560675961 0 0.5 0.39238970192986289 0 0.48724151718325248 0.40638125976418349 0 0.5 0.36440658626122202 0 0.5 0.39238970192986289 0 0.4854099925682725 0.37630873426704942 0 0.47672644898947508 0.39326464560675961 0 0.5 0.39238970192986289 0 0.4854099925682725 0.37630873426704942 0 0.48759982525279971 0.42020744554517281 0 0.48153571813261647 0.4269936796444242 0 0.49199735126800281 0.43769738089706262 0 0.5 0.42037281759850359 0 0.48759982525279971 0.42020744554517281 0 0.49199735126800281 0.43769738089706262 0 0.5 0.42037281759850359 0 0.5 0.4483559332671444 0 0.49199735126800281 0.43769738089706262 0 0.48153571813261647 0.4269936796444242 0 0.49199735126800281 0.43769738089706262 0 0.5 0.39238970192986289 0 0.5 0.42037281759850359 0 0.48724151718325248 0.40638125976418349 0 0.5 0.42037281759850359 0 0.48724151718325248 0.40638125976418349 0 0.48759982525279971 0.42020744554517281 0 0.48759982525279971 0.42020744554517281 0 0.47116043255994361 0.41637832392094137 0 0.48153571813261647 0.4269936796444242 0 0.47116043255994361 0.41637832392094137 0 0.48153571813261647 0.4269936796444242 0 0.45957729225304672 0.42161436481468573 0 0.48724151718325248 0.40638125976418349 0 0.48759982525279971 0.42020744554517281 0 0.47116043255994361 0.41637832392094137 0 0.47116043255994361 0.41637832392094137 0 0.48153571813261647 0.4269936796444242 0 0.48153571813261647 0.4269936796444242 0 0.45957729225304672 0.42161436481468573 0 0.48153571813261647 0.4269936796444242 0 0.46915674166447191 0.43345236197291342 0 0.45957729225304672 0.42161436481468573 0 0.48153571813261647 0.4269936796444242 0 0.47768373602528219 0.44160401138704303 0 0.49199735126800281 0.43769738089706262 0 0.48153571813261647 0.4269936796444242 0 0.46915674166447191 0.43345236197291342 0 0.47768373602528219 0.44160401138704303 0 0.46915674166447191 0.43345236197291342 0 0.45957729225304672 0.42161436481468573 0 0.45796526805160109 0.44346539839631949 0 0.47116043255994361 0.41637832392094137 0 0.45178359419615077 0.4135300734045757 0 0.45123705084278531 0.4062609598690195 0 0.47116043255994361 0.41637832392094137 0 0.45957729225304672 0.42161436481468573 0 0.45178359419615077 0.4135300734045757 0 0.45957729225304672 0.42161436481468573 0 0.45178359419615077 0.4135300734045757 0 0.43775391417813592 0.41610305633576589 0 0.4369479020774133 0.4270285731265826 0 0.45957729225304672 0.42161436481468573 0 0.43775391417813592 0.41610305633576589 0 0.45957729225304672 0.42161436481468573 0 0.43775391417813592 0.41610305633576589 0 0.45178359419615077 0.4135300734045757 0 0.45123705084278531 0.4062609598690195 0 0.44204621664109472 0.40772178827981731 0 0.45178359419615077 0.4135300734045757 0 0.43775391417813592 0.41610305633576589 0 0.44204621664109472 0.40772178827981731 0 0.4369479020774133 0.4270285731265826 0 0.45957729225304672 0.42161436481468573 0 0.45796526805160109 0.44346539839631949 0 0.4369479020774133 0.4270285731265826 0 0.45796526805160109 0.44346539839631949 0 0.43963315801995212 0.45777164679798399 0 0.45796526805160109 0.44346539839631949 0 0.43190204333071092 0.44375628948270412 0 0.4369479020774133 0.4270285731265826 0 0.45796526805160109 0.44346539839631949 0 0.43190204333071092 0.44375628948270412 0 0.43963315801995212 0.45777164679798399 0 0.45591652850355319 0.46874039485655078 0 0.43038868951415987 0.47507819176701538 0 0.43963315801995212 0.45777164679798399 0 0.45591652850355319 0.46874039485655078 0 0.45796526805160109 0.44346539839631949 0 0.45591652850355319 0.46874039485655078 0 0.45796526805160109 0.44346539839631949 0 0.47898263402578889 0.45990222366605638 0 0.45796526805160109 0.44346539839631949 0 0.47898263402578889 0.45990222366605638 0 0.46915674166447191 0.43345236197291342 0 0.45796526805160109 0.44346539839631949 0 0.47768373602528219 0.44160401138704303 0 0.45796526805160109 0.44346539839631949 0 0.47768373602528219 0.44160401138704303 0 0.47898263402578889 0.45990222366605638 0 0.47768373602528219 0.44160401138704303 0 0.47898263402578889 0.45990222366605638 0 0.48713092246475231 0.44968473889204491 0 0.5 0.4483559332671444 0 0.48713092246475231 0.44968473889204491 0 0.49999999999998312 0.47633904893578499 0 0.47898263402578889 0.45990222366605638 0 0.48713092246475231 0.44968473889204491 0 0.49999999999998312 0.47633904893578499 0 0.47898263402578889 0.45990222366605638 0 0.49999999999998312 0.47633904893578499 0 0.5 0.4483559332671444 0 0.49199735126800281 0.43769738089706262 0 0.48713092246475231 0.44968473889204491 0 0.47768373602528219 0.44160401138704303 0 0.49199735126800281 0.43769738089706262 0 0.48713092246475231 0.44968473889204491 0 0.5 0.5 0 0.47617647380327199 0.48653691454766868 0 0.46156078610768192 0.5 0 0.5 0.5 0 0.49999999999999839 0.48338583513107619 0 0.47617647380327199 0.48653691454766868 0 0.49999999999999839 0.48338583513107619 0 0.47617647380327199 0.48653691454766868 0 0.49999999999998312 0.47633904893578499 0 0.49999999999999839 0.48338583513107619 0 0.47617647380327199 0.48653691454766868 0 0.47898263402578889 0.45990222366605638 0 0.49999999999998312 0.47633904893578499 0 0.47617647380327199 0.48653691454766868 0 0.45591652850355319 0.46874039485655078 0 0.47898263402578889 0.45990222366605638 0 0.47617647380327199 0.48653691454766868 0 0.47617647380327199 0.48653691454766868 0 0.46156078610768192 0.5 0 0.45235294760654549 0.4896879939642611 0 0.46156078610768192 0.5 0 0.45235294760654549 0.4896879939642611 0 0.42852942140981909 0.49283907338085359 0 0.47617647380327199 0.48653691454766868 0 0.45235294760654549 0.4896879939642611 0 0.45591652850355319 0.46874039485655078 0 0.47617647380327199 0.48653691454766868 0 0.45235294760654549 0.4896879939642611 0 0.45591652850355319 0.46874039485655078 0 0.45235294760654549 0.4896879939642611 0 0.43038868951415987 0.47507819176701538 0 0.45235294760654549 0.4896879939642611 0 0.42852942140981909 0.49283907338085359 0 0.46156078610768192 0.5 0 0.42852942140981909 0.49283907338085359 0 0.40752116373096048 0.499999999999997 0 0.45235294760654549 0.4896879939642611 0 0.42852942140981909 0.49283907338085359 0 0.43038868951415987 0.47507819176701538 0 0.42852942140981909 0.49283907338085359 0 0.40752116373096048 0.499999999999997 0 0.40470589521309291 0.4959901527974469 0 0.42852942140981909 0.49283907338085359 0 0.40735657114593882 0.48119464417432511 0 0.40470589521309291 0.4959901527974469 0 0.42852942140981909 0.49283907338085359 0 0.40470589521309291 0.4959901527974469 0 0.40735657114593882 0.48119464417432511 0 0.43038868951415987 0.47507819176701538 0 0.41259319147764711 0.46817728285358751 0 0.40735657114593882 0.48119464417432511 0 0.41259319147764711 0.46817728285358751 0 0.40112091516302067 0.46962574262551182 0 0.42852942140981909 0.49283907338085359 0 0.40735657114593882 0.48119464417432511 0 0.43038868951415987 0.47507819176701538 0 0.43963315801995212 0.45777164679798399 0 0.42247352769345697 0.45802575684754399 0 0.43190204333071092 0.44375628948270412 0 0.43963315801995212 0.45777164679798399 0 0.43038868951415987 0.47507819176701538 0 0.42247352769345697 0.45802575684754399 0 0.42247352769345697 0.45802575684754399 0 0.43190204333071092 0.44375628948270412 0 0.41288590376227507 0.44486501626515368 0 0.42150650037956711 0.43138134546264151 0 0.43190204333071092 0.44375628948270412 0 0.41288590376227507 0.44486501626515368 0 0.42247352769345697 0.45802575684754399 0 0.41288590376227507 0.44486501626515368 0 0.40290924497461261 0.4562972268918814 0 0.42247352769345697 0.45802575684754399 0 0.41259319147764711 0.46817728285358751 0 0.40290924497461261 0.4562972268918814 0 0.43038868951415987 0.47507819176701538 0 0.42247352769345697 0.45802575684754399 0 0.41259319147764711 0.46817728285358751 0 0.41259319147764711 0.46817728285358751 0 0.40290924497461261 0.4562972268918814 0 0.40112091516302067 0.46962574262551182 0 0.40290924497461261 0.4562972268918814 0 0.39080983514413148 0.46465822165454479 0 0.38959973247239088 0.45333731165126429 0 0.40290924497461261 0.4562972268918814 0 0.39080983514413148 0.46465822165454479 0 0.40112091516302067 0.46962574262551182 0 0.41288590376227507 0.44486501626515368 0 0.40290924497461261 0.4562972268918814 0 0.39421562763267948 0.44288398707886478 0 0.40458006412417807 0.42975731730080252 0 0.41288590376227507 0.44486501626515368 0 0.39421562763267948 0.44288398707886478 0 0.40290924497461261 0.4562972268918814 0 0.39421562763267948 0.44288398707886478 0 0.38959973247239088 0.45333731165126429 0 0.38089838367807488 0.44323460032203821 0 0.38959973247239088 0.45333731165126429 0 0.37916557093245612 0.45961252230899219 0 0.39421562763267948 0.44288398707886478 0 0.38089838367807488 0.44323460032203821 0 0.38959973247239088 0.45333731165126429 0 0.37916557093245612 0.45961252230899219 0 0.39193573307277357 0.47780133755322007 0 0.39080983514413148 0.46465822165454479 0 0.37916557093245612 0.45961252230899219 0 0.39193573307277357 0.47780133755322007 0 0.36737987295398161 0.46714868473339638 0 0.37916557093245612 0.45961252230899219 0 0.39193573307277357 0.47780133755322007 0 0.39080983514413148 0.46465822165454479 0 0.37916557093245612 0.45961252230899219 0 0.39080983514413148 0.46465822165454479 0 0.38959973247239088 0.45333731165126429 0 0.37916557093245612 0.45961252230899219 0 0.37305003487519378 0.48239898235694528 0 0.36737987295398161 0.46714868473339638 0 0.39193573307277357 0.47780133755322007 0 0.37305003487519378 0.48239898235694528 0 0.38416650976588568 0.487120676230893 0 0.39193573307277357 0.47780133755322007 0 0.38954780377117298 0.4979950763987232 0 0.38416650976588568 0.487120676230893 0 0.39193573307277357 0.47780133755322007 0 0.37438971232925339 0.50000000000000022 0 0.38954780377117298 0.4979950763987232 0 0.39095543803010702 0.5 0 0.37438971232925339 0.50000000000000022 0 0.37305003487519378 0.48239898235694528 0 0.38416650976588568 0.487120676230893 0 0.37438971232925339 0.50000000000000022 0 0.38954780377117298 0.4979950763987232 0 0.38416650976588568 0.487120676230893 0 0.37438971232925339 0.50000000000000022 0 0.38954780377117298 0.4979950763987232 0 0.38954780377117298 0.4979950763987232 0 0.40470589521309291 0.4959901527974469 0 0.39193573307277357 0.47780133755322007 0 0.40752116373096048 0.499999999999997 0 0.39095543803010702 0.5 0 0.40470589521309291 0.4959901527974469 0 0.40470589521309291 0.4959901527974469 0 0.39193573307277357 0.47780133755322007 0 0.40735657114593882 0.48119464417432511 0 0.40470589521309291 0.4959901527974469 0 0.39193573307277357 0.47780133755322007 0 0.38954780377117298 0.4979950763987232 0 0.39095543803010702 0.5 0 0.40470589521309291 0.4959901527974469 0 0.38954780377117298 0.4979950763987232 0 0.40470589521309291 0.4959901527974469 0 0.40752116373096048 0.499999999999997 0 0.40470589521309291 0.4959901527974469 0 0.40735657114593882 0.48119464417432511 0 0.40112091516302067 0.46962574262551182 0 0.39193573307277357 0.47780133755322007 0 0.39080983514413148 0.46465822165454479 0 0.40112091516302067 0.46962574262551182 0 0.39193573307277357 0.47780133755322007 0 0.34220086319603271 0.089956021631861255 0 0.33606830060136872 0.075923966980090574 0 0.32288789586030292 0.088595708026223352 0 0.33606830060136872 0.075923966980090574 0 0.32135285652549789 0.066686483201724961 0 0.3393941343146557 0.062141142389028202 0 0.33606830060136872 0.075923966980090574 0 0.35450575311035309 0.072240479651615203 0 0.3393941343146557 0.062141142389028202 0 0.32135285652549789 0.066686483201724961 0 0.32288789586030292 0.088595708026223352 0 0.33606830060136872 0.075923966980090574 0 0.32135285652549789 0.066686483201724961 0 0.32288789586030292 0.088595708026223352 0 0.32135285652549789 0.066686483201724961 0 0.31053741827190501 0.057016239902149983 0 0.31058150754727909 0.068704220125608895 0 0.32135285652549789 0.066686483201724961 0 0.31263476304250137 0.08083155381554287 0 0.31058150754727909 0.068704220125608895 0 0.32135285652549789 0.066686483201724961 0 0.31263476304250137 0.08083155381554287 0 0.31263476304250137 0.08083155381554287 0 0.32288789586030292 0.088595708026223352 0 0.3039166695595058 0.094976624429361389 0 0.32135285652549789 0.066686483201724961 0 0.31263476304250137 0.08083155381554287 0 0.32288789586030292 0.088595708026223352 0 0.32288789586030292 0.088595708026223352 0 0.32442293519510501 0.1105049328507219 0 0.3039166695595058 0.094976624429361389 0 0.32442293519510501 0.1105049328507219 0 0.3039166695595058 0.094976624429361389 0 0.32288789586030292 0.088595708026223352 0 0.32442293519510501 0.1105049328507219 0 0.32288789586030292 0.088595708026223352 0 0.32442293519510501 0.1105049328507219 0 0.33559713573779598 0.1072511421103776 0 0.32442293519510501 0.1105049328507219 0 0.32563230088826828 0.1277659008700765 0 0.32442293519510501 0.1105049328507219 0 0.33221690100767032 0.11806326787727139 0 0.32563230088826828 0.1277659008700765 0 0.32442293519510501 0.1105049328507219 0 0.30864095658452378 0.120153811778764 0 0.32563230088826828 0.1277659008700765 0 0.33958151361135841 0.12447348269135861 0 0.33559713573779598 0.1072511421103776 0 0.35229546382425247 0.12640381397093531 0 0.33221690100767032 0.11806326787727139 0 0.33958151361135841 0.12447348269135861 0 0.33559713573779598 0.1072511421103776 0 0.33221690100767032 0.11806326787727139 0 0.33958151361135841 0.12447348269135861 0 0.32563230088826828 0.1277659008700765 0 0.32442293519510501 0.1105049328507219 0 0.33221690100767032 0.11806326787727139 0 0.33559713573779598 0.1072511421103776 0 0.34220086319603271 0.089956021631861255 0 0.32288789586030292 0.088595708026223352 0 0.33559713573779598 0.1072511421103776 0 0.34220086319603271 0.089956021631861255 0 0.33559713573779598 0.1072511421103776 0 0.34544930352256359 0.10323982972082819 0 0.33559713573779598 0.1072511421103776 0 0.34544930352256359 0.10323982972082819 0 0.3474247797755563 0.1137947523398375 0 0.34220086319603271 0.089956021631861255 0 0.34544930352256359 0.10323982972082819 0 0.35657443538086941 0.1019574028012365 0 0.34544930352256359 0.10323982972082819 0 0.35657443538086941 0.1019574028012365 0 0.3474247797755563 0.1137947523398375 0 0.35657443538086941 0.1019574028012365 0 0.3474247797755563 0.1137947523398375 0 0.3574583726099832 0.11208860288521449 0 0.33559713573779598 0.1072511421103776 0 0.3474247797755563 0.1137947523398375 0 0.35229546382425247 0.12640381397093531 0 0.33559713573779598 0.1072511421103776 0 0.35229546382425247 0.12640381397093531 0 0.3474247797755563 0.1137947523398375 0 0.35378668939555002 0.11863515418499911 0 0.35229546382425247 0.12640381397093531 0 0.3474247797755563 0.1137947523398375 0 0.3574583726099832 0.11208860288521449 0 0.35378668939555002 0.11863515418499911 0 0.3574583726099832 0.11208860288521449 0 0.35378668939555002 0.11863515418499911 0 0.35796814137240851 0.1222534475440091 0 0.35796814137240851 0.1222534475440091 0 0.35229546382425247 0.12640381397093531 0 0.35378668939555002 0.11863515418499911 0 0.35796814137240851 0.1222534475440091 0 0.35229546382425247 0.12640381397093531 0 0.36766386746552149 0.11169119565369449 0 0.37112695675796947 0.12434217486795331 0 0.38519450842317809 0.12364480126092731 0 0.35796814137240851 0.1222534475440091 0 0.36766386746552149 0.11169119565369449 0 0.37112695675796947 0.12434217486795331 0 0.3574583726099832 0.11208860288521449 0 0.35796814137240851 0.1222534475440091 0 0.36766386746552149 0.11169119565369449 0 0.35657443538086941 0.1019574028012365 0 0.37486820463830522 0.097098918081658978 0 0.36159532526478499 0.086900427735116678 0 0.35657443538086941 0.1019574028012365 0 0.36766386746552149 0.11169119565369449 0 0.37486820463830522 0.097098918081658978 0 0.35657443538086941 0.1019574028012365 0 0.3574583726099832 0.11208860288521449 0 0.36766386746552149 0.11169119565369449 0 0.37486820463830522 0.097098918081658978 0 0.36159532526478499 0.086900427735116678 0 0.37982736999836431 0.073249316509211515 0 0.34220086319603271 0.089956021631861255 0 0.36159532526478499 0.086900427735116678 0 0.35450575311035309 0.072240479651615203 0 0.34220086319603271 0.089956021631861255 0 0.35657443538086941 0.1019574028012365 0 0.36159532526478499 0.086900427735116678 0 0.34220086319603271 0.089956021631861255 0 0.33606830060136872 0.075923966980090574 0 0.35450575311035309 0.072240479651615203 0 0.35450575311035309 0.072240479651615203 0 0.35545639192132139 0.05804169932768892 0 0.3393941343146557 0.062141142389028202 0 0.35450575311035309 0.072240479651615203 0 0.37113184104066238 0.058387743063101447 0 0.35545639192132139 0.05804169932768892 0 0.36159532526478499 0.086900427735116678 0 0.35450575311035309 0.072240479651615203 0 0.37982736999836431 0.073249316509211515 0 0.35450575311035309 0.072240479651615203 0 0.37113184104066238 0.058387743063101447 0 0.37982736999836431 0.073249316509211515 0 0.37113184104066238 0.058387743063101447 0 0.36031747668129882 0.045222877118010728 0 0.35545639192132139 0.05804169932768892 0 0.36031747668129882 0.045222877118010728 0 0.36091534559726501 0.028828014983777961 0 0.37640283919325568 0.035152814568936402 0 0.37113184104066238 0.058387743063101447 0 0.36031747668129882 0.045222877118010728 0 0.37640283919325568 0.035152814568936402 0 0.35021821438573908 0.038633283368963253 0 0.34831074594686312 0.02294741912670839 0 0.33483180123618012 0.044816951164216412 0 0.36031747668129882 0.045222877118010728 0 0.35021821438573908 0.038633283368963253 0 0.36091534559726501 0.028828014983777961 0 0.36031747668129882 0.045222877118010728 0 0.35021821438573908 0.038633283368963253 0 0.34718495516650139 0.050972259134956767 0 0.35021821438573908 0.038633283368963253 0 0.34718495516650139 0.050972259134956767 0 0.33483180123618012 0.044816951164216412 0 0.34718495516650139 0.050972259134956767 0 0.35545639192132139 0.05804169932768892 0 0.3393941343146557 0.062141142389028202 0 0.36031747668129882 0.045222877118010728 0 0.34718495516650139 0.050972259134956767 0 0.35545639192132139 0.05804169932768892 0 0.36178969065754613 0.001077887089200275 0 0.36818252895946579 0.002090311639515785 0 0.36617416776507822 0.0079362133907331257 0 0.36818252895946579 0.002090311639515785 0 0.3717368739350822 0.005950175452288751 0 0.37369193539391221 -0.00012575175666541271 0 0.36818252895946579 0.002090311639515785 0 0.3717368739350822 0.005950175452288751 0 0.36617416776507822 0.0079362133907331257 0 0.3717368739350822 0.005950175452288751 0 0.36617416776507822 0.0079362133907331257 0 0.37193721197690338 0.01641433914928252 0 0.3717368739350822 0.005950175452288751 0 0.37193721197690338 0.01641433914928252 0 0.38079077192133931 0.0048658128167345053 0 0.36051255958385819 0.01537928189543865 0 0.36617416776507822 0.0079362133907331257 0 0.37193721197690338 0.01641433914928252 0 0.36178969065754613 0.001077887089200275 0 0.36051255958385819 0.01537928189543865 0 0.36617416776507822 0.0079362133907331257 0 0.37193721197690338 0.01641433914928252 0 0.36091534559726501 0.028828014983777961 0 0.37640283919325568 0.035152814568936402 0 0.36051255958385819 0.01537928189543865 0 0.37193721197690338 0.01641433914928252 0 0.36091534559726501 0.028828014983777961 0 0.35021821438573908 0.038633283368963253 0 0.36091534559726501 0.028828014983777961 0 0.34831074594686312 0.02294741912670839 0 0.36051255958385819 0.01537928189543865 0 0.36091534559726501 0.028828014983777961 0 0.34831074594686312 0.02294741912670839 0 0.35748035392213812 0.0055638752084500552 0 0.33225249698848103 0.0090096168732492106 0 0.34860824471950103 -0.0057210256210925804 0 0.36178969065754613 0.001077887089200275 0 0.36051255958385819 0.01537928189543865 0 0.34831074594686312 0.02294741912670839 0 0.35748035392213812 0.0055638752084500552 0 0.33225249698848103 0.0090096168732492106 0 0.36178969065754613 0.001077887089200275 0 0.34831074594686312 0.02294741912670839 0 0.35748035392213812 0.0055638752084500552 0 0.34831074594686312 0.02294741912670839 0 0.35748035392213812 0.0055638752084500552 0 0.33225249698848103 0.0090096168732492106 0 0.36178969065754613 0.001077887089200275 0 0.34831074594686312 0.02294741912670839 0 0.36178969065754613 0.001077887089200275 0 0.35748035392213812 0.0055638752084500552 0 0.35627991582030732 -0.0027166944564360031 0 0.34831074594686312 0.02294741912670839 0 0.33225249698848103 0.0090096168732492106 0 0.32718064170548161 0.027371521511167361 0 0.33225249698848103 0.0090096168732492106 0 0.32718064170548161 0.027371521511167361 0 0.30702464005482388 0.012455358538048361 0 0.32718064170548161 0.027371521511167361 0 0.31151892400330278 0.032238054410661007 0 0.30702464005482388 0.012455358538048361 0 0.33225249698848103 0.0090096168732492106 0 0.30702464005482388 0.012455358538048361 0 0.31541111980489911 -0.0055720089255602186 0 0.33225249698848103 0.0090096168732492106 0 0.30702464005482388 0.012455358538048361 0 0.34718495516650139 0.050972259134956767 0 0.3393941343146557 0.062141142389028202 0 0.33483180123618012 0.044816951164216412 0 0.32135285652549789 0.066686483201724961 0 0.3393941343146557 0.062141142389028202 0 0.33483180123618012 0.044816951164216412 0 0.34831074594686312 0.02294741912670839 0 0.33483180123618012 0.044816951164216412 0 0.34831074594686312 0.02294741912670839 0 0.32718064170548161 0.027371521511167361 0 0.33483180123618012 0.044816951164216412 0 0.32718064170548161 0.027371521511167361 0 0.31982960643736269 0.044945523287386747 0 0.31151892400330278 0.032238054410661007 0 0.32718064170548161 0.027371521511167361 0 0.33483180123618012 0.044816951164216412 0 0.31982960643736269 0.044945523287386747 0 0.32135285652549789 0.066686483201724961 0 0.31982960643736269 0.044945523287386747 0 0.32135285652549789 0.066686483201724961 0 0.31982960643736269 0.044945523287386747 0 0.31053741827190501 0.057016239902149983 0 0.32135285652549789 0.066686483201724961 0 0.33483180123618012 0.044816951164216412 0 0.31982960643736269 0.044945523287386747 0 0.32135285652549789 0.066686483201724961 0 0.33483180123618012 0.044816951164216412 0 0.31982960643736269 0.044945523287386747 0 0.31053741827190501 0.057016239902149983 0 0.30310436793435258 0.046485016946411023 0 0.31053741827190501 0.057016239902149983 0 0.29757940406208078 0.057446854150150058 0 0.30464959843120532 0.063772141396156501 0 0.31053741827190501 0.057016239902149983 0 0.29757940406208078 0.057446854150150058 0 0.30310436793435258 0.046485016946411023 0 0.29757940406208078 0.057446854150150058 0 0.30310436793435258 0.046485016946411023 0 0.29544554172758192 0.050137993789258588 0 0.30310436793435258 0.046485016946411023 0 0.29187004069772049 0.043160384914525243 0 0.29667840647247751 0.03053947450003195 0 0.31151892400330278 0.032238054410661007 0 0.30310436793435258 0.046485016946411023 0 0.29667840647247751 0.03053947450003195 0 0.31982960643736269 0.044945523287386747 0 0.31151892400330278 0.032238054410661007 0 0.30310436793435258 0.046485016946411023 0 0.30310436793435258 0.046485016946411023 0 0.29187004069772049 0.043160384914525243 0 0.29544554172758192 0.050137993789258588 0 0.29187004069772049 0.043160384914525243 0 0.28465662489431409 0.031374197298330422 0 0.29667840647247751 0.03053947450003195 0 0.29187004069772049 0.043160384914525243 0 0.28465662489431409 0.031374197298330422 0 0.28171047191429788 0.045322936047894141 0 0.28171047191429788 0.045322936047894141 0 0.28922835421617349 0.053459719145947993 0 0.28118525696276092 0.056084140611830292 0 0.29187004069772049 0.043160384914525243 0 0.28171047191429788 0.045322936047894141 0 0.28922835421617349 0.053459719145947993 0 0.28924294453586891 0.061772137805826521 0 0.28118525696276092 0.056084140611830292 0 0.2795742339079002 0.064590816979149035 0 0.28924294453586891 0.061772137805826521 0 0.28922835421617349 0.053459719145947993 0 0.28118525696276092 0.056084140611830292 0 0.29757940406208078 0.057446854150150058 0 0.28924294453586891 0.061772137805826521 0 0.28922835421617349 0.053459719145947993 0 0.29187004069772049 0.043160384914525243 0 0.29544554172758192 0.050137993789258588 0 0.28922835421617349 0.053459719145947993 0 0.29757940406208078 0.057446854150150058 0 0.29544554172758192 0.050137993789258588 0 0.28922835421617349 0.053459719145947993 0 0.31151892400330278 0.032238054410661007 0 0.30702464005482388 0.012455358538048361 0 0.29667840647247751 0.03053947450003195 0 0.30702464005482388 0.012455358538048361 0 0.29667840647247751 0.03053947450003195 0 0.28179678312116679 0.015901100202847511 0 0.28465662489431409 0.031374197298330422 0 0.29667840647247751 0.03053947450003195 0 0.28179678312116679 0.015901100202847511 0 0.28179678312116679 0.015901100202847511 0 0.2690694011473323 -0.00147667541916337 0 0.29349019251495567 -0.0082369703254713458 0 0.30702464005482388 0.012455358538048361 0 0.28179678312116679 0.015901100202847511 0 0.29349019251495567 -0.0082369703254713458 0 0.30702464005482388 0.012455358538048361 0 0.28179678312116679 0.015901100202847511 0 0.28179678312116679 0.015901100202847511 0 0.25656892618750982 0.019346841867646659 0 0.2690694011473323 -0.00147667541916337 0 0.28179678312116679 0.015901100202847511 0 0.25656892618750982 0.019346841867646659 0 0.28465662489431409 0.031374197298330422 0 0.28179678312116679 0.015901100202847511 0 0.25656892618750982 0.019346841867646659 0 0.28465662489431409 0.031374197298330422 0 0.25656892618750982 0.019346841867646659 0 0.27100122320061037 0.03788452769100397 0 0.2485809188977687 0.0003435598250259543 0 0.25656892618750982 0.019346841867646659 0 0.2690694011473323 -0.00147667541916337 0 0.27232133151420801 0.049974646625726947 0 0.26648115747145101 0.057421557396856573 0 0.2588329008117537 0.041664494009963693 0 0.26648115747145101 0.057421557396856573 0 0.27483619125413278 0.059604258501654309 0 0.27287564168056538 0.069027234731523418 0 0.27232133151420801 0.049974646625726947 0 0.26648115747145101 0.057421557396856573 0 0.27483619125413278 0.059604258501654309 0 0.27232133151420801 0.049974646625726947 0 0.28118525696276092 0.056084140611830292 0 0.27483619125413278 0.059604258501654309 0 0.28118525696276092 0.056084140611830292 0 0.27483619125413278 0.059604258501654309 0 0.2795742339079002 0.064590816979149035 0 0.28171047191429788 0.045322936047894141 0 0.27232133151420801 0.049974646625726947 0 0.28118525696276092 0.056084140611830292 0 0.28171047191429788 0.045322936047894141 0 0.27232133151420801 0.049974646625726947 0 0.27100122320061037 0.03788452769100397 0 0.28465662489431409 0.031374197298330422 0 0.28171047191429788 0.045322936047894141 0 0.27100122320061037 0.03788452769100397 0 0.27232133151420801 0.049974646625726947 0 0.27100122320061037 0.03788452769100397 0 0.2588329008117537 0.041664494009963693 0 0.25656892618750982 0.019346841867646659 0 0.27100122320061037 0.03788452769100397 0 0.2588329008117537 0.041664494009963693 0 0.23881440283601951 0.037772767319185593 0 0.25656892618750982 0.019346841867646659 0 0.2588329008117537 0.041664494009963693 0 0.24836757662475781 0.052912239672707209 0 0.26648115747145101 0.057421557396856573 0 0.27247540268438369 0.071167818970999372 0 0.24836757662475781 0.052912239672707209 0 0.27247540268438369 0.071167818970999372 0 0.24836757662475781 0.052912239672707209 0 0.26648115747145101 0.057421557396856573 0 0.2588329008117537 0.041664494009963693 0 0.24833339802783469 0.078003237367376341 0 0.24836757662475781 0.052912239672707209 0 0.27247540268438369 0.071167818970999372 0 0.24934266385504561 0.098137529887377728 0 0.24833339802783469 0.078003237367376341 0 0.26837462179141219 0.093099882145226714 0 0.24833339802783469 0.078003237367376341 0 0.26837462179141219 0.093099882145226714 0 0.27247540268438369 0.071167818970999372 0 0.26837462179141219 0.093099882145226714 0 0.27247540268438369 0.071167818970999372 0 0.28819603612194522 0.083072221700179832 0 0.26837462179141219 0.093099882145226714 0 0.28819603612194522 0.083072221700179832 0 0.28322721067384271 0.1019093889280127 0 0.26837462179141219 0.093099882145226714 0 0.27247540268438369 0.071167818970999372 0 0.27247540268438369 0.071167818970999372 0 0.28819603612194522 0.083072221700179832 0 0.26648115747145101 0.057421557396856573 0 0.27287564168056538 0.069027234731523418 0 0.27247540268438369 0.071167818970999372 0 0.27287564168056538 0.069027234731523418 0 0.27247540268438369 0.071167818970999372 0 0.27483619125413278 0.059604258501654309 0 0.27287564168056538 0.069027234731523418 0 0.2795742339079002 0.064590816979149035 0 0.27247540268438369 0.071167818970999372 0 0.2795742339079002 0.064590816979149035 0 0.28637428789009778 0.070286910910261222 0 0.27287564168056538 0.069027234731523418 0 0.27247540268438369 0.071167818970999372 0 0.2795742339079002 0.064590816979149035 0 0.27247540268438369 0.071167818970999372 0 0.28637428789009778 0.070286910910261222 0 0.28819603612194522 0.083072221700179832 0 0.28924294453586891 0.061772137805826521 0 0.2795742339079002 0.064590816979149035 0 0.28637428789009778 0.070286910910261222 0 0.29757940406208078 0.057446854150150058 0 0.28924294453586891 0.061772137805826521 0 0.29889142236415422 0.071054559063097822 0 0.28924294453586891 0.061772137805826521 0 0.28637428789009778 0.070286910910261222 0 0.29889142236415422 0.071054559063097822 0 0.28637428789009778 0.070286910910261222 0 0.28819603612194522 0.083072221700179832 0 0.29889142236415422 0.071054559063097822 0 0.28819603612194522 0.083072221700179832 0 0.3039166695595058 0.094976624429361389 0 0.28322721067384271 0.1019093889280127 0 0.28819603612194522 0.083072221700179832 0 0.3039166695595058 0.094976624429361389 0 0.28819603612194522 0.083072221700179832 0 0.30090972277202649 0.08248373975204544 0 0.29889142236415422 0.071054559063097822 0 0.28819603612194522 0.083072221700179832 0 0.30090972277202649 0.08248373975204544 0 0.3039166695595058 0.094976624429361389 0 0.31263476304250137 0.08083155381554287 0 0.3039166695595058 0.094976624429361389 0 0.31263476304250137 0.08083155381554287 0 0.30090972277202649 0.08248373975204544 0 0.3039166695595058 0.094976624429361389 0 0.31263476304250137 0.08083155381554287 0 0.31058150754727909 0.068704220125608895 0 0.29889142236415422 0.071054559063097822 0 0.31053741827190501 0.057016239902149983 0 0.31058150754727909 0.068704220125608895 0 0.30464959843120532 0.063772141396156501 0 0.31058150754727909 0.068704220125608895 0 0.30464959843120532 0.063772141396156501 0 0.29889142236415422 0.071054559063097822 0 0.29757940406208078 0.057446854150150058 0 0.30464959843120532 0.063772141396156501 0 0.29889142236415422 0.071054559063097822 0 0.31263476304250137 0.08083155381554287 0 0.30090972277202649 0.08248373975204544 0 0.29889142236415422 0.071054559063097822 0 0.30864095658452378 0.120153811778764 0 0.3039166695595058 0.094976624429361389 0 0.29118807089739568 0.11562872310686149 0 0.30864095658452378 0.120153811778764 0 0.29118807089739568 0.11562872310686149 0 0.29191726997061562 0.13486503959034271 0 0.32442293519510501 0.1105049328507219 0 0.30864095658452378 0.120153811778764 0 0.3039166695595058 0.094976624429361389 0 0.3039166695595058 0.094976624429361389 0 0.29118807089739568 0.11562872310686149 0 0.3039166695595058 0.094976624429361389 0 0.28322721067384271 0.1019093889280127 0 0.29118807089739568 0.11562872310686149 0 0.29118807089739568 0.11562872310686149 0 0.27759417776778289 0.1214989251543058 0 0.27845947223528578 0.13628082178436179 0 0.28322721067384271 0.1019093889280127 0 0.29118807089739568 0.11562872310686149 0 0.27759417776778289 0.1214989251543058 0 0.27759417776778289 0.1214989251543058 0 0.26427384089844042 0.115031945319454 0 0.26017306000546853 0.13696400849368129 0 0.28322721067384271 0.1019093889280127 0 0.27759417776778289 0.1214989251543058 0 0.26427384089844042 0.115031945319454 0 0.26837462179141219 0.093099882145226714 0 0.28322721067384271 0.1019093889280127 0 0.26427384089844042 0.115031945319454 0 0.26837462179141219 0.093099882145226714 0 0.26427384089844042 0.115031945319454 0 0.24934266385504561 0.098137529887377728 0 0.26837462179141219 0.093099882145226714 0 0.26427384089844042 0.115031945319454 0 0.24842538003922371 0.13436122112683491 0 0.243198239670641 0.11554456854911439 0 0.26427384089844042 0.115031945319454 0 0.243198239670641 0.11554456854911439 0 0.24934266385504561 0.098137529887377728 0 0.26427384089844042 0.115031945319454 0 0.26427384089844042 0.115031945319454 0 0.26017306000546853 0.13696400849368129 0 0.24842538003922371 0.13436122112683491 0 0.26427384089844042 0.115031945319454 0 0.26017306000546853 0.13696400849368129 0 0.24842538003922371 0.13436122112683491 0 0.26017306000546853 0.13696400849368129 0 0.2485295647427305 0.14688504715929099 0 0.24842538003922371 0.13436122112683491 0 0.26017306000546853 0.13696400849368129 0 0.26017306000546853 0.13696400849368129 0 0.28005011820175152 0.14136792110553981 0 0.27759417776778289 0.1214989251543058 0 0.26017306000546853 0.13696400849368129 0 0.27845947223528578 0.13628082178436179 0 0.26017306000546853 0.13696400849368129 0 0.27845947223528578 0.13628082178436179 0 0.28005011820175152 0.14136792110553981 0 0.26017306000546853 0.13696400849368129 0 0.28005011820175152 0.14136792110553981 0 0.27076481271933261 0.1529846291718297 0 0.28005011820175152 0.14136792110553981 0 0.27076481271933261 0.1529846291718297 0 0.28628347654712638 0.15485976459764131 0 0.26017306000546853 0.13696400849368129 0 0.27076481271933261 0.1529846291718297 0 0.25674810777089307 0.1552815608667327 0 0.26017306000546853 0.13696400849368129 0 0.25674810777089307 0.1552815608667327 0 0.2485295647427305 0.14688504715929099 0 0.26017306000546853 0.13696400849368129 0 0.25674810777089307 0.1552815608667327 0 0.25674810777089307 0.1552815608667327 0 0.26461319506553832 0.1632767517283627 0 0.25595707671348877 0.17203978288823421 0 0.24287743397325001 0.16192299849150479 0 0.25674810777089307 0.1552815608667327 0 0.25332315553631768 0.17359911323978389 0 0.25674810777089307 0.1552815608667327 0 0.25595707671348877 0.17203978288823421 0 0.25332315553631768 0.17359911323978389 0 0.25674810777089307 0.1552815608667327 0 0.25332315553631768 0.17359911323978389 0 0.26461319506553832 0.1632767517283627 0 0.25595707671348877 0.17203978288823421 0 0.26650943559928708 0.17501645136120281 0 0.27076481271933261 0.1529846291718297 0 0.25674810777089307 0.1552815608667327 0 0.26461319506553832 0.1632767517283627 0 0.25532247970693028 0.1816166762420536 0 0.25358748599994069 0.18891073821006771 0 0.25834987025953449 0.1878585695884534 0 0.24785602693145789 0.18947148817661541 0 0.24957516736416391 0.18398373333817489 0 0.25358748599994069 0.18891073821006771 0 0.24957516736416391 0.18398373333817489 0 0.25532247970693028 0.1816166762420536 0 0.25358748599994069 0.18891073821006771 0 0.24957516736416391 0.18398373333817489 0 0.25532247970693028 0.1816166762420536 0 0.25029900553779161 0.17876528813267961 0 0.25532247970693028 0.1816166762420536 0 0.25029900553779161 0.17876528813267961 0 0.25332315553631768 0.17359911323978389 0 0.25532247970693028 0.1816166762420536 0 0.25595707671348877 0.17203978288823421 0 0.25332315553631768 0.17359911323978389 0 0.24826169011726351 0.1757427330452076 0 0.25029900553779161 0.17876528813267961 0 0.25332315553631768 0.17359911323978389 0 0.25595707671348877 0.17203978288823421 0 0.26438594954755001 0.18670486006014131 0 0.26650943559928708 0.17501645136120281 0 0.25595707671348877 0.17203978288823421 0 0.26438594954755001 0.18670486006014131 0 0.25532247970693028 0.1816166762420536 0 0.26438594954755001 0.18670486006014131 0 0.25834987025953449 0.1878585695884534 0 0.25532247970693028 0.1816166762420536 0 0.25595707671348877 0.17203978288823421 0 0.26438594954755001 0.18670486006014131 0 0.27208282331106459 0.18509071224331369 0 0.27568324673835187 0.1661080996550649 0 0.29594352895269149 0.16763322928628269 0 0.27208282331106459 0.18509071224331369 0 0.26650943559928708 0.17501645136120281 0 0.27568324673835187 0.1661080996550649 0 0.26438594954755001 0.18670486006014131 0 0.27208282331106459 0.18509071224331369 0 0.26650943559928708 0.17501645136120281 0 0.27076481271933261 0.1529846291718297 0 0.26461319506553832 0.1632767517283627 0 0.27568324673835187 0.1661080996550649 0 0.26461319506553832 0.1632767517283627 0 0.26650943559928708 0.17501645136120281 0 0.27568324673835187 0.1661080996550649 0 0.27076481271933261 0.1529846291718297 0 0.27568324673835187 0.1661080996550649 0 0.28628347654712638 0.15485976459764131 0 0.27568324673835187 0.1661080996550649 0 0.29594352895269149 0.16763322928628269 0 0.28628347654712638 0.15485976459764131 0 0.27208282331106459 0.18509071224331369 0 0.29594352895269149 0.16763322928628269 0 0.27208282331106459 0.18509071224331369 0 0.29594352895269149 0.16763322928628269 0 0.29156553560654008 0.19317593932552549 0 0.29594352895269149 0.16763322928628269 0 0.31031624883147202 0.18498194141900051 0 0.32049407347759012 0.1648537448131796 0 0.29594352895269149 0.16763322928628269 0 0.31031624883147202 0.18498194141900051 0 0.29156553560654008 0.19317593932552549 0 0.29594352895269149 0.16763322928628269 0 0.3198042345943185 0.1501757463292521 0 0.32049407347759012 0.1648537448131796 0 0.29594352895269149 0.16763322928628269 0 0.3198042345943185 0.1501757463292521 0 0.29594352895269149 0.16763322928628269 0 0.29992717639803501 0.14577183371739619 0 0.3198042345943185 0.1501757463292521 0 0.29992717639803501 0.14577183371739619 0 0.31476849299624959 0.1371816498252218 0 0.3198042345943185 0.1501757463292521 0 0.29992717639803501 0.14577183371739619 0 0.3198042345943185 0.1501757463292521 0 0.30864095658452378 0.120153811778764 0 0.29191726997061562 0.13486503959034271 0 0.31476849299624959 0.1371816498252218 0 0.29992717639803501 0.14577183371739619 0 0.29191726997061562 0.13486503959034271 0 0.31476849299624959 0.1371816498252218 0 0.29118807089739568 0.11562872310686149 0 0.27845947223528578 0.13628082178436179 0 0.29191726997061562 0.13486503959034271 0 0.29118807089739568 0.11562872310686149 0 0.27845947223528578 0.13628082178436179 0 0.27845947223528578 0.13628082178436179 0 0.28005011820175152 0.14136792110553981 0 0.29191726997061562 0.13486503959034271 0 0.28005011820175152 0.14136792110553981 0 0.29992717639803501 0.14577183371739619 0 0.28628347654712638 0.15485976459764131 0 0.28005011820175152 0.14136792110553981 0 0.29992717639803501 0.14577183371739619 0 0.29191726997061562 0.13486503959034271 0 0.29594352895269149 0.16763322928628269 0 0.29992717639803501 0.14577183371739619 0 0.28628347654712638 0.15485976459764131 0 0.28005011820175152 0.14136792110553981 0 0.29992717639803501 0.14577183371739619 0 0.27029938125701652 0.23905759454823461 0 0.28661367045359021 0.22537803129668879 0 0.28366625193564882 0.2402671457169773 0 0.2809675523218696 0.25355925146020758 0 0.27029938125701652 0.23905759454823461 0 0.28366625193564882 0.2402671457169773 0 0.25398509206044312 0.25273715779978062 0 0.27029938125701652 0.23905759454823461 0 0.25077693712520399 0.23232828641164041 0 0.25398509206044312 0.25273715779978062 0 0.27029938125701652 0.23905759454823461 0 0.239081971737344 0.2161110782353009 0 0.25077693712520399 0.23232828641164041 0 0.26047456910592293 0.21661542335539441 0 0.25077693712520399 0.23232828641164041 0 0.27118484900629702 0.22637395997110571 0 0.26047456910592293 0.21661542335539441 0 0.27029938125701652 0.23905759454823461 0 0.25077693712520399 0.23232828641164041 0 0.27118484900629702 0.22637395997110571 0 0.27029938125701652 0.23905759454823461 0 0.28661367045359021 0.22537803129668879 0 0.27118484900629702 0.22637395997110571 0 0.26047456910592293 0.21661542335539441 0 0.28186716647450188 0.21711976847548789 0 0.27029938125701652 0.23905759454823461 0 0.27118484900629702 0.22637395997110571 0 0.28661367045359021 0.22537803129668879 0 0.27118484900629702 0.22637395997110571 0 0.28186716647450188 0.21711976847548789 0 0.28661367045359021 0.22537803129668879 0 0.26047456910592293 0.21661542335539441 0 0.27281482238160809 0.2013699372320501 0 0.28186716647450188 0.21711976847548789 0 0.27281482238160809 0.2013699372320501 0 0.28186716647450188 0.21711976847548789 0 0.26047456910592293 0.21661542335539441 0 0.28186716647450188 0.21711976847548789 0 0.26047456910592293 0.21661542335539441 0 0.25594839705947597 0.20874050773367539 0 0.27281482238160809 0.2013699372320501 0 0.239081971737344 0.2161110782353009 0 0.26047456910592293 0.21661542335539441 0 0.25594839705947597 0.20874050773367539 0 0.25594839705947597 0.20874050773367539 0 0.27281482238160809 0.2013699372320501 0 0.25594839705947597 0.20874050773367539 0 0.25931407931835981 0.19479715587455901 0 0.27281482238160809 0.2013699372320501 0 0.24613184410308109 0.2016685561764188 0 0.25594839705947597 0.20874050773367539 0 0.25061386337834979 0.19610877606118021 0 0.25594839705947597 0.20874050773367539 0 0.25061386337834979 0.19610877606118021 0 0.25931407931835981 0.19479715587455901 0 0.25061386337834979 0.19610877606118021 0 0.25358748599994069 0.18891073821006771 0 0.25931407931835981 0.19479715587455901 0 0.24785602693145789 0.18947148817661541 0 0.25061386337834979 0.19610877606118021 0 0.25358748599994069 0.18891073821006771 0 0.25358748599994069 0.18891073821006771 0 0.25834987025953449 0.1878585695884534 0 0.25931407931835981 0.19479715587455901 0 0.26438594954755001 0.18670486006014131 0 0.25931407931835981 0.19479715587455901 0 0.27281482238160809 0.2013699372320501 0 0.26438594954755001 0.18670486006014131 0 0.25834987025953449 0.1878585695884534 0 0.25931407931835981 0.19479715587455901 0 0.27208282331106459 0.18509071224331369 0 0.27281482238160809 0.2013699372320501 0 0.29156553560654008 0.19317593932552549 0 0.26438594954755001 0.18670486006014131 0 0.27281482238160809 0.2013699372320501 0 0.26438594954755001 0.18670486006014131 0 0.27208282331106459 0.18509071224331369 0 0.27281482238160809 0.2013699372320501 0 0.27281482238160809 0.2013699372320501 0 0.29156553560654008 0.19317593932552549 0 0.27281482238160809 0.2013699372320501 0 0.29156553560654008 0.19317593932552549 0 0.29080069831499661 0.20580898361702959 0 0.29156553560654008 0.19317593932552549 0 0.30296660116919921 0.196897177438908 0 0.29080069831499661 0.20580898361702959 0 0.30296660116919921 0.196897177438908 0 0.30933001751041089 0.20633033006597101 0 0.29080069831499661 0.20580898361702959 0 0.31031624883147202 0.18498194141900051 0 0.29156553560654008 0.19317593932552549 0 0.30296660116919921 0.196897177438908 0 0.31031624883147202 0.18498194141900051 0 0.29156553560654008 0.19317593932552549 0 0.31031624883147202 0.18498194141900051 0 0.30296660116919921 0.196897177438908 0 0.31282050558257618 0.19418869276701331 0 0.30296660116919921 0.196897177438908 0 0.30933001751041089 0.20633033006597101 0 0.31282050558257618 0.19418869276701331 0 0.30933001751041089 0.20633033006597101 0 0.29606335392690908 0.21745445330791899 0 0.29080069831499661 0.20580898361702959 0 0.30933001751041089 0.20633033006597101 0 0.29606335392690908 0.21745445330791899 0 0.31992047031335757 0.2180169011501159 0 0.29606335392690908 0.21745445330791899 0 0.31992047031335757 0.2180169011501159 0 0.30933001751041089 0.20633033006597101 0 0.29606335392690908 0.21745445330791899 0 0.29606335392690908 0.21745445330791899 0 0.29080069831499661 0.20580898361702959 0 0.28186716647450188 0.21711976847548789 0 0.27281482238160809 0.2013699372320501 0 0.29080069831499661 0.20580898361702959 0 0.28186716647450188 0.21711976847548789 0 0.29606335392690908 0.21745445330791899 0 0.28186716647450188 0.21711976847548789 0 0.28661367045359021 0.22537803129668879 0 0.2977798961331779 0.22970127856942221 0 0.29678440371011888 0.24307370556277841 0 0.28661367045359021 0.22537803129668879 0 0.29678440371011888 0.24307370556277841 0 0.28186716647450188 0.21711976847548789 0 0.28661367045359021 0.22537803129668879 0 0.29606335392690908 0.21745445330791899 0 0.28186716647450188 0.21711976847548789 0 0.28661367045359021 0.22537803129668879 0 0.29606335392690908 0.21745445330791899 0 0.28661367045359021 0.22537803129668879 0 0.2977798961331779 0.22970127856942221 0 0.29606335392690908 0.21745445330791899 0 0.28661367045359021 0.22537803129668879 0 0.29606335392690908 0.21745445330791899 0 0.3106697471537595 0.2326849793064687 0 0.31992047031335757 0.2180169011501159 0 0.29606335392690908 0.21745445330791899 0 0.3106697471537595 0.2326849793064687 0 0.2977798961331779 0.22970127856942221 0 0.3106697471537595 0.2326849793064687 0 0.31143487286052479 0.24960829041979429 0 0.29678440371011888 0.24307370556277841 0 0.3106697471537595 0.2326849793064687 0 0.2977798961331779 0.22970127856942221 0 0.29678440371011888 0.24307370556277841 0 0.28661367045359021 0.22537803129668879 0 0.29678440371011888 0.24307370556277841 0 0.28366625193564882 0.2402671457169773 0 0.2809675523218696 0.25355925146020758 0 0.29678440371011888 0.24307370556277841 0 0.28366625193564882 0.2402671457169773 0 0.34530148617732931 0.25293808089256031 0 0.33759354501032202 0.24640330669272961 0 0.34820403053486471 0.24310963949837591 0 0.33759354501032202 0.24640330669272961 0 0.34018213386094243 0.23716404178166489 0 0.34820403053486471 0.24310963949837591 0 0.33759354501032202 0.24640330669272961 0 0.34018213386094243 0.23716404178166489 0 0.33167530033199633 0.2389069116408595 0 0.34018213386094243 0.23716404178166489 0 0.33167530033199633 0.2389069116408595 0 0.33448615546274452 0.23035953663199721 0 0.33759354501032202 0.24640330669272961 0 0.33167530033199633 0.2389069116408595 0 0.32695742650894299 0.24863159543286659 0 0.33167530033199633 0.2389069116408595 0 0.32695742650894299 0.24863159543286659 0 0.32057435747193519 0.23919013262067579 0 0.3106697471537595 0.2326849793064687 0 0.31143487286052479 0.24960829041979429 0 0.32057435747193519 0.23919013262067579 0 0.31143487286052479 0.24960829041979429 0 0.32695742650894299 0.24863159543286659 0 0.32057435747193519 0.23919013262067579 0 0.33167530033199633 0.2389069116408595 0 0.32057435747193519 0.23919013262067579 0 0.32474091954822359 0.23014248628720479 0 0.3106697471537595 0.2326849793064687 0 0.32474091954822359 0.23014248628720479 0 0.31992047031335757 0.2180169011501159 0 0.3106697471537595 0.2326849793064687 0 0.32057435747193519 0.23919013262067579 0 0.32474091954822359 0.23014248628720479 0 0.32474091954822359 0.23014248628720479 0 0.33141538577551288 0.22283826349346211 0 0.31992047031335757 0.2180169011501159 0 0.33141538577551288 0.22283826349346211 0 0.33151778517348701 0.21176791663754771 0 0.34441703779704691 0.22274597995679449 0 0.32474091954822359 0.23014248628720479 0 0.33141538577551288 0.22283826349346211 0 0.33448615546274452 0.23035953663199721 0 0.33167530033199633 0.2389069116408595 0 0.32474091954822359 0.23014248628720479 0 0.33448615546274452 0.23035953663199721 0 0.34018213386094243 0.23716404178166489 0 0.33448615546274452 0.23035953663199721 0 0.34441703779704691 0.22274597995679449 0 0.33141538577551288 0.22283826349346211 0 0.33448615546274452 0.23035953663199721 0 0.34441703779704691 0.22274597995679449 0 0.3309263417926977 0.2033263961456282 0 0.35135781127422488 0.20080769936360021 0 0.34441703779704691 0.22274597995679449 0 0.3309263417926977 0.2033263961456282 0 0.34441703779704691 0.22274597995679449 0 0.3309263417926977 0.2033263961456282 0 0.33151778517348701 0.21176791663754771 0 0.34441703779704691 0.22274597995679449 0 0.3309263417926977 0.2033263961456282 0 0.33151778517348701 0.21176791663754771 0 0.3309263417926977 0.2033263961456282 0 0.33151778517348701 0.21176791663754771 0 0.32285825917677291 0.206929550164657 0 0.33141538577551288 0.22283826349346211 0 0.33151778517348701 0.21176791663754771 0 0.31992047031335757 0.2180169011501159 0 0.33151778517348701 0.21176791663754771 0 0.31992047031335757 0.2180169011501159 0 0.32285825917677291 0.206929550164657 0 0.30933001751041089 0.20633033006597101 0 0.31992047031335757 0.2180169011501159 0 0.32285825917677291 0.206929550164657 0 0.3309263417926977 0.2033263961456282 0 0.32285825917677291 0.206929550164657 0 0.32259668109391182 0.19520620682402179 0 0.3309263417926977 0.2033263961456282 0 0.32259668109391182 0.19520620682402179 0 0.31963450382659953 0.18707202396986919 0 0.3309263417926977 0.2033263961456282 0 0.31963450382659953 0.18707202396986919 0 0.3309263417926977 0.2033263961456282 0 0.31963450382659953 0.18707202396986919 0 0.32906696205640312 0.17678794351247401 0 0.30933001751041089 0.20633033006597101 0 0.32259668109391182 0.19520620682402179 0 0.30933001751041089 0.20633033006597101 0 0.32285825917677291 0.206929550164657 0 0.32259668109391182 0.19520620682402179 0 0.30933001751041089 0.20633033006597101 0 0.31282050558257618 0.19418869276701331 0 0.32259668109391182 0.19520620682402179 0 0.31031624883147202 0.18498194141900051 0 0.31282050558257618 0.19418869276701331 0 0.31963450382659953 0.18707202396986919 0 0.31282050558257618 0.19418869276701331 0 0.32259668109391182 0.19520620682402179 0 0.31963450382659953 0.18707202396986919 0 0.3309263417926977 0.2033263961456282 0 0.32906696205640312 0.17678794351247401 0 0.34285102811842788 0.18682374115256781 0 0.3309263417926977 0.2033263961456282 0 0.35135781127422488 0.20080769936360021 0 0.34285102811842788 0.18682374115256781 0 0.3309263417926977 0.2033263961456282 0 0.32906696205640312 0.17678794351247401 0 0.35135781127422488 0.20080769936360021 0 0.34285102811842788 0.18682374115256781 0 0.35519017664844382 0.18455734932486459 0 0.35135781127422488 0.20080769936360021 0 0.36906508912866598 0.19519553590022939 0 0.35519017664844382 0.18455734932486459 0 0.35135781127422488 0.20080769936360021 0 0.36906508912866598 0.19519553590022939 0 0.36364076150279362 0.20971651616359899 0 0.36906508912866598 0.19519553590022939 0 0.35519017664844382 0.18455734932486459 0 0.36906508912866598 0.19519553590022939 0 0.36364076150279362 0.20971651616359899 0 0.38294000160888853 0.2058337224755937 0 0.36364076150279362 0.20971651616359899 0 0.37042386770514157 0.22399964312177739 0 0.38294000160888853 0.2058337224755937 0 0.35135781127422488 0.20080769936360021 0 0.36364076150279362 0.20971651616359899 0 0.34441703779704691 0.22274597995679449 0 0.34441703779704691 0.22274597995679449 0 0.37042386770514157 0.22399964312177739 0 0.35790773380139518 0.2421655637679615 0 0.34018213386094243 0.23716404178166489 0 0.34441703779704691 0.22274597995679449 0 0.34820403053486471 0.24310963949837591 0 0.34441703779704691 0.22274597995679449 0 0.35790773380139518 0.2421655637679615 0 0.36364076150279362 0.20971651616359899 0 0.34441703779704691 0.22274597995679449 0 0.37042386770514157 0.22399964312177739 0 0.37042386770514157 0.22399964312177739 0 0.35790773380139518 0.2421655637679615 0 0.3723595181343462 0.26296861477319489 0 0.35635595121308561 0.2444178214999522 0 0.35790773380139518 0.2421655637679615 0 0.37042386770514157 0.22399964312177739 0 0.35790773380139518 0.2421655637679615 0 0.38080769010326959 0.2437726261408891 0 0.3723595181343462 0.26296861477319489 0 0.35790773380139518 0.2421655637679615 0 0.38080769010326959 0.2437726261408891 0 0.35635595121308561 0.2444178214999522 0 0.35790773380139518 0.2421655637679615 0 0.34820403053486471 0.24310963949837591 0 0.35187027320809761 0.24999291344836919 0 0.35635595121308561 0.2444178214999522 0 0.34820403053486471 0.24310963949837591 0 0.34441703779704691 0.22274597995679449 0 0.35790773380139518 0.2421655637679615 0 0.34820403053486471 0.24310963949837591 0 0.35635595121308561 0.2444178214999522 0 0.35790773380139518 0.2421655637679615 0 0.34530148617732931 0.25293808089256031 0 0.35187027320809761 0.24999291344836919 0 0.34820403053486471 0.24310963949837591 0 0.32731906920785531 0.15184071478705161 0 0.34683990239609608 0.15616570305355679 0 0.33849055400349592 0.1476343530340479 0 0.32731906920785531 0.15184071478705161 0 0.34683990239609608 0.15616570305355679 0 0.33849055400349592 0.1476343530340479 0 0.3268416665814311 0.14502686888943109 0 0.32731906920785531 0.15184071478705161 0 0.33849055400349592 0.1476343530340479 0 0.33956856520284162 0.13571534143018291 0 0.3268416665814311 0.14502686888943109 0 0.33849055400349592 0.1476343530340479 0 0.33956856520284162 0.13571534143018291 0 0.35238931044952121 0.14290322057879781 0 0.33956856520284162 0.13571534143018291 0 0.32563230088826828 0.1277659008700765 0 0.3268416665814311 0.14502686888943109 0 0.33958151361135841 0.12447348269135861 0 0.33956856520284162 0.13571534143018291 0 0.32563230088826828 0.1277659008700765 0 0.33956856520284162 0.13571534143018291 0 0.3268416665814311 0.14502686888943109 0 0.32563230088826828 0.1277659008700765 0 0.31476849299624959 0.1371816498252218 0 0.3268416665814311 0.14502686888943109 0 0.30864095658452378 0.120153811778764 0 0.32563230088826828 0.1277659008700765 0 0.31476849299624959 0.1371816498252218 0 0.32563230088826828 0.1277659008700765 0 0.3268416665814311 0.14502686888943109 0 0.31476849299624959 0.1371816498252218 0 0.3268416665814311 0.14502686888943109 0 0.3198042345943185 0.1501757463292521 0 0.3268416665814311 0.14502686888943109 0 0.3198042345943185 0.1501757463292521 0 0.3268416665814311 0.14502686888943109 0 0.32731906920785531 0.15184071478705161 0 0.32731906920785531 0.15184071478705161 0 0.3198042345943185 0.1501757463292521 0 0.32049407347759012 0.1648537448131796 0 0.3268416665814311 0.14502686888943109 0 0.32731906920785531 0.15184071478705161 0 0.3198042345943185 0.1501757463292521 0 0.32731906920785531 0.15184071478705161 0 0.3198042345943185 0.1501757463292521 0 0.32731906920785531 0.15184071478705161 0 0.32049407347759012 0.1648537448131796 0 0.32906696205640312 0.17678794351247401 0 0.31031624883147202 0.18498194141900051 0 0.32906696205640312 0.17678794351247401 0 0.31031624883147202 0.18498194141900051 0 0.31963450382659953 0.18707202396986919 0 0.32906696205640312 0.17678794351247401 0 0.31031624883147202 0.18498194141900051 0 0.32049407347759012 0.1648537448131796 0 0.32906696205640312 0.17678794351247401 0 0.32906696205640312 0.17678794351247401 0 0.34771384882036999 0.16863931741627 0 0.32906696205640312 0.17678794351247401 0 0.34285102811842788 0.18682374115256781 0 0.34771384882036999 0.16863931741627 0 0.32731906920785531 0.15184071478705161 0 0.32906696205640312 0.17678794351247401 0 0.34771384882036999 0.16863931741627 0 0.32731906920785531 0.15184071478705161 0 0.34771384882036999 0.16863931741627 0 0.34683990239609608 0.15616570305355679 0 0.32731906920785531 0.15184071478705161 0 0.32906696205640312 0.17678794351247401 0 0.34771384882036999 0.16863931741627 0 0.36021248852514798 0.1728071816485067 0 0.36636073558433641 0.16049069132006491 0 0.34771384882036999 0.16863931741627 0 0.36636073558433641 0.16049069132006491 0 0.34771384882036999 0.16863931741627 0 0.36636073558433641 0.16049069132006491 0 0.34683990239609608 0.15616570305355679 0 0.36636073558433641 0.16049069132006491 0 0.34683990239609608 0.15616570305355679 0 0.34285102811842788 0.18682374115256781 0 0.34771384882036999 0.16863931741627 0 0.35519017664844382 0.18455734932486459 0 0.34771384882036999 0.16863931741627 0 0.35519017664844382 0.18455734932486459 0 0.36021248852514798 0.1728071816485067 0 0.36906508912866598 0.19519553590022939 0 0.3715851930474422 0.17754136853282779 0 0.38186679809644919 0.1848917967260815 0 0.36906508912866598 0.19519553590022939 0 0.35519017664844382 0.18455734932486459 0 0.3715851930474422 0.17754136853282779 0 0.35519017664844382 0.18455734932486459 0 0.36021248852514798 0.1728071816485067 0 0.3715851930474422 0.17754136853282779 0 0.3715851930474422 0.17754136853282779 0 0.36636073558433641 0.16049069132006491 0 0.38576186975090571 0.16478915936280819 0 0.36021248852514798 0.1728071816485067 0 0.3715851930474422 0.17754136853282779 0 0.36636073558433641 0.16049069132006491 0 0.36636073558433641 0.16049069132006491 0 0.37447895265878273 0.15694305806927791 0 0.36636073558433641 0.16049069132006491 0 0.37447895265878273 0.15694305806927791 0 0.36902866678757912 0.14559648666687169 0 0.36902866678757912 0.14559648666687169 0 0.35865465380438322 0.15128902540482289 0 0.35238931044952121 0.14290322057879781 0 0.36636073558433641 0.16049069132006491 0 0.36902866678757912 0.14559648666687169 0 0.35865465380438322 0.15128902540482289 0 0.36636073558433641 0.16049069132006491 0 0.35865465380438322 0.15128902540482289 0 0.34683990239609608 0.15616570305355679 0 0.35865465380438322 0.15128902540482289 0 0.35238931044952121 0.14290322057879781 0 0.34683990239609608 0.15616570305355679 0 0.33849055400349592 0.1476343530340479 0 0.35238931044952121 0.14290322057879781 0 0.34683990239609608 0.15616570305355679 0 0.33956856520284162 0.13571534143018291 0 0.35238931044952121 0.14290322057879781 0 0.35229546382425247 0.12640381397093531 0 0.36902866678757912 0.14559648666687169 0 0.35238931044952121 0.14290322057879781 0 0.35229546382425247 0.12640381397093531 0 0.33956856520284162 0.13571534143018291 0 0.35229546382425247 0.12640381397093531 0 0.33958151361135841 0.12447348269135861 0 0.33956856520284162 0.13571534143018291 0 0.35229546382425247 0.12640381397093531 0 0.35796814137240851 0.1222534475440091 0 0.37112695675796947 0.12434217486795331 0 0.36902866678757912 0.14559648666687169 0 0.35796814137240851 0.1222534475440091 0 0.36902866678757912 0.14559648666687169 0 0.35229546382425247 0.12640381397093531 0 0.36902866678757912 0.14559648666687169 0 0.35229546382425247 0.12640381397093531 0 0.36902866678757912 0.14559648666687169 0 0.39705436454703807 0.14556492280453251 0 0.38519450842317809 0.12364480126092731 0 0.37112695675796947 0.12434217486795331 0 0.36902866678757912 0.14559648666687169 0 0.38519450842317809 0.12364480126092731 0 0.39705436454703807 0.14556492280453251 0 0.41003123568951511 0.12410802708973789 0 0.38519450842317809 0.12364480126092731 0 0.37447895265878273 0.15694305806927791 0 0.36902866678757912 0.14559648666687169 0 0.38576186975090571 0.16478915936280819 0 0.36902866678757912 0.14559648666687169 0 0.39705436454703807 0.14556492280453251 0 0.38576186975090571 0.16478915936280819 0 0.36902866678757912 0.14559648666687169 0 0.38576186975090571 0.16478915936280819 0 0.36636073558433641 0.16049069132006491 0 0.37447895265878273 0.15694305806927791 0 0.38576186975090571 0.16478915936280819 0 0.36636073558433641 0.16049069132006491 0 0.38576186975090571 0.16478915936280819 0 0.38576186975090571 0.16478915936280819 0 0.38186679809644919 0.1848917967260815 0 0.39998183694634321 0.18109919735894839 0 0.3715851930474422 0.17754136853282779 0 0.38576186975090571 0.16478915936280819 0 0.38186679809644919 0.1848917967260815 0 0.38576186975090571 0.16478915936280819 0 0.39998183694634321 0.18109919735894839 0 0.39998183694634321 0.18109919735894839 0 0.40784784294490523 0.1696824738026845 0 0.38576186975090571 0.16478915936280819 0 0.40784784294490523 0.1696824738026845 0 0.39705436454703807 0.14556492280453251 0 0.38576186975090571 0.16478915936280819 0 0.40784784294490523 0.1696824738026845 0 0.38576186975090571 0.16478915936280819 0 0.39998183694634321 0.18109919735894839 0 0.40784784294490523 0.1696824738026845 0 0.40784784294490523 0.1696824738026845 0 0.42446206368614647 0.1455685886441663 0 0.40784784294490523 0.1696824738026845 0 0.41573247345886771 0.18201552028752371 0 0.43482303174985187 0.17565903094772431 0 0.39998183694634321 0.18109919735894839 0 0.40784784294490523 0.1696824738026845 0 0.41573247345886771 0.18201552028752371 0 0.39998183694634321 0.18109919735894839 0 0.41573247345886771 0.18201552028752371 0 0.41159446455843968 0.19441866532854241 0 0.40784784294490523 0.1696824738026845 0 0.43482303174985187 0.17565903094772431 0 0.41573247345886771 0.18201552028752371 0 0.43482303174985187 0.17565903094772431 0 0.42450003998360342 0.1908946265584982 0 0.43482303174985187 0.17565903094772431 0 0.43714313798032173 0.19464178293056381 0 0.42450003998360342 0.1908946265584982 0 0.43482303174985187 0.17565903094772431 0 0.42446206368614647 0.1455685886441663 0 0.44524120822798408 0.15539844390373331 0 0.40784784294490523 0.1696824738026845 0 0.43482303174985187 0.17565903094772431 0 0.42446206368614647 0.1455685886441663 0 0.42446206368614647 0.1455685886441663 0 0.44107628442738861 0.1214547034856487 0 0.42446206368614647 0.1455685886441663 0 0.44339002998742177 0.1390877351980393 0 0.44107628442738861 0.1214547034856487 0 0.42446206368614647 0.1455685886441663 0 0.44107628442738861 0.1214547034856487 0 0.42534272888185931 0.1203122080569534 0 0.42446206368614647 0.1455685886441663 0 0.42534272888185931 0.1203122080569534 0 0.41003123568951511 0.12410802708973789 0 0.39705436454703807 0.14556492280453251 0 0.42446206368614647 0.1455685886441663 0 0.41003123568951511 0.12410802708973789 0 0.39705436454703807 0.14556492280453251 0 0.40784784294490523 0.1696824738026845 0 0.42446206368614647 0.1455685886441663 0 0.39954909065444377 0.25342682901835939 0 0.39572054680414759 0.23732060580527359 0 0.38080769010326959 0.2437726261408891 0 0.39954909065444377 0.25342682901835939 0 0.39572054680414759 0.23732060580527359 0 0.41120590355403042 0.24383871844810079 0 0.39572054680414759 0.23732060580527359 0 0.38080769010326959 0.2437726261408891 0 0.38674713836886188 0.22655750731240801 0 0.37042386770514157 0.22399964312177739 0 0.38674713836886188 0.22655750731240801 0 0.38294000160888853 0.2058337224755937 0 0.37042386770514157 0.22399964312177739 0 0.38080769010326959 0.2437726261408891 0 0.38674713836886188 0.22655750731240801 0 0.39572054680414759 0.23732060580527359 0 0.40384358562286232 0.22186093901850579 0 0.41120590355403042 0.24383871844810079 0 0.39572054680414759 0.23732060580527359 0 0.38674713836886188 0.22655750731240801 0 0.40384358562286232 0.22186093901850579 0 0.40384358562286232 0.22186093901850579 0 0.38294000160888853 0.2058337224755937 0 0.38674713836886188 0.22655750731240801 0 0.40384358562286232 0.22186093901850579 0 0.38294000160888853 0.2058337224755937 0 0.40384358562286232 0.22186093901850579 0 0.40127909748482787 0.20450318741873 0 0.38294000160888853 0.2058337224755937 0 0.37042386770514157 0.22399964312177739 0 0.38294000160888853 0.2058337224755937 0 0.36906508912866598 0.19519553590022939 0 0.38186679809644919 0.1848917967260815 0 0.38294000160888853 0.2058337224755937 0 0.38186679809644919 0.1848917967260815 0 0.39998183694634321 0.18109919735894839 0 0.38294000160888853 0.2058337224755937 0 0.36906508912866598 0.19519553590022939 0 0.38294000160888853 0.2058337224755937 0 0.39998183694634321 0.18109919735894839 0 0.40127909748482787 0.20450318741873 0 0.38294000160888853 0.2058337224755937 0 0.39998183694634321 0.18109919735894839 0 0.38294000160888853 0.2058337224755937 0 0.39998183694634321 0.18109919735894839 0 0.40127909748482787 0.20450318741873 0 0.41159446455843968 0.19441866532854241 0 0.39998183694634321 0.18109919735894839 0 0.41159446455843968 0.19441866532854241 0 0.41159446455843968 0.19441866532854241 0 0.42450003998360342 0.1908946265584982 0 0.42320709217053581 0.20773813329813659 0 0.40127909748482787 0.20450318741873 0 0.41159446455843968 0.19441866532854241 0 0.42320709217053581 0.20773813329813659 0 0.41159446455843968 0.19441866532854241 0 0.42320709217053581 0.20773813329813659 0 0.41573247345886771 0.18201552028752371 0 0.41159446455843968 0.19441866532854241 0 0.42450003998360342 0.1908946265584982 0 0.43714313798032173 0.19464178293056381 0 0.42450003998360342 0.1908946265584982 0 0.42320709217053581 0.20773813329813659 0 0.43714313798032173 0.19464178293056381 0 0.42320709217053581 0.20773813329813659 0 0.44538540806722449 0.21243745489325161 0 0.42320709217053581 0.20773813329813659 0 0.43226892281357793 0.22238959575826481 0 0.44538540806722449 0.21243745489325161 0 0.40384358562286232 0.22186093901850579 0 0.40127909748482787 0.20450318741873 0 0.42320709217053581 0.20773813329813659 0 0.40384358562286232 0.22186093901850579 0 0.42320709217053581 0.20773813329813659 0 0.43226892281357793 0.22238959575826481 0 0.40384358562286232 0.22186093901850579 0 0.43226892281357793 0.22238959575826481 0 0.42474716963683629 0.23788815556141751 0 0.40384358562286232 0.22186093901850579 0 0.42474716963683629 0.23788815556141751 0 0.43226892281357793 0.22238959575826481 0 0.42474716963683629 0.23788815556141751 0 0.44126089873671942 0.23460724253441331 0 0.44565075365080892 0.25391537210433102 0 0.42474716963683629 0.23788815556141751 0 0.428622552693947 0.25424575186154869 0 0.44565075365080892 0.25391537210433102 0 0.42474716963683629 0.23788815556141751 0 0.44565075365080892 0.25391537210433102 0 0.42474716963683629 0.23788815556141751 0 0.44126089873671942 0.23460724253441331 0 0.428622552693947 0.25424575186154869 0 0.42474716963683629 0.23788815556141751 0 0.41120590355403042 0.24383871844810079 0 0.40384358562286232 0.22186093901850579 0 0.42474716963683629 0.23788815556141751 0 0.41120590355403042 0.24383871844810079 0 0.44565075365080892 0.25391537210433102 0 0.46736471789704642 0.24683503431080081 0 0.4571149033065145 0.23162561766448739 0 0.46736471789704642 0.24683503431080081 0 0.4571149033065145 0.23162561766448739 0 0.48012837984399859 0.2306213868487518 0 0.44565075365080892 0.25391537210433102 0 0.44126089873671942 0.23460724253441331 0 0.4571149033065145 0.23162561766448739 0 0.44565075365080892 0.25391537210433102 0 0.4571149033065145 0.23162561766448739 0 0.43226892281357793 0.22238959575826481 0 0.44126089873671942 0.23460724253441331 0 0.44538540806722449 0.21243745489325161 0 0.44126089873671942 0.23460724253441331 0 0.4571149033065145 0.23162561766448739 0 0.44538540806722449 0.21243745489325161 0 0.4571149033065145 0.23162561766448739 0 0.46857905296222052 0.2093358632246439 0 0.48012837984399859 0.2306213868487518 0 0.4571149033065145 0.23162561766448739 0 0.46857905296222052 0.2093358632246439 0 0.4571149033065145 0.23162561766448739 0 0.46857905296222052 0.2093358632246439 0 0.44538540806722449 0.21243745489325161 0 0.46857905296222052 0.2093358632246439 0 0.44538540806722449 0.21243745489325161 0 0.4552247357129342 0.1885763307907613 0 0.43714313798032173 0.19464178293056381 0 0.44538540806722449 0.21243745489325161 0 0.4552247357129342 0.1885763307907613 0 0.46857905296222052 0.2093358632246439 0 0.4552247357129342 0.1885763307907613 0 0.48004320261792649 0.18704610878480041 0 0.46857905296222052 0.2093358632246439 0 0.48004320261792649 0.18704610878480041 0 0.46857905296222052 0.2093358632246439 0 0.48575012708482912 0.20836596053715559 0 0.48004320261792649 0.18704610878480041 0 0.5 0.19366610795640279 0 0.48575012708482912 0.20836596053715559 0 0.48004320261792649 0.18704610878480041 0 0.5 0.19366610795640279 0 0.48575012708482912 0.20836596053715559 0 0.5 0.22116033587117881 0 0.46857905296222052 0.2093358632246439 0 0.48575012708482912 0.20836596053715559 0 0.48012837984399859 0.2306213868487518 0 0.48575012708482912 0.20836596053715559 0 0.48012837984399859 0.2306213868487518 0 0.5 0.22116033587117881 0 0.48012837984399859 0.2306213868487518 0 0.5 0.22116033587117881 0 0.5 0.24865456378595491 0 0.4810033667923308 0.25469290306139392 0 0.48012837984399859 0.2306213868487518 0 0.5 0.24865456378595491 0 0.4810033667923308 0.25469290306139392 0 0.46736471789704642 0.24683503431080081 0 0.48012837984399859 0.2306213868487518 0 0.45503619351430241 0.14340732452138341 0 0.46570255531472921 0.15470418765298841 0 0.44524120822798408 0.15539844390373331 0 0.45503619351430241 0.14340732452138341 0 0.46570255531472921 0.15470418765298841 0 0.46655844665856011 0.14271154504657119 0 0.45503619351430241 0.14340732452138341 0 0.46655844665856011 0.14271154504657119 0 0.46245632360892408 0.13268068147498871 0 0.46655844665856011 0.14271154504657119 0 0.46245632360892408 0.13268068147498871 0 0.4728030668252487 0.1344670405100741 0 0.46245632360892408 0.13268068147498871 0 0.46995503295888308 0.12576754028907619 0 0.4728030668252487 0.1344670405100741 0 0.46245632360892408 0.13268068147498871 0 0.46995503295888308 0.12576754028907619 0 0.45925080161526288 0.1201210230475626 0 0.46245632360892408 0.13268068147498871 0 0.45113440008128758 0.1296096154352647 0 0.45925080161526288 0.1201210230475626 0 0.45503619351430241 0.14340732452138341 0 0.46245632360892408 0.13268068147498871 0 0.45113440008128758 0.1296096154352647 0 0.45113440008128758 0.1296096154352647 0 0.44339002998742177 0.1390877351980393 0 0.44107628442738861 0.1214547034856487 0 0.45503619351430241 0.14340732452138341 0 0.45113440008128758 0.1296096154352647 0 0.44339002998742177 0.1390877351980393 0 0.42446206368614647 0.1455685886441663 0 0.44339002998742177 0.1390877351980393 0 0.44524120822798408 0.15539844390373331 0 0.45503619351430241 0.14340732452138341 0 0.44339002998742177 0.1390877351980393 0 0.44524120822798408 0.15539844390373331 0 0.43482303174985187 0.17565903094772431 0 0.44524120822798408 0.15539844390373331 0 0.45212466418918518 0.17079852864263539 0 0.43482303174985187 0.17565903094772431 0 0.43714313798032173 0.19464178293056381 0 0.4552247357129342 0.1885763307907613 0 0.43482303174985187 0.17565903094772431 0 0.4552247357129342 0.1885763307907613 0 0.45212466418918518 0.17079852864263539 0 0.4552247357129342 0.1885763307907613 0 0.45212466418918518 0.17079852864263539 0 0.46871801093778692 0.170182748287043 0 0.4552247357129342 0.1885763307907613 0 0.46871801093778692 0.170182748287043 0 0.48004320261792649 0.18704610878480041 0 0.46570255531472921 0.15470418765298841 0 0.44524120822798408 0.15539844390373331 0 0.45212466418918518 0.17079852864263539 0 0.46570255531472921 0.15470418765298841 0 0.45212466418918518 0.17079852864263539 0 0.46871801093778692 0.170182748287043 0 0.46570255531472921 0.15470418765298841 0 0.46871801093778692 0.170182748287043 0 0.47836372364167129 0.15501156564161411 0 0.46871801093778692 0.170182748287043 0 0.47957974497489941 0.1661312717217216 0 0.47836372364167129 0.15501156564161411 0 0.47957974497489941 0.1661312717217216 0 0.48470837142253409 0.158590519220564 0 0.47836372364167129 0.15501156564161411 0 0.46871801093778692 0.170182748287043 0 0.47957974497489941 0.1661312717217216 0 0.48004320261792649 0.18704610878480041 0 0.47957974497489941 0.1661312717217216 0 0.48004320261792649 0.18704610878480041 0 0.49150735227363251 0.16475635434495689 0 0.48004320261792649 0.18704610878480041 0 0.49150735227363251 0.16475635434495689 0 0.5 0.19366610795640279 0 0.48004320261792649 0.18704610878480041 0 0.5 0.16617188004162681 0 0.48004320261792649 0.18704610878480041 0 0.49150735227363251 0.16475635434495689 0 0.5 0.16617188004162681 0 0.47957974497489941 0.1661312717217216 0 0.48470837142253409 0.158590519220564 0 0.49150735227363251 0.16475635434495689 0 0.48470837142253409 0.158590519220564 0 0.49150735227363251 0.16475635434495689 0 0.48797377514221218 0.1513709387270912 0 0.49150735227363251 0.16475635434495689 0 0.5 0.16617188004162681 0 0.48797377514221218 0.1513709387270912 0 0.5 0.16617188004162681 0 0.48797377514221218 0.1513709387270912 0 0.5 0.13867765212685071 0 0.48797377514221218 0.1513709387270912 0 0.48184835766692219 0.13897106254195851 0 0.5 0.13867765212685071 0 0.48470837142253409 0.158590519220564 0 0.48797377514221218 0.1513709387270912 0 0.47836372364167129 0.15501156564161411 0 0.48797377514221218 0.1513709387270912 0 0.47836372364167129 0.15501156564161411 0 0.47554165420822392 0.14620605668671621 0 0.48797377514221218 0.1513709387270912 0 0.47554165420822392 0.14620605668671621 0 0.48184835766692219 0.13897106254195851 0 0.46655844665856011 0.14271154504657119 0 0.47554165420822392 0.14620605668671621 0 0.4728030668252487 0.1344670405100741 0 0.46570255531472921 0.15470418765298841 0 0.46655844665856011 0.14271154504657119 0 0.47554165420822392 0.14620605668671621 0 0.46570255531472921 0.15470418765298841 0 0.47836372364167129 0.15501156564161411 0 0.47554165420822392 0.14620605668671621 0 0.46995503295888308 0.12576754028907619 0 0.4728030668252487 0.1344670405100741 0 0.48106720408919829 0.12501009742590649 0 0.4728030668252487 0.1344670405100741 0 0.48184835766692219 0.13897106254195851 0 0.48106720408919829 0.12501009742590649 0 0.47554165420822392 0.14620605668671621 0 0.4728030668252487 0.1344670405100741 0 0.48184835766692219 0.13897106254195851 0 0.48184835766692219 0.13897106254195851 0 0.48106720408919829 0.12501009742590649 0 0.5 0.13867765212685071 0 0.48106720408919829 0.12501009742590649 0 0.5 0.13867765212685071 0 0.49999999999999972 0.1111834242120746 0 0.49999999999999972 0.1111834242120746 0 0.47528067771786719 0.1097199055880909 0 0.48106720408919829 0.12501009742590649 0 0.49999999999999972 0.1111834242120746 0 0.47528067771786719 0.1097199055880909 0 0.49999999999999972 0.1111834242120746 0 0.47528067771786719 0.1097199055880909 0 0.48262271889019348 0.092853570883262293 0 0.49999999999999972 0.1111834242120746 0 0.5 0.08341698994642377 0 0.48262271889019348 0.092853570883262293 0 0.47127955067272143 0.097003942330222484 0 0.47528067771786719 0.1097199055880909 0 0.48262271889019348 0.092853570883262293 0 0.47127955067272143 0.097003942330222484 0 0.47528067771786719 0.1097199055880909 0 0.46506048685685242 0.1043674486590857 0 0.48106720408919829 0.12501009742590649 0 0.47528067771786719 0.1097199055880909 0 0.46758329345546751 0.1162840567132204 0 0.46995503295888308 0.12576754028907619 0 0.48106720408919829 0.12501009742590649 0 0.46758329345546751 0.1162840567132204 0 0.5 0.08341698994642377 0 0.48073365029785242 0.07498177323259668 0 0.5 0.055650555680773039 0 0.5 0.08341698994642377 0 0.48262271889019348 0.092853570883262293 0 0.48073365029785242 0.07498177323259668 0 0.47127955067272143 0.097003942330222484 0 0.48262271889019348 0.092853570883262293 0 0.46617067078924629 0.081384425363844784 0 0.48262271889019348 0.092853570883262293 0 0.48073365029785242 0.07498177323259668 0 0.46617067078924629 0.081384425363844784 0 0.48073365029785242 0.07498177323259668 0 0.46585267489190602 0.064601599032768603 0 0.47735020785009702 0.055966814128813727 0 0.48073365029785242 0.07498177323259668 0 0.46585267489190602 0.064601599032768603 0 0.46617067078924629 0.081384425363844784 0 0.46585267489190602 0.064601599032768603 0 0.46617067078924629 0.081384425363844784 0 0.44952090400862038 0.067912075233027891 0 0.45401453005921888 0.084338696059222451 0 0.46617067078924629 0.081384425363844784 0 0.44952090400862038 0.067912075233027891 0 0.47127955067272143 0.097003942330222484 0 0.46617067078924629 0.081384425363844784 0 0.46171495422897879 0.094654068142263528 0 0.45401453005921888 0.084338696059222451 0 0.46171495422897879 0.094654068142263528 0 0.45089122561695671 0.094337354166696599 0 0.45401453005921888 0.084338696059222451 0 0.46617067078924629 0.081384425363844784 0 0.46171495422897879 0.094654068142263528 0 0.45401453005921888 0.084338696059222451 0 0.441774895652292 0.083405557390279453 0 0.44952090400862038 0.067912075233027891 0 0.45401453005921888 0.084338696059222451 0 0.441774895652292 0.083405557390279453 0 0.45089122561695671 0.094337354166696599 0 0.441774895652292 0.083405557390279453 0 0.45089122561695671 0.094337354166696599 0 0.43850836049383818 0.098699636370353908 0 0.441774895652292 0.083405557390279453 0 0.44952090400862038 0.067912075233027891 0 0.43215194019105208 0.06643613909194028 0 0.45510432597787959 0.113680591853158 0 0.45925080161526288 0.1201210230475626 0 0.46108630171167458 0.1098078055446009 0 0.45510432597787959 0.113680591853158 0 0.45925080161526288 0.1201210230475626 0 0.44917223443375459 0.1172655021782371 0 0.45510432597787959 0.113680591853158 0 0.46108630171167458 0.1098078055446009 0 0.45056135543573461 0.10825638696410721 0 0.45113440008128758 0.1296096154352647 0 0.45925080161526288 0.1201210230475626 0 0.44917223443375459 0.1172655021782371 0 0.46995503295888308 0.12576754028907619 0 0.45925080161526288 0.1201210230475626 0 0.46758329345546751 0.1162840567132204 0 0.47528067771786719 0.1097199055880909 0 0.46108630171167458 0.1098078055446009 0 0.46758329345546751 0.1162840567132204 0 0.45925080161526288 0.1201210230475626 0 0.46108630171167458 0.1098078055446009 0 0.46758329345546751 0.1162840567132204 0 0.47528067771786719 0.1097199055880909 0 0.46506048685685242 0.1043674486590857 0 0.45056135543573461 0.10825638696410721 0 0.47528067771786719 0.1097199055880909 0 0.45056135543573461 0.10825638696410721 0 0.47528067771786719 0.1097199055880909 0 0.46108630171167458 0.1098078055446009 0 0.45056135543573461 0.10825638696410721 0 0.46506048685685242 0.1043674486590857 0 0.46171495422897879 0.094654068142263528 0 0.45687901701991251 0.1004018269663596 0 0.47127955067272143 0.097003942330222484 0 0.46506048685685242 0.1043674486590857 0 0.46171495422897879 0.094654068142263528 0 0.46171495422897879 0.094654068142263528 0 0.45687901701991251 0.1004018269663596 0 0.45089122561695671 0.094337354166696599 0 0.46506048685685242 0.1043674486590857 0 0.45687901701991251 0.1004018269663596 0 0.45604818822397147 0.1038844448318086 0 0.46506048685685242 0.1043674486590857 0 0.45604818822397147 0.1038844448318086 0 0.45056135543573461 0.10825638696410721 0 0.46108630171167458 0.1098078055446009 0 0.45056135543573461 0.10825638696410721 0 0.45687901701991251 0.1004018269663596 0 0.45604818822397147 0.1038844448318086 0 0.45017956030723072 0.1014356669455968 0 0.45056135543573461 0.10825638696410721 0 0.45017956030723072 0.1014356669455968 0 0.43850836049383818 0.098699636370353908 0 0.44887757028134623 0.1080081903932564 0 0.43850836049383818 0.098699636370353908 0 0.42533030516992493 0.10453723066995781 0 0.45056135543573461 0.10825638696410721 0 0.44887757028134623 0.1080081903932564 0 0.43850836049383818 0.098699636370353908 0 0.45056135543573461 0.10825638696410721 0 0.44887757028134623 0.1080081903932564 0 0.45604818822397147 0.1038844448318086 0 0.45056135543573461 0.10825638696410721 0 0.45017956030723072 0.1014356669455968 0 0.45089122561695671 0.094337354166696599 0 0.45017956030723072 0.1014356669455968 0 0.43850836049383818 0.098699636370353908 0 0.45687901701991251 0.1004018269663596 0 0.45089122561695671 0.094337354166696599 0 0.45017956030723072 0.1014356669455968 0 0.44887757028134623 0.1080081903932564 0 0.44107628442738861 0.1214547034856487 0 0.42533030516992493 0.10453723066995781 0 0.44887757028134623 0.1080081903932564 0 0.44917223443375459 0.1172655021782371 0 0.44107628442738861 0.1214547034856487 0 0.45056135543573461 0.10825638696410721 0 0.44887757028134623 0.1080081903932564 0 0.44917223443375459 0.1172655021782371 0 0.45510432597787959 0.113680591853158 0 0.45056135543573461 0.10825638696410721 0 0.44917223443375459 0.1172655021782371 0 0.45113440008128758 0.1296096154352647 0 0.44917223443375459 0.1172655021782371 0 0.44107628442738861 0.1214547034856487 0 0.44107628442738861 0.1214547034856487 0 0.42534272888185931 0.1203122080569534 0 0.42533030516992493 0.10453723066995781 0 0.42534272888185931 0.1203122080569534 0 0.41003123568951511 0.12410802708973789 0 0.42533030516992493 0.10453723066995781 0 0.41003123568951511 0.12410802708973789 0 0.42533030516992493 0.10453723066995781 0 0.40009925490411502 0.10081807437580841 0 0.42533030516992493 0.10453723066995781 0 0.4229297392928848 0.085015192493559447 0 0.40009925490411502 0.10081807437580841 0 0.42533030516992493 0.10453723066995781 0 0.40009925490411502 0.10081807437580841 0 0.43850836049383818 0.098699636370353908 0 0.42533030516992493 0.10453723066995781 0 0.4229297392928848 0.085015192493559447 0 0.44887757028134623 0.1080081903932564 0 0.42533030516992493 0.10453723066995781 0 0.441774895652292 0.083405557390279453 0 0.4229297392928848 0.085015192493559447 0 0.43215194019105208 0.06643613909194028 0 0.441774895652292 0.083405557390279453 0 0.43850836049383818 0.098699636370353908 0 0.4229297392928848 0.085015192493559447 0 0.4229297392928848 0.085015192493559447 0 0.43215194019105208 0.06643613909194028 0 0.41428579934903459 0.061949995739412678 0 0.4229297392928848 0.085015192493559447 0 0.40191939222434592 0.075058555105068606 0 0.41428579934903459 0.061949995739412678 0 0.4229297392928848 0.085015192493559447 0 0.40191939222434592 0.075058555105068606 0 0.40009925490411502 0.10081807437580841 0 0.40191939222434592 0.075058555105068606 0 0.3891785554412826 0.086556216017936866 0 0.40009925490411502 0.10081807437580841 0 0.40191939222434592 0.075058555105068606 0 0.37982736999836431 0.073249316509211515 0 0.39811419342433291 0.060352189677763568 0 0.40191939222434592 0.075058555105068606 0 0.39811419342433291 0.060352189677763568 0 0.41428579934903459 0.061949995739412678 0 0.40191939222434592 0.075058555105068606 0 0.37982736999836431 0.073249316509211515 0 0.3891785554412826 0.086556216017936866 0 0.37486820463830522 0.097098918081658978 0 0.37982736999836431 0.073249316509211515 0 0.3891785554412826 0.086556216017936866 0 0.37486820463830522 0.097098918081658978 0 0.38519450842317809 0.12364480126092731 0 0.40009925490411502 0.10081807437580841 0 0.37486820463830522 0.097098918081658978 0 0.3891785554412826 0.086556216017936866 0 0.40009925490411502 0.10081807437580841 0 0.37486820463830522 0.097098918081658978 0 0.40009925490411502 0.10081807437580841 0 0.36766386746552149 0.11169119565369449 0 0.37486820463830522 0.097098918081658978 0 0.38519450842317809 0.12364480126092731 0 0.41003123568951511 0.12410802708973789 0 0.38519450842317809 0.12364480126092731 0 0.40009925490411502 0.10081807437580841 0 0.39599941734039112 0.029890990584404521 0 0.41012247743098212 0.027591859087338171 0 0.40724155543235852 0.01305784150065889 0 0.39599941734039112 0.029890990584404521 0 0.38764204616681802 0.016303273538007701 0 0.40724155543235852 0.01305784150065889 0 0.39412791367231109 0.0037783834544914078 0 0.38764204616681802 0.016303273538007701 0 0.40724155543235852 0.01305784150065889 0 0.39412791367231109 0.0037783834544914078 0 0.40724155543235852 0.01305784150065889 0 0.40380211194941001 -0.0034572817521442379 0 0.37193721197690338 0.01641433914928252 0 0.38079077192133931 0.0048658128167345053 0 0.38764204616681802 0.016303273538007701 0 0.39412791367231109 0.0037783834544914078 0 0.38079077192133931 0.0048658128167345053 0 0.38764204616681802 0.016303273538007701 0 0.39412791367231109 0.0037783834544914078 0 0.38079077192133931 0.0048658128167345053 0 0.38642295990881581 -0.0053574273447281233 0 0.3717368739350822 0.005950175452288751 0 0.38079077192133931 0.0048658128167345053 0 0.37369193539391221 -0.00012575175666541271 0 0.38079077192133931 0.0048658128167345053 0 0.37844166762397502 -0.0034149622237934899 0 0.37369193539391221 -0.00012575175666541271 0 0.39599941734039112 0.029890990584404521 0 0.38764204616681802 0.016303273538007701 0 0.37640283919325568 0.035152814568936402 0 0.37193721197690338 0.01641433914928252 0 0.38764204616681802 0.016303273538007701 0 0.37640283919325568 0.035152814568936402 0 0.39599941734039112 0.029890990584404521 0 0.37640283919325568 0.035152814568936402 0 0.38596802024346932 0.051291960070099452 0 0.37113184104066238 0.058387743063101447 0 0.37640283919325568 0.035152814568936402 0 0.38596802024346932 0.051291960070099452 0 0.37982736999836431 0.073249316509211515 0 0.38596802024346932 0.051291960070099452 0 0.39811419342433291 0.060352189677763568 0 0.37113184104066238 0.058387743063101447 0 0.37982736999836431 0.073249316509211515 0 0.38596802024346932 0.051291960070099452 0 0.38596802024346932 0.051291960070099452 0 0.39811419342433291 0.060352189677763568 0 0.40708722608777947 0.045819239392065329 0 0.39599941734039112 0.029890990584404521 0 0.40708722608777947 0.045819239392065329 0 0.41012247743098212 0.027591859087338171 0 0.39599941734039112 0.029890990584404521 0 0.38596802024346932 0.051291960070099452 0 0.40708722608777947 0.045819239392065329 0 0.40708722608777947 0.045819239392065329 0 0.42294762387934798 0.033506557807718218 0 0.41012247743098212 0.027591859087338171 0 0.40708722608777947 0.045819239392065329 0 0.42288488736872598 0.049133570220812758 0 0.42294762387934798 0.033506557807718218 0 0.39811419342433291 0.060352189677763568 0 0.40708722608777947 0.045819239392065329 0 0.41428579934903459 0.061949995739412678 0 0.40708722608777947 0.045819239392065329 0 0.41428579934903459 0.061949995739412678 0 0.42288488736872598 0.049133570220812758 0 0.43215194019105208 0.06643613909194028 0 0.42288488736872598 0.049133570220812758 0 0.43823757639093058 0.048257250828771033 0 0.43215194019105208 0.06643613909194028 0 0.41428579934903459 0.061949995739412678 0 0.42288488736872598 0.049133570220812758 0 0.42288488736872598 0.049133570220812758 0 0.42294762387934798 0.033506557807718218 0 0.43823757639093058 0.048257250828771033 0 0.42294762387934798 0.033506557807718218 0 0.44483171602953941 0.029213991273715531 0 0.43823757639093058 0.048257250828771033 0 0.42294762387934798 0.033506557807718218 0 0.42605637000061908 0.01563394679975455 0 0.44483171602953941 0.029213991273715531 0 0.42294762387934798 0.033506557807718218 0 0.42605637000061908 0.01563394679975455 0 0.41012247743098212 0.027591859087338171 0 0.42605637000061908 0.01563394679975455 0 0.41012247743098212 0.027591859087338171 0 0.40724155543235852 0.01305784150065889 0 0.42605637000061908 0.01563394679975455 0 0.40724155543235852 0.01305784150065889 0 0.41793964150549001 -0.0042503620310247918 0 0.40724155543235852 0.01305784150065889 0 0.41793964150549001 -0.0042503620310247918 0 0.40380211194941001 -0.0034572817521442379 0 0.42605637000061908 0.01563394679975455 0 0.44863381392123991 0.011610124412583829 0 0.43572506095961788 -0.0039763769361446221 0 0.42605637000061908 0.01563394679975455 0 0.41793964150549001 -0.0042503620310247918 0 0.43572506095961788 -0.0039763769361446221 0 0.44863381392123991 0.011610124412583829 0 0.45304157649184101 -0.0012464878387906571 0 0.43572506095961788 -0.0039763769361446221 0 0.42605637000061908 0.01563394679975455 0 0.44863381392123991 0.011610124412583829 0 0.44483171602953941 0.029213991273715531 0 0.44863381392123991 0.011610124412583829 0 0.44483171602953941 0.029213991273715531 0 0.47201522275121571 0.02074660678850929 0 0.44863381392123991 0.011610124412583829 0 0.46464688595214049 0.0061887876477020893 0 0.45304157649184101 -0.0012464878387906571 0 0.44863381392123991 0.011610124412583829 0 0.46464688595214049 0.0061887876477020893 0 0.47201522275121571 0.02074660678850929 0 0.44952090400862038 0.067912075233027891 0 0.43823757639093058 0.048257250828771033 0 0.46109968923388311 0.045529461004956293 0 0.44952090400862038 0.067912075233027891 0 0.43215194019105208 0.06643613909194028 0 0.43823757639093058 0.048257250828771033 0 0.44483171602953941 0.029213991273715531 0 0.43823757639093058 0.048257250828771033 0 0.46109968923388311 0.045529461004956293 0 0.46109968923388311 0.045529461004956293 0 0.47201522275121571 0.02074660678850929 0 0.44483171602953941 0.029213991273715531 0 0.46109968923388311 0.045529461004956293 0 0.47201522275121571 0.02074660678850929 0 0.46585267489190602 0.064601599032768603 0 0.44952090400862038 0.067912075233027891 0 0.46109968923388311 0.045529461004956293 0 0.46585267489190602 0.064601599032768603 0 0.46109968923388311 0.045529461004956293 0 0.47735020785009702 0.055966814128813727 0 0.46109968923388311 0.045529461004956293 0 0.48261079165670301 0.03791130216965366 0 0.47201522275121571 0.02074660678850929 0 0.46109968923388311 0.045529461004956293 0 0.47735020785009702 0.055966814128813727 0 0.48261079165670301 0.03791130216965366 0 0.48261079165670301 0.03791130216965366 0 0.5 0.055650555680773039 0 0.5 0.027884121415122198 0 0.48073365029785242 0.07498177323259668 0 0.47735020785009702 0.055966814128813727 0 0.5 0.055650555680773039 0 0.47735020785009702 0.055966814128813727 0 0.48261079165670301 0.03791130216965366 0 0.5 0.055650555680773039 0 0.47201522275121571 0.02074660678850929 0 0.48784367821422031 0.012922918293496141 0 0.48293075626854809 -0.004036247427937515 0 0.46464688595214049 0.0061887876477020893 0 0.47201522275121571 0.02074660678850929 0 0.48293075626854809 -0.004036247427937515 0 0.47201522275121571 0.02074660678850929 0 0.48293075626854809 -0.004036247427937515 0 0.48261079165670301 0.03791130216965366 0 0.47201522275121571 0.02074660678850929 0 0.48784367821422031 0.012922918293496141 0 0.48261079165670301 0.03791130216965366 0 0.5 0.027884121415122198 0 0.48784367821422031 0.012922918293496141 0 0.5 0.027884121415122198 0 0.5 0.00011768714947135719 0 0.48784367821422031 0.012922918293496141 0 0.5 0.00011768714947135719 0 0.48784367821422031 0.012922918293496141 0 0.48293075626854809 -0.004036247427937515 0 0.5 0.00011768714947135719 0 0.48293075626854809 -0.004036247427937515 0 0.5 -0.02764874711617937 0 0.46464688595214049 0.0061887876477020893 0 0.48293075626854809 -0.004036247427937515 0 0.47049589797870511 -0.0053783383742628463 0 0.48293075626854809 -0.004036247427937515 0 0.47357512957823272 -0.01510517705065814 0 0.48106170706751761 -0.0205953384113556 0 0.48293075626854809 -0.004036247427937515 0 0.47357512957823272 -0.01510517705065814 0 0.47049589797870511 -0.0053783383742628463 0 0.47357512957823272 -0.01510517705065814 0 0.47049589797870511 -0.0053783383742628463 0 0.46238739199360712 -0.019840733570551789 0 0.47357512957823272 -0.01510517705065814 0 0.47176595988181258 -0.025411024685624079 0 0.46238739199360712 -0.019840733570551789 0 0.47357512957823272 -0.01510517705065814 0 0.47176595988181258 -0.025411024685624079 0 0.48106170706751761 -0.0205953384113556 0 0.47176595988181258 -0.025411024685624079 0 0.48106170706751761 -0.0205953384113556 0 0.48190218562611048 -0.030863231455606859 0 0.48293075626854809 -0.004036247427937515 0 0.49384628978588052 -0.02881910164438432 0 0.48293075626854809 -0.004036247427937515 0 0.48106170706751761 -0.0205953384113556 0 0.49384628978588052 -0.02881910164438432 0 0.48293075626854809 -0.004036247427937515 0 0.5 -0.02764874711617937 0 0.49384628978588052 -0.02881910164438432 0 0.48106170706751761 -0.0205953384113556 0 0.48190218562611048 -0.030863231455606859 0 0.49384628978588052 -0.02881910164438432 0 0.5 -0.02764874711617937 0 0.49384628978588052 -0.02881910164438432 0 0.49150816066267772 -0.036856236462628388 0 0.5 -0.02764874711617937 0 0.49150816066267772 -0.036856236462628388 0 0.5 -0.055415181381830207 0 0.49150816066267772 -0.036856236462628388 0 0.5 -0.055415181381830207 0 0.48179232790139698 -0.041534920715141192 0 0.48190218562611048 -0.030863231455606859 0 0.49150816066267772 -0.036856236462628388 0 0.48179232790139698 -0.041534920715141192 0 0.48190218562611048 -0.030863231455606859 0 0.49384628978588052 -0.02881910164438432 0 0.49150816066267772 -0.036856236462628388 0 0.5 -0.055415181381830207 0 0.47555854982812618 -0.053310664658566431 0 0.47962218209457108 -0.065904740178364313 0 0.5 -0.055415181381830207 0 0.47555854982812618 -0.053310664658566431 0 0.48179232790139698 -0.041534920715141192 0 0.47555854982812618 -0.053310664658566431 0 0.48179232790139698 -0.041534920715141192 0 0.47148612927657751 -0.037576212313723781 0 0.47555854982812618 -0.053310664658566431 0 0.47148612927657751 -0.037576212313723781 0 0.46202321269683178 -0.046753295795988019 0 0.48190218562611048 -0.030863231455606859 0 0.48179232790139698 -0.041534920715141192 0 0.47148612927657751 -0.037576212313723781 0 0.47176595988181258 -0.025411024685624079 0 0.48190218562611048 -0.030863231455606859 0 0.47148612927657751 -0.037576212313723781 0 0.47148612927657751 -0.037576212313723781 0 0.46202321269683178 -0.046753295795988019 0 0.45688255154047203 -0.032445688254158632 0 0.46202321269683178 -0.046753295795988019 0 0.45688255154047203 -0.032445688254158632 0 0.44806418544753007 -0.048773560777687672 0 0.47176595988181258 -0.025411024685624079 0 0.47148612927657751 -0.037576212313723781 0 0.45688255154047203 -0.032445688254158632 0 0.47555854982812618 -0.053310664658566431 0 0.46944448859970211 -0.068355323498546783 0 0.4578182877178878 -0.062559923784238441 0 0.46202321269683178 -0.046753295795988019 0 0.44806418544753007 -0.048773560777687672 0 0.4578182877178878 -0.062559923784238441 0 0.47555854982812618 -0.053310664658566431 0 0.46202321269683178 -0.046753295795988019 0 0.4578182877178878 -0.062559923784238441 0 0.44806418544753007 -0.048773560777687672 0 0.44372345981905059 -0.062375302174889617 0 0.4578182877178878 -0.062559923784238441 0 0.44806418544753007 -0.048773560777687672 0 0.44372345981905059 -0.062375302174889617 0 0.43250658528243863 -0.054277614894308858 0 0.45688255154047203 -0.032445688254158632 0 0.44806418544753007 -0.048773560777687672 0 0.43859243308000428 -0.036619813489065962 0 0.44806418544753007 -0.048773560777687672 0 0.43859243308000428 -0.036619813489065962 0 0.43250658528243863 -0.054277614894308858 0 0.45688255154047203 -0.032445688254158632 0 0.43859243308000428 -0.036619813489065962 0 0.44589751039632558 -0.01855959121542201 0 0.44589751039632558 -0.01855959121542201 0 0.45304157649184101 -0.0012464878387906571 0 0.43572506095961788 -0.0039763769361446221 0 0.47049589797870511 -0.0053783383742628463 0 0.44589751039632558 -0.01855959121542201 0 0.46238739199360712 -0.019840733570551789 0 0.46464688595214049 0.0061887876477020893 0 0.47049589797870511 -0.0053783383742628463 0 0.45304157649184101 -0.0012464878387906571 0 0.47049589797870511 -0.0053783383742628463 0 0.44589751039632558 -0.01855959121542201 0 0.47049589797870511 -0.0053783383742628463 0 0.44589751039632558 -0.01855959121542201 0 0.45304157649184101 -0.0012464878387906571 0 0.45688255154047203 -0.032445688254158632 0 0.44589751039632558 -0.01855959121542201 0 0.46238739199360712 -0.019840733570551789 0 0.47176595988181258 -0.025411024685624079 0 0.45688255154047203 -0.032445688254158632 0 0.46238739199360712 -0.019840733570551789 0 0.4840875986054215 -0.1121071892593002 0 0.46817519721084211 -0.1076372318636451 0 0.47571860452291348 -0.13452359581537821 0 0.4840875986054215 -0.1121071892593002 0 0.48909439227123902 -0.12823573739021379 0 0.47571860452291348 -0.13452359581537821 0 0.46817519721084211 -0.1076372318636451 0 0.47571860452291348 -0.13452359581537821 0 0.4840875986054215 -0.1121071892593002 0 0.46817519721084211 -0.1076372318636451 0 0.4840875986054215 -0.1121071892593002 0 0.50000000000000078 -0.1165771466549558 0 0.5 -0.099879381151218416 0 0.4840875986054215 -0.1121071892593002 0 0.50000000000000078 -0.1165771466549558 0 0.48909439227123902 -0.12823573739021379 0 0.4840875986054215 -0.1121071892593002 0 0.50000000000000078 -0.1165771466549558 0 0.4840875986054215 -0.1121071892593002 0 0.5 -0.099879381151218416 0 0.48004029511677321 -0.1014516713130275 0 0.5 -0.099879381151218416 0 0.48004029511677321 -0.1014516713130275 0 0.4826462265892002 -0.090272056646151205 0 0.4826462265892002 -0.090272056646151205 0 0.46529245317840212 -0.097362497644822271 0 0.4840875986054215 -0.1121071892593002 0 0.48004029511677321 -0.1014516713130275 0 0.46817519721084211 -0.1076372318636451 0 0.48004029511677321 -0.1014516713130275 0 0.4826462265892002 -0.090272056646151205 0 0.46529245317840212 -0.097362497644822271 0 0.48004029511677321 -0.1014516713130275 0 0.46529245317840212 -0.097362497644822271 0 0.46817519721084211 -0.1076372318636451 0 0.47379143967683268 -0.079962574296475228 0 0.4826462265892002 -0.090272056646151205 0 0.46529245317840212 -0.097362497644822271 0 0.47379143967683268 -0.079962574296475228 0 0.4826462265892002 -0.090272056646151205 0 0.48777440500670938 -0.075540799776121798 0 0.4826462265892002 -0.090272056646151205 0 0.49999999999999861 -0.08318161564748093 0 0.48777440500670938 -0.075540799776121798 0 0.5 -0.099879381151218416 0 0.4826462265892002 -0.090272056646151205 0 0.49999999999999861 -0.08318161564748093 0 0.4826462265892002 -0.090272056646151205 0 0.49999999999999861 -0.08318161564748093 0 0.5 -0.055415181381830207 0 0.49999999999999861 -0.08318161564748093 0 0.48777440500670938 -0.075540799776121798 0 0.5 -0.055415181381830207 0 0.48777440500670938 -0.075540799776121798 0 0.47962218209457108 -0.065904740178364313 0 0.47379143967683268 -0.079962574296475228 0 0.48777440500670938 -0.075540799776121798 0 0.47962218209457108 -0.065904740178364313 0 0.47379143967683268 -0.079962574296475228 0 0.47962218209457108 -0.065904740178364313 0 0.46944448859970211 -0.068355323498546783 0 0.47555854982812618 -0.053310664658566431 0 0.47962218209457108 -0.065904740178364313 0 0.46944448859970211 -0.068355323498546783 0 0.46944448859970211 -0.068355323498546783 0 0.4578182877178878 -0.062559923784238441 0 0.4604319836810925 -0.080038714575089487 0 0.4578182877178878 -0.062559923784238441 0 0.44676276757216399 -0.0761060610506199 0 0.4604319836810925 -0.080038714575089487 0 0.47379143967683268 -0.079962574296475228 0 0.46944448859970211 -0.068355323498546783 0 0.4604319836810925 -0.080038714575089487 0 0.44372345981905059 -0.062375302174889617 0 0.4578182877178878 -0.062559923784238441 0 0.44676276757216399 -0.0761060610506199 0 0.44372345981905059 -0.062375302174889617 0 0.44676276757216399 -0.0761060610506199 0 0.43225928617330761 -0.068295852842273019 0 0.44676276757216399 -0.0761060610506199 0 0.44049694229052422 -0.084876064886968694 0 0.45269311016075953 -0.086975715840822615 0 0.44049694229052422 -0.084876064886968694 0 0.44602969065297321 -0.091945009315617707 0 0.43354099532082557 -0.091952702348009063 0 0.44049694229052422 -0.084876064886968694 0 0.44602969065297321 -0.091945009315617707 0 0.45269311016075953 -0.086975715840822615 0 0.44602969065297321 -0.091945009315617707 0 0.45269311016075953 -0.086975715840822615 0 0.45321393781281222 -0.096184619065492138 0 0.4604319836810925 -0.080038714575089487 0 0.46529245317840212 -0.097362497644822271 0 0.45269311016075953 -0.086975715840822615 0 0.4604319836810925 -0.080038714575089487 0 0.46529245317840212 -0.097362497644822271 0 0.45269311016075953 -0.086975715840822615 0 0.46529245317840212 -0.097362497644822271 0 0.45321393781281222 -0.096184619065492138 0 0.47379143967683268 -0.079962574296475228 0 0.4604319836810925 -0.080038714575089487 0 0.46529245317840212 -0.097362497644822271 0 0.44676276757216399 -0.0761060610506199 0 0.45269311016075953 -0.086975715840822615 0 0.4604319836810925 -0.080038714575089487 0 0.46817519721084211 -0.1076372318636451 0 0.45018611540317982 -0.1035346766957799 0 0.46529245317840212 -0.097362497644822271 0 0.46817519721084211 -0.1076372318636451 0 0.45018611540317982 -0.1035346766957799 0 0.46529245317840212 -0.097362497644822271 0 0.46817519721084211 -0.1076372318636451 0 0.46529245317840212 -0.097362497644822271 0 0.45321393781281222 -0.096184619065492138 0 0.45018611540317982 -0.1035346766957799 0 0.46529245317840212 -0.097362497644822271 0 0.45018611540317982 -0.1035346766957799 0 0.44602969065297321 -0.091945009315617707 0 0.45018611540317982 -0.1035346766957799 0 0.44602969065297321 -0.091945009315617707 0 0.45321393781281222 -0.096184619065492138 0 0.45018611540317982 -0.1035346766957799 0 0.44602969065297321 -0.091945009315617707 0 0.43780455380007738 -0.099105805414648362 0 0.45018611540317982 -0.1035346766957799 0 0.44602969065297321 -0.091945009315617707 0 0.43780455380007738 -0.099105805414648362 0 0.43354099532082557 -0.091952702348009063 0 0.43780455380007738 -0.099105805414648362 0 0.45018611540317982 -0.1035346766957799 0 0.45018611540317982 -0.1035346766957799 0 0.43606958946291502 -0.1093024363591264 0 0.43780455380007738 -0.099105805414648362 0 0.45018611540317982 -0.1035346766957799 0 0.43606958946291502 -0.1093024363591264 0 0.45018611540317982 -0.1035346766957799 0 0.44575202924648799 -0.1192121354624308 0 0.43606958946291502 -0.1093024363591264 0 0.45018611540317982 -0.1035346766957799 0 0.44575202924648799 -0.1192121354624308 0 0.4595733277006665 -0.12970973692017801 0 0.44575202924648799 -0.1192121354624308 0 0.43660334572645648 -0.12115080575772071 0 0.43606958946291502 -0.1093024363591264 0 0.44575202924648799 -0.1192121354624308 0 0.43660334572645648 -0.12115080575772071 0 0.44567821145373748 -0.13268369267693719 0 0.45018611540317982 -0.1035346766957799 0 0.4595733277006665 -0.12970973692017801 0 0.46817519721084211 -0.1076372318636451 0 0.4595733277006665 -0.12970973692017801 0 0.47571860452291348 -0.13452359581537821 0 0.46817519721084211 -0.1076372318636451 0 0.45018611540317982 -0.1035346766957799 0 0.4595733277006665 -0.12970973692017801 0 0.40736468629859962 -0.1104104429150795 0 0.42195306352265022 -0.1150701960224727 0 0.40265057986296909 -0.1337139421432755 0 0.43660334572645648 -0.12115080575772071 0 0.42195306352265022 -0.1150701960224727 0 0.43281910500380449 -0.13239128062791281 0 0.43660334572645648 -0.12115080575772071 0 0.42195306352265022 -0.1150701960224727 0 0.43606958946291502 -0.1093024363591264 0 0.42195306352265022 -0.1150701960224727 0 0.43606958946291502 -0.1093024363591264 0 0.42195306352265022 -0.1150701960224727 0 0.42529361762765949 -0.1017156798472376 0 0.43606958946291502 -0.1093024363591264 0 0.43780455380007738 -0.099105805414648362 0 0.42529361762765949 -0.1017156798472376 0 0.43606958946291502 -0.1093024363591264 0 0.43780455380007738 -0.099105805414648362 0 0.42529361762765949 -0.1017156798472376 0 0.43354099532082557 -0.091952702348009063 0 0.42529361762765949 -0.1017156798472376 0 0.42295862845922322 -0.091378155068387354 0 0.43354099532082557 -0.091952702348009063 0 0.40736468629859962 -0.1104104429150795 0 0.42195306352265022 -0.1150701960224727 0 0.42529361762765949 -0.1017156798472376 0 0.40736468629859962 -0.1104104429150795 0 0.42529361762765949 -0.1017156798472376 0 0.41201522734168722 -0.092672029261945746 0 0.42529361762765949 -0.1017156798472376 0 0.41201522734168722 -0.092672029261945746 0 0.42295862845922322 -0.091378155068387354 0 0.41201522734168722 -0.092672029261945746 0 0.42277570229857431 -0.078209633014092644 0 0.40000441607456177 -0.080206585902102639 0 0.42277570229857431 -0.078209633014092644 0 0.40000441607456177 -0.080206585902102639 0 0.41201522734168722 -0.092672029261945746 0 0.42295862845922322 -0.091378155068387354 0 0.42277570229857431 -0.078209633014092644 0 0.42295862845922322 -0.091378155068387354 0 0.43354099532082557 -0.091952702348009063 0 0.42277570229857431 -0.078209633014092644 0 0.44676276757216399 -0.0761060610506199 0 0.44049694229052422 -0.084876064886968694 0 0.42277570229857431 -0.078209633014092644 0 0.44049694229052422 -0.084876064886968694 0 0.43354099532082557 -0.091952702348009063 0 0.42277570229857431 -0.078209633014092644 0 0.43354099532082557 -0.091952702348009063 0 0.42277570229857431 -0.078209633014092644 0 0.44676276757216399 -0.0761060610506199 0 0.42277570229857431 -0.078209633014092644 0 0.43225928617330761 -0.068295852842273019 0 0.44676276757216399 -0.0761060610506199 0 0.42277570229857431 -0.078209633014092644 0 0.42277570229857431 -0.078209633014092644 0 0.40000441607456177 -0.080206585902102639 0 0.40973821876506977 -0.061565864955917038 0 0.42277570229857431 -0.078209633014092644 0 0.43225928617330761 -0.068295852842273019 0 0.40973821876506977 -0.061565864955917038 0 0.42277570229857431 -0.078209633014092644 0 0.40973821876506977 -0.061565864955917038 0 0.38794084386458572 -0.067844871337686186 0 0.40000441607456177 -0.080206585902102639 0 0.40973821876506977 -0.061565864955917038 0 0.38794084386458572 -0.067844871337686186 0 0.37723312985054941 -0.08220353879011405 0 0.40000441607456177 -0.080206585902102639 0 0.38794084386458572 -0.067844871337686186 0 0.37575511644736509 -0.070395863088122887 0 0.37561758131853262 -0.056219682216537677 0 0.38794084386458572 -0.067844871337686186 0 0.37575511644736509 -0.070395863088122887 0 0.37723312985054941 -0.08220353879011405 0 0.37723312985054941 -0.08220353879011405 0 0.38153082731346522 -0.084880285908052772 0 0.40000441607456177 -0.080206585902102639 0 0.37723312985054941 -0.08220353879011405 0 0.40000441607456177 -0.080206585902102639 0 0.37723312985054941 -0.08220353879011405 0 0.38153082731346522 -0.084880285908052772 0 0.37353869263606959 -0.092923700795459196 0 0.38153082731346522 -0.084880285908052772 0 0.40000441607456177 -0.080206585902102639 0 0.39860117212330609 -0.095493291602568961 0 0.41201522734168722 -0.092672029261945746 0 0.40000441607456177 -0.080206585902102639 0 0.39860117212330609 -0.095493291602568961 0 0.40736468629859962 -0.1104104429150795 0 0.41201522734168722 -0.092672029261945746 0 0.39860117212330609 -0.095493291602568961 0 0.38153082731346522 -0.084880285908052772 0 0.39860117212330609 -0.095493291602568961 0 0.39209070358821713 -0.1092971140256641 0 0.40736468629859962 -0.1104104429150795 0 0.39860117212330609 -0.095493291602568961 0 0.39209070358821713 -0.1092971140256641 0 0.38153082731346522 -0.084880285908052772 0 0.39209070358821713 -0.1092971140256641 0 0.37353869263606959 -0.092923700795459196 0 0.39209070358821713 -0.1092971140256641 0 0.37353869263606959 -0.092923700795459196 0 0.36675850669948878 -0.10409802490340379 0 0.38153082731346522 -0.084880285908052772 0 0.39209070358821713 -0.1092971140256641 0 0.39209070358821713 -0.1092971140256641 0 0.37754585847843769 -0.12139827823442741 0 0.36675850669948878 -0.10409802490340379 0 0.39209070358821713 -0.1092971140256641 0 0.40265057986296909 -0.1337139421432755 0 0.39209070358821713 -0.1092971140256641 0 0.37754585847843769 -0.12139827823442741 0 0.40265057986296909 -0.1337139421432755 0 0.40736468629859962 -0.1104104429150795 0 0.39209070358821713 -0.1092971140256641 0 0.40265057986296909 -0.1337139421432755 0 0.40669401504179459 -0.016223516466902611 0 0.42129912281394621 -0.031740844056581133 0 0.39529925873020222 -0.028481065717159679 0 0.40669401504179459 -0.016223516466902611 0 0.41793964150549001 -0.0042503620310247918 0 0.42129912281394621 -0.031740844056581133 0 0.40669401504179459 -0.016223516466902611 0 0.41793964150549001 -0.0042503620310247918 0 0.40380211194941001 -0.0034572817521442379 0 0.41793964150549001 -0.0042503620310247918 0 0.43572506095961788 -0.0039763769361446221 0 0.42129912281394621 -0.031740844056581133 0 0.44589751039632558 -0.01855959121542201 0 0.42129912281394621 -0.031740844056581133 0 0.43859243308000428 -0.036619813489065962 0 0.44589751039632558 -0.01855959121542201 0 0.42129912281394621 -0.031740844056581133 0 0.44589751039632558 -0.01855959121542201 0 0.43572506095961788 -0.0039763769361446221 0 0.42129912281394621 -0.031740844056581133 0 0.43859243308000428 -0.036619813489065962 0 0.41906835081166799 -0.048029296882916919 0 0.42129912281394621 -0.031740844056581133 0 0.43859243308000428 -0.036619813489065962 0 0.43250658528243863 -0.054277614894308858 0 0.41906835081166799 -0.048029296882916919 0 0.43225928617330761 -0.068295852842273019 0 0.43250658528243863 -0.054277614894308858 0 0.40973821876506977 -0.061565864955917038 0 0.44372345981905059 -0.062375302174889617 0 0.43225928617330761 -0.068295852842273019 0 0.43250658528243863 -0.054277614894308858 0 0.41906835081166799 -0.048029296882916919 0 0.40973821876506977 -0.061565864955917038 0 0.39670073523156679 -0.044922096897740203 0 0.43250658528243863 -0.054277614894308858 0 0.41906835081166799 -0.048029296882916919 0 0.40973821876506977 -0.061565864955917038 0 0.42129912281394621 -0.031740844056581133 0 0.39670073523156679 -0.044922096897740203 0 0.41906835081166799 -0.048029296882916919 0 0.42129912281394621 -0.031740844056581133 0 0.39670073523156679 -0.044922096897740203 0 0.42129912281394621 -0.031740844056581133 0 0.39670073523156679 -0.044922096897740203 0 0.39529925873020222 -0.028481065717159679 0 0.38794084386458572 -0.067844871337686186 0 0.40973821876506977 -0.061565864955917038 0 0.39670073523156679 -0.044922096897740203 0 0.40973821876506977 -0.061565864955917038 0 0.39670073523156679 -0.044922096897740203 0 0.38794084386458572 -0.067844871337686186 0 0.39670073523156679 -0.044922096897740203 0 0.37561758131853262 -0.056219682216537677 0 0.39670073523156679 -0.044922096897740203 0 0.37561758131853262 -0.056219682216537677 0 0.38050605695452011 -0.039665307230138003 0 0.39670073523156679 -0.044922096897740203 0 0.37561758131853262 -0.056219682216537677 0 0.39670073523156679 -0.044922096897740203 0 0.38050605695452011 -0.039665307230138003 0 0.37967218812169329 -0.02318330139044884 0 0.39670073523156679 -0.044922096897740203 0 0.37967218812169329 -0.02318330139044884 0 0.39529925873020222 -0.028481065717159679 0 0.39670073523156679 -0.044922096897740203 0 0.37967218812169329 -0.02318330139044884 0 0.37526863536822908 -0.020791644948307809 0 0.37967218812169329 -0.02318330139044884 0 0.37303730975570099 -0.02964316313129562 0 0.37967218812169329 -0.02318330139044884 0 0.38806054206682328 -0.020069940824048421 0 0.39529925873020222 -0.028481065717159679 0 0.38050605695452011 -0.039665307230138003 0 0.37967218812169329 -0.02318330139044884 0 0.37303730975570099 -0.02964316313129562 0 0.37967218812169329 -0.02318330139044884 0 0.37966778433075621 -0.017941638688274589 0 0.38806054206682328 -0.020069940824048421 0 0.37526863536822908 -0.020791644948307809 0 0.37966778433075621 -0.017941638688274589 0 0.37765805600184421 -0.014598961737008269 0 0.37526863536822908 -0.020791644948307809 0 0.37967218812169329 -0.02318330139044884 0 0.37966778433075621 -0.017941638688274589 0 0.37966778433075621 -0.017941638688274589 0 0.38806054206682328 -0.020069940824048421 0 0.38255467905314322 -0.013435105015362801 0 0.38806054206682328 -0.020069940824048421 0 0.39529925873020222 -0.028481065717159679 0 0.39445485363924943 -0.013171012915032591 0 0.40669401504179459 -0.016223516466902611 0 0.39529925873020222 -0.028481065717159679 0 0.39445485363924943 -0.013171012915032591 0 0.40669401504179459 -0.016223516466902611 0 0.40380211194941001 -0.0034572817521442379 0 0.39445485363924943 -0.013171012915032591 0 0.39445485363924943 -0.013171012915032591 0 0.39487013886023598 -0.0043247304764286176 0 0.38642295990881581 -0.0053574273447281233 0 0.40380211194941001 -0.0034572817521442379 0 0.39445485363924943 -0.013171012915032591 0 0.39487013886023598 -0.0043247304764286176 0 0.39412791367231109 0.0037783834544914078 0 0.39487013886023598 -0.0043247304764286176 0 0.38642295990881581 -0.0053574273447281233 0 0.39412791367231109 0.0037783834544914078 0 0.40380211194941001 -0.0034572817521442379 0 0.39487013886023598 -0.0043247304764286176 0 0.38806054206682328 -0.020069940824048421 0 0.39445485363924943 -0.013171012915032591 0 0.38255467905314322 -0.013435105015362801 0 0.39445485363924943 -0.013171012915032591 0 0.38642295990881581 -0.0053574273447281233 0 0.38255467905314322 -0.013435105015362801 0 0.37526863536822908 -0.020791644948307809 0 0.37765805600184421 -0.014598961737008269 0 0.37298951958520121 -0.011386488964941561 0 0.38642295990881581 -0.0053574273447281233 0 0.38255467905314322 -0.013435105015362801 0 0.37780966167189167 -0.0094399310681546039 0 0.37966778433075621 -0.017941638688274589 0 0.38255467905314322 -0.013435105015362801 0 0.37765805600184421 -0.014598961737008269 0 0.38255467905314322 -0.013435105015362801 0 0.37780966167189167 -0.0094399310681546039 0 0.37765805600184421 -0.014598961737008269 0 0.37780966167189167 -0.0094399310681546039 0 0.37453532933326272 -0.0055372148404254432 0 0.37298951958520121 -0.011386488964941561 0 0.37780966167189167 -0.0094399310681546039 0 0.37765805600184421 -0.014598961737008269 0 0.37298951958520121 -0.011386488964941561 0 0.38642295990881581 -0.0053574273447281233 0 0.37780966167189167 -0.0094399310681546039 0 0.37844166762397502 -0.0034149622237934899 0 0.38079077192133931 0.0048658128167345053 0 0.38642295990881581 -0.0053574273447281233 0 0.37844166762397502 -0.0034149622237934899 0 0.37780966167189167 -0.0094399310681546039 0 0.37844166762397502 -0.0034149622237934899 0 0.37453532933326272 -0.0055372148404254432 0 0.37844166762397502 -0.0034149622237934899 0 0.37369193539391221 -0.00012575175666541271 0 0.37453532933326272 -0.0055372148404254432 0 0.36178969065754613 0.001077887089200275 0 0.37526863536822908 -0.020791644948307809 0 0.36974386239133311 -0.0033189401885721529 0 0.37453532933326272 -0.0055372148404254432 0 0.37298951958520121 -0.011386488964941561 0 0.36178969065754613 0.001077887089200275 0 0.36974386239133311 -0.0033189401885721529 0 0.37298951958520121 -0.011386488964941561 0 0.36178969065754613 0.001077887089200275 0 0.36458595254880011 -0.015798003812259799 0 0.35803662262392272 -0.0082119465878842095 0 0.36178969065754613 0.001077887089200275 0 0.37526863536822908 -0.020791644948307809 0 0.36458595254880011 -0.015798003812259799 0 0.36178969065754613 0.001077887089200275 0 0.37526863536822908 -0.020791644948307809 0 0.37298951958520121 -0.011386488964941561 0 0.37369193539391221 -0.00012575175666541271 0 0.36974386239133311 -0.0033189401885721529 0 0.37453532933326272 -0.0055372148404254432 0 0.36818252895946579 0.002090311639515785 0 0.37369193539391221 -0.00012575175666541271 0 0.36974386239133311 -0.0033189401885721529 0 0.36458595254880011 -0.015798003812259799 0 0.35566776235986969 -0.01734851980406768 0 0.35803662262392272 -0.0082119465878842095 0 0.36178969065754613 0.001077887089200275 0 0.36818252895946579 0.002090311639515785 0 0.36974386239133311 -0.0033189401885721529 0 0.37526863536822908 -0.020791644948307809 0 0.37303730975570099 -0.02964316313129562 0 0.36915481548192591 -0.02310141131462435 0 0.37303730975570099 -0.02964316313129562 0 0.36915481548192591 -0.02310141131462435 0 0.36372736425497321 -0.026172833366634181 0 0.37526863536822908 -0.020791644948307809 0 0.36915481548192591 -0.02310141131462435 0 0.36458595254880011 -0.015798003812259799 0 0.36458595254880011 -0.015798003812259799 0 0.36372736425497321 -0.026172833366634181 0 0.35566776235986969 -0.01734851980406768 0 0.36915481548192591 -0.02310141131462435 0 0.36458595254880011 -0.015798003812259799 0 0.36372736425497321 -0.026172833366634181 0 0.36372736425497321 -0.026172833366634181 0 0.35566776235986969 -0.01734851980406768 0 0.35140940100293949 -0.030931060068069421 0 0.35566776235986969 -0.01734851980406768 0 0.3442548519625267 -0.017731313936628471 0 0.35140940100293949 -0.030931060068069421 0 0.3442548519625267 -0.017731313936628471 0 0.35140940100293949 -0.030931060068069421 0 0.33645213447708711 -0.02776571091221967 0 0.35748035392213812 0.0055638752084500552 0 0.35627991582030732 -0.0027166944564360031 0 0.34860824471950103 -0.0057210256210925804 0 0.35627991582030732 -0.0027166944564360031 0 0.35803662262392272 -0.0082119465878842095 0 0.34860824471950103 -0.0057210256210925804 0 0.36178969065754613 0.001077887089200275 0 0.35627991582030732 -0.0027166944564360031 0 0.35803662262392272 -0.0082119465878842095 0 0.35566776235986969 -0.01734851980406768 0 0.35803662262392272 -0.0082119465878842095 0 0.34860824471950103 -0.0057210256210925804 0 0.35566776235986969 -0.01734851980406768 0 0.3442548519625267 -0.017731313936628471 0 0.34860824471950103 -0.0057210256210925804 0 0.33225249698848103 0.0090096168732492106 0 0.34860824471950103 -0.0057210256210925804 0 0.33202916684735417 -0.010727550311638081 0 0.3442548519625267 -0.017731313936628471 0 0.34860824471950103 -0.0057210256210925804 0 0.33202916684735417 -0.010727550311638081 0 0.33202916684735417 -0.010727550311638081 0 0.33645213447708711 -0.02776571091221967 0 0.32348522879984137 -0.022831053064316591 0 0.3442548519625267 -0.017731313936628471 0 0.33202916684735417 -0.010727550311638081 0 0.33645213447708711 -0.02776571091221967 0 0.32348522879984137 -0.022831053064316591 0 0.31541111980489911 -0.0055720089255602186 0 0.30877228173414473 -0.021767006559188382 0 0.32348522879984137 -0.022831053064316591 0 0.32179323780033942 -0.037878806503765641 0 0.30877228173414473 -0.021767006559188382 0 0.33645213447708711 -0.02776571091221967 0 0.32348522879984137 -0.022831053064316591 0 0.32179323780033942 -0.037878806503765641 0 0.33202916684735417 -0.010727550311638081 0 0.32348522879984137 -0.022831053064316591 0 0.31541111980489911 -0.0055720089255602186 0 0.33225249698848103 0.0090096168732492106 0 0.33202916684735417 -0.010727550311638081 0 0.31541111980489911 -0.0055720089255602186 0 0.318903974036365 -0.052738219862995088 0 0.32179323780033942 -0.037878806503765641 0 0.33263959106212942 -0.053772483838301771 0 0.318903974036365 -0.052738219862995088 0 0.33263959106212942 -0.053772483838301771 0 0.32911527120980882 -0.068331270667895377 0 0.318903974036365 -0.052738219862995088 0 0.3170035518643558 -0.06709445281216346 0 0.30578263942781447 -0.063162038165263196 0 0.318903974036365 -0.052738219862995088 0 0.32179323780033942 -0.037878806503765641 0 0.30782396998977668 -0.038310931924509697 0 0.32179323780033942 -0.037878806503765641 0 0.30877228173414473 -0.021767006559188382 0 0.30782396998977668 -0.038310931924509697 0 0.32179323780033942 -0.037878806503765641 0 0.34025839692020698 -0.041943497376459533 0 0.33263959106212942 -0.053772483838301771 0 0.33645213447708711 -0.02776571091221967 0 0.32179323780033942 -0.037878806503765641 0 0.34025839692020698 -0.041943497376459533 0 0.35140940100293949 -0.030931060068069421 0 0.33645213447708711 -0.02776571091221967 0 0.34025839692020698 -0.041943497376459533 0 0.34025839692020698 -0.041943497376459533 0 0.33263959106212942 -0.053772483838301771 0 0.34412647823582559 -0.055339304677656513 0 0.33263959106212942 -0.053772483838301771 0 0.32911527120980882 -0.068331270667895377 0 0.33877024507068992 -0.06488637388303746 0 0.33263959106212942 -0.053772483838301771 0 0.34412647823582559 -0.055339304677656513 0 0.33877024507068992 -0.06488637388303746 0 0.34412647823582559 -0.055339304677656513 0 0.35442973072060358 -0.048576900755148721 0 0.35453442740549829 -0.067517267535335074 0 0.34025839692020698 -0.041943497376459533 0 0.34412647823582559 -0.055339304677656513 0 0.35442973072060358 -0.048576900755148721 0 0.35140940100293949 -0.030931060068069421 0 0.34025839692020698 -0.041943497376459533 0 0.35442973072060358 -0.048576900755148721 0 0.35140940100293949 -0.030931060068069421 0 0.35442973072060358 -0.048576900755148721 0 0.36652179112236888 -0.038897292842300257 0 0.37561758131853262 -0.056219682216537677 0 0.38050605695452011 -0.039665307230138003 0 0.36652179112236888 -0.038897292842300257 0 0.36372736425497321 -0.026172833366634181 0 0.35140940100293949 -0.030931060068069421 0 0.36652179112236888 -0.038897292842300257 0 0.38050605695452011 -0.039665307230138003 0 0.37303730975570099 -0.02964316313129562 0 0.36652179112236888 -0.038897292842300257 0 0.37303730975570099 -0.02964316313129562 0 0.36372736425497321 -0.026172833366634181 0 0.36652179112236888 -0.038897292842300257 0 0.37561758131853262 -0.056219682216537677 0 0.35453442740549829 -0.067517267535335074 0 0.37561758131853262 -0.056219682216537677 0 0.35442973072060358 -0.048576900755148721 0 0.36652179112236888 -0.038897292842300257 0 0.37561758131853262 -0.056219682216537677 0 0.35442973072060358 -0.048576900755148721 0 0.35453442740549829 -0.067517267535335074 0 0.37575511644736509 -0.070395863088122887 0 0.37561758131853262 -0.056219682216537677 0 0.35453442740549829 -0.067517267535335074 0 0.37575511644736509 -0.070395863088122887 0 0.36520760850655559 -0.07590547335945351 0 0.35453442740549829 -0.067517267535335074 0 0.37575511644736509 -0.070395863088122887 0 0.37723312985054941 -0.08220353879011405 0 0.36520760850655559 -0.07590547335945351 0 0.37353869263606959 -0.092923700795459196 0 0.35446184362653699 -0.084200491678125461 0 0.36675850669948878 -0.10409802490340379 0 0.37723312985054941 -0.08220353879011405 0 0.37353869263606959 -0.092923700795459196 0 0.35446184362653699 -0.084200491678125461 0 0.37723312985054941 -0.08220353879011405 0 0.35446184362653699 -0.084200491678125461 0 0.37723312985054941 -0.08220353879011405 0 0.36520760850655559 -0.07590547335945351 0 0.35446184362653699 -0.084200491678125461 0 0.35453442740549829 -0.067517267535335074 0 0.33345127349246417 -0.078814852854132422 0 0.34412647823582559 -0.055339304677656513 0 0.35453442740549829 -0.067517267535335074 0 0.33877024507068992 -0.06488637388303746 0 0.36520760850655559 -0.07590547335945351 0 0.35446184362653699 -0.084200491678125461 0 0.35453442740549829 -0.067517267535335074 0 0.35446184362653699 -0.084200491678125461 0 0.35453442740549829 -0.067517267535335074 0 0.33345127349246417 -0.078814852854132422 0 0.37754585847843769 -0.12139827823442741 0 0.36675850669948878 -0.10409802490340379 0 0.35611252315825481 -0.11693609627578209 0 0.37754585847843769 -0.12139827823442741 0 0.35611252315825481 -0.11693609627578209 0 0.36363825520792459 -0.13527717245356821 0 0.35446184362653699 -0.084200491678125461 0 0.36675850669948878 -0.10409802490340379 0 0.34416080433443852 -0.097566723100753303 0 0.36675850669948878 -0.10409802490340379 0 0.34416080433443852 -0.097566723100753303 0 0.35611252315825481 -0.11693609627578209 0 0.34416080433443852 -0.097566723100753303 0 0.35611252315825481 -0.11693609627578209 0 0.33913222091321221 -0.1116221287207613 0 0.35611252315825481 -0.11693609627578209 0 0.33913222091321221 -0.1116221287207613 0 0.34356507075037218 -0.13049189547197951 0 0.33913222091321221 -0.1116221287207613 0 0.32263222010827441 -0.1240733106237263 0 0.34356507075037218 -0.13049189547197951 0 0.33913222091321221 -0.1116221287207613 0 0.32692082671970241 -0.10632236728635951 0 0.32263222010827441 -0.1240733106237263 0 0.33913222091321221 -0.1116221287207613 0 0.33339853527374119 -0.099021362602730881 0 0.32692082671970241 -0.10632236728635951 0 0.34416080433443852 -0.097566723100753303 0 0.33913222091321221 -0.1116221287207613 0 0.33339853527374119 -0.099021362602730881 0 0.34416080433443852 -0.097566723100753303 0 0.33339853527374119 -0.099021362602730881 0 0.33169055740252451 -0.086197444566136872 0 0.33339853527374119 -0.099021362602730881 0 0.32379378489583421 -0.09663380756976947 0 0.33169055740252451 -0.086197444566136872 0 0.32379378489583421 -0.09663380756976947 0 0.31236811957943011 -0.090112438172929771 0 0.3120019212977847 -0.10798674168094249 0 0.33339853527374119 -0.099021362602730881 0 0.32379378489583421 -0.09663380756976947 0 0.32692082671970241 -0.10632236728635951 0 0.32379378489583421 -0.09663380756976947 0 0.32692082671970241 -0.10632236728635951 0 0.3120019212977847 -0.10798674168094249 0 0.32692082671970241 -0.10632236728635951 0 0.32263222010827441 -0.1240733106237263 0 0.3120019212977847 -0.10798674168094249 0 0.35453442740549829 -0.067517267535335074 0 0.33877024507068992 -0.06488637388303746 0 0.33345127349246417 -0.078814852854132422 0 0.32911527120980882 -0.068331270667895377 0 0.33877024507068992 -0.06488637388303746 0 0.33345127349246417 -0.078814852854132422 0 0.35446184362653699 -0.084200491678125461 0 0.33169055740252451 -0.086197444566136872 0 0.35446184362653699 -0.084200491678125461 0 0.33169055740252451 -0.086197444566136872 0 0.33345127349246417 -0.078814852854132422 0 0.35446184362653699 -0.084200491678125461 0 0.34416080433443852 -0.097566723100753303 0 0.33169055740252451 -0.086197444566136872 0 0.32379378489583421 -0.09663380756976947 0 0.33169055740252451 -0.086197444566136872 0 0.31236811957943011 -0.090112438172929771 0 0.33345127349246417 -0.078814852854132422 0 0.31236811957943011 -0.090112438172929771 0 0.33345127349246417 -0.078814852854132422 0 0.31991485320446211 -0.07579408272860616 0 0.31236811957943011 -0.090112438172929771 0 0.33169055740252451 -0.086197444566136872 0 0.33345127349246417 -0.078814852854132422 0 0.31236811957943011 -0.090112438172929771 0 0.31991485320446211 -0.07579408272860616 0 0.30885326774619781 -0.074528076705141513 0 0.31236811957943011 -0.090112438172929771 0 0.31991485320446211 -0.07579408272860616 0 0.3170035518643558 -0.06709445281216346 0 0.30885326774619781 -0.074528076705141513 0 0.32911527120980882 -0.068331270667895377 0 0.33345127349246417 -0.078814852854132422 0 0.31991485320446211 -0.07579408272860616 0 0.32911527120980882 -0.068331270667895377 0 0.31991485320446211 -0.07579408272860616 0 0.3170035518643558 -0.06709445281216346 0 0.318903974036365 -0.052738219862995088 0 0.32911527120980882 -0.068331270667895377 0 0.3170035518643558 -0.06709445281216346 0 0.3170035518643558 -0.06709445281216346 0 0.30578263942781447 -0.063162038165263196 0 0.30885326774619781 -0.074528076705141513 0 0.30578263942781447 -0.063162038165263196 0 0.29424051904163367 -0.076437700923154175 0 0.29131619230104322 -0.058143587545290323 0 0.30578263942781447 -0.063162038165263196 0 0.30885326774619781 -0.074528076705141513 0 0.29424051904163367 -0.076437700923154175 0 0.30885326774619781 -0.074528076705141513 0 0.31236811957943011 -0.090112438172929771 0 0.29424051904163367 -0.076437700923154175 0 0.31236811957943011 -0.090112438172929771 0 0.29424051904163367 -0.076437700923154175 0 0.28707540104322699 -0.098373864057104896 0 0.29424051904163367 -0.076437700923154175 0 0.28707540104322699 -0.098373864057104896 0 0.27833536750513332 -0.08391297143652672 0 0.29424051904163367 -0.076437700923154175 0 0.27695094771056789 -0.068227931739046441 0 0.29131619230104322 -0.058143587545290323 0 0.29424051904163367 -0.076437700923154175 0 0.27695094771056789 -0.068227931739046441 0 0.27833536750513332 -0.08391297143652672 0 0.32263222010827441 -0.1240733106237263 0 0.30224688909513941 -0.119366249487092 0 0.3120019212977847 -0.10798674168094249 0 0.3120019212977847 -0.10798674168094249 0 0.28707540104322699 -0.098373864057104896 0 0.31236811957943011 -0.090112438172929771 0 0.3120019212977847 -0.10798674168094249 0 0.28707540104322699 -0.098373864057104896 0 0.30224688909513941 -0.119366249487092 0 0.3120019212977847 -0.10798674168094249 0 0.28707540104322699 -0.098373864057104896 0 0.30224688909513941 -0.119366249487092 0 0.28707540104322699 -0.098373864057104896 0 0.28411695119671843 -0.1224923075123313 0 0.28411695119671843 -0.1224923075123313 0 0.26569497922775998 -0.1076663683984494 0 0.2647255962473376 -0.1268770055046575 0 0.28707540104322699 -0.098373864057104896 0 0.28411695119671843 -0.1224923075123313 0 0.26569497922775998 -0.1076663683984494 0 0.28707540104322699 -0.098373864057104896 0 0.26569497922775998 -0.1076663683984494 0 0.26214888078866933 -0.088760986433267297 0 0.26569497922775998 -0.1076663683984494 0 0.26214888078866933 -0.088760986433267297 0 0.24658401529494961 -0.1054847774771322 0 0.26214888078866933 -0.088760986433267297 0 0.2471849002338018 -0.090439001166736879 0 0.24658401529494961 -0.1054847774771322 0 0.2647255962473376 -0.1268770055046575 0 0.24658401529494961 -0.1054847774771322 0 0.24205404588574109 -0.12800992710317699 0 0.26569497922775998 -0.1076663683984494 0 0.2647255962473376 -0.1268770055046575 0 0.24658401529494961 -0.1054847774771322 0 0.2647255962473376 -0.1268770055046575 0 0.24658401529494961 -0.1054847774771322 0 0.27695094771056789 -0.068227931739046441 0 0.26214888078866933 -0.088760986433267297 0 0.26118148054197848 -0.061253319344723028 0 0.27695094771056789 -0.068227931739046441 0 0.27833536750513332 -0.08391297143652672 0 0.26214888078866933 -0.088760986433267297 0 0.28707540104322699 -0.098373864057104896 0 0.26214888078866933 -0.088760986433267297 0 0.28707540104322699 -0.098373864057104896 0 0.27833536750513332 -0.08391297143652672 0 0.26214888078866933 -0.088760986433267297 0 0.26214888078866933 -0.088760986433267297 0 0.26118148054197848 -0.061253319344723028 0 0.24858731373966719 -0.070049348228236816 0 0.26118148054197848 -0.061253319344723028 0 0.2463226552930966 -0.055063556558404211 0 0.24858731373966719 -0.070049348228236816 0 0.26118148054197848 -0.061253319344723028 0 0.25794807121498647 -0.037913446665112087 0 0.2463226552930966 -0.055063556558404211 0 0.27695094771056789 -0.068227931739046441 0 0.26118148054197848 -0.061253319344723028 0 0.27782626680149491 -0.047179166583673778 0 0.26118148054197848 -0.061253319344723028 0 0.27782626680149491 -0.047179166583673778 0 0.25794807121498647 -0.037913446665112087 0 0.27782626680149491 -0.047179166583673778 0 0.25794807121498647 -0.037913446665112087 0 0.27657815398881969 -0.023228094241604109 0 0.25794807121498647 -0.037913446665112087 0 0.25725354476765472 -0.015818745994583151 0 0.2433549403846752 -0.02541717065214413 0 0.25794807121498647 -0.037913446665112087 0 0.25725354476765472 -0.015818745994583151 0 0.27657815398881969 -0.023228094241604109 0 0.2485809188977687 0.0003435598250259543 0 0.25725354476765472 -0.015818745994583151 0 0.2690694011473323 -0.00147667541916337 0 0.25725354476765472 -0.015818745994583151 0 0.2690694011473323 -0.00147667541916337 0 0.27657815398881969 -0.023228094241604109 0 0.2690694011473323 -0.00147667541916337 0 0.27657815398881969 -0.023228094241604109 0 0.29349019251495567 -0.0082369703254713458 0 0.27657815398881969 -0.023228094241604109 0 0.29349019251495567 -0.0082369703254713458 0 0.29422220703988677 -0.03520982389624186 0 0.30702464005482388 0.012455358538048361 0 0.31541111980489911 -0.0055720089255602186 0 0.29349019251495567 -0.0082369703254713458 0 0.31541111980489911 -0.0055720089255602186 0 0.29349019251495567 -0.0082369703254713458 0 0.30877228173414473 -0.021767006559188382 0 0.29349019251495567 -0.0082369703254713458 0 0.30877228173414473 -0.021767006559188382 0 0.29422220703988677 -0.03520982389624186 0 0.30877228173414473 -0.021767006559188382 0 0.30782396998977668 -0.038310931924509697 0 0.29422220703988677 -0.03520982389624186 0 0.30782396998977668 -0.038310931924509697 0 0.30437833157729138 -0.050030191142834718 0 0.29422220703988677 -0.03520982389624186 0 0.318903974036365 -0.052738219862995088 0 0.30782396998977668 -0.038310931924509697 0 0.30437833157729138 -0.050030191142834718 0 0.318903974036365 -0.052738219862995088 0 0.30578263942781447 -0.063162038165263196 0 0.30437833157729138 -0.050030191142834718 0 0.30578263942781447 -0.063162038165263196 0 0.30437833157729138 -0.050030191142834718 0 0.29131619230104322 -0.058143587545290323 0 0.27695094771056789 -0.068227931739046441 0 0.27782626680149491 -0.047179166583673778 0 0.29131619230104322 -0.058143587545290323 0 0.30437833157729138 -0.050030191142834718 0 0.29131619230104322 -0.058143587545290323 0 0.29422220703988677 -0.03520982389624186 0 0.27782626680149491 -0.047179166583673778 0 0.27657815398881969 -0.023228094241604109 0 0.29422220703988677 -0.03520982389624186 0 0.27782626680149491 -0.047179166583673778 0 0.29131619230104322 -0.058143587545290323 0 0.29422220703988677 -0.03520982389624186 0 0.29088743089879759 -0.21046343325873529 0 0.28235051127690081 -0.2256956763206357 0 0.27492042730268501 -0.2120419468553765 0 0.29088743089879759 -0.21046343325873529 0 0.29000681215573088 -0.19612224355570479 0 0.27443681587377561 -0.19258099074571339 0 0.29088743089879759 -0.21046343325873529 0 0.27443681587377561 -0.19258099074571339 0 0.29000681215573088 -0.19612224355570479 0 0.27443681587377561 -0.19258099074571339 0 0.29093627325360788 -0.18499941149860211 0 0.29000681215573088 -0.19612224355570479 0 0.30376672859674247 -0.1964451387197686 0 0.29093627325360788 -0.18499941149860211 0 0.29088743089879759 -0.21046343325873529 0 0.29000681215573088 -0.19612224355570479 0 0.30376672859674247 -0.1964451387197686 0 0.30376672859674247 -0.1964451387197686 0 0.30280084191552398 -0.18288177877207851 0 0.32227392497438889 -0.18943105408729941 0 0.30376672859674247 -0.1964451387197686 0 0.29093627325360788 -0.18499941149860211 0 0.30280084191552398 -0.18288177877207851 0 0.29088743089879759 -0.21046343325873529 0 0.30733804592381958 -0.2283458757717573 0 0.31870430102254088 -0.2124152209056426 0 0.29088743089879759 -0.21046343325873529 0 0.30376672859674247 -0.1964451387197686 0 0.31870430102254088 -0.2124152209056426 0 0.29088743089879759 -0.21046343325873529 0 0.30733804592381958 -0.2283458757717573 0 0.30733804592381958 -0.2283458757717573 0 0.28666258092228158 -0.24261626380159881 0 0.3094467960271744 -0.25319919201670249 0 0.29088743089879759 -0.21046343325873529 0 0.30733804592381958 -0.2283458757717573 0 0.28235051127690081 -0.2256956763206357 0 0.30733804592381958 -0.2283458757717573 0 0.28666258092228158 -0.24261626380159881 0 0.28235051127690081 -0.2256956763206357 0 0.28666258092228158 -0.24261626380159881 0 0.28235051127690081 -0.2256956763206357 0 0.26528951869305012 -0.22941357322363459 0 0.28666258092228158 -0.24261626380159881 0 0.25468490016820272 -0.2485898315504726 0 0.26528951869305012 -0.22941357322363459 0 0.28235051127690081 -0.2256956763206357 0 0.26528951869305012 -0.22941357322363459 0 0.27492042730268501 -0.2120419468553765 0 0.26528951869305012 -0.22941357322363459 0 0.25172363415599802 -0.21332580686377009 0 0.24717602665790411 -0.22507627520281451 0 0.25468490016820272 -0.2485898315504726 0 0.26528951869305012 -0.22941357322363459 0 0.24717602665790411 -0.22507627520281451 0 0.25172363415599802 -0.21332580686377009 0 0.2616378597709012 -0.20205606072816321 0 0.24409064992538301 -0.1989195352933838 0 0.26528951869305012 -0.22941357322363459 0 0.25172363415599802 -0.21332580686377009 0 0.2616378597709012 -0.20205606072816321 0 0.26528951869305012 -0.22941357322363459 0 0.2616378597709012 -0.20205606072816321 0 0.26528951869305012 -0.22941357322363459 0 0.27492042730268501 -0.2120419468553765 0 0.2616378597709012 -0.20205606072816321 0 0.29088743089879759 -0.21046343325873529 0 0.27492042730268501 -0.2120419468553765 0 0.27443681587377561 -0.19258099074571339 0 0.27492042730268501 -0.2120419468553765 0 0.27443681587377561 -0.19258099074571339 0 0.2616378597709012 -0.20205606072816321 0 0.2616378597709012 -0.20205606072816321 0 0.24848521287850581 -0.1867230308233653 0 0.24409064992538301 -0.1989195352933838 0 0.2616378597709012 -0.20205606072816321 0 0.25798620084875301 -0.17469854823269179 0 0.27443681587377561 -0.19258099074571339 0 0.2616378597709012 -0.20205606072816321 0 0.25798620084875301 -0.17469854823269179 0 0.2616378597709012 -0.20205606072816321 0 0.25798620084875301 -0.17469854823269179 0 0.24848521287850581 -0.1867230308233653 0 0.25798620084875301 -0.17469854823269179 0 0.25424405677824552 -0.1466631387513202 0 0.25798620084875301 -0.17469854823269179 0 0.2711896122514717 -0.1625348462409974 0 0.25424405677824552 -0.1466631387513202 0 0.25798620084875301 -0.17469854823269179 0 0.24516962628396019 -0.1607664455410798 0 0.25798620084875301 -0.17469854823269179 0 0.25424405677824552 -0.1466631387513202 0 0.24516962628396019 -0.1607664455410798 0 0.25798620084875301 -0.17469854823269179 0 0.2711896122514717 -0.1625348462409974 0 0.27684698651095052 -0.17704265157514579 0 0.2711896122514717 -0.1625348462409974 0 0.28286717719972571 -0.14826923353218269 0 0.28450413983174722 -0.16526957118490651 0 0.2711896122514717 -0.1625348462409974 0 0.27684698651095052 -0.17704265157514579 0 0.28450413983174722 -0.16526957118490651 0 0.27443681587377561 -0.19258099074571339 0 0.25798620084875301 -0.17469854823269179 0 0.27684698651095052 -0.17704265157514579 0 0.27443681587377561 -0.19258099074571339 0 0.25798620084875301 -0.17469854823269179 0 0.27443681587377561 -0.19258099074571339 0 0.27684698651095052 -0.17704265157514579 0 0.29093627325360788 -0.18499941149860211 0 0.2647255962473376 -0.1268770055046575 0 0.25424405677824552 -0.1466631387513202 0 0.24205404588574109 -0.12800992710317699 0 0.2711896122514717 -0.1625348462409974 0 0.25424405677824552 -0.1466631387513202 0 0.28286717719972571 -0.14826923353218269 0 0.2647255962473376 -0.1268770055046575 0 0.25424405677824552 -0.1466631387513202 0 0.28286717719972571 -0.14826923353218269 0 0.28411695119671843 -0.1224923075123313 0 0.2647255962473376 -0.1268770055046575 0 0.28286717719972571 -0.14826923353218269 0 0.2647255962473376 -0.1268770055046575 0 0.28286717719972571 -0.14826923353218269 0 0.30224688909513941 -0.119366249487092 0 0.28411695119671843 -0.1224923075123313 0 0.30209166436712059 -0.13440112409450139 0 0.28411695119671843 -0.1224923075123313 0 0.28286717719972571 -0.14826923353218269 0 0.30209166436712059 -0.13440112409450139 0 0.28286717719972571 -0.14826923353218269 0 0.30172344853882888 -0.1485682305802899 0 0.30187787784622128 -0.15896577481032451 0 0.28286717719972571 -0.14826923353218269 0 0.30172344853882888 -0.1485682305802899 0 0.30209166436712059 -0.13440112409450139 0 0.30172344853882888 -0.1485682305802899 0 0.30903729253506013 -0.15512378209877831 0 0.30187787784622128 -0.15896577481032451 0 0.30172344853882888 -0.1485682305802899 0 0.30903729253506013 -0.15512378209877831 0 0.31419738425819921 -0.14461816013705461 0 0.30172344853882888 -0.1485682305802899 0 0.30209166436712059 -0.13440112409450139 0 0.31419738425819921 -0.14461816013705461 0 0.32263222010827441 -0.1240733106237263 0 0.30224688909513941 -0.119366249487092 0 0.30209166436712059 -0.13440112409450139 0 0.291272151736718 -0.17525073489461959 0 0.29566361592377111 -0.17915035644242019 0 0.29867313674811791 -0.1753809571069351 0 0.291272151736718 -0.17525073489461959 0 0.29566361592377111 -0.17915035644242019 0 0.29093627325360788 -0.18499941149860211 0 0.29566361592377111 -0.17915035644242019 0 0.29093627325360788 -0.18499941149860211 0 0.30280084191552398 -0.18288177877207851 0 0.27684698651095052 -0.17704265157514579 0 0.291272151736718 -0.17525073489461959 0 0.28450413983174722 -0.16526957118490651 0 0.27684698651095052 -0.17704265157514579 0 0.291272151736718 -0.17525073489461959 0 0.29093627325360788 -0.18499941149860211 0 0.28286717719972571 -0.14826923353218269 0 0.28450413983174722 -0.16526957118490651 0 0.30100875815211381 -0.1696614615597079 0 0.28286717719972571 -0.14826923353218269 0 0.30100875815211381 -0.1696614615597079 0 0.28286717719972571 -0.14826923353218269 0 0.30100875815211381 -0.1696614615597079 0 0.30187787784622128 -0.15896577481032451 0 0.291272151736718 -0.17525073489461959 0 0.28450413983174722 -0.16526957118490651 0 0.30100875815211381 -0.1696614615597079 0 0.30100875815211381 -0.1696614615597079 0 0.30187787784622128 -0.15896577481032451 0 0.30661316029192093 -0.16737810792831409 0 0.30100875815211381 -0.1696614615597079 0 0.30661316029192093 -0.16737810792831409 0 0.30435638433002948 -0.17307875825605179 0 0.30903729253506013 -0.15512378209877831 0 0.30187787784622128 -0.15896577481032451 0 0.31106156202843471 -0.163105041854954 0 0.30187787784622128 -0.15896577481032451 0 0.31106156202843471 -0.163105041854954 0 0.30661316029192093 -0.16737810792831409 0 0.31106156202843471 -0.163105041854954 0 0.30661316029192093 -0.16737810792831409 0 0.31476121910280502 -0.17207950316053239 0 0.30661316029192093 -0.16737810792831409 0 0.30435638433002948 -0.17307875825605179 0 0.31476121910280502 -0.17207950316053239 0 0.30435638433002948 -0.17307875825605179 0 0.30280084191552398 -0.18288177877207851 0 0.32227392497438889 -0.18943105408729941 0 0.30435638433002948 -0.17307875825605179 0 0.29867313674811791 -0.1753809571069351 0 0.30280084191552398 -0.18288177877207851 0 0.291272151736718 -0.17525073489461959 0 0.30100875815211381 -0.1696614615597079 0 0.29867313674811791 -0.1753809571069351 0 0.30100875815211381 -0.1696614615597079 0 0.30435638433002948 -0.17307875825605179 0 0.29867313674811791 -0.1753809571069351 0 0.29566361592377111 -0.17915035644242019 0 0.29867313674811791 -0.1753809571069351 0 0.30280084191552398 -0.18288177877207851 0 0.30435638433002948 -0.17307875825605179 0 0.32227392497438889 -0.18943105408729941 0 0.30435638433002948 -0.17307875825605179 0 0.31476121910280502 -0.17207950316053239 0 0.32227392497438889 -0.18943105408729941 0 0.3267829016948649 -0.17298783656618361 0 0.31476121910280502 -0.17207950316053239 0 0.32227392497438889 -0.18943105408729941 0 0.31106156202843471 -0.163105041854954 0 0.31476121910280502 -0.17207950316053239 0 0.32005548204861273 -0.16479911087741131 0 0.30903729253506013 -0.15512378209877831 0 0.31106156202843471 -0.163105041854954 0 0.31838920810224047 -0.155823631083887 0 0.31106156202843471 -0.163105041854954 0 0.32005548204861273 -0.16479911087741131 0 0.31838920810224047 -0.155823631083887 0 0.32005548204861273 -0.16479911087741131 0 0.3303519349897579 -0.1596836776155697 0 0.31838920810224047 -0.155823631083887 0 0.3267829016948649 -0.17298783656618361 0 0.32005548204861273 -0.16479911087741131 0 0.3303519349897579 -0.1596836776155697 0 0.3267829016948649 -0.17298783656618361 0 0.31476121910280502 -0.17207950316053239 0 0.32005548204861273 -0.16479911087741131 0 0.3267829016948649 -0.17298783656618361 0 0.3431686472664896 -0.16762944515774189 0 0.3303519349897579 -0.1596836776155697 0 0.3431686472664896 -0.16762944515774189 0 0.3303519349897579 -0.1596836776155697 0 0.34945044991857349 -0.1510076279543297 0 0.3267829016948649 -0.17298783656618361 0 0.345267088476713 -0.1850015957599864 0 0.32227392497438889 -0.18943105408729941 0 0.3267829016948649 -0.17298783656618361 0 0.3431686472664896 -0.16762944515774189 0 0.345267088476713 -0.1850015957599864 0 0.32263222010827441 -0.1240733106237263 0 0.30209166436712059 -0.13440112409450139 0 0.31419738425819921 -0.14461816013705461 0 0.32263222010827441 -0.1240733106237263 0 0.31419738425819921 -0.14461816013705461 0 0.33042475519599379 -0.14403503680370949 0 0.3303519349897579 -0.1596836776155697 0 0.31838920810224047 -0.155823631083887 0 0.33042475519599379 -0.14403503680370949 0 0.31419738425819921 -0.14461816013705461 0 0.31838920810224047 -0.155823631083887 0 0.33042475519599379 -0.14403503680370949 0 0.30903729253506013 -0.15512378209877831 0 0.31419738425819921 -0.14461816013705461 0 0.31838920810224047 -0.155823631083887 0 0.33042475519599379 -0.14403503680370949 0 0.34356507075037218 -0.13049189547197951 0 0.34945044991857349 -0.1510076279543297 0 0.3303519349897579 -0.1596836776155697 0 0.33042475519599379 -0.14403503680370949 0 0.34945044991857349 -0.1510076279543297 0 0.32263222010827441 -0.1240733106237263 0 0.33042475519599379 -0.14403503680370949 0 0.34356507075037218 -0.13049189547197951 0 0.34356507075037218 -0.13049189547197951 0 0.34945044991857349 -0.1510076279543297 0 0.36363825520792459 -0.13527717245356821 0 0.35611252315825481 -0.11693609627578209 0 0.34356507075037218 -0.13049189547197951 0 0.36363825520792459 -0.13527717245356821 0 0.34945044991857349 -0.1510076279543297 0 0.36801116407642281 -0.15120784038923099 0 0.36363825520792459 -0.13527717245356821 0 0.36801116407642281 -0.15120784038923099 0 0.36363825520792459 -0.13527717245356821 0 0.37976500704834831 -0.13928366528362721 0 0.37754585847843769 -0.12139827823442741 0 0.36363825520792459 -0.13527717245356821 0 0.37976500704834831 -0.13928366528362721 0 0.345267088476713 -0.1850015957599864 0 0.3645460938663086 -0.17046746637851881 0 0.36479910408859922 -0.1972595672226222 0 0.3431686472664896 -0.16762944515774189 0 0.345267088476713 -0.1850015957599864 0 0.3645460938663086 -0.17046746637851881 0 0.3431686472664896 -0.16762944515774189 0 0.34945044991857349 -0.1510076279543297 0 0.3645460938663086 -0.17046746637851881 0 0.34945044991857349 -0.1510076279543297 0 0.36801116407642281 -0.15120784038923099 0 0.3645460938663086 -0.17046746637851881 0 0.36801116407642281 -0.15120784038923099 0 0.3645460938663086 -0.17046746637851881 0 0.38697917761598738 -0.1548210931976341 0 0.3645460938663086 -0.17046746637851881 0 0.36479910408859922 -0.1972595672226222 0 0.3779998290113914 -0.18715554768643949 0 0.36479910408859922 -0.1972595672226222 0 0.35810900626310788 -0.22213564574979469 0 0.37582471082338431 -0.21882346819457291 0 0.34019146561874841 -0.20578334991854699 0 0.33657723023877378 -0.22431687963747721 0 0.35810900626310788 -0.22213564574979469 0 0.36479910408859922 -0.1972595672226222 0 0.34019146561874841 -0.20578334991854699 0 0.35810900626310788 -0.22213564574979469 0 0.34019146561874841 -0.20578334991854699 0 0.35810900626310788 -0.22213564574979469 0 0.345267088476713 -0.1850015957599864 0 0.36479910408859922 -0.1972595672226222 0 0.34019146561874841 -0.20578334991854699 0 0.34019146561874841 -0.20578334991854699 0 0.32227392497438889 -0.18943105408729941 0 0.345267088476713 -0.1850015957599864 0 0.34019146561874841 -0.20578334991854699 0 0.32227392497438889 -0.18943105408729941 0 0.34019146561874841 -0.20578334991854699 0 0.31870430102254088 -0.2124152209056426 0 0.33657723023877378 -0.22431687963747721 0 0.34019146561874841 -0.20578334991854699 0 0.31870430102254088 -0.2124152209056426 0 0.32227392497438889 -0.18943105408729941 0 0.30376672859674247 -0.1964451387197686 0 0.31870430102254088 -0.2124152209056426 0 0.32227392497438889 -0.18943105408729941 0 0.30733804592381958 -0.2283458757717573 0 0.32378866094884168 -0.24622831828477931 0 0.3094467960271744 -0.25319919201670249 0 0.32378866094884168 -0.24622831828477931 0 0.323206335601045 -0.22926945024387549 0 0.33211771922866778 -0.23722246156603979 0 0.32378866094884168 -0.24622831828477931 0 0.33267759927469898 -0.2497770962265036 0 0.3094467960271744 -0.25319919201670249 0 0.30733804592381958 -0.2283458757717573 0 0.32378866094884168 -0.24622831828477931 0 0.323206335601045 -0.22926945024387549 0 0.30733804592381958 -0.2283458757717573 0 0.32378866094884168 -0.24622831828477931 0 0.31870430102254088 -0.2124152209056426 0 0.323206335601045 -0.22926945024387549 0 0.33657723023877378 -0.22431687963747721 0 0.30733804592381958 -0.2283458757717573 0 0.31870430102254088 -0.2124152209056426 0 0.323206335601045 -0.22926945024387549 0 0.323206335601045 -0.22926945024387549 0 0.33657723023877378 -0.22431687963747721 0 0.33211771922866778 -0.23722246156603979 0 0.33657723023877378 -0.22431687963747721 0 0.33211771922866778 -0.23722246156603979 0 0.34379453957783568 -0.2364328164910808 0 0.33211771922866778 -0.23722246156603979 0 0.33267759927469898 -0.2497770962265036 0 0.34379453957783568 -0.2364328164910808 0 0.32378866094884168 -0.24622831828477931 0 0.33211771922866778 -0.23722246156603979 0 0.33267759927469898 -0.2497770962265036 0 0.33267759927469898 -0.2497770962265036 0 0.35590840252222361 -0.24635500043630471 0 0.34379453957783568 -0.2364328164910808 0 0.33267759927469898 -0.2497770962265036 0 0.35590840252222361 -0.24635500043630471 0 0.35590840252222361 -0.24635500043630471 0 0.34379453957783568 -0.2364328164910808 0 0.35810900626310788 -0.22213564574979469 0 0.33657723023877378 -0.22431687963747721 0 0.34379453957783568 -0.2364328164910808 0 0.35810900626310788 -0.22213564574979469 0 0.35810900626310788 -0.22213564574979469 0 0.3760265469074674 -0.23848794158104231 0 0.35810900626310788 -0.22213564574979469 0 0.3760265469074674 -0.23848794158104231 0 0.37582471082338431 -0.21882346819457291 0 0.35590840252222361 -0.24635500043630471 0 0.35810900626310788 -0.22213564574979469 0 0.3760265469074674 -0.23848794158104231 0 0.35590840252222361 -0.24635500043630471 0 0.37913920576974808 -0.24293290464610581 0 0.3760265469074674 -0.23848794158104231 0 0.35590840252222361 -0.24635500043630471 0 0.37913920576974808 -0.24293290464610581 0 0.35590840252222361 -0.24635500043630471 0 0.37913920576974808 -0.24293290464610581 0 0.36492086999457779 -0.25847959788689651 0 0.37913920576974808 -0.24293290464610581 0 0.40237000901727249 -0.23951080885590689 0 0.38945463473207648 -0.2323970280564327 0 0.37913920576974808 -0.24293290464610581 0 0.38855469990488062 -0.24808821460069189 0 0.40237000901727249 -0.23951080885590689 0 0.37913920576974808 -0.24293290464610581 0 0.38855469990488062 -0.24808821460069189 0 0.37991582211951458 -0.25484453829055681 0 0.37913920576974808 -0.24293290464610581 0 0.3760265469074674 -0.23848794158104231 0 0.38945463473207648 -0.2323970280564327 0 0.38855469990488062 -0.24808821460069189 0 0.40237000901727249 -0.23951080885590689 0 0.39279376271298733 -0.25506460661019809 0 0.37913920576974808 -0.24293290464610581 0 0.40237000901727249 -0.23951080885590689 0 0.40237000901727249 -0.23951080885590689 0 0.40357981403457421 -0.22203325743703581 0 0.38945463473207648 -0.2323970280564327 0 0.40357981403457421 -0.22203325743703581 0 0.38945463473207648 -0.2323970280564327 0 0.39067316389712892 -0.2043569512484586 0 0.3760265469074674 -0.23848794158104231 0 0.37582471082338431 -0.21882346819457291 0 0.38945463473207648 -0.2323970280564327 0 0.37582471082338431 -0.21882346819457291 0 0.38945463473207648 -0.2323970280564327 0 0.39067316389712892 -0.2043569512484586 0 0.36479910408859922 -0.1972595672226222 0 0.37582471082338431 -0.21882346819457291 0 0.39067316389712892 -0.2043569512484586 0 0.39067316389712892 -0.2043569512484586 0 0.3779998290113914 -0.18715554768643949 0 0.39198095419352902 -0.17653820589615871 0 0.36479910408859922 -0.1972595672226222 0 0.39067316389712892 -0.2043569512484586 0 0.3779998290113914 -0.18715554768643949 0 0.39067316389712892 -0.2043569512484586 0 0.41911132449748489 -0.20947217290751161 0 0.40638394375015402 -0.1932287321076567 0 0.39067316389712892 -0.2043569512484586 0 0.40638394375015402 -0.1932287321076567 0 0.39198095419352902 -0.17653820589615871 0 0.40357981403457421 -0.22203325743703581 0 0.39067316389712892 -0.2043569512484586 0 0.41911132449748489 -0.20947217290751161 0 0.41911132449748489 -0.20947217290751161 0 0.40638394375015402 -0.1932287321076567 0 0.42377033241247308 -0.18254759837849821 0 0.41911132449748489 -0.20947217290751161 0 0.43713339827268799 -0.19306485720113259 0 0.42377033241247308 -0.18254759837849821 0 0.41911132449748489 -0.20947217290751161 0 0.43713339827268799 -0.19306485720113259 0 0.44530621413818799 -0.21078161175632609 0 0.41911132449748489 -0.20947217290751161 0 0.43401833667079071 -0.2324179200786313 0 0.44530621413818799 -0.21078161175632609 0 0.41911132449748489 -0.20947217290751161 0 0.43401833667079071 -0.2324179200786313 0 0.41622864830193762 -0.23061443469802681 0 0.43401833667079071 -0.2324179200786313 0 0.4220637572895658 -0.2496380142110485 0 0.44310402817191508 -0.24976293279165429 0 0.43401833667079071 -0.2324179200786313 0 0.4220637572895658 -0.2496380142110485 0 0.41622864830193762 -0.23061443469802681 0 0.40237000901727249 -0.23951080885590689 0 0.4220637572895658 -0.2496380142110485 0 0.41622864830193762 -0.23061443469802681 0 0.40237000901727249 -0.23951080885590689 0 0.40357981403457421 -0.22203325743703581 0 0.41622864830193762 -0.23061443469802681 0 0.40357981403457421 -0.22203325743703581 0 0.41911132449748489 -0.20947217290751161 0 0.41622864830193762 -0.23061443469802681 0 0.37754585847843769 -0.12139827823442741 0 0.40265057986296909 -0.1337139421432755 0 0.37976500704834831 -0.13928366528362721 0 0.36801116407642281 -0.15120784038923099 0 0.37976500704834831 -0.13928366528362721 0 0.38697917761598738 -0.1548210931976341 0 0.40265057986296909 -0.1337139421432755 0 0.37976500704834831 -0.13928366528362721 0 0.38697917761598738 -0.1548210931976341 0 0.40265057986296909 -0.1337139421432755 0 0.38697917761598738 -0.1548210931976341 0 0.41321045613772112 -0.1581307702608869 0 0.38697917761598738 -0.1548210931976341 0 0.39198095419352902 -0.17653820589615871 0 0.41321045613772112 -0.1581307702608869 0 0.3645460938663086 -0.17046746637851881 0 0.38697917761598738 -0.1548210931976341 0 0.39198095419352902 -0.17653820589615871 0 0.3645460938663086 -0.17046746637851881 0 0.3779998290113914 -0.18715554768643949 0 0.39198095419352902 -0.17653820589615871 0 0.39198095419352902 -0.17653820589615871 0 0.42377033241247308 -0.18254759837849821 0 0.41321045613772112 -0.1581307702608869 0 0.40638394375015402 -0.1932287321076567 0 0.39198095419352902 -0.17653820589615871 0 0.42377033241247308 -0.18254759837849821 0 0.43713339827268799 -0.19306485720113259 0 0.42377033241247308 -0.18254759837849821 0 0.43513623902164739 -0.16778361321168511 0 0.42377033241247308 -0.18254759837849821 0 0.43513623902164739 -0.16778361321168511 0 0.41321045613772112 -0.1581307702608869 0 0.43513623902164739 -0.16778361321168511 0 0.41321045613772112 -0.1581307702608869 0 0.4250309584773086 -0.1478405572864705 0 0.42377033241247308 -0.18254759837849821 0 0.41321045613772112 -0.1581307702608869 0 0.40265057986296909 -0.1337139421432755 0 0.41321045613772112 -0.1581307702608869 0 0.40265057986296909 -0.1337139421432755 0 0.41321045613772112 -0.1581307702608869 0 0.4250309584773086 -0.1478405572864705 0 0.4250309584773086 -0.1478405572864705 0 0.43281910500380449 -0.13239128062791281 0 0.44127374140865572 -0.1492210802299353 0 0.43513623902164739 -0.16778361321168511 0 0.4250309584773086 -0.1478405572864705 0 0.44127374140865572 -0.1492210802299353 0 0.42195306352265022 -0.1150701960224727 0 0.40265057986296909 -0.1337139421432755 0 0.43281910500380449 -0.13239128062791281 0 0.40265057986296909 -0.1337139421432755 0 0.4250309584773086 -0.1478405572864705 0 0.43281910500380449 -0.13239128062791281 0 0.4595733277006665 -0.12970973692017801 0 0.44567821145373748 -0.13268369267693719 0 0.45430627427995918 -0.1462641825855524 0 0.4595733277006665 -0.12970973692017801 0 0.46896053999815313 -0.15588479714457609 0 0.47571860452291348 -0.13452359581537821 0 0.43281910500380449 -0.13239128062791281 0 0.44567821145373748 -0.13268369267693719 0 0.44127374140865572 -0.1492210802299353 0 0.44575202924648799 -0.1192121354624308 0 0.4595733277006665 -0.12970973692017801 0 0.44567821145373748 -0.13268369267693719 0 0.43660334572645648 -0.12115080575772071 0 0.43281910500380449 -0.13239128062791281 0 0.44567821145373748 -0.13268369267693719 0 0.44567821145373748 -0.13268369267693719 0 0.44127374140865572 -0.1492210802299353 0 0.45430627427995918 -0.1462641825855524 0 0.44127374140865572 -0.1492210802299353 0 0.45430627427995918 -0.1462641825855524 0 0.45539599435309769 -0.16414227705372339 0 0.4595733277006665 -0.12970973692017801 0 0.46896053999815313 -0.15588479714457609 0 0.45430627427995918 -0.1462641825855524 0 0.45539599435309769 -0.16414227705372339 0 0.46896053999815313 -0.15588479714457609 0 0.4595733277006665 -0.12970973692017801 0 0.45430627427995918 -0.1462641825855524 0 0.46896053999815313 -0.15588479714457609 0 0.45539599435309769 -0.16414227705372339 0 0.46229604968163129 -0.1798975447534569 0 0.47101505602632049 -0.1682064165160192 0 0.45539599435309769 -0.16414227705372339 0 0.47101505602632049 -0.1682064165160192 0 0.46896053999815313 -0.15588479714457609 0 0.43513623902164739 -0.16778361321168511 0 0.45539599435309769 -0.16414227705372339 0 0.45010645661371501 -0.18055710209182049 0 0.43513623902164739 -0.16778361321168511 0 0.44127374140865572 -0.1492210802299353 0 0.45539599435309769 -0.16414227705372339 0 0.43713339827268799 -0.19306485720113259 0 0.43513623902164739 -0.16778361321168511 0 0.45010645661371501 -0.18055710209182049 0 0.45010645661371501 -0.18055710209182049 0 0.46229604968163129 -0.1798975447534569 0 0.45551380465674851 -0.19433901759875671 0 0.45539599435309769 -0.16414227705372339 0 0.45010645661371501 -0.18055710209182049 0 0.46229604968163129 -0.1798975447534569 0 0.47101505602632049 -0.1682064165160192 0 0.47477800109630469 -0.19117917606549589 0 0.47834775229563969 -0.18205985736897429 0 0.47101505602632049 -0.1682064165160192 0 0.47477800109630469 -0.19117917606549589 0 0.46229604968163129 -0.1798975447534569 0 0.47101505602632049 -0.1682064165160192 0 0.47477800109630469 -0.19117917606549589 0 0.47834775229563969 -0.18205985736897429 0 0.5 -0.17542538701240179 0 0.48841780040061189 -0.19283614654736819 0 0.47834775229563969 -0.18205985736897429 0 0.5 -0.17542538701240179 0 0.48326201183498518 -0.16140995976711139 0 0.5 -0.17542538701240179 0 0.48326201183498518 -0.16140995976711139 0 0.5 -0.14600126683367881 0 0.47834775229563969 -0.18205985736897429 0 0.46896053999815313 -0.15588479714457609 0 0.47834775229563969 -0.18205985736897429 0 0.48326201183498518 -0.16140995976711139 0 0.46896053999815313 -0.15588479714457609 0 0.47834775229563969 -0.18205985736897429 0 0.47101505602632049 -0.1682064165160192 0 0.46896053999815313 -0.15588479714457609 0 0.48326201183498518 -0.16140995976711139 0 0.48799090218220298 -0.13998402730725859 0 0.47571860452291348 -0.13452359581537821 0 0.48326201183498518 -0.16140995976711139 0 0.47571860452291348 -0.13452359581537821 0 0.48326201183498518 -0.16140995976711139 0 0.46896053999815313 -0.15588479714457609 0 0.47571860452291348 -0.13452359581537821 0 0.48326201183498518 -0.16140995976711139 0 0.5 -0.14600126683367881 0 0.48799090218220298 -0.13998402730725859 0 0.50000000000000078 -0.1165771466549558 0 0.5 -0.14600126683367881 0 0.48909439227123902 -0.12823573739021379 0 0.5 -0.14600126683367881 0 0.48799090218220298 -0.13998402730725859 0 0.48909439227123902 -0.12823573739021379 0 0.48799090218220298 -0.13998402730725859 0 0.48909439227123902 -0.12823573739021379 0 0.47571860452291348 -0.13452359581537821 0 0.45877522717274971 -0.22733173771699289 0 0.46120092506200228 -0.24773812752529059 0 0.48230389123627299 -0.23712469516444959 0 0.45877522717274971 -0.22733173771699289 0 0.46120092506200228 -0.24773812752529059 0 0.44310402817191508 -0.24976293279165429 0 0.43401833667079071 -0.2324179200786313 0 0.45877522717274971 -0.22733173771699289 0 0.44310402817191508 -0.24976293279165429 0 0.43401833667079071 -0.2324179200786313 0 0.45877522717274971 -0.22733173771699289 0 0.44530621413818799 -0.21078161175632609 0 0.43713339827268799 -0.19306485720113259 0 0.44530621413818799 -0.21078161175632609 0 0.45551380465674851 -0.19433901759875671 0 0.43713339827268799 -0.19306485720113259 0 0.45010645661371501 -0.18055710209182049 0 0.45551380465674851 -0.19433901759875671 0 0.45551380465674851 -0.19433901759875671 0 0.46283422992945839 -0.20841301517159441 0 0.47477800109630469 -0.19117917606549589 0 0.46229604968163129 -0.1798975447534569 0 0.45551380465674851 -0.19433901759875671 0 0.47477800109630469 -0.19117917606549589 0 0.44530621413818799 -0.21078161175632609 0 0.45551380465674851 -0.19433901759875671 0 0.46283422992945839 -0.20841301517159441 0 0.45877522717274971 -0.22733173771699289 0 0.44530621413818799 -0.21078161175632609 0 0.46283422992945839 -0.20841301517159441 0 0.45877522717274971 -0.22733173771699289 0 0.46283422992945839 -0.20841301517159441 0 0.47854094616628878 -0.2141519356149727 0 0.46283422992945839 -0.20841301517159441 0 0.47854094616628878 -0.2141519356149727 0 0.47477800109630469 -0.19117917606549589 0 0.47854094616628878 -0.2141519356149727 0 0.47477800109630469 -0.19117917606549589 0 0.48841780040061189 -0.19283614654736819 0 0.47854094616628878 -0.2141519356149727 0 0.47477800109630469 -0.19117917606549589 0 0.47834775229563969 -0.18205985736897429 0 0.47477800109630469 -0.19117917606549589 0 0.48841780040061189 -0.19283614654736819 0 0.5 -0.17542538701240179 0 0.48841780040061189 -0.19283614654736819 0 0.5 -0.2048495071911248 0 0.47854094616628878 -0.2141519356149727 0 0.48841780040061189 -0.19283614654736819 0 0.5 -0.2048495071911248 0 0.47854094616628878 -0.2141519356149727 0 0.5 -0.2048495071911248 0 0.48929681748594939 -0.22418468614312789 0 0.48929681748594939 -0.22418468614312789 0 0.5 -0.234273627369848 0 0.48230389123627299 -0.23712469516444959 0 0.5 -0.2048495071911248 0 0.48929681748594939 -0.22418468614312789 0 0.5 -0.234273627369848 0 0.45877522717274971 -0.22733173771699289 0 0.47854094616628878 -0.2141519356149727 0 0.48230389123627299 -0.23712469516444959 0 0.47854094616628878 -0.2141519356149727 0 0.48230389123627299 -0.23712469516444959 0 0.47854094616628878 -0.2141519356149727 0 0.48929681748594939 -0.22418468614312789 0 0.48230389123627299 -0.23712469516444959 0 0.48230389123627299 -0.23712469516444959 0 0.48606683630625708 -0.26009745471392642 0 0.47557601251674719 -0.25219016918118492 0 0.46120092506200228 -0.24773812752529059 0 0.48230389123627299 -0.23712469516444959 0 0.47557601251674719 -0.25219016918118492 0 0.48230389123627299 -0.23712469516444959 0 0.48606683630625708 -0.26009745471392642 0 0.5 -0.234273627369848 0 0.48230389123627299 -0.23712469516444959 0 0.49209268188563249 -0.24879838119919881 0 0.48230389123627299 -0.23712469516444959 0 0.49209268188563249 -0.24879838119919881 0 0.48606683630625708 -0.26009745471392642 0 0.5 -0.234273627369848 0 0.49209268188563249 -0.24879838119919881 0 0.5 -0.26369774754857123 0 0.49209268188563249 -0.24879838119919881 0 0.5 -0.26369774754857123 0 0.48606683630625708 -0.26009745471392642 0 0.5 -0.26369774754857123 0 0.48862621156006658 -0.27711090110544578 0 0.5 -0.29312186772729432 0 0.5 -0.26369774754857123 0 0.48606683630625708 -0.26009745471392642 0 0.48862621156006658 -0.27711090110544578 0 0.48606683630625708 -0.26009745471392642 0 0.48862621156006658 -0.27711090110544578 0 0.47275504885202613 -0.27212518768757582 0 0.46120092506200228 -0.24773812752529059 0 0.47275504885202613 -0.27212518768757582 0 0.47557601251674719 -0.25219016918118492 0 0.48606683630625708 -0.26009745471392642 0 0.47275504885202613 -0.27212518768757582 0 0.47557601251674719 -0.25219016918118492 0 0.46120092506200228 -0.24773812752529059 0 0.47275504885202613 -0.27212518768757582 0 0.45151110058085192 -0.26604538694075458 0 0.46120092506200228 -0.24773812752529059 0 0.47275504885202613 -0.27212518768757582 0 0.47275504885202613 -0.27212518768757582 0 0.45151110058085192 -0.26604538694075458 0 0.4488319942061168 -0.28200392188131168 0 0.45151110058085192 -0.26604538694075458 0 0.4488319942061168 -0.28200392188131168 0 0.43105482225553071 -0.27540641027720769 0 0.46120092506200228 -0.24773812752529059 0 0.44310402817191508 -0.24976293279165429 0 0.45151110058085192 -0.26604538694075458 0 0.44310402817191508 -0.24976293279165429 0 0.45151110058085192 -0.26604538694075458 0 0.43105482225553071 -0.27540641027720769 0 0.44178882907062972 -0.29815816115361232 0 0.45503270468962193 -0.31796985545172529 0 0.43254905703443269 -0.31568178922457929 0 0.44178882907062972 -0.29815816115361232 0 0.4604138265784774 -0.29416452625120232 0 0.45503270468962193 -0.31796985545172529 0 0.44178882907062972 -0.29815816115361232 0 0.4488319942061168 -0.28200392188131168 0 0.4604138265784774 -0.29416452625120232 0 0.44178882907062972 -0.29815816115361232 0 0.4488319942061168 -0.28200392188131168 0 0.43105482225553071 -0.27540641027720769 0 0.47275504885202613 -0.27212518768757582 0 0.4488319942061168 -0.28200392188131168 0 0.4604138265784774 -0.29416452625120232 0 0.4604138265784774 -0.29416452625120232 0 0.46992489977179841 -0.30634281061303381 0 0.45503270468962193 -0.31796985545172529 0 0.46992489977179841 -0.30634281061303381 0 0.48430917264204992 -0.29651224784986108 0 0.47751635234481099 -0.32025792167887129 0 0.4604138265784774 -0.29416452625120232 0 0.46992489977179841 -0.30634281061303381 0 0.48430917264204992 -0.29651224784986108 0 0.47275504885202613 -0.27212518768757582 0 0.4604138265784774 -0.29416452625120232 0 0.48430917264204992 -0.29651224784986108 0 0.48862621156006658 -0.27711090110544578 0 0.47275504885202613 -0.27212518768757582 0 0.48430917264204992 -0.29651224784986108 0 0.47275504885202613 -0.27212518768757582 0 0.48430917264204992 -0.29651224784986108 0 0.48862621156006658 -0.27711090110544578 0 0.48430917264204992 -0.29651224784986108 0 0.5 -0.29312186772729432 0 0.48430917264204992 -0.29651224784986108 0 0.49586329643207377 -0.3208993080121465 0 0.48430917264204992 -0.29651224784986108 0 0.5 -0.29312186772729432 0 0.49586329643207377 -0.3208993080121465 0 0.5 -0.29312186772729432 0 0.50000000000000022 -0.32254598790601752 0 0.49586329643207377 -0.3208993080121465 0 0.48430917264204992 -0.29651224784986108 0 0.49586329643207377 -0.3208993080121465 0 0.47751635234481099 -0.32025792167887129 0 0.50000000000000022 -0.32254598790601752 0 0.48827725877637851 -0.33098460411623543 0 0.47751635234481099 -0.32025792167887129 0 0.50000000000000022 -0.32254598790601752 0 0.47751635234481099 -0.32025792167887129 0 0.50000000000000022 -0.32254598790601752 0 0.49586329643207377 -0.3208993080121465 0 0.47751635234481099 -0.32025792167887129 0 0.50000000000000022 -0.32254598790601752 0 0.49375525412367488 -0.34317626450788058 0 0.48827725877637851 -0.33098460411623543 0 0.50000000000000022 -0.32254598790601752 0 0.49375525412367488 -0.34317626450788058 0 0.5 -0.34547996994009061 0 0.49375525412367488 -0.34317626450788058 0 0.48506401612577521 -0.34055502566658019 0 0.48827725877637851 -0.33098460411623543 0 0.48827725877637851 -0.33098460411623543 0 0.4773402457937142 -0.33689819146217798 0 0.47751635234481099 -0.32025792167887129 0 0.4773402457937142 -0.33689819146217798 0 0.47751635234481099 -0.32025792167887129 0 0.46733066319551653 -0.33098061094983161 0 0.4773402457937142 -0.33689819146217798 0 0.46836500935489239 -0.34673524370501918 0 0.46733066319551653 -0.33098061094983161 0 0.48506401612577521 -0.34055502566658019 0 0.48827725877637851 -0.33098460411623543 0 0.4773402457937142 -0.33689819146217798 0 0.48506401612577521 -0.34055502566658019 0 0.4773402457937142 -0.33689819146217798 0 0.47768424165623979 -0.34621686662825901 0 0.4773402457937142 -0.33689819146217798 0 0.47768424165623979 -0.34621686662825901 0 0.46836500935489239 -0.34673524370501918 0 0.5 -0.36841395197416371 0 0.4939694662096093 -0.36679497065283417 0 0.5 -0.34547996994009061 0 0.48622372863643459 -0.3712253030042757 0 0.4939694662096093 -0.36679497065283417 0 0.4901954797884216 -0.37784926377390488 0 0.48622372863643459 -0.3712253030042757 0 0.4939694662096093 -0.36679497065283417 0 0.48705584708898592 -0.36507463474201629 0 0.4939694662096093 -0.36679497065283417 0 0.48705584708898592 -0.36507463474201629 0 0.48677204311679989 -0.35736324096681149 0 0.48622372863643459 -0.3712253030042757 0 0.48705584708898592 -0.36507463474201629 0 0.48125815039309988 -0.36491502434414369 0 0.48705584708898592 -0.36507463474201629 0 0.48677204311679989 -0.35736324096681149 0 0.48125815039309988 -0.36491502434414369 0 0.49375525412367488 -0.34317626450788058 0 0.4939694662096093 -0.36679497065283417 0 0.5 -0.34547996994009061 0 0.49375525412367488 -0.34317626450788058 0 0.4939694662096093 -0.36679497065283417 0 0.48677204311679989 -0.35736324096681149 0 0.49375525412367488 -0.34317626450788058 0 0.4939694662096093 -0.36679497065283417 0 0.49375525412367488 -0.34317626450788058 0 0.48506401612577521 -0.34055502566658019 0 0.48431296236104882 -0.34850663844785951 0 0.49375525412367488 -0.34317626450788058 0 0.48677204311679989 -0.35736324096681149 0 0.48431296236104882 -0.34850663844785951 0 0.47813511614653093 -0.35537911941460498 0 0.46893063421987158 -0.3645027837033511 0 0.46836500935489239 -0.34673524370501918 0 0.48431296236104882 -0.34850663844785951 0 0.47768424165623979 -0.34621686662825901 0 0.47813511614653093 -0.35537911941460498 0 0.48506401612577521 -0.34055502566658019 0 0.48431296236104882 -0.34850663844785951 0 0.47768424165623979 -0.34621686662825901 0 0.47768424165623979 -0.34621686662825901 0 0.47813511614653093 -0.35537911941460498 0 0.46836500935489239 -0.34673524370501918 0 0.48677204311679989 -0.35736324096681149 0 0.47813511614653093 -0.35537911941460498 0 0.48125815039309988 -0.36491502434414369 0 0.48677204311679989 -0.35736324096681149 0 0.48431296236104882 -0.34850663844785951 0 0.47813511614653093 -0.35537911941460498 0 0.46893063421987158 -0.3645027837033511 0 0.47841482603171731 -0.37394889871820758 0 0.46968245062632441 -0.38063919790843181 0 0.47813511614653093 -0.35537911941460498 0 0.48125815039309988 -0.36491502434414369 0 0.46893063421987158 -0.3645027837033511 0 0.48125815039309988 -0.36491502434414369 0 0.46893063421987158 -0.3645027837033511 0 0.47841482603171731 -0.37394889871820758 0 0.48622372863643459 -0.3712253030042757 0 0.48125815039309988 -0.36491502434414369 0 0.47841482603171731 -0.37394889871820758 0 0.48622372863643459 -0.3712253030042757 0 0.47841482603171731 -0.37394889871820758 0 0.48522501384092093 -0.37930962932604212 0 0.46893063421987158 -0.3645027837033511 0 0.45679121087966512 -0.37200285590609861 0 0.45755304889784271 -0.35486983947313983 0 0.46893063421987158 -0.3645027837033511 0 0.45679121087966512 -0.37200285590609861 0 0.46968245062632441 -0.38063919790843181 0 0.45755304889784271 -0.35486983947313983 0 0.46836500935489239 -0.34673524370501918 0 0.45639320878188627 -0.33738161532443761 0 0.46893063421987158 -0.3645027837033511 0 0.45755304889784271 -0.35486983947313983 0 0.46836500935489239 -0.34673524370501918 0 0.45755304889784271 -0.35486983947313983 0 0.4459091345319296 -0.34533872673191851 0 0.45639320878188627 -0.33738161532443761 0 0.45755304889784271 -0.35486983947313983 0 0.4459091345319296 -0.34533872673191851 0 0.44100350272775152 -0.35954628800020499 0 0.4459091345319296 -0.34533872673191851 0 0.44100350272775152 -0.35954628800020499 0 0.43271100708819538 -0.34431361949580158 0 0.45679121087966512 -0.37200285590609861 0 0.45755304889784271 -0.35486983947313983 0 0.44100350272775152 -0.35954628800020499 0 0.45679121087966512 -0.37200285590609861 0 0.44100350272775152 -0.35954628800020499 0 0.4442295615301447 -0.37743731318675172 0 0.47751635234481099 -0.32025792167887129 0 0.45503270468962193 -0.31796985545172529 0 0.46992489977179841 -0.30634281061303381 0 0.47751635234481099 -0.32025792167887129 0 0.45503270468962193 -0.31796985545172529 0 0.47751635234481099 -0.32025792167887129 0 0.45503270468962193 -0.31796985545172529 0 0.46733066319551653 -0.33098061094983161 0 0.46836500935489239 -0.34673524370501918 0 0.46733066319551653 -0.33098061094983161 0 0.45639320878188627 -0.33738161532443761 0 0.45503270468962193 -0.31796985545172529 0 0.46733066319551653 -0.33098061094983161 0 0.45639320878188627 -0.33738161532443761 0 0.45503270468962193 -0.31796985545172529 0 0.45639320878188627 -0.33738161532443761 0 0.44188490516397211 -0.33058227136600832 0 0.4459091345319296 -0.34533872673191851 0 0.45639320878188627 -0.33738161532443761 0 0.44188490516397211 -0.33058227136600832 0 0.4459091345319296 -0.34533872673191851 0 0.44188490516397211 -0.33058227136600832 0 0.43271100708819538 -0.34431361949580158 0 0.45503270468962193 -0.31796985545172529 0 0.43254905703443269 -0.31568178922457929 0 0.45503270468962193 -0.31796985545172529 0 0.44188490516397211 -0.33058227136600832 0 0.43254905703443269 -0.31568178922457929 0 0.44188490516397211 -0.33058227136600832 0 0.43254905703443269 -0.31568178922457929 0 0.41916643492680189 -0.33342812899628821 0 0.41916643492680189 -0.33342812899628821 0 0.43271100708819538 -0.34431361949580158 0 0.41781952950756718 -0.35334090086035502 0 0.44188490516397211 -0.33058227136600832 0 0.41916643492680189 -0.33342812899628821 0 0.43271100708819538 -0.34431361949580158 0 0.41916643492680189 -0.33342812899628821 0 0.41006540937924352 -0.31339372299743318 0 0.39557515747436478 -0.33218999575927077 0 0.43254905703443269 -0.31568178922457929 0 0.41916643492680189 -0.33342812899628821 0 0.41006540937924352 -0.31339372299743318 0 0.43254905703443269 -0.31568178922457929 0 0.41006540937924352 -0.31339372299743318 0 0.44100350272775152 -0.35954628800020499 0 0.4214653059945962 -0.37018525169540262 0 0.4442295615301447 -0.37743731318675172 0 0.44100350272775152 -0.35954628800020499 0 0.41781952950756718 -0.35334090086035502 0 0.4214653059945962 -0.37018525169540262 0 0.44100350272775152 -0.35954628800020499 0 0.43271100708819538 -0.34431361949580158 0 0.41781952950756718 -0.35334090086035502 0 0.41916643492680189 -0.33342812899628821 0 0.41781952950756718 -0.35334090086035502 0 0.40153937734896511 -0.34768577160097203 0 0.4214653059945962 -0.37018525169540262 0 0.40117714295851448 -0.37773802647738391 0 0.4214653059945962 -0.37018525169540262 0 0.396501122486278 -0.36265335360524892 0 0.40117714295851448 -0.37773802647738391 0 0.41781952950756718 -0.35334090086035502 0 0.4214653059945962 -0.37018525169540262 0 0.396501122486278 -0.36265335360524892 0 0.396501122486278 -0.36265335360524892 0 0.38596947919795049 -0.37311072518657568 0 0.40117714295851448 -0.37773802647738391 0 0.40153937734896511 -0.34768577160097203 0 0.38033408422481002 -0.35495094568450503 0 0.39557515747436478 -0.33218999575927077 0 0.41781952950756718 -0.35334090086035502 0 0.396501122486278 -0.36265335360524892 0 0.40153937734896511 -0.34768577160097203 0 0.396501122486278 -0.36265335360524892 0 0.40153937734896511 -0.34768577160097203 0 0.38033408422481002 -0.35495094568450503 0 0.396501122486278 -0.36265335360524892 0 0.38033408422481002 -0.35495094568450503 0 0.38139156553764619 -0.36493344010761131 0 0.396501122486278 -0.36265335360524892 0 0.38139156553764619 -0.36493344010761131 0 0.38596947919795049 -0.37311072518657568 0 0.38033408422481002 -0.35495094568450503 0 0.38139156553764619 -0.36493344010761131 0 0.37024235822851997 -0.36889454467248362 0 0.38139156553764619 -0.36493344010761131 0 0.37674075625426068 -0.37131438043027881 0 0.38596947919795049 -0.37311072518657568 0 0.38139156553764619 -0.36493344010761131 0 0.37674075625426068 -0.37131438043027881 0 0.37024235822851997 -0.36889454467248362 0 0.37674075625426068 -0.37131438043027881 0 0.37876455470332931 -0.37630369485746612 0 0.36995127388375693 -0.37272424252860559 0 0.37674075625426068 -0.37131438043027881 0 0.38596947919795049 -0.37311072518657568 0 0.37876455470332931 -0.37630369485746612 0 0.41006540937924352 -0.31339372299743318 0 0.39557515747436478 -0.33218999575927077 0 0.3830434263755424 -0.31750660438749351 0 0.41916643492680189 -0.33342812899628821 0 0.40153937734896511 -0.34768577160097203 0 0.39557515747436478 -0.33218999575927077 0 0.39557515747436478 -0.33218999575927077 0 0.3830434263755424 -0.31750660438749351 0 0.37053164203743338 -0.34080248239392408 0 0.38033408422481002 -0.35495094568450503 0 0.39557515747436478 -0.33218999575927077 0 0.37053164203743338 -0.34080248239392408 0 0.3830434263755424 -0.31750660438749351 0 0.37053164203743338 -0.34080248239392408 0 0.3830434263755424 -0.31750660438749351 0 0.39555521071365118 -0.29421072638106288 0 0.3830434263755424 -0.31750660438749351 0 0.39555521071365118 -0.29421072638106288 0 0.36745969894089697 -0.29645075326839471 0 0.41006540937924352 -0.31339372299743318 0 0.3830434263755424 -0.31750660438749351 0 0.39555521071365118 -0.29421072638106288 0 0.41006540937924352 -0.31339372299743318 0 0.39555521071365118 -0.29421072638106288 0 0.41161410249732078 -0.28712770838825102 0 0.39555521071365118 -0.29421072638106288 0 0.40493517012190577 -0.26778916528345931 0 0.41161410249732078 -0.28712770838825102 0 0.39555521071365118 -0.29421072638106288 0 0.37560794944872178 -0.27004212629592461 0 0.36745969894089697 -0.29645075326839471 0 0.37560794944872178 -0.27004212629592461 0 0.37991582211951458 -0.25484453829055681 0 0.39279376271298733 -0.25506460661019809 0 0.38855469990488062 -0.24808821460069189 0 0.37991582211951458 -0.25484453829055681 0 0.39279376271298733 -0.25506460661019809 0 0.37560794944872178 -0.27004212629592461 0 0.39279376271298733 -0.25506460661019809 0 0.40493517012190577 -0.26778916528345931 0 0.40237000901727249 -0.23951080885590689 0 0.39279376271298733 -0.25506460661019809 0 0.40493517012190577 -0.26778916528345931 0 0.39555521071365118 -0.29421072638106288 0 0.37560794944872178 -0.27004212629592461 0 0.40493517012190577 -0.26778916528345931 0 0.40493517012190577 -0.26778916528345931 0 0.43105482225553071 -0.27540641027720769 0 0.41161410249732078 -0.28712770838825102 0 0.40237000901727249 -0.23951080885590689 0 0.4220637572895658 -0.2496380142110485 0 0.40493517012190577 -0.26778916528345931 0 0.4220637572895658 -0.2496380142110485 0 0.40493517012190577 -0.26778916528345931 0 0.43105482225553071 -0.27540641027720769 0 0.4220637572895658 -0.2496380142110485 0 0.44310402817191508 -0.24976293279165429 0 0.43105482225553071 -0.27540641027720769 0 0.44178882907062972 -0.29815816115361232 0 0.43105482225553071 -0.27540641027720769 0 0.42453140940047168 -0.29708949631856302 0 0.43105482225553071 -0.27540641027720769 0 0.42453140940047168 -0.29708949631856302 0 0.41161410249732078 -0.28712770838825102 0 0.44178882907062972 -0.29815816115361232 0 0.43254905703443269 -0.31568178922457929 0 0.42453140940047168 -0.29708949631856302 0 0.43254905703443269 -0.31568178922457929 0 0.41006540937924352 -0.31339372299743318 0 0.42453140940047168 -0.29708949631856302 0 0.41006540937924352 -0.31339372299743318 0 0.42453140940047168 -0.29708949631856302 0 0.41161410249732078 -0.28712770838825102 0 0.4473227401546237 -0.47250574256636768 0 0.45498287594666398 -0.5 0 0.42959140209064589 -0.47805328374785711 0 0.4473227401546237 -0.47250574256636768 0 0.46218484360736828 -0.47570456923633792 0 0.45498287594666398 -0.5 0 0.46218484360736828 -0.47570456923633792 0 0.45498287594666398 -0.5 0 0.48214458610939442 -0.47388107087228742 0 0.45498287594666398 -0.5 0 0.5 -0.5 0 0.48214458610939442 -0.47388107087228742 0 0.5 -0.5 0 0.49999999999999828 -0.49133067823787752 0 0.48214458610939442 -0.47388107087228742 0 0.5 -0.47338562149783592 0 0.48214458610939442 -0.47388107087228742 0 0.48408556834482641 -0.46041343149580238 0 0.49999999999999828 -0.49133067823787752 0 0.5 -0.47338562149783592 0 0.48214458610939442 -0.47388107087228742 0 0.49999999999999828 -0.49133067823787752 0 0.48214458610939442 -0.47388107087228742 0 0.48214458610939442 -0.47388107087228742 0 0.48408556834482641 -0.46041343149580238 0 0.46428917221879118 -0.45643146350669628 0 0.46218484360736828 -0.47570456923633792 0 0.48214458610939442 -0.47388107087228742 0 0.46428917221879118 -0.45643146350669628 0 0.48408556834482641 -0.46041343149580238 0 0.47321687916409588 -0.44721121044945022 0 0.46428917221879118 -0.45643146350669628 0 0.48214458610939442 -0.47388107087228742 0 0.46428917221879118 -0.45643146350669628 0 0.48408556834482641 -0.46041343149580238 0 0.50000000000000466 -0.45544056475779432 0 0.47321687916409588 -0.44721121044945022 0 0.5 -0.47338562149783592 0 0.48408556834482641 -0.46041343149580238 0 0.50000000000000466 -0.45544056475779432 0 0.50000000000000466 -0.45544056475779432 0 0.48830885238781202 -0.4392605822325652 0 0.47321687916409588 -0.44721121044945022 0 0.50000000000000466 -0.45544056475779432 0 0.48830885238781202 -0.4392605822325652 0 0.5 -0.43486124040005208 0 0.50000000000000466 -0.45544056475779432 0 0.47321687916409588 -0.44721121044945022 0 0.48830885238781202 -0.4392605822325652 0 0.47321687916409588 -0.44721121044945022 0 0.47792527743145591 -0.42723434407923611 0 0.46428917221879118 -0.45643146350669628 0 0.44643375832818721 -0.4389818561411063 0 0.47321687916409588 -0.44721121044945022 0 0.44643375832818721 -0.4389818561411063 0 0.47321687916409588 -0.44721121044945022 0 0.46428917221879118 -0.45643146350669628 0 0.44643375832818721 -0.4389818561411063 0 0.4473227401546237 -0.47250574256636768 0 0.46218484360736828 -0.47570456923633792 0 0.46428917221879118 -0.45643146350669628 0 0.46428917221879118 -0.45643146350669628 0 0.44385299877683909 -0.46007066977101002 0 0.44824841274243687 -0.45026061042304211 0 0.4473227401546237 -0.47250574256636768 0 0.44385299877683909 -0.46007066977101002 0 0.43115488350423031 -0.4635323409739236 0 0.4473227401546237 -0.47250574256636768 0 0.46428917221879118 -0.45643146350669628 0 0.44385299877683909 -0.46007066977101002 0 0.44385299877683909 -0.46007066977101002 0 0.43808216674633949 -0.45100124718655638 0 0.43115488350423031 -0.4635323409739236 0 0.44385299877683909 -0.46007066977101002 0 0.43808216674633949 -0.45100124718655638 0 0.44824841274243687 -0.45026061042304211 0 0.43808216674633949 -0.45100124718655638 0 0.44824841274243687 -0.45026061042304211 0 0.43330768178585649 -0.43494875129096527 0 0.46428917221879118 -0.45643146350669628 0 0.44643375832818721 -0.4389818561411063 0 0.44824841274243687 -0.45026061042304211 0 0.44643375832818721 -0.4389818561411063 0 0.44824841274243687 -0.45026061042304211 0 0.43330768178585649 -0.43494875129096527 0 0.44824841274243687 -0.45026061042304211 0 0.43330768178585649 -0.43494875129096527 0 0.44643375832818721 -0.4389818561411063 0 0.45306059240922603 -0.42352027284106919 0 0.43775541562622622 -0.43050074930924592 0 0.44643375832818721 -0.4389818561411063 0 0.43775541562622622 -0.43050074930924592 0 0.43330768178585649 -0.43494875129096527 0 0.44643375832818721 -0.4389818561411063 0 0.43775541562622622 -0.43050074930924592 0 0.44643375832818721 -0.4389818561411063 0 0.43330768178585649 -0.43494875129096527 0 0.45306059240922603 -0.42352027284106919 0 0.43775541562622622 -0.43050074930924592 0 0.43997871592012461 -0.42150534445044041 0 0.45306059240922603 -0.42352027284106919 0 0.43759603566234989 -0.41150227485232221 0 0.4659969630219139 -0.41276732889753243 0 0.45306059240922603 -0.42352027284106919 0 0.43997871592012461 -0.42150534445044041 0 0.43759603566234989 -0.41150227485232221 0 0.43759603566234989 -0.41150227485232221 0 0.4659969630219139 -0.41276732889753243 0 0.45306059240922603 -0.42352027284106919 0 0.4659969630219139 -0.41276732889753243 0 0.47792527743145591 -0.42723434407923611 0 0.47321687916409588 -0.44721121044945022 0 0.45306059240922603 -0.42352027284106919 0 0.47792527743145591 -0.42723434407923611 0 0.47321687916409588 -0.44721121044945022 0 0.44643375832818721 -0.4389818561411063 0 0.45306059240922603 -0.42352027284106919 0 0.49453061215658978 -0.42866608856082838 0 0.5 -0.43486124040005208 0 0.50000000000000044 -0.41428191604231002 0 0.48830885238781202 -0.4392605822325652 0 0.47792527743145591 -0.42723434407923611 0 0.49453061215658978 -0.42866608856082838 0 0.47792527743145591 -0.42723434407923611 0 0.49453061215658978 -0.42866608856082838 0 0.49439789038147802 -0.41403238294274131 0 0.48830885238781202 -0.4392605822325652 0 0.49453061215658978 -0.42866608856082838 0 0.5 -0.43486124040005208 0 0.49439789038147802 -0.41403238294274131 0 0.50000000000000044 -0.41428191604231002 0 0.5 -0.39134793400823681 0 0.49453061215658978 -0.42866608856082838 0 0.49439789038147802 -0.41403238294274131 0 0.50000000000000044 -0.41428191604231002 0 0.49453061215658978 -0.42866608856082838 0 0.49439789038147802 -0.41403238294274131 0 0.49439789038147802 -0.41403238294274131 0 0.50000000000000044 -0.41428191604231002 0 0.4659969630219139 -0.41276732889753243 0 0.49439789038147802 -0.41403238294274131 0 0.4659969630219139 -0.41276732889753243 0 0.49439789038147802 -0.41403238294274131 0 0.48805266320587432 -0.40227960709900618 0 0.4659969630219139 -0.41276732889753243 0 0.47792527743145591 -0.42723434407923611 0 0.49439789038147802 -0.41403238294274131 0 0.4659969630219139 -0.41276732889753243 0 0.47746709931850728 -0.39361109903191671 0 0.48805266320587432 -0.40227960709900618 0 0.47746709931850728 -0.39361109903191671 0 0.48635305044918181 -0.39344196038768159 0 0.4857087609768021 -0.38746345862201581 0 0.47746709931850728 -0.39361109903191671 0 0.48805266320587432 -0.40227960709900618 0 0.48635305044918181 -0.39344196038768159 0 0.49439789038147802 -0.41403238294274131 0 0.49418367829554372 -0.39041367679778771 0 0.49439789038147802 -0.41403238294274131 0 0.5 -0.39134793400823681 0 0.49418367829554372 -0.39041367679778771 0 0.49439789038147802 -0.41403238294274131 0 0.48805266320587432 -0.40227960709900618 0 0.49418367829554372 -0.39041367679778771 0 0.48805266320587432 -0.40227960709900618 0 0.48635305044918181 -0.39344196038768159 0 0.49418367829554372 -0.39041367679778771 0 0.5 -0.36841395197416371 0 0.5 -0.39134793400823681 0 0.49418367829554372 -0.39041367679778771 0 0.4939694662096093 -0.36679497065283417 0 0.49418367829554372 -0.39041367679778771 0 0.4939694662096093 -0.36679497065283417 0 0.49418367829554372 -0.39041367679778771 0 0.4901954797884216 -0.37784926377390488 0 0.5 -0.36841395197416371 0 0.4939694662096093 -0.36679497065283417 0 0.49418367829554372 -0.39041367679778771 0 0.49418367829554372 -0.39041367679778771 0 0.48911126419588608 -0.38350831068089841 0 0.4901954797884216 -0.37784926377390488 0 0.4857087609768021 -0.38746345862201581 0 0.48911126419588608 -0.38350831068089841 0 0.48522501384092093 -0.37930962932604212 0 0.48635305044918181 -0.39344196038768159 0 0.49418367829554372 -0.39041367679778771 0 0.4857087609768021 -0.38746345862201581 0 0.49418367829554372 -0.39041367679778771 0 0.4857087609768021 -0.38746345862201581 0 0.48911126419588608 -0.38350831068089841 0 0.48911126419588608 -0.38350831068089841 0 0.48522501384092093 -0.37930962932604212 0 0.4901954797884216 -0.37784926377390488 0 0.48622372863643459 -0.3712253030042757 0 0.48522501384092093 -0.37930962932604212 0 0.4901954797884216 -0.37784926377390488 0 0.47841482603171731 -0.37394889871820758 0 0.48522501384092093 -0.37930962932604212 0 0.47916897847365231 -0.38310145402300128 0 0.4857087609768021 -0.38746345862201581 0 0.48522501384092093 -0.37930962932604212 0 0.47916897847365231 -0.38310145402300128 0 0.47746709931850728 -0.39361109903191671 0 0.4857087609768021 -0.38746345862201581 0 0.47916897847365231 -0.38310145402300128 0 0.47746709931850728 -0.39361109903191671 0 0.47916897847365231 -0.38310145402300128 0 0.46968245062632441 -0.38063919790843181 0 0.47841482603171731 -0.37394889871820758 0 0.47916897847365231 -0.38310145402300128 0 0.46968245062632441 -0.38063919790843181 0 0.47746709931850728 -0.39361109903191671 0 0.46968245062632441 -0.38063919790843181 0 0.45562819881696781 -0.39174331286357728 0 0.45679121087966512 -0.37200285590609861 0 0.46968245062632441 -0.38063919790843181 0 0.45562819881696781 -0.39174331286357728 0 0.4659969630219139 -0.41276732889753243 0 0.47746709931850728 -0.39361109903191671 0 0.45562819881696781 -0.39174331286357728 0 0.43759603566234989 -0.41150227485232221 0 0.4659969630219139 -0.41276732889753243 0 0.45562819881696781 -0.39174331286357728 0 0.43759603566234989 -0.41150227485232221 0 0.45562819881696781 -0.39174331286357728 0 0.43608412548858222 -0.39287712013651482 0 0.45562819881696781 -0.39174331286357728 0 0.4442295615301447 -0.37743731318675172 0 0.43608412548858222 -0.39287712013651482 0 0.45679121087966512 -0.37200285590609861 0 0.45562819881696781 -0.39174331286357728 0 0.4442295615301447 -0.37743731318675172 0 0.4214653059945962 -0.37018525169540262 0 0.4442295615301447 -0.37743731318675172 0 0.43608412548858222 -0.39287712013651482 0 0.4214653059945962 -0.37018525169540262 0 0.43608412548858222 -0.39287712013651482 0 0.4174973126108289 -0.39095029694570149 0 0.43759603566234989 -0.41150227485232221 0 0.43608412548858222 -0.39287712013651482 0 0.4174973126108289 -0.39095029694570149 0 0.4174973126108289 -0.39095029694570149 0 0.40585679732335911 -0.39312361512003208 0 0.40919510830278621 -0.41023722080711178 0 0.43759603566234989 -0.41150227485232221 0 0.4174973126108289 -0.39095029694570149 0 0.40919510830278621 -0.41023722080711178 0 0.4174973126108289 -0.39095029694570149 0 0.40117714295851448 -0.37773802647738391 0 0.40585679732335911 -0.39312361512003208 0 0.4214653059945962 -0.37018525169540262 0 0.4174973126108289 -0.39095029694570149 0 0.40117714295851448 -0.37773802647738391 0 0.40117714295851448 -0.37773802647738391 0 0.38088897992243281 -0.38529080125936521 0 0.40117714295851448 -0.37773802647738391 0 0.39779576963717489 -0.38828943142533617 0 0.40585679732335911 -0.39312361512003208 0 0.40117714295851448 -0.37773802647738391 0 0.39779576963717489 -0.38828943142533617 0 0.38682994497631412 -0.38731650619709568 0 0.40117714295851448 -0.37773802647738391 0 0.38682994497631412 -0.38731650619709568 0 0.38088897992243281 -0.38529080125936521 0 0.38596947919795049 -0.37311072518657568 0 0.40117714295851448 -0.37773802647738391 0 0.38088897992243281 -0.38529080125936521 0 0.38088897992243281 -0.38529080125936521 0 0.37876455470332931 -0.37630369485746612 0 0.36995127388375693 -0.37272424252860559 0 0.38596947919795049 -0.37311072518657568 0 0.38088897992243281 -0.38529080125936521 0 0.37876455470332931 -0.37630369485746612 0 0.38088897992243281 -0.38529080125936521 0 0.36995127388375693 -0.37272424252860559 0 0.38088897992243281 -0.38529080125936521 0 0.39814873643407489 -0.40512089571566451 0 0.38682994497631412 -0.38731650619709568 0 0.38088897992243281 -0.38529080125936521 0 0.39814873643407489 -0.40512089571566451 0 0.38088897992243281 -0.38529080125936521 0 0.38530884034723029 -0.40273671111332332 0 0.39814873643407489 -0.40512089571566451 0 0.38088897992243281 -0.38529080125936521 0 0.38530884034723029 -0.40273671111332332 0 0.37412271587425328 -0.39599743169976098 0 0.38530884034723029 -0.40273671111332332 0 0.37366734299772741 -0.40865471814276422 0 0.37412271587425328 -0.39599743169976098 0 0.39801252663955022 -0.39877686350210378 0 0.40585679732335911 -0.39312361512003208 0 0.40919510830278621 -0.41023722080711178 0 0.38682994497631412 -0.38731650619709568 0 0.39826018400487218 -0.40264941397420961 0 0.39814873643407489 -0.40512089571566451 0 0.38530884034723029 -0.40273671111332332 0 0.39814873643407489 -0.40512089571566451 0 0.39794062937799751 -0.4097359159056807 0 0.39826018400487218 -0.40264941397420961 0 0.39814873643407489 -0.40512089571566451 0 0.39779576963717489 -0.38828943142533617 0 0.38682994497631412 -0.38731650619709568 0 0.39801252663955022 -0.39877686350210378 0 0.38682994497631412 -0.38731650619709568 0 0.39801252663955022 -0.39877686350210378 0 0.38682994497631412 -0.38731650619709568 0 0.39801252663955022 -0.39877686350210378 0 0.39826018400487218 -0.40264941397420961 0 0.39779576963717489 -0.38828943142533617 0 0.39801252663955022 -0.39877686350210378 0 0.40585679732335911 -0.39312361512003208 0 0.39801252663955022 -0.39877686350210378 0 0.39826018400487218 -0.40264941397420961 0 0.40919510830278621 -0.41023722080711178 0 0.39801252663955022 -0.39877686350210378 0 0.40919510830278621 -0.41023722080711178 0 0.39826018400487218 -0.40264941397420961 0 0.39814873643407489 -0.40512089571566451 0 0.40233597046085068 -0.40993169627392267 0 0.39826018400487218 -0.40264941397420961 0 0.40233597046085068 -0.40993169627392267 0 0.40919510830278621 -0.41023722080711178 0 0.40233597046085068 -0.40993169627392267 0 0.40919510830278621 -0.41023722080711178 0 0.39814873643407489 -0.40512089571566451 0 0.40233597046085068 -0.40993169627392267 0 0.39794062937799751 -0.4097359159056807 0 0.39814873643407489 -0.40512089571566451 0 0.40233597046085068 -0.40993169627392267 0 0.40233597046085068 -0.40993169627392267 0 0.39794062937799751 -0.4097359159056807 0 0.40233597046085068 -0.40993169627392267 0 0.39794062937799751 -0.4097359159056807 0 0.39730256021742411 -0.42388585447184629 0 0.39794062937799751 -0.4097359159056807 0 0.39059038972594551 -0.41579832149010909 0 0.39730256021742411 -0.42388585447184629 0 0.39794062937799751 -0.4097359159056807 0 0.39730256021742411 -0.42388585447184629 0 0.39814873643407489 -0.40512089571566451 0 0.39794062937799751 -0.4097359159056807 0 0.39794062937799751 -0.4097359159056807 0 0.3828610597281753 -0.41145386010798157 0 0.37366734299772741 -0.40865471814276422 0 0.39794062937799751 -0.4097359159056807 0 0.3828610597281753 -0.41145386010798157 0 0.39059038972594551 -0.41579832149010909 0 0.39794062937799751 -0.4097359159056807 0 0.37366734299772741 -0.40865471814276422 0 0.38530884034723029 -0.40273671111332332 0 0.39794062937799751 -0.4097359159056807 0 0.37366734299772741 -0.40865471814276422 0 0.3828604032507098 -0.41944837209688768 0 0.39730256021742411 -0.42388585447184629 0 0.3828610597281753 -0.41145386010798157 0 0.39059038972594551 -0.41579832149010909 0 0.3828604032507098 -0.41944837209688768 0 0.39059038972594551 -0.41579832149010909 0 0.3828604032507098 -0.41944837209688768 0 0.39730256021742411 -0.42388585447184629 0 0.3828610597281753 -0.41145386010798157 0 0.3828604032507098 -0.41944837209688768 0 0.37776791377421431 -0.41480340443533631 0 0.3828604032507098 -0.41944837209688768 0 0.37776791377421431 -0.41480340443533631 0 0.3716828491202448 -0.41965666739371082 0 0.3828610597281753 -0.41145386010798157 0 0.37776791377421431 -0.41480340443533631 0 0.37366734299772741 -0.40865471814276422 0 0.3828610597281753 -0.41145386010798157 0 0.37366734299772741 -0.40865471814276422 0 0.37621106012865901 -0.42784493047945871 0 0.38632713301018629 -0.432157516615231 0 0.37788317538875837 -0.44008867528107409 0 0.3828604032507098 -0.41944837209688768 0 0.37621106012865901 -0.42784493047945871 0 0.3716828491202448 -0.41965666739371082 0 0.3828604032507098 -0.41944837209688768 0 0.37621106012865901 -0.42784493047945871 0 0.38632713301018629 -0.432157516615231 0 0.3828604032507098 -0.41944837209688768 0 0.38632713301018629 -0.432157516615231 0 0.39730256021742411 -0.42388585447184629 0 0.38632713301018629 -0.432157516615231 0 0.39730256021742411 -0.42388585447184629 0 0.39615847777217172 -0.44925723631456271 0 0.39730256021742411 -0.42388585447184629 0 0.39615847777217172 -0.44925723631456271 0 0.39730256021742411 -0.42388585447184629 0 0.40781359083197588 -0.43893562872530678 0 0.39615847777217172 -0.44925723631456271 0 0.39730256021742411 -0.42388585447184629 0 0.42075277039008069 -0.43109114205943888 0 0.40781359083197588 -0.43893562872530678 0 0.39730256021742411 -0.42388585447184629 0 0.42075277039008069 -0.43109114205943888 0 0.42075277039008069 -0.43109114205943888 0 0.42125139504432108 -0.42259298604903872 0 0.40919510830278621 -0.41023722080711178 0 0.40233597046085068 -0.40993169627392267 0 0.42075277039008069 -0.43109114205943888 0 0.40919510830278621 -0.41023722080711178 0 0.40233597046085068 -0.40993169627392267 0 0.39730256021742411 -0.42388585447184629 0 0.42075277039008069 -0.43109114205943888 0 0.40233597046085068 -0.40993169627392267 0 0.42075277039008069 -0.43109114205943888 0 0.42125139504432108 -0.42259298604903872 0 0.40919510830278621 -0.41023722080711178 0 0.43759603566234989 -0.41150227485232221 0 0.42125139504432108 -0.42259298604903872 0 0.40919510830278621 -0.41023722080711178 0 0.43759603566234989 -0.41150227485232221 0 0.40919510830278621 -0.41023722080711178 0 0.43997871592012461 -0.42150534445044041 0 0.43759603566234989 -0.41150227485232221 0 0.42125139504432108 -0.42259298604903872 0 0.43775541562622622 -0.43050074930924592 0 0.42125139504432108 -0.42259298604903872 0 0.43330768178585649 -0.43494875129096527 0 0.43775541562622622 -0.43050074930924592 0 0.43997871592012461 -0.42150534445044041 0 0.42125139504432108 -0.42259298604903872 0 0.42075277039008069 -0.43109114205943888 0 0.43330768178585649 -0.43494875129096527 0 0.42075277039008069 -0.43109114205943888 0 0.42125139504432108 -0.42259298604903872 0 0.43330768178585649 -0.43494875129096527 0 0.42125139504432108 -0.42259298604903872 0 0.43330768178585649 -0.43494875129096527 0 0.43808216674633949 -0.45100124718655638 0 0.42075277039008069 -0.43109114205943888 0 0.43808216674633949 -0.45100124718655638 0 0.42075277039008069 -0.43109114205943888 0 0.43330768178585649 -0.43494875129096527 0 0.43808216674633949 -0.45100124718655638 0 0.42075277039008069 -0.43109114205943888 0 0.41704055494822662 -0.45150828205537968 0 0.43808216674633949 -0.45100124718655638 0 0.43115488350423031 -0.4635323409739236 0 0.41704055494822662 -0.45150828205537968 0 0.41205426986781313 -0.46763546722469951 0 0.41704055494822662 -0.45150828205537968 0 0.39615847777217172 -0.44925723631456271 0 0.43115488350423031 -0.4635323409739236 0 0.41205426986781313 -0.46763546722469951 0 0.41704055494822662 -0.45150828205537968 0 0.40781359083197588 -0.43893562872530678 0 0.41704055494822662 -0.45150828205537968 0 0.39615847777217172 -0.44925723631456271 0 0.42075277039008069 -0.43109114205943888 0 0.40781359083197588 -0.43893562872530678 0 0.41704055494822662 -0.45150828205537968 0 0.39615847777217172 -0.44925723631456271 0 0.37788317538875837 -0.44008867528107409 0 0.37796178789955981 -0.45786786345830832 0 0.38632713301018629 -0.432157516615231 0 0.39615847777217172 -0.44925723631456271 0 0.37788317538875837 -0.44008867528107409 0 0.39615847777217172 -0.44925723631456271 0 0.37796178789955981 -0.45786786345830832 0 0.3950143953269189 -0.47462861815727919 0 0.39615847777217172 -0.44925723631456271 0 0.3950143953269189 -0.47462861815727919 0 0.41205426986781313 -0.46763546722469951 0 0.39615847777217172 -0.44925723631456271 0 0.3950143953269189 -0.47462861815727919 0 0.37796178789955981 -0.45786786345830832 0 0.3950143953269189 -0.47462861815727919 0 0.37577051982334131 -0.47990805250912139 0 0.3950143953269189 -0.47462861815727919 0 0.37577051982334131 -0.47990805250912139 0 0.39162947434426049 -0.50000000000000133 0 0.37577051982334131 -0.47990805250912139 0 0.39162947434426049 -0.50000000000000133 0 0.37577051982334131 -0.47990805250912139 0 0.39162947434426049 -0.50000000000000133 0 0.36244674742459337 -0.5 0 0.3950143953269189 -0.47462861815727919 0 0.3938703128816663 -0.49999999999999573 0 0.4148479895434255 -0.48473607191545209 0 0.3950143953269189 -0.47462861815727919 0 0.3938703128816663 -0.49999999999999573 0 0.3950143953269189 -0.47462861815727919 0 0.3938703128816663 -0.49999999999999573 0 0.39162947434426049 -0.50000000000000133 0 0.45498287594666398 -0.5 0 0.3938703128816663 -0.49999999999999573 0 0.4148479895434255 -0.48473607191545209 0 0.45498287594666398 -0.5 0 0.4148479895434255 -0.48473607191545209 0 0.42959140209064589 -0.47805328374785711 0 0.41205426986781313 -0.46763546722469951 0 0.4148479895434255 -0.48473607191545209 0 0.42959140209064589 -0.47805328374785711 0 0.41205426986781313 -0.46763546722469951 0 0.3950143953269189 -0.47462861815727919 0 0.4148479895434255 -0.48473607191545209 0 0.43115488350423031 -0.4635323409739236 0 0.41205426986781313 -0.46763546722469951 0 0.42959140209064589 -0.47805328374785711 0 0.4473227401546237 -0.47250574256636768 0 0.43115488350423031 -0.4635323409739236 0 0.42959140209064589 -0.47805328374785711 0 0.31915562009020498 -0.49263006973990042 0 0.33163375842916148 -0.4842328387519228 0 0.3332640205049261 -0.5 0 0.31915562009020498 -0.49263006973990042 0 0.3332640205049261 -0.5 0 0.30408129358525848 -0.5 0 0.31915562009020498 -0.49263006973990042 0 0.31321572107443119 -0.47430243654625948 0 0.33163375842916148 -0.4842328387519228 0 0.31321572107443119 -0.47430243654625948 0 0.33163375842916148 -0.4842328387519228 0 0.33380439782167848 -0.46820974227312262 0 0.33163375842916148 -0.4842328387519228 0 0.34785538396476001 -0.48269753374291768 0 0.33380439782167848 -0.46820974227312262 0 0.33163375842916148 -0.4842328387519228 0 0.3332640205049261 -0.5 0 0.34785538396476001 -0.48269753374291768 0 0.3332640205049261 -0.5 0 0.36244674742459337 -0.5 0 0.34785538396476001 -0.48269753374291768 0 0.37577051982334131 -0.47990805250912139 0 0.36244674742459337 -0.5 0 0.34785538396476001 -0.48269753374291768 0 0.37577051982334131 -0.47990805250912139 0 0.34785538396476001 -0.48269753374291768 0 0.35991156530242258 -0.45981610501824088 0 0.37577051982334131 -0.47990805250912139 0 0.35991156530242258 -0.45981610501824088 0 0.34785538396476001 -0.48269753374291768 0 0.35991156530242258 -0.45981610501824088 0 0.33380439782167848 -0.46820974227312262 0 0.37796178789955981 -0.45786786345830832 0 0.37577051982334131 -0.47990805250912139 0 0.35991156530242258 -0.45981610501824088 0 0.37796178789955981 -0.45786786345830832 0 0.35991156530242258 -0.45981610501824088 0 0.36303259378374608 -0.443508493469572 0 0.37788317538875837 -0.44008867528107409 0 0.37796178789955981 -0.45786786345830832 0 0.36303259378374608 -0.443508493469572 0 0.35991156530242258 -0.45981610501824088 0 0.34405261078150401 -0.43972415752736049 0 0.33223787671488431 -0.45074106635245448 0 0.35991156530242258 -0.45981610501824088 0 0.34405261078150401 -0.43972415752736049 0 0.35991156530242258 -0.45981610501824088 0 0.36303259378374608 -0.443508493469572 0 0.34405261078150401 -0.43972415752736049 0 0.34405261078150401 -0.43972415752736049 0 0.33223787671488431 -0.45074106635245448 0 0.32969757635995101 -0.43665775958312808 0 0.35991156530242258 -0.45981610501824088 0 0.33223787671488431 -0.45074106635245448 0 0.33380439782167848 -0.46820974227312262 0 0.31321572107443119 -0.47430243654625948 0 0.33380439782167848 -0.46820974227312262 0 0.31584315768292831 -0.45714830621054781 0 0.33223787671488431 -0.45074106635245448 0 0.33380439782167848 -0.46820974227312262 0 0.31584315768292831 -0.45714830621054781 0 0.33223787671488431 -0.45074106635245448 0 0.31584315768292831 -0.45714830621054781 0 0.3158259635528376 -0.44265980168566488 0 0.33223787671488431 -0.45074106635245448 0 0.3158259635528376 -0.44265980168566488 0 0.32969757635995101 -0.43665775958312808 0 0.3158259635528376 -0.44265980168566488 0 0.3281936562605825 -0.41963221003648249 0 0.32969757635995101 -0.43665775958312808 0 0.3158259635528376 -0.44265980168566488 0 0.3281936562605825 -0.41963221003648249 0 0.3158259635528376 -0.44265980168566488 0 0.31483765704403188 -0.4266819141748025 0 0.3281936562605825 -0.41963221003648249 0 0.31483765704403188 -0.4266819141748025 0 0.31803741205407832 -0.41748048906140012 0 0.31067491534562941 -0.41899383185379441 0 0.31803741205407832 -0.41748048906140012 0 0.31198010760861472 -0.41094384792213939 0 0.31067491534562941 -0.41899383185379441 0 0.31803741205407832 -0.41748048906140012 0 0.31921101210579578 -0.4082519633468753 0 0.31198010760861472 -0.41094384792213939 0 0.31755613386943732 -0.40615537327311702 0 0.30888531665614821 -0.40576915164548971 0 0.31198010760861472 -0.41094384792213939 0 0.31921101210579578 -0.4082519633468753 0 0.31755613386943732 -0.40615537327311702 0 0.31198010760861472 -0.41094384792213939 0 0.31921101210579578 -0.4082519633468753 0 0.31198010760861472 -0.41094384792213939 0 0.31921101210579578 -0.4082519633468753 0 0.32406415913313141 -0.40644525830334532 0 0.31755613386943732 -0.40615537327311702 0 0.31921101210579578 -0.4082519633468753 0 0.31755613386943732 -0.40615537327311702 0 0.31921101210579578 -0.4082519633468753 0 0.3281936562605825 -0.41963221003648249 0 0.31921101210579578 -0.4082519633468753 0 0.32406415913313141 -0.40644525830334532 0 0.3281936562605825 -0.41963221003648249 0 0.32406415913313141 -0.40644525830334532 0 0.31755613386943732 -0.40615537327311702 0 0.31921101210579578 -0.4082519633468753 0 0.32406415913313141 -0.40644525830334532 0 0.31803741205407832 -0.41748048906140012 0 0.31921101210579578 -0.4082519633468753 0 0.3281936562605825 -0.41963221003648249 0 0.31483765704403188 -0.4266819141748025 0 0.31803741205407832 -0.41748048906140012 0 0.3281936562605825 -0.41963221003648249 0 0.3281936562605825 -0.41963221003648249 0 0.3350141659764338 -0.40693300119556652 0 0.34478058547579882 -0.42039132988779299 0 0.32406415913313141 -0.40644525830334532 0 0.3350141659764338 -0.40693300119556652 0 0.32406415913313141 -0.40644525830334532 0 0.3281936562605825 -0.41963221003648249 0 0.3350141659764338 -0.40693300119556652 0 0.3281936562605825 -0.41963221003648249 0 0.3350141659764338 -0.40693300119556652 0 0.34405261078150401 -0.43972415752736049 0 0.3281936562605825 -0.41963221003648249 0 0.34405261078150401 -0.43972415752736049 0 0.3281936562605825 -0.41963221003648249 0 0.32969757635995101 -0.43665775958312808 0 0.34405261078150401 -0.43972415752736049 0 0.3281936562605825 -0.41963221003648249 0 0.34478058547579882 -0.42039132988779299 0 0.36303259378374608 -0.443508493469572 0 0.34405261078150401 -0.43972415752736049 0 0.3623017398733957 -0.42787342101038972 0 0.34405261078150401 -0.43972415752736049 0 0.3623017398733957 -0.42787342101038972 0 0.34478058547579882 -0.42039132988779299 0 0.37788317538875837 -0.44008867528107409 0 0.36303259378374608 -0.443508493469572 0 0.3623017398733957 -0.42787342101038972 0 0.37621106012865901 -0.42784493047945871 0 0.3623017398733957 -0.42787342101038972 0 0.3716828491202448 -0.41965666739371082 0 0.37621106012865901 -0.42784493047945871 0 0.37788317538875837 -0.44008867528107409 0 0.3623017398733957 -0.42787342101038972 0 0.3623017398733957 -0.42787342101038972 0 0.3716828491202448 -0.41965666739371082 0 0.35434075448708052 -0.40779385966916731 0 0.37366734299772741 -0.40865471814276422 0 0.35434075448708052 -0.40779385966916731 0 0.37366734299772741 -0.40865471814276422 0 0.35434075448708052 -0.40779385966916731 0 0.35839149075265259 -0.40400379400323189 0 0.37366734299772741 -0.40865471814276422 0 0.3716828491202448 -0.41965666739371082 0 0.35434075448708052 -0.40779385966916731 0 0.37776791377421431 -0.41480340443533631 0 0.37366734299772741 -0.40865471814276422 0 0.3716828491202448 -0.41965666739371082 0 0.37366734299772741 -0.40865471814276422 0 0.35839149075265259 -0.40400379400323189 0 0.3623017398733957 -0.42787342101038972 0 0.35434075448708052 -0.40779385966916731 0 0.34478058547579882 -0.42039132988779299 0 0.3350141659764338 -0.40693300119556652 0 0.35434075448708052 -0.40779385966916731 0 0.34478058547579882 -0.42039132988779299 0 0.3350141659764338 -0.40693300119556652 0 0.35434075448708052 -0.40779385966916731 0 0.3620023092150052 -0.39232183556153211 0 0.34883579659522168 -0.38119830084874662 0 0.34311563850757792 -0.39935286986369961 0 0.35839149075265259 -0.40400379400323189 0 0.34311563850757792 -0.39935286986369961 0 0.35839149075265259 -0.40400379400323189 0 0.3620023092150052 -0.39232183556153211 0 0.34311563850757792 -0.39935286986369961 0 0.34883579659522168 -0.38119830084874662 0 0.33965173549111871 -0.39829824129713842 0 0.34311563850757792 -0.39935286986369961 0 0.3620023092150052 -0.39232183556153211 0 0.34311563850757792 -0.39935286986369961 0 0.3350141659764338 -0.40693300119556652 0 0.35434075448708052 -0.40779385966916731 0 0.34311563850757792 -0.39935286986369961 0 0.35434075448708052 -0.40779385966916731 0 0.35839149075265259 -0.40400379400323189 0 0.34311563850757792 -0.39935286986369961 0 0.37366734299772741 -0.40865471814276422 0 0.35839149075265259 -0.40400379400323189 0 0.37412271587425328 -0.39599743169976098 0 0.35839149075265259 -0.40400379400323189 0 0.3620023092150052 -0.39232183556153211 0 0.37412271587425328 -0.39599743169976098 0 0.38088897992243281 -0.38529080125936521 0 0.3620023092150052 -0.39232183556153211 0 0.37412271587425328 -0.39599743169976098 0 0.38088897992243281 -0.38529080125936521 0 0.3620023092150052 -0.39232183556153211 0 0.38088897992243281 -0.38529080125936521 0 0.3620023092150052 -0.39232183556153211 0 0.36919361495158909 -0.38147546280808398 0 0.36919361495158909 -0.38147546280808398 0 0.36594459423658282 -0.37697481444193143 0 0.36995127388375693 -0.37272424252860559 0 0.38088897992243281 -0.38529080125936521 0 0.36919361495158909 -0.38147546280808398 0 0.36995127388375693 -0.37272424252860559 0 0.3620023092150052 -0.39232183556153211 0 0.36919361495158909 -0.38147546280808398 0 0.36210170814785048 -0.38078054054964128 0 0.36210170814785048 -0.38078054054964128 0 0.36594459423658282 -0.37697481444193143 0 0.36253177996313463 -0.37291901188139459 0 0.36919361495158909 -0.38147546280808398 0 0.36210170814785048 -0.38078054054964128 0 0.36594459423658282 -0.37697481444193143 0 0.34883579659522168 -0.38119830084874662 0 0.33965173549111871 -0.39829824129713842 0 0.36210170814785048 -0.38078054054964128 0 0.34883579659522168 -0.38119830084874662 0 0.36253177996313463 -0.37291901188139459 0 0.3620023092150052 -0.39232183556153211 0 0.36210170814785048 -0.38078054054964128 0 0.34883579659522168 -0.38119830084874662 0 0.34883579659522168 -0.38119830084874662 0 0.3292967898203733 -0.3875257537618495 0 0.33965173549111871 -0.39829824129713842 0 0.34883579659522168 -0.38119830084874662 0 0.3292967898203733 -0.3875257537618495 0 0.33035788504893848 -0.37262120866788723 0 0.33965173549111871 -0.39829824129713842 0 0.33807809830177532 -0.40122821986763568 0 0.32199377941179141 -0.40247271273110907 0 0.3350141659764338 -0.40693300119556652 0 0.34311563850757792 -0.39935286986369961 0 0.33807809830177532 -0.40122821986763568 0 0.33965173549111871 -0.39829824129713842 0 0.34311563850757792 -0.39935286986369961 0 0.33807809830177532 -0.40122821986763568 0 0.34311563850757792 -0.39935286986369961 0 0.33807809830177532 -0.40122821986763568 0 0.33965173549111871 -0.39829824129713842 0 0.34311563850757792 -0.39935286986369961 0 0.33965173549111871 -0.39829824129713842 0 0.33807809830177532 -0.40122821986763568 0 0.3350141659764338 -0.40693300119556652 0 0.33807809830177532 -0.40122821986763568 0 0.32406415913313141 -0.40644525830334532 0 0.33807809830177532 -0.40122821986763568 0 0.32406415913313141 -0.40644525830334532 0 0.3350141659764338 -0.40693300119556652 0 0.33807809830177532 -0.40122821986763568 0 0.32406415913313141 -0.40644525830334532 0 0.33807809830177532 -0.40122821986763568 0 0.32199377941179141 -0.40247271273110907 0 0.33965173549111871 -0.39829824129713842 0 0.32199377941179141 -0.40247271273110907 0 0.31320916144789579 -0.39024746914014452 0 0.3292967898203733 -0.3875257537618495 0 0.33965173549111871 -0.39829824129713842 0 0.31320916144789579 -0.39024746914014452 0 0.32199377941179141 -0.40247271273110907 0 0.31755613386943732 -0.40615537327311702 0 0.31320916144789579 -0.39024746914014452 0 0.33965173549111871 -0.39829824129713842 0 0.31320916144789579 -0.39024746914014452 0 0.31755613386943732 -0.40615537327311702 0 0.31320916144789579 -0.39024746914014452 0 0.30888531665614821 -0.40576915164548971 0 0.32406415913313141 -0.40644525830334532 0 0.32199377941179141 -0.40247271273110907 0 0.31755613386943732 -0.40615537327311702 0 0.31755613386943732 -0.40615537327311702 0 0.30888531665614821 -0.40576915164548971 0 0.31445921345105993 -0.38576004851271989 0 0.33035788504893848 -0.37262120866788723 0 0.31932526960794222 -0.36829194261204568 0 0.31445921345105993 -0.38576004851271989 0 0.30653886585303602 -0.37653398293342449 0 0.31932526960794222 -0.36829194261204568 0 0.3292967898203733 -0.3875257537618495 0 0.31445921345105993 -0.38576004851271989 0 0.33035788504893848 -0.37262120866788723 0 0.31320916144789579 -0.39024746914014452 0 0.31445921345105993 -0.38576004851271989 0 0.31445921345105993 -0.38576004851271989 0 0.33035788504893848 -0.37262120866788723 0 0.31320916144789579 -0.39024746914014452 0 0.31445921345105993 -0.38576004851271989 0 0.31015456412863113 -0.38931745880875462 0 0.31445921345105993 -0.38576004851271989 0 0.31932526960794222 -0.36829194261204568 0 0.3292967898203733 -0.3875257537618495 0 0.31320916144789579 -0.39024746914014452 0 0.31445921345105993 -0.38576004851271989 0 0.29841533870713788 -0.3810157806376 0 0.30591747014324933 -0.38802742258806261 0 0.29579917866662409 -0.38998904179350802 0 0.29841533870713788 -0.3810157806376 0 0.30653886585303602 -0.37653398293342449 0 0.30591747014324933 -0.38802742258806261 0 0.31445921345105993 -0.38576004851271989 0 0.30653886585303602 -0.37653398293342449 0 0.30591747014324933 -0.38802742258806261 0 0.31445921345105993 -0.38576004851271989 0 0.30591747014324933 -0.38802742258806261 0 0.31015456412863113 -0.38931745880875462 0 0.30591747014324933 -0.38802742258806261 0 0.31015456412863113 -0.38931745880875462 0 0.31445921345105993 -0.38576004851271989 0 0.31015456412863113 -0.38931745880875462 0 0.31320916144789579 -0.39024746914014452 0 0.31015456412863113 -0.38931745880875462 0 0.31015456412863113 -0.38931745880875462 0 0.29120037031755008 -0.40498141635002621 0 0.30591747014324933 -0.38802742258806261 0 0.29120037031755008 -0.40498141635002621 0 0.29579917866662409 -0.38998904179350802 0 0.31015456412863113 -0.38931745880875462 0 0.30888531665614821 -0.40576915164548971 0 0.29120037031755008 -0.40498141635002621 0 0.30591747014324933 -0.38802742258806261 0 0.31015456412863113 -0.38931745880875462 0 0.29120037031755008 -0.40498141635002621 0 0.30888531665614821 -0.40576915164548971 0 0.29120037031755008 -0.40498141635002621 0 0.31320916144789579 -0.39024746914014452 0 0.30888531665614821 -0.40576915164548971 0 0.31320916144789579 -0.39024746914014452 0 0.31015456412863113 -0.38931745880875462 0 0.30888531665614821 -0.40576915164548971 0 0.29120037031755008 -0.40498141635002621 0 0.28766353549855922 -0.38593154759834208 0 0.27704964970350321 -0.39413900447157091 0 0.29120037031755008 -0.40498141635002621 0 0.28766353549855922 -0.38593154759834208 0 0.29579917866662409 -0.38998904179350802 0 0.28766353549855922 -0.38593154759834208 0 0.27087670329384672 -0.38037014192238772 0 0.29523419882275048 -0.36469452750929932 0 0.29841533870713788 -0.3810157806376 0 0.28766353549855922 -0.38593154759834208 0 0.29523419882275048 -0.36469452750929932 0 0.29841533870713788 -0.3810157806376 0 0.28766353549855922 -0.38593154759834208 0 0.29579917866662409 -0.38998904179350802 0 0.28766353549855922 -0.38593154759834208 0 0.27087670329384672 -0.38037014192238772 0 0.27704964970350321 -0.39413900447157091 0 0.27087670329384672 -0.38037014192238772 0 0.25744006829304472 -0.37712199528634432 0 0.2465192077649429 -0.39604575633547601 0 0.27087670329384672 -0.38037014192238772 0 0.2465192077649429 -0.39604575633547601 0 0.25744006829304472 -0.37712199528634432 0 0.25132106797385872 -0.37009521143738833 0 0.2432569646037224 -0.37994234509569302 0 0.27087670329384672 -0.38037014192238772 0 0.2621206751234616 -0.40368612815140531 0 0.2465192077649429 -0.39604575633547601 0 0.27087670329384672 -0.38037014192238772 0 0.2621206751234616 -0.40368612815140531 0 0.27704964970350321 -0.39413900447157091 0 0.29120037031755008 -0.40498141635002621 0 0.2621206751234616 -0.40368612815140531 0 0.27704964970350321 -0.39413900447157091 0 0.29120037031755008 -0.40498141635002621 0 0.2621206751234616 -0.40368612815140531 0 0.29120037031755008 -0.40498141635002621 0 0.2621206751234616 -0.40368612815140531 0 0.27227271584882579 -0.42062344148224418 0 0.2621206751234616 -0.40368612815140531 0 0.27227271584882579 -0.42062344148224418 0 0.24761439744195909 -0.41679427769309257 0 0.27227271584882579 -0.42062344148224418 0 0.25334506138010238 -0.4362654666144633 0 0.24761439744195909 -0.41679427769309257 0 0.27227271584882579 -0.42062344148224418 0 0.25334506138010238 -0.4362654666144633 0 0.27227271584882579 -0.42062344148224418 0 0.28649123047091668 -0.42770520305507492 0 0.28045082760249213 -0.44271547953651141 0 0.27227271584882579 -0.42062344148224418 0 0.25334506138010238 -0.4362654666144633 0 0.28045082760249213 -0.44271547953651141 0 0.28649123047091668 -0.42770520305507492 0 0.29687685470009662 -0.41819525412583158 0 0.30093050135577171 -0.43432524545273538 0 0.28649123047091668 -0.42770520305507492 0 0.30093050135577171 -0.43432524545273538 0 0.28045082760249213 -0.44271547953651141 0 0.29120037031755008 -0.40498141635002621 0 0.27227271584882579 -0.42062344148224418 0 0.28649123047091668 -0.42770520305507492 0 0.29120037031755008 -0.40498141635002621 0 0.27227271584882579 -0.42062344148224418 0 0.29120037031755008 -0.40498141635002621 0 0.28649123047091668 -0.42770520305507492 0 0.29687685470009662 -0.41819525412583158 0 0.30888531665614821 -0.40576915164548971 0 0.31067491534562941 -0.41899383185379441 0 0.30093050135577171 -0.43432524545273538 0 0.30888531665614821 -0.40576915164548971 0 0.29120037031755008 -0.40498141635002621 0 0.29687685470009662 -0.41819525412583158 0 0.30888531665614821 -0.40576915164548971 0 0.30093050135577171 -0.43432524545273538 0 0.30888531665614821 -0.40576915164548971 0 0.29687685470009662 -0.41819525412583158 0 0.30093050135577171 -0.43432524545273538 0 0.30888531665614821 -0.40576915164548971 0 0.31198010760861472 -0.41094384792213939 0 0.31067491534562941 -0.41899383185379441 0 0.31483765704403188 -0.4266819141748025 0 0.31067491534562941 -0.41899383185379441 0 0.30093050135577171 -0.43432524545273538 0 0.3158259635528376 -0.44265980168566488 0 0.31483765704403188 -0.4266819141748025 0 0.30093050135577171 -0.43432524545273538 0 0.3158259635528376 -0.44265980168566488 0 0.30093050135577171 -0.43432524545273538 0 0.30194911050418832 -0.44724427342691653 0 0.31584315768292831 -0.45714830621054781 0 0.3158259635528376 -0.44265980168566488 0 0.30194911050418832 -0.44724427342691653 0 0.31321572107443119 -0.47430243654625948 0 0.2966951023269121 -0.45937253424912278 0 0.29889533135711438 -0.4724837613359591 0 0.31321572107443119 -0.47430243654625948 0 0.31584315768292831 -0.45714830621054781 0 0.2966951023269121 -0.45937253424912278 0 0.31584315768292831 -0.45714830621054781 0 0.30194911050418832 -0.44724427342691653 0 0.2966951023269121 -0.45937253424912278 0 0.2966951023269121 -0.45937253424912278 0 0.28268767898925368 -0.46530847553646942 0 0.29889533135711438 -0.4724837613359591 0 0.2966951023269121 -0.45937253424912278 0 0.28268767898925368 -0.46530847553646942 0 0.28045082760249213 -0.44271547953651141 0 0.30194911050418832 -0.44724427342691653 0 0.2966951023269121 -0.45937253424912278 0 0.28045082760249213 -0.44271547953651141 0 0.30093050135577171 -0.43432524545273538 0 0.30194911050418832 -0.44724427342691653 0 0.28045082760249213 -0.44271547953651141 0 0.25334506138010238 -0.4362654666144633 0 0.28045082760249213 -0.44271547953651141 0 0.2593040875157725 -0.4562617754350119 0 0.2593040875157725 -0.4562617754350119 0 0.2674686100587525 -0.47646817852817402 0 0.24162510504302631 -0.46838723292231088 0 0.28268767898925368 -0.46530847553646942 0 0.2593040875157725 -0.4562617754350119 0 0.2674686100587525 -0.47646817852817402 0 0.28268767898925368 -0.46530847553646942 0 0.28045082760249213 -0.44271547953651141 0 0.2593040875157725 -0.4562617754350119 0 0.28268767898925368 -0.46530847553646942 0 0.2674686100587525 -0.47646817852817402 0 0.29331211507447869 -0.48454912413403722 0 0.2674686100587525 -0.47646817852817402 0 0.29331211507447869 -0.48454912413403722 0 0.2674686100587525 -0.47646817852817402 0 0.25117130236780288 -0.48322299894459919 0 0.24162510504302631 -0.46838723292231088 0 0.2674686100587525 -0.47646817852817402 0 0.24162510504302631 -0.46838723292231088 0 0.25117130236780288 -0.48322299894459919 0 0.27489856666559098 -0.5 0 0.2457158397459234 -0.5 0 0.2674686100587525 -0.47646817852817402 0 0.25117130236780288 -0.48322299894459919 0 0.27489856666559098 -0.5 0 0.2674686100587525 -0.47646817852817402 0 0.27489856666559098 -0.5 0 0.29331211507447869 -0.48454912413403722 0 0.27489856666559098 -0.5 0 0.29331211507447869 -0.48454912413403722 0 0.30408129358525848 -0.5 0 0.28268767898925368 -0.46530847553646942 0 0.29331211507447869 -0.48454912413403722 0 0.29889533135711438 -0.4724837613359591 0 0.31915562009020498 -0.49263006973990042 0 0.31321572107443119 -0.47430243654625948 0 0.29331211507447869 -0.48454912413403722 0 0.31321572107443119 -0.47430243654625948 0 0.29331211507447869 -0.48454912413403722 0 0.29889533135711438 -0.4724837613359591 0 0.31915562009020498 -0.49263006973990042 0 0.29331211507447869 -0.48454912413403722 0 0.31915562009020498 -0.49263006973990042 0 0.29331211507447869 -0.48454912413403722 0 0.30408129358525848 -0.5 0 0.32365215576821788 -0.28701251140693451 0 0.34963005260846991 -0.27852731885142962 0 0.32365215576821788 -0.28701251140693451 0 0.34963005260846991 -0.27852731885142962 0 0.34407470875118662 -0.2990083586105402 0 0.31476566458309302 -0.30779578045018108 0 0.34407470875118662 -0.2990083586105402 0 0.33350016029922269 -0.31740710204654637 0 0.31476566458309302 -0.30779578045018108 0 0.32365215576821788 -0.28701251140693451 0 0.34407470875118662 -0.2990083586105402 0 0.32365215576821788 -0.28701251140693451 0 0.32338191288986717 -0.26723546728544262 0 0.30534034037205809 -0.2739305744024883 0 0.33267759927469898 -0.2497770962265036 0 0.32338191288986717 -0.26723546728544262 0 0.3094467960271744 -0.25319919201670249 0 0.33267759927469898 -0.2497770962265036 0 0.3094467960271744 -0.25319919201670249 0 0.32338191288986717 -0.26723546728544262 0 0.3094467960271744 -0.25319919201670249 0 0.30534034037205809 -0.2739305744024883 0 0.33267759927469898 -0.2497770962265036 0 0.32338191288986717 -0.26723546728544262 0 0.33849647712709829 -0.26347689910583788 0 0.33267759927469898 -0.2497770962265036 0 0.33849647712709829 -0.26347689910583788 0 0.34829634373535728 -0.25836771405997622 0 0.32365215576821788 -0.28701251140693451 0 0.32338191288986717 -0.26723546728544262 0 0.34963005260846991 -0.27852731885142962 0 0.32338191288986717 -0.26723546728544262 0 0.33849647712709829 -0.26347689910583788 0 0.34963005260846991 -0.27852731885142962 0 0.33849647712709829 -0.26347689910583788 0 0.34963005260846991 -0.27852731885142962 0 0.34829634373535728 -0.25836771405997622 0 0.35590840252222361 -0.24635500043630471 0 0.34829634373535728 -0.25836771405997622 0 0.36492086999457779 -0.25847959788689651 0 0.34963005260846991 -0.27852731885142962 0 0.34829634373535728 -0.25836771405997622 0 0.36492086999457779 -0.25847959788689651 0 0.33267759927469898 -0.2497770962265036 0 0.35590840252222361 -0.24635500043630471 0 0.34829634373535728 -0.25836771405997622 0 0.37560794944872178 -0.27004212629592461 0 0.37991582211951458 -0.25484453829055681 0 0.36492086999457779 -0.25847959788689651 0 0.37913920576974808 -0.24293290464610581 0 0.37991582211951458 -0.25484453829055681 0 0.36492086999457779 -0.25847959788689651 0 0.37560794944872178 -0.27004212629592461 0 0.34963005260846991 -0.27852731885142962 0 0.36492086999457779 -0.25847959788689651 0 0.37560794944872178 -0.27004212629592461 0 0.34963005260846991 -0.27852731885142962 0 0.37560794944872178 -0.27004212629592461 0 0.34963005260846991 -0.27852731885142962 0 0.36745969894089697 -0.29645075326839471 0 0.34963005260846991 -0.27852731885142962 0 0.36745969894089697 -0.29645075326839471 0 0.34407470875118662 -0.2990083586105402 0 0.34407470875118662 -0.2990083586105402 0 0.3568468457478105 -0.31940938508391747 0 0.33350016029922269 -0.31740710204654637 0 0.36745969894089697 -0.29645075326839471 0 0.34407470875118662 -0.2990083586105402 0 0.3568468457478105 -0.31940938508391747 0 0.3830434263755424 -0.31750660438749351 0 0.36745969894089697 -0.29645075326839471 0 0.3568468457478105 -0.31940938508391747 0 0.3830434263755424 -0.31750660438749351 0 0.37053164203743338 -0.34080248239392408 0 0.3568468457478105 -0.31940938508391747 0 0.37053164203743338 -0.34080248239392408 0 0.35249554860778298 -0.33901243010810239 0 0.3568468457478105 -0.31940938508391747 0 0.35249554860778298 -0.33901243010810239 0 0.34430501150601839 -0.32883305482906688 0 0.3568468457478105 -0.31940938508391747 0 0.34430501150601839 -0.32883305482906688 0 0.3568468457478105 -0.31940938508391747 0 0.33350016029922269 -0.31740710204654637 0 0.38033408422481002 -0.35495094568450503 0 0.37024235822851997 -0.36889454467248362 0 0.35801985769932471 -0.3640983604003547 0 0.36253177996313463 -0.37291901188139459 0 0.37024235822851997 -0.36889454467248362 0 0.35801985769932471 -0.3640983604003547 0 0.36594459423658282 -0.37697481444193143 0 0.36253177996313463 -0.37291901188139459 0 0.36995127388375693 -0.37272424252860559 0 0.36253177996313463 -0.37291901188139459 0 0.36995127388375693 -0.37272424252860559 0 0.37024235822851997 -0.36889454467248362 0 0.37674075625426068 -0.37131438043027881 0 0.36995127388375693 -0.37272424252860559 0 0.37024235822851997 -0.36889454467248362 0 0.37024235822851997 -0.36889454467248362 0 0.35801985769932471 -0.3640983604003547 0 0.37053164203743338 -0.34080248239392408 0 0.35801985769932471 -0.3640983604003547 0 0.38033408422481002 -0.35495094568450503 0 0.37053164203743338 -0.34080248239392408 0 0.35801985769932471 -0.3640983604003547 0 0.37053164203743338 -0.34080248239392408 0 0.34941376863335188 -0.35687321356175389 0 0.35801985769932471 -0.3640983604003547 0 0.35249554860778298 -0.33901243010810239 0 0.34941376863335188 -0.35687321356175389 0 0.34054553575371838 -0.34935696794574078 0 0.37053164203743338 -0.34080248239392408 0 0.35249554860778298 -0.33901243010810239 0 0.34941376863335188 -0.35687321356175389 0 0.34941376863335188 -0.35687321356175389 0 0.34625655664681598 -0.35948236882305329 0 0.34054553575371838 -0.34935696794574078 0 0.34941376863335188 -0.35687321356175389 0 0.34625655664681598 -0.35948236882305329 0 0.34883579659522168 -0.38119830084874662 0 0.35801985769932471 -0.3640983604003547 0 0.34883579659522168 -0.38119830084874662 0 0.35801985769932471 -0.3640983604003547 0 0.34625655664681598 -0.35948236882305329 0 0.34883579659522168 -0.38119830084874662 0 0.36253177996313463 -0.37291901188139459 0 0.35801985769932471 -0.3640983604003547 0 0.35801985769932471 -0.3640983604003547 0 0.34625655664681598 -0.35948236882305329 0 0.34941376863335188 -0.35687321356175389 0 0.35801985769932471 -0.3640983604003547 0 0.34625655664681598 -0.35948236882305329 0 0.34625655664681598 -0.35948236882305329 0 0.33035788504893848 -0.37262120866788723 0 0.34625655664681598 -0.35948236882305329 0 0.33035788504893848 -0.37262120866788723 0 0.32922962834178049 -0.36211974984653261 0 0.34883579659522168 -0.38119830084874662 0 0.34625655664681598 -0.35948236882305329 0 0.33035788504893848 -0.37262120866788723 0 0.34625655664681598 -0.35948236882305329 0 0.32922962834178049 -0.36211974984653261 0 0.32419132576482551 -0.35082383671137168 0 0.34054553575371838 -0.34935696794574078 0 0.33123075789370782 -0.34617549767414257 0 0.32419132576482551 -0.35082383671137168 0 0.34625655664681598 -0.35948236882305329 0 0.32419132576482551 -0.35082383671137168 0 0.34625655664681598 -0.35948236882305329 0 0.34054553575371838 -0.34935696794574078 0 0.32419132576482551 -0.35082383671137168 0 0.34054553575371838 -0.34935696794574078 0 0.33123075789370782 -0.34617549767414257 0 0.33437749136925732 -0.33950330207770119 0 0.32419132576482551 -0.35082383671137168 0 0.31959169435165419 -0.34901891309621141 0 0.31932526960794222 -0.36829194261204568 0 0.33123075789370782 -0.34617549767414257 0 0.32580867868702901 -0.34501788396175609 0 0.32419132576482551 -0.35082383671137168 0 0.32580867868702901 -0.34501788396175609 0 0.32419132576482551 -0.35082383671137168 0 0.32580867868702901 -0.34501788396175609 0 0.32419132576482551 -0.35082383671137168 0 0.31959169435165419 -0.34901891309621141 0 0.32419132576482551 -0.35082383671137168 0 0.31959169435165419 -0.34901891309621141 0 0.32580867868702901 -0.34501788396175609 0 0.31959169435165419 -0.34901891309621141 0 0.32922962834178049 -0.36211974984653261 0 0.32419132576482551 -0.35082383671137168 0 0.31932526960794222 -0.36829194261204568 0 0.32419132576482551 -0.35082383671137168 0 0.31932526960794222 -0.36829194261204568 0 0.33035788504893848 -0.37262120866788723 0 0.32922962834178049 -0.36211974984653261 0 0.31932526960794222 -0.36829194261204568 0 0.35249554860778298 -0.33901243010810239 0 0.34430501150601839 -0.32883305482906688 0 0.33437749136925732 -0.33950330207770119 0 0.35249554860778298 -0.33901243010810239 0 0.34054553575371838 -0.34935696794574078 0 0.33437749136925732 -0.33950330207770119 0 0.32580867868702901 -0.34501788396175609 0 0.33350016029922269 -0.31740710204654637 0 0.32580867868702901 -0.34501788396175609 0 0.33350016029922269 -0.31740710204654637 0 0.33437749136925732 -0.33950330207770119 0 0.34430501150601839 -0.32883305482906688 0 0.33350016029922269 -0.31740710204654637 0 0.33437749136925732 -0.33950330207770119 0 0.32580867868702901 -0.34501788396175609 0 0.33437749136925732 -0.33950330207770119 0 0.33123075789370782 -0.34617549767414257 0 0.32580867868702901 -0.34501788396175609 0 0.33437749136925732 -0.33950330207770119 0 0.32580867868702901 -0.34501788396175609 0 0.33350016029922269 -0.31740710204654637 0 0.31345723002560522 -0.33265626473713389 0 0.32580867868702901 -0.34501788396175609 0 0.31959169435165419 -0.34901891309621141 0 0.31345723002560522 -0.33265626473713389 0 0.31476566458309302 -0.30779578045018108 0 0.33350016029922269 -0.31740710204654637 0 0.31345723002560522 -0.33265626473713389 0 0.31476566458309302 -0.30779578045018108 0 0.31345723002560522 -0.33265626473713389 0 0.29524953815926469 -0.31872572105484442 0 0.31345723002560522 -0.33265626473713389 0 0.29783180256095487 -0.34048019791919332 0 0.29524953815926469 -0.31872572105484442 0 0.31959169435165419 -0.34901891309621141 0 0.31345723002560522 -0.33265626473713389 0 0.29783180256095487 -0.34048019791919332 0 0.29783180256095487 -0.34048019791919332 0 0.29524953815926469 -0.31872572105484442 0 0.27607191077025572 -0.3319414827421745 0 0.29783180256095487 -0.34048019791919332 0 0.27845466515694117 -0.35438378295259437 0 0.27607191077025572 -0.3319414827421745 0 0.29783180256095487 -0.34048019791919332 0 0.27607191077025572 -0.3319414827421745 0 0.31959169435165419 -0.34901891309621141 0 0.31932526960794222 -0.36829194261204568 0 0.29523419882275048 -0.36469452750929932 0 0.29841533870713788 -0.3810157806376 0 0.30653886585303602 -0.37653398293342449 0 0.29523419882275048 -0.36469452750929932 0 0.30653886585303602 -0.37653398293342449 0 0.31932526960794222 -0.36829194261204568 0 0.29523419882275048 -0.36469452750929932 0 0.31959169435165419 -0.34901891309621141 0 0.29783180256095487 -0.34048019791919332 0 0.29523419882275048 -0.36469452750929932 0 0.31959169435165419 -0.34901891309621141 0 0.29523419882275048 -0.36469452750929932 0 0.31959169435165419 -0.34901891309621141 0 0.29783180256095487 -0.34048019791919332 0 0.29783180256095487 -0.34048019791919332 0 0.29523419882275048 -0.36469452750929932 0 0.27845466515694117 -0.35438378295259437 0 0.27087670329384672 -0.38037014192238772 0 0.29523419882275048 -0.36469452750929932 0 0.29523419882275048 -0.36469452750929932 0 0.27172278193882049 -0.36728059632567978 0 0.27845466515694117 -0.35438378295259437 0 0.27087670329384672 -0.38037014192238772 0 0.29523419882275048 -0.36469452750929932 0 0.27172278193882049 -0.36728059632567978 0 0.27087670329384672 -0.38037014192238772 0 0.25744006829304472 -0.37712199528634432 0 0.27172278193882049 -0.36728059632567978 0 0.27172278193882049 -0.36728059632567978 0 0.26668637557217961 -0.35881517873868207 0 0.27845466515694117 -0.35438378295259437 0 0.27172278193882049 -0.36728059632567978 0 0.26668637557217961 -0.35881517873868207 0 0.26075381656816599 -0.36718256693464157 0 0.27845466515694117 -0.35438378295259437 0 0.26436309724701629 -0.34846734211550989 0 0.27607191077025572 -0.3319414827421745 0 0.26668637557217961 -0.35881517873868207 0 0.27845466515694117 -0.35438378295259437 0 0.26436309724701629 -0.34846734211550989 0 0.26436309724701629 -0.34846734211550989 0 0.25353657768849158 -0.3477879238622914 0 0.25813751694995402 -0.35676160536498491 0 0.26436309724701629 -0.34846734211550989 0 0.25353657768849158 -0.3477879238622914 0 0.25750275708056869 -0.33731659648562767 0 0.25353657768849158 -0.3477879238622914 0 0.25813751694995402 -0.35676160536498491 0 0.2479411160071564 -0.36014906334143598 0 0.26668637557217961 -0.35881517873868207 0 0.26436309724701629 -0.34846734211550989 0 0.25813751694995402 -0.35676160536498491 0 0.26668637557217961 -0.35881517873868207 0 0.25813751694995402 -0.35676160536498491 0 0.26075381656816599 -0.36718256693464157 0 0.26075381656816599 -0.36718256693464157 0 0.2479411160071564 -0.36014906334143598 0 0.26075381656816599 -0.36718256693464157 0 0.25132106797385872 -0.37009521143738833 0 0.2479411160071564 -0.36014906334143598 0 0.25813751694995402 -0.35676160536498491 0 0.26075381656816599 -0.36718256693464157 0 0.2479411160071564 -0.36014906334143598 0 0.25744006829304472 -0.37712199528634432 0 0.26075381656816599 -0.36718256693464157 0 0.25132106797385872 -0.37009521143738833 0 0.25744006829304472 -0.37712199528634432 0 0.27172278193882049 -0.36728059632567978 0 0.26075381656816599 -0.36718256693464157 0 0.27607191077025572 -0.3319414827421745 0 0.25431201897955669 -0.32340276756515568 0 0.27169636208771403 -0.30398289651794441 0 0.29524953815926469 -0.31872572105484442 0 0.27607191077025572 -0.3319414827421745 0 0.27169636208771403 -0.30398289651794441 0 0.26436309724701629 -0.34846734211550989 0 0.27607191077025572 -0.3319414827421745 0 0.25750275708056869 -0.33731659648562767 0 0.27607191077025572 -0.3319414827421745 0 0.25750275708056869 -0.33731659648562767 0 0.25431201897955669 -0.32340276756515568 0 0.25353657768849158 -0.3477879238622914 0 0.25750275708056869 -0.33731659648562767 0 0.24024662159800261 -0.33750655786478972 0 0.25750275708056869 -0.33731659648562767 0 0.25431201897955669 -0.32340276756515568 0 0.24024662159800261 -0.33750655786478972 0 0.27607191077025572 -0.3319414827421745 0 0.25431201897955669 -0.32340276756515568 0 0.25431201897955669 -0.32340276756515568 0 0.27169636208771403 -0.30398289651794441 0 0.249497031190969 -0.29807704524406048 0 0.26560459938657471 -0.28461118673896602 0 0.27169636208771403 -0.30398289651794441 0 0.249497031190969 -0.29807704524406048 0 0.26560459938657471 -0.28461118673896602 0 0.24923395016783789 -0.27313028884395779 0 0.249497031190969 -0.29807704524406048 0 0.26560459938657471 -0.28461118673896602 0 0.27169636208771403 -0.30398289651794441 0 0.28410930640267451 -0.28078929421522791 0 0.27169636208771403 -0.30398289651794441 0 0.29767425892796601 -0.29549770396243952 0 0.29524953815926469 -0.31872572105484442 0 0.27169636208771403 -0.30398289651794441 0 0.29767425892796601 -0.29549770396243952 0 0.29767425892796601 -0.29549770396243952 0 0.30534034037205809 -0.2739305744024883 0 0.28410930640267451 -0.28078929421522791 0 0.27169636208771403 -0.30398289651794441 0 0.29767425892796601 -0.29549770396243952 0 0.28410930640267451 -0.28078929421522791 0 0.32365215576821788 -0.28701251140693451 0 0.29767425892796601 -0.29549770396243952 0 0.32365215576821788 -0.28701251140693451 0 0.29767425892796601 -0.29549770396243952 0 0.30534034037205809 -0.2739305744024883 0 0.31476566458309302 -0.30779578045018108 0 0.32365215576821788 -0.28701251140693451 0 0.29767425892796601 -0.29549770396243952 0 0.31476566458309302 -0.30779578045018108 0 0.29524953815926469 -0.31872572105484442 0 0.29767425892796601 -0.29549770396243952 0 0.3094467960271744 -0.25319919201670249 0 0.30534034037205809 -0.2739305744024883 0 0.29205931637979521 -0.2620404744337953 0 0.30534034037205809 -0.2739305744024883 0 0.28410930640267451 -0.28078929421522791 0 0.29205931637979521 -0.2620404744337953 0 0.28410930640267451 -0.28078929421522791 0 0.29205931637979521 -0.2620404744337953 0 0.27228096126193929 -0.26467292923573399 0 0.28666258092228158 -0.24261626380159881 0 0.29205931637979521 -0.2620404744337953 0 0.27228096126193929 -0.26467292923573399 0 0.28666258092228158 -0.24261626380159881 0 0.3094467960271744 -0.25319919201670249 0 0.29205931637979521 -0.2620404744337953 0 0.28666258092228158 -0.24261626380159881 0 0.25468490016820272 -0.2485898315504726 0 0.27228096126193929 -0.26467292923573399 0 0.26560459938657471 -0.28461118673896602 0 0.28410930640267451 -0.28078929421522791 0 0.27228096126193929 -0.26467292923573399 0 0.26560459938657471 -0.28461118673896602 0 0.27228096126193929 -0.26467292923573399 0 0.24923395016783789 -0.27313028884395779 0 0.25468490016820272 -0.2485898315504726 0 0.27228096126193929 -0.26467292923573399 0 0.24923395016783789 -0.27313028884395779 0 0.25468490016820272 -0.2485898315504726 0 0.24923395016783789 -0.27313028884395779 0 0.23269746822706741 -0.25915845359030171 0 0.24923395016783789 -0.27313028884395779 0 0.23269746822706741 -0.25915845359030171 0 0.22358312933527291 -0.28847107941020239 0 0.23269746822706741 -0.25915845359030171 0 0.21461413148169539 -0.2620781064322622 0 0.22358312933527291 -0.28847107941020239 0 0.21461413148169539 -0.2620781064322622 0 0.22358312933527291 -0.28847107941020239 0 0.23269746822706741 -0.25915845359030171 0 0.21461413148169539 -0.2620781064322622 0 0.2198219065873146 -0.2419954142518736 0 0.21461413148169539 -0.2620781064322622 0 0.20048603906310061 -0.26331670126483803 0 0.20005158203282461 -0.24232914457006391 0 0.21461413148169539 -0.2620781064322622 0 0.20858263488381659 -0.27852230973001618 0 0.20048603906310061 -0.26331670126483803 0 0.21461413148169539 -0.2620781064322622 0 0.20858263488381659 -0.27852230973001618 0 0.22358312933527291 -0.28847107941020239 0 0.20858263488381659 -0.27852230973001618 0 0.19279193446269319 -0.27618085257724589 0 0.20048603906310061 -0.26331670126483803 0 0.19279193446269319 -0.27618085257724589 0 0.20048603906310061 -0.26331670126483803 0 0.18562478805855659 -0.2566109831231761 0 0.20048603906310061 -0.26331670126483803 0 0.18562478805855659 -0.2566109831231761 0 0.20005158203282461 -0.24232914457006391 0 0.2073654260771649 -0.30498063618781518 0 0.18217872496547241 -0.29509721998749339 0 0.17868019624171699 -0.31120427952995361 0 0.2073654260771649 -0.30498063618781518 0 0.18217872496547241 -0.29509721998749339 0 0.19279193446269319 -0.27618085257724589 0 0.20056705265913921 -0.29031595162815982 0 0.18217872496547241 -0.29509721998749339 0 0.20056705265913921 -0.29031595162815982 0 0.2073654260771649 -0.30498063618781518 0 0.18217872496547241 -0.29509721998749339 0 0.20858263488381659 -0.27852230973001618 0 0.19279193446269319 -0.27618085257724589 0 0.20056705265913921 -0.29031595162815982 0 0.20056705265913921 -0.29031595162815982 0 0.2073654260771649 -0.30498063618781518 0 0.22358312933527291 -0.28847107941020239 0 0.20858263488381659 -0.27852230973001618 0 0.20056705265913921 -0.29031595162815982 0 0.22358312933527291 -0.28847107941020239 0 0.2073654260771649 -0.30498063618781518 0 0.22358312933527291 -0.28847107941020239 0 0.23255212718885629 -0.31486405238814058 0 0.22358312933527291 -0.28847107941020239 0 0.23255212718885629 -0.31486405238814058 0 0.2073654260771649 -0.30498063618781518 0 0.23255212718885629 -0.31486405238814058 0 0.24923395016783789 -0.27313028884395779 0 0.22358312933527291 -0.28847107941020239 0 0.249497031190969 -0.29807704524406048 0 0.25431201897955669 -0.32340276756515568 0 0.249497031190969 -0.29807704524406048 0 0.23255212718885629 -0.31486405238814058 0 0.22358312933527291 -0.28847107941020239 0 0.249497031190969 -0.29807704524406048 0 0.23255212718885629 -0.31486405238814058 0 0.25431201897955669 -0.32340276756515568 0 0.23255212718885629 -0.31486405238814058 0 0.25431201897955669 -0.32340276756515568 0 0.24024662159800261 -0.33750655786478972 0 0.23255212718885629 -0.31486405238814058 0 0.24024662159800261 -0.33750655786478972 0 0.23255212718885629 -0.31486405238814058 0 0.22290755250066721 -0.32877686780676241 0 0.2274382345488225 -0.34889405197816842 0 0.20693535309048791 -0.33763904061490191 0 0.24024662159800261 -0.33750655786478972 0 0.22290755250066721 -0.32877686780676241 0 0.2274382345488225 -0.34889405197816842 0 0.24024662159800261 -0.33750655786478972 0 0.22290755250066721 -0.32877686780676241 0 0.23255212718885629 -0.31486405238814058 0 0.2073654260771649 -0.30498063618781518 0 0.22290755250066721 -0.32877686780676241 0 0.23255212718885629 -0.31486405238814058 0 0.23516104651906611 -0.36815297841413802 0 0.2442182487402374 -0.36888435680659909 0 0.2432569646037224 -0.37994234509569302 0 0.25132106797385872 -0.37009521143738833 0 0.2442182487402374 -0.36888435680659909 0 0.2432569646037224 -0.37994234509569302 0 0.23516104651906611 -0.36815297841413802 0 0.2442182487402374 -0.36888435680659909 0 0.2479411160071564 -0.36014906334143598 0 0.25132106797385872 -0.37009521143738833 0 0.2442182487402374 -0.36888435680659909 0 0.2479411160071564 -0.36014906334143598 0 0.25132106797385872 -0.37009521143738833 0 0.2479411160071564 -0.36014906334143598 0 0.24024662159800261 -0.33750655786478972 0 0.2479411160071564 -0.36014906334143598 0 0.23516104651906611 -0.36815297841413802 0 0.2479411160071564 -0.36014906334143598 0 0.2274382345488225 -0.34889405197816842 0 0.24024662159800261 -0.33750655786478972 0 0.2479411160071564 -0.36014906334143598 0 0.2274382345488225 -0.34889405197816842 0 0.25353657768849158 -0.3477879238622914 0 0.24024662159800261 -0.33750655786478972 0 0.2479411160071564 -0.36014906334143598 0 0.2479411160071564 -0.36014906334143598 0 0.2274382345488225 -0.34889405197816842 0 0.2274382345488225 -0.34889405197816842 0 0.22200996122264111 -0.36448234748202168 0 0.21064355365592011 -0.35682494480555921 0 0.23516104651906611 -0.36815297841413802 0 0.2274382345488225 -0.34889405197816842 0 0.22200996122264111 -0.36448234748202168 0 0.22200996122264111 -0.36448234748202168 0 0.2128748982693931 -0.37094224024986039 0 0.22450163373603221 -0.37746776266403109 0 0.23516104651906611 -0.36815297841413802 0 0.2341345608400589 -0.37836709284368852 0 0.22450163373603221 -0.37746776266403109 0 0.23516104651906611 -0.36815297841413802 0 0.22200996122264111 -0.36448234748202168 0 0.22450163373603221 -0.37746776266403109 0 0.2128748982693931 -0.37094224024986039 0 0.2014598132275201 -0.36677506491049411 0 0.20471468893229081 -0.37949130382332458 0 0.22200996122264111 -0.36448234748202168 0 0.2128748982693931 -0.37094224024986039 0 0.21064355365592011 -0.35682494480555921 0 0.2128748982693931 -0.37094224024986039 0 0.21064355365592011 -0.35682494480555921 0 0.2014598132275201 -0.36677506491049411 0 0.21064355365592011 -0.35682494480555921 0 0.19256718853114599 -0.35295686972216561 0 0.20693535309048791 -0.33763904061490191 0 0.2274382345488225 -0.34889405197816842 0 0.21064355365592011 -0.35682494480555921 0 0.20693535309048791 -0.33763904061490191 0 0.21064355365592011 -0.35682494480555921 0 0.19256718853114599 -0.35295686972216561 0 0.2014598132275201 -0.36677506491049411 0 0.18879883910964551 -0.37176217175087251 0 0.2014598132275201 -0.36677506491049411 0 0.20471468893229081 -0.37949130382332458 0 0.19256718853114599 -0.35295686972216561 0 0.18879883910964551 -0.37176217175087251 0 0.2014598132275201 -0.36677506491049411 0 0.2073654260771649 -0.30498063618781518 0 0.20693535309048791 -0.33763904061490191 0 0.1864324716321534 -0.32638402925163529 0 0.2073654260771649 -0.30498063618781518 0 0.22290755250066721 -0.32877686780676241 0 0.20693535309048791 -0.33763904061490191 0 0.2274382345488225 -0.34889405197816842 0 0.20693535309048791 -0.33763904061490191 0 0.20693535309048791 -0.33763904061490191 0 0.1864324716321534 -0.32638402925163529 0 0.19256718853114599 -0.35295686972216561 0 0.20693535309048791 -0.33763904061490191 0 0.1864324716321534 -0.32638402925163529 0 0.2073654260771649 -0.30498063618781518 0 0.1864324716321534 -0.32638402925163529 0 0.17868019624171699 -0.31120427952995361 0 0.1864324716321534 -0.32638402925163529 0 0.16024004503576461 -0.32117178502575022 0 0.17868019624171699 -0.31120427952995361 0 0.19256718853114599 -0.35295686972216561 0 0.1864324716321534 -0.32638402925163529 0 0.17451944207270501 -0.34646697838831131 0 0.1864324716321534 -0.32638402925163529 0 0.16024004503576461 -0.32117178502575022 0 0.17451944207270501 -0.34646697838831131 0 0.1567875551418125 -0.33480898000898918 0 0.16024004503576461 -0.32117178502575022 0 0.17451944207270501 -0.34646697838831131 0 0.1567875551418125 -0.33480898000898918 0 0.17451944207270501 -0.34646697838831131 0 0.15771412698601919 -0.3488458684852952 0 0.16024004503576461 -0.32117178502575022 0 0.17451944207270501 -0.34646697838831131 0 0.18879883910964551 -0.37176217175087251 0 0.17204125007754939 -0.36716271020276919 0 0.17451944207270501 -0.34646697838831131 0 0.18879883910964551 -0.37176217175087251 0 0.17204125007754939 -0.36716271020276919 0 0.18636837316907959 -0.38547955192024319 0 0.18879883910964551 -0.37176217175087251 0 0.17451944207270501 -0.34646697838831131 0 0.19256718853114599 -0.35295686972216561 0 0.18879883910964551 -0.37176217175087251 0 0.17451944207270501 -0.34646697838831131 0 0.17204125007754939 -0.36716271020276919 0 0.17451944207270501 -0.34646697838831131 0 0.15771412698601919 -0.3488458684852952 0 0.17204125007754939 -0.36716271020276919 0 0.15771412698601919 -0.3488458684852952 0 0.17204125007754939 -0.36716271020276919 0 0.15771412698601919 -0.3488458684852952 0 0.15785917815789791 -0.36464624715854782 0 0.15785917815789791 -0.36464624715854782 0 0.1627619380845951 -0.37478271642662658 0 0.14912411857585589 -0.37365396805956358 0 0.17204125007754939 -0.36716271020276919 0 0.15785917815789791 -0.36464624715854782 0 0.1627619380845951 -0.37478271642662658 0 0.17204125007754939 -0.36716271020276919 0 0.1627619380845951 -0.37478271642662658 0 0.17136522047659089 -0.38225092182345433 0 0.14912411857585589 -0.37365396805956358 0 0.14765445706546981 -0.35878597261848427 0 0.13322286882896051 -0.36037312225066498 0 0.15785917815789791 -0.36464624715854782 0 0.14912411857585589 -0.37365396805956358 0 0.14765445706546981 -0.35878597261848427 0 0.15771412698601919 -0.3488458684852952 0 0.13867905140781239 -0.34829751443066498 0 0.1412094680762061 -0.33869906620726881 0 0.15771412698601919 -0.3488458684852952 0 0.14765445706546981 -0.35878597261848427 0 0.13867905140781239 -0.34829751443066498 0 0.15771412698601919 -0.3488458684852952 0 0.15785917815789791 -0.36464624715854782 0 0.14765445706546981 -0.35878597261848427 0 0.13867905140781239 -0.34829751443066498 0 0.1296573364710111 -0.33518003594979717 0 0.1246791938041473 -0.34912575410446728 0 0.13867905140781239 -0.34829751443066498 0 0.13322286882896051 -0.36037312225066498 0 0.1246791938041473 -0.34912575410446728 0 0.14765445706546981 -0.35878597261848427 0 0.13867905140781239 -0.34829751443066498 0 0.13322286882896051 -0.36037312225066498 0 0.13322286882896051 -0.36037312225066498 0 0.13038848343131931 -0.3824974167445323 0 0.113924078995774 -0.35913350745654732 0 0.14912411857585589 -0.37365396805956358 0 0.13322286882896051 -0.36037312225066498 0 0.13038848343131931 -0.3824974167445323 0 0.13322286882896051 -0.36037312225066498 0 0.13038848343131931 -0.3824974167445323 0 0.16024004503576461 -0.32117178502575022 0 0.14373006029273849 -0.31404174088676118 0 0.14971690682887071 -0.32434530411581369 0 0.1406543379795116 -0.32525803199860998 0 0.14971690682887071 -0.32434530411581369 0 0.14338700389448891 -0.33052902676782098 0 0.1406543379795116 -0.32525803199860998 0 0.14373006029273849 -0.31404174088676118 0 0.14971690682887071 -0.32434530411581369 0 0.1567875551418125 -0.33480898000898918 0 0.16024004503576461 -0.32117178502575022 0 0.14971690682887071 -0.32434530411581369 0 0.15771412698601919 -0.3488458684852952 0 0.14338700389448891 -0.33052902676782098 0 0.15771412698601919 -0.3488458684852952 0 0.1412094680762061 -0.33869906620726881 0 0.14338700389448891 -0.33052902676782098 0 0.1567875551418125 -0.33480898000898918 0 0.15771412698601919 -0.3488458684852952 0 0.14338700389448891 -0.33052902676782098 0 0.1567875551418125 -0.33480898000898918 0 0.14971690682887071 -0.32434530411581369 0 0.14338700389448891 -0.33052902676782098 0 0.1412094680762061 -0.33869906620726881 0 0.13660982162169891 -0.33064288540276537 0 0.1296573364710111 -0.33518003594979717 0 0.1412094680762061 -0.33869906620726881 0 0.14338700389448891 -0.33052902676782098 0 0.13660982162169891 -0.33064288540276537 0 0.1406543379795116 -0.32525803199860998 0 0.14338700389448891 -0.33052902676782098 0 0.13660982162169891 -0.33064288540276537 0 0.13867905140781239 -0.34829751443066498 0 0.1412094680762061 -0.33869906620726881 0 0.1296573364710111 -0.33518003594979717 0 0.13660982162169891 -0.33064288540276537 0 0.1296573364710111 -0.33518003594979717 0 0.13118834206526589 -0.32319449947430662 0 0.1406543379795116 -0.32525803199860998 0 0.1339169793030783 -0.30779924975387052 0 0.1406543379795116 -0.32525803199860998 0 0.13118834206526589 -0.32319449947430662 0 0.1339169793030783 -0.30779924975387052 0 0.1406543379795116 -0.32525803199860998 0 0.14373006029273849 -0.31404174088676118 0 0.1339169793030783 -0.30779924975387052 0 0.1296573364710111 -0.33518003594979717 0 0.13118834206526589 -0.32319449947430662 0 0.1223565595246926 -0.31921167857908689 0 0.1406543379795116 -0.32525803199860998 0 0.13660982162169891 -0.33064288540276537 0 0.13118834206526589 -0.32319449947430662 0 0.13118834206526589 -0.32319449947430662 0 0.12735227784075881 -0.31429799137321252 0 0.1223565595246926 -0.31921167857908689 0 0.13118834206526589 -0.32319449947430662 0 0.12735227784075881 -0.31429799137321252 0 0.1339169793030783 -0.30779924975387052 0 0.12735227784075881 -0.31429799137321252 0 0.130538559069965 -0.29904461666786131 0 0.1339169793030783 -0.30779924975387052 0 0.12735227784075881 -0.31429799137321252 0 0.130538559069965 -0.29904461666786131 0 0.1223565595246926 -0.31921167857908689 0 0.130538559069965 -0.29904461666786131 0 0.1223565595246926 -0.31921167857908689 0 0.12735227784075881 -0.31429799137321252 0 0.1339169793030783 -0.30779924975387052 0 0.130538559069965 -0.29904461666786131 0 0.1339169793030783 -0.30779924975387052 0 0.1339169793030783 -0.30779924975387052 0 0.14596064799882541 -0.29587659166318858 0 0.130538559069965 -0.29904461666786131 0 0.1339169793030783 -0.30779924975387052 0 0.13786448808785709 -0.2931884685046664 0 0.1339169793030783 -0.30779924975387052 0 0.14596064799882541 -0.29587659166318858 0 0.13786448808785709 -0.2931884685046664 0 0.16024004503576461 -0.32117178502575022 0 0.14596064799882541 -0.29587659166318858 0 0.16024004503576461 -0.32117178502575022 0 0.14373006029273849 -0.31404174088676118 0 0.14596064799882541 -0.29587659166318858 0 0.14373006029273849 -0.31404174088676118 0 0.1339169793030783 -0.30779924975387052 0 0.14596064799882541 -0.29587659166318858 0 0.14596064799882541 -0.29587659166318858 0 0.16407690383651241 -0.30231243636987748 0 0.15688161198190009 -0.28519423200828647 0 0.13974607451029319 -0.28486780483196622 0 0.15688161198190009 -0.28519423200828647 0 0.13901230643677939 -0.27815845225032848 0 0.15688161198190009 -0.28519423200828647 0 0.14596064799882541 -0.29587659166318858 0 0.13974607451029319 -0.28486780483196622 0 0.15688161198190009 -0.28519423200828647 0 0.13974607451029319 -0.28486780483196622 0 0.13901230643677939 -0.27815845225032848 0 0.15688161198190009 -0.28519423200828647 0 0.14596064799882541 -0.29587659166318858 0 0.15688161198190009 -0.28519423200828647 0 0.14596064799882541 -0.29587659166318858 0 0.13974607451029319 -0.28486780483196622 0 0.13786448808785709 -0.2931884685046664 0 0.14596064799882541 -0.29587659166318858 0 0.13974607451029319 -0.28486780483196622 0 0.13773534814574631 -0.281305909882269 0 0.13974607451029319 -0.28486780483196622 0 0.13901230643677939 -0.27815845225032848 0 0.13974607451029319 -0.28486780483196622 0 0.1363181500878983 -0.28479903168153847 0 0.13786448808785709 -0.2931884685046664 0 0.13773534814574631 -0.281305909882269 0 0.13974607451029319 -0.28486780483196622 0 0.13773534814574631 -0.281305909882269 0 0.1363181500878983 -0.28479903168153847 0 0.13974607451029319 -0.28486780483196622 0 0.1363181500878983 -0.28479903168153847 0 0.13773534814574631 -0.281305909882269 0 0.13974607451029319 -0.28486780483196622 0 0.1363181500878983 -0.28479903168153847 0 0.13773534814574631 -0.281305909882269 0 0.1363181500878983 -0.28479903168153847 0 0.13202284553790369 -0.28084170201212683 0 0.130538559069965 -0.29904461666786131 0 0.1363181500878983 -0.28479903168153847 0 0.130538559069965 -0.29904461666786131 0 0.1363181500878983 -0.28479903168153847 0 0.13786448808785709 -0.2931884685046664 0 0.130538559069965 -0.29904461666786131 0 0.1363181500878983 -0.28479903168153847 0 0.12495318628080269 -0.28457102071358631 0 0.130538559069965 -0.29904461666786131 0 0.12495318628080269 -0.28457102071358631 0 0.1203782721104405 -0.29489345490601648 0 0.130538559069965 -0.29904461666786131 0 0.12495318628080269 -0.28457102071358631 0 0.1363181500878983 -0.28479903168153847 0 0.12495318628080269 -0.28457102071358631 0 0.1363181500878983 -0.28479903168153847 0 0.13202284553790369 -0.28084170201212683 0 0.12495318628080269 -0.28457102071358631 0 0.1350896366741626 -0.27661917254440499 0 0.1242646691526012 -0.25744331757706962 0 0.13202284553790369 -0.28084170201212683 0 0.1260179065009088 -0.27691337523883458 0 0.1350896366741626 -0.27661917254440499 0 0.13202284553790369 -0.28084170201212683 0 0.1260179065009088 -0.27691337523883458 0 0.12495318628080269 -0.28457102071358631 0 0.1260179065009088 -0.27691337523883458 0 0.1350896366741626 -0.27661917254440499 0 0.1204019945794826 -0.27085565158231828 0 0.1350896366741626 -0.27661917254440499 0 0.1242646691526012 -0.25744331757706962 0 0.1204019945794826 -0.27085565158231828 0 0.1350896366741626 -0.27661917254440499 0 0.1204019945794826 -0.27085565158231828 0 0.13901230643677939 -0.27815845225032848 0 0.1350896366741626 -0.27661917254440499 0 0.1448783876043957 -0.26369968560911261 0 0.13773534814574631 -0.281305909882269 0 0.13901230643677939 -0.27815845225032848 0 0.1350896366741626 -0.27661917254440499 0 0.13901230643677939 -0.27815845225032848 0 0.1350896366741626 -0.27661917254440499 0 0.13773534814574631 -0.281305909882269 0 0.13901230643677939 -0.27815845225032848 0 0.13773534814574631 -0.281305909882269 0 0.1350896366741626 -0.27661917254440499 0 0.13773534814574631 -0.281305909882269 0 0.13202284553790369 -0.28084170201212683 0 0.1350896366741626 -0.27661917254440499 0 0.1350896366741626 -0.27661917254440499 0 0.1377637405829498 -0.25440262038162609 0 0.1242646691526012 -0.25744331757706962 0 0.1350896366741626 -0.27661917254440499 0 0.1377637405829498 -0.25440262038162609 0 0.1448783876043957 -0.26369968560911261 0 0.1377637405829498 -0.25440262038162609 0 0.1242646691526012 -0.25744331757706962 0 0.12778836299882071 -0.2452080236367912 0 0.1242646691526012 -0.25744331757706962 0 0.12778836299882071 -0.2452080236367912 0 0.14414500287055351 -0.2515473987286046 0 0.1448783876043957 -0.26369968560911261 0 0.15074446877201189 -0.24924091896789649 0 0.1448783876043957 -0.26369968560911261 0 0.15074446877201189 -0.24924091896789649 0 0.1377637405829498 -0.25440262038162609 0 0.14414500287055351 -0.2515473987286046 0 0.1448783876043957 -0.26369968560911261 0 0.1377637405829498 -0.25440262038162609 0 0.14414500287055351 -0.2515473987286046 0 0.14261804240171119 -0.2483148659245355 0 0.1448783876043957 -0.26369968560911261 0 0.15621976476276059 -0.25563845829559112 0 0.15897422085808799 -0.26397991126725562 0 0.1448783876043957 -0.26369968560911261 0 0.15621976476276059 -0.25563845829559112 0 0.15074446877201189 -0.24924091896789649 0 0.15621976476276059 -0.25563845829559112 0 0.15074446877201189 -0.24924091896789649 0 0.15592759258352759 -0.2480150403775537 0 0.13901230643677939 -0.27815845225032848 0 0.14932117049789961 -0.27461264989606221 0 0.15688161198190009 -0.28519423200828647 0 0.13901230643677939 -0.27815845225032848 0 0.1448783876043957 -0.26369968560911261 0 0.13901230643677939 -0.27815845225032848 0 0.1448783876043957 -0.26369968560911261 0 0.14932117049789961 -0.27461264989606221 0 0.1448783876043957 -0.26369968560911261 0 0.15640196409664359 -0.27137865793763599 0 0.15897422085808799 -0.26397991126725562 0 0.1448783876043957 -0.26369968560911261 0 0.14932117049789961 -0.27461264989606221 0 0.15640196409664359 -0.27137865793763599 0 0.14932117049789961 -0.27461264989606221 0 0.15640196409664359 -0.27137865793763599 0 0.15688161198190009 -0.28519423200828647 0 0.15640196409664359 -0.27137865793763599 0 0.17119799408428871 -0.27089282167628831 0 0.15688161198190009 -0.28519423200828647 0 0.17119799408428871 -0.27089282167628831 0 0.17340296563737731 -0.28554305030169169 0 0.15688161198190009 -0.28519423200828647 0 0.17119799408428871 -0.27089282167628831 0 0.15688161198190009 -0.28519423200828647 0 0.15640196409664359 -0.27137865793763599 0 0.17119799408428871 -0.27089282167628831 0 0.15897422085808799 -0.26397991126725562 0 0.15621976476276059 -0.25563845829559112 0 0.16136981588237909 -0.25002704538369591 0 0.1661729937423517 -0.25828993281764989 0 0.15621976476276059 -0.25563845829559112 0 0.16136981588237909 -0.25002704538369591 0 0.15592759258352759 -0.2480150403775537 0 0.15621976476276059 -0.25563845829559112 0 0.15897422085808799 -0.26397991126725562 0 0.1661729937423517 -0.25828993281764989 0 0.17119799408428871 -0.27089282167628831 0 0.15897422085808799 -0.26397991126725562 0 0.1661729937423517 -0.25828993281764989 0 0.16136981588237909 -0.25002704538369591 0 0.1661729937423517 -0.25828993281764989 0 0.17168332840821471 -0.25059450629993563 0 0.17119799408428871 -0.27089282167628831 0 0.1661729937423517 -0.25828993281764989 0 0.18562478805855659 -0.2566109831231761 0 0.1661729937423517 -0.25828993281764989 0 0.17168332840821471 -0.25059450629993563 0 0.18562478805855659 -0.2566109831231761 0 0.17168332840821471 -0.25059450629993563 0 0.18562478805855659 -0.2566109831231761 0 0.17873448559936961 -0.24574127951022259 0 0.17119799408428871 -0.27089282167628831 0 0.18562478805855659 -0.2566109831231761 0 0.17119799408428871 -0.27089282167628831 0 0.18562478805855659 -0.2566109831231761 0 0.18108765082147241 -0.27688558745747899 0 0.19279193446269319 -0.27618085257724589 0 0.18562478805855659 -0.2566109831231761 0 0.18108765082147241 -0.27688558745747899 0 0.17119799408428871 -0.27089282167628831 0 0.18108765082147241 -0.27688558745747899 0 0.17340296563737731 -0.28554305030169169 0 0.18108765082147241 -0.27688558745747899 0 0.18217872496547241 -0.29509721998749339 0 0.17340296563737731 -0.28554305030169169 0 0.19279193446269319 -0.27618085257724589 0 0.18108765082147241 -0.27688558745747899 0 0.18217872496547241 -0.29509721998749339 0 0.18217872496547241 -0.29509721998749339 0 0.17868019624171699 -0.31120427952995361 0 0.16407690383651241 -0.30231243636987748 0 0.16024004503576461 -0.32117178502575022 0 0.14596064799882541 -0.29587659166318858 0 0.16407690383651241 -0.30231243636987748 0 0.16024004503576461 -0.32117178502575022 0 0.17868019624171699 -0.31120427952995361 0 0.16407690383651241 -0.30231243636987748 0 0.18217872496547241 -0.29509721998749339 0 0.15688161198190009 -0.28519423200828647 0 0.17340296563737731 -0.28554305030169169 0 0.15688161198190009 -0.28519423200828647 0 0.18217872496547241 -0.29509721998749339 0 0.17340296563737731 -0.28554305030169169 0 0.15688161198190009 -0.28519423200828647 0 0.18217872496547241 -0.29509721998749339 0 0.16407690383651241 -0.30231243636987748 0 0.15688161198190009 -0.28519423200828647 0 0.19735002968909771 -0.48387125762612748 0 0.2165331128262559 -0.5 0 0.1873503859065884 -0.5 0 0.19735002968909771 -0.48387125762612748 0 0.19957092284493949 -0.46678405649500482 0 0.18426279841739651 -0.47225456951440831 0 0.2236553457209923 -0.48038981146887411 0 0.2157816000273001 -0.46030628731644763 0 0.19957092284493949 -0.46678405649500482 0 0.19735002968909771 -0.48387125762612748 0 0.2236553457209923 -0.48038981146887411 0 0.19957092284493949 -0.46678405649500482 0 0.19735002968909771 -0.48387125762612748 0 0.2165331128262559 -0.5 0 0.2236553457209923 -0.48038981146887411 0 0.2165331128262559 -0.5 0 0.2457158397459234 -0.5 0 0.2236553457209923 -0.48038981146887411 0 0.25117130236780288 -0.48322299894459919 0 0.2457158397459234 -0.5 0 0.2236553457209923 -0.48038981146887411 0 0.25117130236780288 -0.48322299894459919 0 0.2236553457209923 -0.48038981146887411 0 0.24162510504302631 -0.46838723292231088 0 0.2236553457209923 -0.48038981146887411 0 0.24162510504302631 -0.46838723292231088 0 0.2157816000273001 -0.46030628731644763 0 0.24162510504302631 -0.46838723292231088 0 0.2157816000273001 -0.46030628731644763 0 0.22581353037252999 -0.45450415796127519 0 0.24162510504302631 -0.46838723292231088 0 0.23441740691137899 -0.45190749174668238 0 0.22581353037252999 -0.45450415796127519 0 0.24162510504302631 -0.46838723292231088 0 0.2157816000273001 -0.46030628731644763 0 0.22581353037252999 -0.45450415796127519 0 0.21722696759249599 -0.44944779204672508 0 0.2157816000273001 -0.46030628731644763 0 0.2593040875157725 -0.4562617754350119 0 0.24162510504302631 -0.46838723292231088 0 0.23441740691137899 -0.45190749174668238 0 0.25334506138010238 -0.4362654666144633 0 0.23441740691137899 -0.45190749174668238 0 0.25334506138010238 -0.4362654666144633 0 0.2593040875157725 -0.4562617754350119 0 0.23441740691137899 -0.45190749174668238 0 0.25334506138010238 -0.4362654666144633 0 0.23441740691137899 -0.45190749174668238 0 0.23163703022046689 -0.4476477518385561 0 0.23163703022046689 -0.4476477518385561 0 0.22458036805064119 -0.44759898263959652 0 0.22364394401707191 -0.43879622871182983 0 0.22581353037252999 -0.45450415796127519 0 0.23441740691137899 -0.45190749174668238 0 0.23163703022046689 -0.4476477518385561 0 0.22581353037252999 -0.45450415796127519 0 0.23163703022046689 -0.4476477518385561 0 0.22458036805064119 -0.44759898263959652 0 0.22581353037252999 -0.45450415796127519 0 0.22458036805064119 -0.44759898263959652 0 0.21722696759249599 -0.44944779204672508 0 0.22458036805064119 -0.44759898263959652 0 0.22364394401707191 -0.43879622871182983 0 0.21722696759249599 -0.44944779204672508 0 0.22364394401707191 -0.43879622871182983 0 0.1975000965212427 -0.44657714630108297 0 0.20525296613575611 -0.43737688977542039 0 0.22364394401707191 -0.43879622871182983 0 0.21722696759249599 -0.44944779204672508 0 0.1975000965212427 -0.44657714630108297 0 0.22364394401707191 -0.43879622871182983 0 0.1975000965212427 -0.44657714630108297 0 0.21722696759249599 -0.44944779204672508 0 0.2157816000273001 -0.46030628731644763 0 0.1975000965212427 -0.44657714630108297 0 0.2157816000273001 -0.46030628731644763 0 0.19957092284493949 -0.46678405649500482 0 0.18993809501157369 -0.45222534171058443 0 0.19957092284493949 -0.46678405649500482 0 0.18248016829231789 -0.46122376447663738 0 0.18426279841739651 -0.47225456951440831 0 0.2157816000273001 -0.46030628731644763 0 0.18993809501157369 -0.45222534171058443 0 0.19957092284493949 -0.46678405649500482 0 0.18993809501157369 -0.45222534171058443 0 0.18248016829231789 -0.46122376447663738 0 0.2157816000273001 -0.46030628731644763 0 0.18993809501157369 -0.45222534171058443 0 0.1975000965212427 -0.44657714630108297 0 0.1975000965212427 -0.44657714630108297 0 0.19364889386103701 -0.43421354002427748 0 0.18151576334082631 -0.43930316390906488 0 0.1975000965212427 -0.44657714630108297 0 0.19364889386103701 -0.43421354002427748 0 0.20525296613575611 -0.43737688977542039 0 0.19846131832072431 -0.42543295536389508 0 0.20262011291060111 -0.41863382732756538 0 0.20621893014367279 -0.4299206440644916 0 0.19846131832072431 -0.42543295536389508 0 0.19364889386103701 -0.43421354002427748 0 0.20621893014367279 -0.4299206440644916 0 0.19364889386103701 -0.43421354002427748 0 0.20525296613575611 -0.43737688977542039 0 0.20621893014367279 -0.4299206440644916 0 0.19364889386103701 -0.43421354002427748 0 0.19119024517598021 -0.42485161266548971 0 0.1815407384977592 -0.42883853491088592 0 0.19846131832072431 -0.42543295536389508 0 0.19364889386103701 -0.43421354002427748 0 0.19119024517598021 -0.42485161266548971 0 0.19846131832072431 -0.42543295536389508 0 0.19119024517598021 -0.42485161266548971 0 0.1944980127440202 -0.41974779806596257 0 0.19119024517598021 -0.42485161266548971 0 0.1944980127440202 -0.41974779806596257 0 0.18672090789232601 -0.41788153454133048 0 0.1944980127440202 -0.41974779806596257 0 0.19349747942046941 -0.4119390604315325 0 0.18672090789232601 -0.41788153454133048 0 0.19349747942046941 -0.4119390604315325 0 0.1849540412567709 -0.41077856019813869 0 0.18672090789232601 -0.41788153454133048 0 0.19349747942046941 -0.4119390604315325 0 0.18650470033650779 -0.40199452068538549 0 0.1849540412567709 -0.41077856019813869 0 0.19349747942046941 -0.4119390604315325 0 0.20262011291060111 -0.41863382732756538 0 0.20069549626060981 -0.40379639363771719 0 0.19846131832072431 -0.42543295536389508 0 0.1944980127440202 -0.41974779806596257 0 0.20262011291060111 -0.41863382732756538 0 0.1944980127440202 -0.41974779806596257 0 0.19349747942046941 -0.4119390604315325 0 0.20262011291060111 -0.41863382732756538 0 0.21735763318352649 -0.42235255847599501 0 0.20307823614658599 -0.39705736511343381 0 0.21735763318352649 -0.42235255847599501 0 0.20307823614658599 -0.39705736511343381 0 0.20069549626060981 -0.40379639363771719 0 0.21735763318352649 -0.42235255847599501 0 0.21458314848384241 -0.40184264489492533 0 0.20307823614658599 -0.39705736511343381 0 0.20262011291060111 -0.41863382732756538 0 0.21735763318352649 -0.42235255847599501 0 0.20069549626060981 -0.40379639363771719 0 0.21735763318352649 -0.42235255847599501 0 0.22250964454731159 -0.40678818924286769 0 0.21458314848384241 -0.40184264489492533 0 0.22364394401707191 -0.43879622871182983 0 0.20525296613575611 -0.43737688977542039 0 0.20621893014367279 -0.4299206440644916 0 0.22364394401707191 -0.43879622871182983 0 0.21735763318352649 -0.42235255847599501 0 0.20621893014367279 -0.4299206440644916 0 0.20262011291060111 -0.41863382732756538 0 0.21735763318352649 -0.42235255847599501 0 0.20621893014367279 -0.4299206440644916 0 0.23163703022046689 -0.4476477518385561 0 0.22364394401707191 -0.43879622871182983 0 0.21735763318352649 -0.42235255847599501 0 0.23163703022046689 -0.4476477518385561 0 0.21735763318352649 -0.42235255847599501 0 0.23584340726623609 -0.42772355340219309 0 0.21735763318352649 -0.42235255847599501 0 0.23584340726623609 -0.42772355340219309 0 0.23035302442860631 -0.41594963404984159 0 0.23163703022046689 -0.4476477518385561 0 0.21735763318352649 -0.42235255847599501 0 0.25334506138010238 -0.4362654666144633 0 0.23584340726623609 -0.42772355340219309 0 0.24761439744195909 -0.41679427769309257 0 0.25334506138010238 -0.4362654666144633 0 0.23163703022046689 -0.4476477518385561 0 0.23584340726623609 -0.42772355340219309 0 0.24761439744195909 -0.41679427769309257 0 0.23035302442860631 -0.41594963404984159 0 0.23304097992937309 -0.40239083995278352 0 0.23584340726623609 -0.42772355340219309 0 0.24761439744195909 -0.41679427769309257 0 0.23035302442860631 -0.41594963404984159 0 0.2621206751234616 -0.40368612815140531 0 0.24761439744195909 -0.41679427769309257 0 0.23304097992937309 -0.40239083995278352 0 0.23035302442860631 -0.41594963404984159 0 0.22250964454731159 -0.40678818924286769 0 0.23304097992937309 -0.40239083995278352 0 0.21735763318352649 -0.42235255847599501 0 0.23035302442860631 -0.41594963404984159 0 0.22250964454731159 -0.40678818924286769 0 0.22250964454731159 -0.40678818924286769 0 0.2192683787186108 -0.39293339154508811 0 0.23304097992937309 -0.40239083995278352 0 0.22250964454731159 -0.40678818924286769 0 0.2192683787186108 -0.39293339154508811 0 0.21458314848384241 -0.40184264489492533 0 0.2192683787186108 -0.39293339154508811 0 0.23304097992937309 -0.40239083995278352 0 0.23361859850141489 -0.38790528520089229 0 0.2621206751234616 -0.40368612815140531 0 0.23304097992937309 -0.40239083995278352 0 0.2465192077649429 -0.39604575633547601 0 0.2621206751234616 -0.40368612815140531 0 0.23304097992937309 -0.40239083995278352 0 0.23304097992937309 -0.40239083995278352 0 0.2465192077649429 -0.39604575633547601 0 0.23361859850141489 -0.38790528520089229 0 0.25744006829304472 -0.37712199528634432 0 0.2465192077649429 -0.39604575633547601 0 0.2432569646037224 -0.37994234509569302 0 0.2465192077649429 -0.39604575633547601 0 0.2432569646037224 -0.37994234509569302 0 0.23361859850141489 -0.38790528520089229 0 0.23516104651906611 -0.36815297841413802 0 0.2432569646037224 -0.37994234509569302 0 0.2341345608400589 -0.37836709284368852 0 0.2432569646037224 -0.37994234509569302 0 0.2341345608400589 -0.37836709284368852 0 0.23361859850141489 -0.38790528520089229 0 0.2341345608400589 -0.37836709284368852 0 0.23361859850141489 -0.38790528520089229 0 0.22450163373603221 -0.37746776266403109 0 0.2192683787186108 -0.39293339154508811 0 0.23361859850141489 -0.38790528520089229 0 0.22450163373603221 -0.37746776266403109 0 0.2192683787186108 -0.39293339154508811 0 0.22450163373603221 -0.37746776266403109 0 0.2144122898959008 -0.3821832836759092 0 0.2128748982693931 -0.37094224024986039 0 0.22450163373603221 -0.37746776266403109 0 0.2144122898959008 -0.3821832836759092 0 0.20471468893229081 -0.37949130382332458 0 0.21070184982317669 -0.39008172009724179 0 0.20307823614658599 -0.39705736511343381 0 0.2128748982693931 -0.37094224024986039 0 0.2144122898959008 -0.3821832836759092 0 0.20471468893229081 -0.37949130382332458 0 0.2144122898959008 -0.3821832836759092 0 0.20471468893229081 -0.37949130382332458 0 0.21070184982317669 -0.39008172009724179 0 0.2192683787186108 -0.39293339154508811 0 0.2144122898959008 -0.3821832836759092 0 0.21070184982317669 -0.39008172009724179 0 0.2192683787186108 -0.39293339154508811 0 0.21070184982317669 -0.39008172009724179 0 0.21458314848384241 -0.40184264489492533 0 0.21070184982317669 -0.39008172009724179 0 0.21458314848384241 -0.40184264489492533 0 0.20307823614658599 -0.39705736511343381 0 0.20069549626060981 -0.40379639363771719 0 0.18636837316907959 -0.38547955192024319 0 0.20307823614658599 -0.39705736511343381 0 0.20069549626060981 -0.40379639363771719 0 0.18636837316907959 -0.38547955192024319 0 0.20069549626060981 -0.40379639363771719 0 0.18636837316907959 -0.38547955192024319 0 0.18650470033650779 -0.40199452068538549 0 0.19349747942046941 -0.4119390604315325 0 0.20069549626060981 -0.40379639363771719 0 0.18650470033650779 -0.40199452068538549 0 0.18879883910964551 -0.37176217175087251 0 0.20471468893229081 -0.37949130382332458 0 0.20307823614658599 -0.39705736511343381 0 0.18879883910964551 -0.37176217175087251 0 0.20307823614658599 -0.39705736511343381 0 0.18879883910964551 -0.37176217175087251 0 0.20307823614658599 -0.39705736511343381 0 0.18636837316907959 -0.38547955192024319 0 0.17204125007754939 -0.36716271020276919 0 0.18636837316907959 -0.38547955192024319 0 0.17204125007754939 -0.36716271020276919 0 0.18636837316907959 -0.38547955192024319 0 0.17136522047659089 -0.38225092182345433 0 0.18636837316907959 -0.38547955192024319 0 0.1746917205310009 -0.39473231962763999 0 0.17136522047659089 -0.38225092182345433 0 0.18636837316907959 -0.38547955192024319 0 0.18650470033650779 -0.40199452068538549 0 0.1746917205310009 -0.39473231962763999 0 0.18650470033650779 -0.40199452068538549 0 0.1746917205310009 -0.39473231962763999 0 0.17718908483397519 -0.40730757686889418 0 0.1746917205310009 -0.39473231962763999 0 0.16210265617736011 -0.40532000132837942 0 0.1617469817642781 -0.38808659218111352 0 0.16210265617736011 -0.40532000132837942 0 0.1617469817642781 -0.38808659218111352 0 0.1544442622616034 -0.39643722141600302 0 0.1746917205310009 -0.39473231962763999 0 0.16210265617736011 -0.40532000132837942 0 0.17718908483397519 -0.40730757686889418 0 0.1746917205310009 -0.39473231962763999 0 0.1617469817642781 -0.38808659218111352 0 0.17136522047659089 -0.38225092182345433 0 0.1627619380845951 -0.37478271642662658 0 0.1617469817642781 -0.38808659218111352 0 0.17136522047659089 -0.38225092182345433 0 0.1627619380845951 -0.37478271642662658 0 0.14912411857585589 -0.37365396805956358 0 0.1617469817642781 -0.38808659218111352 0 0.14912411857585589 -0.37365396805956358 0 0.1479565639842117 -0.38852003711974481 0 0.13038848343131931 -0.3824974167445323 0 0.14912411857585589 -0.37365396805956358 0 0.1617469817642781 -0.38808659218111352 0 0.1479565639842117 -0.38852003711974481 0 0.13038848343131931 -0.3824974167445323 0 0.12683087921689709 -0.41026692310662249 0 0.12032065204548011 -0.39499863375235378 0 0.13038848343131931 -0.3824974167445323 0 0.14407897388800189 -0.40192498719751119 0 0.12683087921689709 -0.41026692310662249 0 0.13038848343131931 -0.3824974167445323 0 0.12683087921689709 -0.41026692310662249 0 0.13038848343131931 -0.3824974167445323 0 0.14407897388800189 -0.40192498719751119 0 0.1479565639842117 -0.38852003711974481 0 0.13038848343131931 -0.3824974167445323 0 0.14407897388800189 -0.40192498719751119 0 0.16210265617736011 -0.40532000132837942 0 0.14407897388800189 -0.40192498719751119 0 0.1544442622616034 -0.39643722141600302 0 0.1479565639842117 -0.38852003711974481 0 0.14407897388800189 -0.40192498719751119 0 0.1544442622616034 -0.39643722141600302 0 0.1617469817642781 -0.38808659218111352 0 0.1479565639842117 -0.38852003711974481 0 0.1544442622616034 -0.39643722141600302 0 0.14407897388800189 -0.40192498719751119 0 0.1476181793605533 -0.4189427369259946 0 0.1577694643446835 -0.42135255765049068 0 0.14407897388800189 -0.40192498719751119 0 0.1577694643446835 -0.42135255765049068 0 0.16210265617736011 -0.40532000132837942 0 0.14407897388800189 -0.40192498719751119 0 0.1577694643446835 -0.42135255765049068 0 0.1476181793605533 -0.4189427369259946 0 0.12683087921689709 -0.41026692310662249 0 0.12683087921689709 -0.41026692310662249 0 0.13757204858059879 -0.42800825064225562 0 0.14090002237242399 -0.4223801516039094 0 0.14407897388800189 -0.40192498719751119 0 0.1476181793605533 -0.4189427369259946 0 0.12683087921689709 -0.41026692310662249 0 0.1476181793605533 -0.4189427369259946 0 0.12683087921689709 -0.41026692310662249 0 0.14090002237242399 -0.4223801516039094 0 0.12683087921689709 -0.41026692310662249 0 0.13185425852269861 -0.43170244441160149 0 0.13757204858059879 -0.42800825064225562 0 0.12683087921689709 -0.41026692310662249 0 0.1237486123414764 -0.4343261001392168 0 0.12683087921689709 -0.41026692310662249 0 0.13185425852269861 -0.43170244441160149 0 0.1237486123414764 -0.4343261001392168 0 0.13185425852269861 -0.43170244441160149 0 0.13526276022627981 -0.43961632977313908 0 0.128009483664552 -0.43800567578279881 0 0.13185425852269861 -0.43170244441160149 0 0.128009483664552 -0.43800567578279881 0 0.1237486123414764 -0.4343261001392168 0 0.13757204858059879 -0.42800825064225562 0 0.1390061024005208 -0.43373384658793812 0 0.14483906563874491 -0.42885219272876668 0 0.13185425852269861 -0.43170244441160149 0 0.1390061024005208 -0.43373384658793812 0 0.13526276022627981 -0.43961632977313908 0 0.13185425852269861 -0.43170244441160149 0 0.13757204858059879 -0.42800825064225562 0 0.1390061024005208 -0.43373384658793812 0 0.1390061024005208 -0.43373384658793812 0 0.14483906563874491 -0.42885219272876668 0 0.1455023790342819 -0.44049001538392768 0 0.1476181793605533 -0.4189427369259946 0 0.14090002237242399 -0.4223801516039094 0 0.14483906563874491 -0.42885219272876668 0 0.13757204858059879 -0.42800825064225562 0 0.14090002237242399 -0.4223801516039094 0 0.14483906563874491 -0.42885219272876668 0 0.1476181793605533 -0.4189427369259946 0 0.14483906563874491 -0.42885219272876668 0 0.15533202455035161 -0.43120645838072591 0 0.14483906563874491 -0.42885219272876668 0 0.15533202455035161 -0.43120645838072591 0 0.1455023790342819 -0.44049001538392768 0 0.1476181793605533 -0.4189427369259946 0 0.15533202455035161 -0.43120645838072591 0 0.1684054795042095 -0.42761855074536648 0 0.1476181793605533 -0.4189427369259946 0 0.1684054795042095 -0.42761855074536648 0 0.15533202455035161 -0.43120645838072591 0 0.16958631412982891 -0.43790225433237101 0 0.15845547456719589 -0.4432994588482001 0 0.1476181793605533 -0.4189427369259946 0 0.1684054795042095 -0.42761855074536648 0 0.1577694643446835 -0.42135255765049068 0 0.15533202455035161 -0.43120645838072591 0 0.1684054795042095 -0.42761855074536648 0 0.16958631412982891 -0.43790225433237101 0 0.16210265617736011 -0.40532000132837942 0 0.1577694643446835 -0.42135255765049068 0 0.16832784129231659 -0.41607553527608437 0 0.16210265617736011 -0.40532000132837942 0 0.16832784129231659 -0.41607553527608437 0 0.17718908483397519 -0.40730757686889418 0 0.1684054795042095 -0.42761855074536648 0 0.1577694643446835 -0.42135255765049068 0 0.16832784129231659 -0.41607553527608437 0 0.1684054795042095 -0.42761855074536648 0 0.16832784129231659 -0.41607553527608437 0 0.17797497290170439 -0.41804787389488057 0 0.16832784129231659 -0.41607553527608437 0 0.17797497290170439 -0.41804787389488057 0 0.17718908483397519 -0.40730757686889418 0 0.17797497290170439 -0.41804787389488057 0 0.17718908483397519 -0.40730757686889418 0 0.1849540412567709 -0.41077856019813869 0 0.18650470033650779 -0.40199452068538549 0 0.17718908483397519 -0.40730757686889418 0 0.1849540412567709 -0.41077856019813869 0 0.17797497290170439 -0.41804787389488057 0 0.1849540412567709 -0.41077856019813869 0 0.18672090789232601 -0.41788153454133048 0 0.17797497290170439 -0.41804787389488057 0 0.18672090789232601 -0.41788153454133048 0 0.1815407384977592 -0.42883853491088592 0 0.19119024517598021 -0.42485161266548971 0 0.18672090789232601 -0.41788153454133048 0 0.1815407384977592 -0.42883853491088592 0 0.19364889386103701 -0.43421354002427748 0 0.1815407384977592 -0.42883853491088592 0 0.18151576334082631 -0.43930316390906488 0 0.1684054795042095 -0.42761855074536648 0 0.1815407384977592 -0.42883853491088592 0 0.16958631412982891 -0.43790225433237101 0 0.1815407384977592 -0.42883853491088592 0 0.18151576334082631 -0.43930316390906488 0 0.16958631412982891 -0.43790225433237101 0 0.1684054795042095 -0.42761855074536648 0 0.17797497290170439 -0.41804787389488057 0 0.1815407384977592 -0.42883853491088592 0 0.1975000965212427 -0.44657714630108297 0 0.18151576334082631 -0.43930316390906488 0 0.1713562490254133 -0.45435806389033628 0 0.1975000965212427 -0.44657714630108297 0 0.1713562490254133 -0.45435806389033628 0 0.18993809501157369 -0.45222534171058443 0 0.1975000965212427 -0.44657714630108297 0 0.1713562490254133 -0.45435806389033628 0 0.18151576334082631 -0.43930316390906488 0 0.1713562490254133 -0.45435806389033628 0 0.16958631412982891 -0.43790225433237101 0 0.18993809501157369 -0.45222534171058443 0 0.18248016829231789 -0.46122376447663738 0 0.1713562490254133 -0.45435806389033628 0 0.18248016829231789 -0.46122376447663738 0 0.17386589157835611 -0.46794758509262763 0 0.18426279841739651 -0.47225456951440831 0 0.18248016829231789 -0.46122376447663738 0 0.17386589157835611 -0.46794758509262763 0 0.1713562490254133 -0.45435806389033628 0 0.1713562490254133 -0.45435806389033628 0 0.1452124015295839 -0.46213898147958971 0 0.17386589157835611 -0.46794758509262763 0 0.1713562490254133 -0.45435806389033628 0 0.16139923906975259 -0.47052142365993521 0 0.1713562490254133 -0.45435806389033628 0 0.1452124015295839 -0.46213898147958971 0 0.16139923906975259 -0.47052142365993521 0 0.1713562490254133 -0.45435806389033628 0 0.16958631412982891 -0.43790225433237101 0 0.15845547456719589 -0.4432994588482001 0 0.1713562490254133 -0.45435806389033628 0 0.15845547456719589 -0.4432994588482001 0 0.15126074307479759 -0.45004100382742201 0 0.15845547456719589 -0.4432994588482001 0 0.15126074307479759 -0.45004100382742201 0 0.1455023790342819 -0.44049001538392768 0 0.15533202455035161 -0.43120645838072591 0 0.15845547456719589 -0.4432994588482001 0 0.1455023790342819 -0.44049001538392768 0 0.15126074307479759 -0.45004100382742201 0 0.1455023790342819 -0.44049001538392768 0 0.14018480266523339 -0.44933273755687902 0 0.1390061024005208 -0.43373384658793812 0 0.1455023790342819 -0.44049001538392768 0 0.13526276022627981 -0.43961632977313908 0 0.13526276022627981 -0.43961632977313908 0 0.14018480266523339 -0.44933273755687902 0 0.12990012767672421 -0.44667955834366191 0 0.1455023790342819 -0.44049001538392768 0 0.13526276022627981 -0.43961632977313908 0 0.14018480266523339 -0.44933273755687902 0 0.14018480266523339 -0.44933273755687902 0 0.12990012767672421 -0.44667955834366191 0 0.13397040444973321 -0.45703053653353343 0 0.12990012767672421 -0.44667955834366191 0 0.13397040444973321 -0.45703053653353343 0 0.1230613494798319 -0.4550929420970809 0 0.12990012767672421 -0.44667955834366191 0 0.1230613494798319 -0.4550929420970809 0 0.1225795767187956 -0.44345121361586082 0 0.13526276022627981 -0.43961632977313908 0 0.12990012767672421 -0.44667955834366191 0 0.128009483664552 -0.43800567578279881 0 0.12990012767672421 -0.44667955834366191 0 0.128009483664552 -0.43800567578279881 0 0.1225795767187956 -0.44345121361586082 0 0.13397040444973321 -0.45703053653353343 0 0.1353156975579704 -0.47604123506036911 0 0.1230613494798319 -0.4550929420970809 0 0.13397040444973321 -0.45703053653353343 0 0.1452124015295839 -0.46213898147958971 0 0.1353156975579704 -0.47604123506036911 0 0.14018480266523339 -0.44933273755687902 0 0.13397040444973321 -0.45703053653353343 0 0.1452124015295839 -0.46213898147958971 0 0.1713562490254133 -0.45435806389033628 0 0.15126074307479759 -0.45004100382742201 0 0.1452124015295839 -0.46213898147958971 0 0.15126074307479759 -0.45004100382742201 0 0.14018480266523339 -0.44933273755687902 0 0.1452124015295839 -0.46213898147958971 0 0.1452124015295839 -0.46213898147958971 0 0.14903766846067021 -0.47533585171550802 0 0.16139923906975259 -0.47052142365993521 0 0.14903766846067021 -0.47533585171550802 0 0.1353156975579704 -0.47604123506036911 0 0.15842198453046299 -0.49090077686195982 0 0.1353156975579704 -0.47604123506036911 0 0.15842198453046299 -0.49090077686195982 0 0.14903766846067021 -0.47533585171550802 0 0.15842198453046299 -0.49090077686195982 0 0.1596101375346852 -0.48031619400109321 0 0.1452124015295839 -0.46213898147958971 0 0.14903766846067021 -0.47533585171550802 0 0.1353156975579704 -0.47604123506036911 0 0.1353156975579704 -0.47604123506036911 0 0.12898493206725339 -0.5 0 0.14300910306667461 -0.4909577684383537 0 0.1353156975579704 -0.47604123506036911 0 0.12898493206725339 -0.5 0 0.11434464256491669 -0.48325612607872709 0 0.12898493206725339 -0.5 0 0.14300910306667461 -0.4909577684383537 0 0.15816765898692089 -0.5 0 0.1353156975579704 -0.47604123506036911 0 0.14300910306667461 -0.4909577684383537 0 0.15842198453046299 -0.49090077686195982 0 0.14300910306667461 -0.4909577684383537 0 0.15816765898692089 -0.5 0 0.15842198453046299 -0.49090077686195982 0 0.15816765898692089 -0.5 0 0.15842198453046299 -0.49090077686195982 0 0.172727612418414 -0.48379910827847789 0 0.15842198453046299 -0.49090077686195982 0 0.1596101375346852 -0.48031619400109321 0 0.172727612418414 -0.48379910827847789 0 0.17386589157835611 -0.46794758509262763 0 0.16139923906975259 -0.47052142365993521 0 0.172727612418414 -0.48379910827847789 0 0.14903766846067021 -0.47533585171550802 0 0.1596101375346852 -0.48031619400109321 0 0.16139923906975259 -0.47052142365993521 0 0.1596101375346852 -0.48031619400109321 0 0.16139923906975259 -0.47052142365993521 0 0.172727612418414 -0.48379910827847789 0 0.19735002968909771 -0.48387125762612748 0 0.172727612418414 -0.48379910827847789 0 0.18426279841739651 -0.47225456951440831 0 0.17386589157835611 -0.46794758509262763 0 0.172727612418414 -0.48379910827847789 0 0.18426279841739651 -0.47225456951440831 0 0.19735002968909771 -0.48387125762612748 0 0.172727612418414 -0.48379910827847789 0 0.1873503859065884 -0.5 0 0.15816765898692089 -0.5 0 0.172727612418414 -0.48379910827847789 0 0.1873503859065884 -0.5 0 0.0734230025069601 -0.5 0 0.084458152811464723 -0.48067109691538951 0 0.061374428314200848 -0.48535353720891788 0 0.063164582242289824 -0.47073098359557602 0 0.084458152811464723 -0.48067109691538951 0 0.069114100475345747 -0.46134219383077468 0 0.084458152811464723 -0.48067109691538951 0 0.069114100475345747 -0.46134219383077468 0 0.063164582242289824 -0.47073098359557602 0 0.084458152811464723 -0.48067109691538951 0 0.061374428314200848 -0.48535353720891788 0 0.084458152811464723 -0.48067109691538951 0 0.099934297559807622 -0.47320539392265187 0 0.086070097130975604 -0.46376909148785711 0 0.084458152811464723 -0.48067109691538951 0 0.099802205147585879 -0.50000000000000244 0 0.0734230025069601 -0.5 0 0.084458152811464723 -0.48067109691538951 0 0.099802205147585879 -0.50000000000000244 0 0.084458152811464723 -0.48067109691538951 0 0.099802205147585879 -0.50000000000000244 0 0.099934297559807622 -0.47320539392265187 0 0.099802205147585879 -0.50000000000000244 0 0.11434464256491669 -0.48325612607872709 0 0.099934297559807622 -0.47320539392265187 0 0.12898493206725339 -0.5 0 0.099802205147585879 -0.50000000000000244 0 0.11434464256491669 -0.48325612607872709 0 0.1353156975579704 -0.47604123506036911 0 0.11434464256491669 -0.48325612607872709 0 0.1122094105854777 -0.46118169325877828 0 0.11434464256491669 -0.48325612607872709 0 0.099934297559807622 -0.47320539392265187 0 0.1122094105854777 -0.46118169325877828 0 0.1122094105854777 -0.46118169325877828 0 0.089103123612985891 -0.44632215145718618 0 0.1122094105854777 -0.46118169325877828 0 0.089103123612985891 -0.44632215145718618 0 0.086070097130975604 -0.46376909148785711 0 0.099934297559807622 -0.47320539392265187 0 0.1122094105854777 -0.46118169325877828 0 0.086070097130975604 -0.46376909148785711 0 0.1353156975579704 -0.47604123506036911 0 0.1122094105854777 -0.46118169325877828 0 0.1230613494798319 -0.4550929420970809 0 0.1353156975579704 -0.47604123506036911 0 0.1122094105854777 -0.46118169325877828 0 0.1122094105854777 -0.46118169325877828 0 0.1230613494798319 -0.4550929420970809 0 0.1114164814087084 -0.4489862499448527 0 0.1225795767187956 -0.44345121361586082 0 0.10642586797723071 -0.44032412579820018 0 0.1237486123414764 -0.4343261001392168 0 0.1225795767187956 -0.44345121361586082 0 0.1114164814087084 -0.4489862499448527 0 0.10642586797723071 -0.44032412579820018 0 0.1225795767187956 -0.44345121361586082 0 0.1237486123414764 -0.4343261001392168 0 0.128009483664552 -0.43800567578279881 0 0.1225795767187956 -0.44345121361586082 0 0.1237486123414764 -0.4343261001392168 0 0.1230613494798319 -0.4550929420970809 0 0.1225795767187956 -0.44345121361586082 0 0.1114164814087084 -0.4489862499448527 0 0.1114164814087084 -0.4489862499448527 0 0.10642586797723071 -0.44032412579820018 0 0.089103123612985891 -0.44632215145718618 0 0.1122094105854777 -0.46118169325877828 0 0.1114164814087084 -0.4489862499448527 0 0.089103123612985891 -0.44632215145718618 0 0.10642586797723071 -0.44032412579820018 0 0.089103123612985891 -0.44632215145718618 0 0.10642586797723071 -0.44032412579820018 0 0.089103123612985891 -0.44632215145718618 0 0.095559702538845978 -0.43695553166405288 0 0.086330487863584035 -0.44453908276822612 0 0.089103123612985891 -0.44632215145718618 0 0.095559702538845978 -0.43695553166405288 0 0.075688751297493945 -0.45096689755835723 0 0.091235401153052953 -0.42643310821221531 0 0.086330487863584035 -0.44453908276822612 0 0.075688751297493945 -0.45096689755835723 0 0.091235401153052953 -0.42643310821221531 0 0.069070448158499859 -0.43857749530115692 0 0.075688751297493945 -0.45096689755835723 0 0.091235401153052953 -0.42643310821221531 0 0.089103123612985891 -0.44632215145718618 0 0.075688751297493945 -0.45096689755835723 0 0.086330487863584035 -0.44453908276822612 0 0.089103123612985891 -0.44632215145718618 0 0.075688751297493945 -0.45096689755835723 0 0.086330487863584035 -0.44453908276822612 0 0.089103123612985891 -0.44632215145718618 0 0.089103123612985891 -0.44632215145718618 0 0.086070097130975604 -0.46376909148785711 0 0.075688751297493945 -0.45096689755835723 0 0.084458152811464723 -0.48067109691538951 0 0.086070097130975604 -0.46376909148785711 0 0.069114100475345747 -0.46134219383077468 0 0.086070097130975604 -0.46376909148785711 0 0.069114100475345747 -0.46134219383077468 0 0.075688751297493945 -0.45096689755835723 0 0.069114100475345747 -0.46134219383077468 0 0.075688751297493945 -0.45096689755835723 0 0.063164582242289824 -0.47073098359557602 0 0.069114100475345747 -0.46134219383077468 0 0.058954749807607412 -0.46355474296505628 0 0.063164582242289824 -0.47073098359557602 0 0.069114100475345747 -0.46134219383077468 0 0.069114100475345747 -0.46134219383077468 0 0.064071100221343727 -0.45498952629354289 0 0.075688751297493945 -0.45096689755835723 0 0.069114100475345747 -0.46134219383077468 0 0.064071100221343727 -0.45498952629354289 0 0.058954749807607412 -0.46355474296505628 0 0.069114100475345747 -0.46134219383077468 0 0.064071100221343727 -0.45498952629354289 0 0.064071100221343727 -0.45498952629354289 0 0.069070448158499859 -0.43857749530115692 0 0.075688751297493945 -0.45096689755835723 0 0.064071100221343727 -0.45498952629354289 0 0.075688751297493945 -0.45096689755835723 0 0.069070448158499859 -0.43857749530115692 0 0.062729103111697937 -0.42118313664057683 0 0.091235401153052953 -0.42643310821221531 0 0.062729103111697937 -0.42118313664057683 0 0.077282197647495457 -0.40633360577591299 0 0.091235401153052953 -0.42643310821221531 0 0.062729103111697937 -0.42118313664057683 0 0.077282197647495457 -0.40633360577591299 0 0.062246035395373711 -0.40080372307708068 0 0.077282197647495457 -0.40633360577591299 0 0.091235401153052953 -0.42643310821221531 0 0.091646630603380477 -0.39558238070641499 0 0.086330487863584035 -0.44453908276822612 0 0.091235401153052953 -0.42643310821221531 0 0.095559702538845978 -0.43695553166405288 0 0.091235401153052953 -0.42643310821221531 0 0.095559702538845978 -0.43695553166405288 0 0.1087735020938167 -0.42404375792296961 0 0.10642586797723071 -0.44032412579820018 0 0.095559702538845978 -0.43695553166405288 0 0.1087735020938167 -0.42404375792296961 0 0.10642586797723071 -0.44032412579820018 0 0.1087735020938167 -0.42404375792296961 0 0.1237486123414764 -0.4343261001392168 0 0.10642586797723071 -0.44032412579820018 0 0.1237486123414764 -0.4343261001392168 0 0.12683087921689709 -0.41026692310662249 0 0.1087735020938167 -0.42404375792296961 0 0.1237486123414764 -0.4343261001392168 0 0.12683087921689709 -0.41026692310662249 0 0.1087735020938167 -0.42404375792296961 0 0.1067820510086129 -0.40189931886607377 0 0.091235401153052953 -0.42643310821221531 0 0.1067820510086129 -0.40189931886607377 0 0.091235401153052953 -0.42643310821221531 0 0.1087735020938167 -0.42404375792296961 0 0.1067820510086129 -0.40189931886607377 0 0.091235401153052953 -0.42643310821221531 0 0.1067820510086129 -0.40189931886607377 0 0.091646630603380477 -0.39558238070641499 0 0.1067820510086129 -0.40189931886607377 0 0.091646630603380477 -0.39558238070641499 0 0.1067820510086129 -0.40189931886607377 0 0.1047190313969513 -0.38898123136463458 0 0.091646630603380477 -0.39558238070641499 0 0.1067820510086129 -0.40189931886607377 0 0.1172811945250912 -0.38533087629218649 0 0.1047190313969513 -0.38898123136463458 0 0.1067820510086129 -0.40189931886607377 0 0.12032065204548011 -0.39499863375235378 0 0.1172811945250912 -0.38533087629218649 0 0.1067820510086129 -0.40189931886607377 0 0.1172811945250912 -0.38533087629218649 0 0.12683087921689709 -0.41026692310662249 0 0.1067820510086129 -0.40189931886607377 0 0.12683087921689709 -0.41026692310662249 0 0.1067820510086129 -0.40189931886607377 0 0.12032065204548011 -0.39499863375235378 0 0.1172811945250912 -0.38533087629218649 0 0.1047190313969513 -0.38898123136463458 0 0.11048219546534049 -0.37289190561521302 0 0.13038848343131931 -0.3824974167445323 0 0.1172811945250912 -0.38533087629218649 0 0.11048219546534049 -0.37289190561521302 0 0.13038848343131931 -0.3824974167445323 0 0.12032065204548011 -0.39499863375235378 0 0.1172811945250912 -0.38533087629218649 0 0.1047190313969513 -0.38898123136463458 0 0.098779023820001616 -0.37732578866181432 0 0.11048219546534049 -0.37289190561521302 0 0.1047190313969513 -0.38898123136463458 0 0.098779023820001616 -0.37732578866181432 0 0.091646630603380477 -0.39558238070641499 0 0.083631167511294929 -0.37580947905749529 0 0.091646630603380477 -0.39558238070641499 0 0.076511210198147606 -0.38926544254675721 0 0.098779023820001616 -0.37732578866181432 0 0.083631167511294929 -0.37580947905749529 0 0.091646630603380477 -0.39558238070641499 0 0.077282197647495457 -0.40633360577591299 0 0.091646630603380477 -0.39558238070641499 0 0.076511210198147606 -0.38926544254675721 0 0.091646630603380477 -0.39558238070641499 0 0.076511210198147606 -0.38926544254675721 0 0.077282197647495457 -0.40633360577591299 0 0.076511210198147606 -0.38926544254675721 0 0.062246035395373711 -0.40080372307708068 0 0.076511210198147606 -0.38926544254675721 0 0.059785370224447937 -0.38060190838515712 0 0.062246035395373711 -0.40080372307708068 0 0.083631167511294929 -0.37580947905749529 0 0.076511210198147606 -0.38926544254675721 0 0.059785370224447937 -0.38060190838515712 0 0.059785370224447937 -0.38060190838515712 0 0.048151304049671988 -0.39554341288905842 0 0.034148361866248783 -0.38173480306827912 0 0.059785370224447937 -0.38060190838515712 0 0.062246035395373711 -0.40080372307708068 0 0.048151304049671988 -0.39554341288905842 0 0.062246035395373711 -0.40080372307708068 0 0.048151304049671988 -0.39554341288905842 0 0.049337579597999573 -0.40914689283600342 0 0.048151304049671988 -0.39554341288905842 0 0.034376785636774793 -0.40456410226465828 0 0.034148361866248783 -0.38173480306827912 0 0.048151304049671988 -0.39554341288905842 0 0.034376785636774793 -0.40456410226465828 0 0.049337579597999573 -0.40914689283600342 0 0.034148361866248783 -0.38173480306827912 0 0.016831450345682501 -0.38101381553799668 0 0.01452765679683155 -0.36480021724624589 0 0.034148361866248783 -0.38173480306827912 0 0.016831450345682501 -0.38101381553799668 0 0.017718711933679049 -0.39595400610557008 0 0.016831450345682501 -0.38101381553799668 0 0.00045703181057857539 -0.38075564520811789 0 0.017718711933679049 -0.39595400610557008 0 0.016831450345682501 -0.38101381553799668 0 0.00045703181057857539 -0.38075564520811789 0 0.01452765679683155 -0.36480021724624589 0 0.00045703181057857539 -0.38075564520811789 0 0.017718711933679049 -0.39595400610557008 0 0.0027727943578457529 -0.4070150055845157 0 0.034376785636774793 -0.40456410226465828 0 0.034148361866248783 -0.38173480306827912 0 0.017718711933679049 -0.39595400610557008 0 0.034376785636774793 -0.40456410226465828 0 0.018040639033788289 -0.41861746999137689 0 0.039184669796479388 -0.42364008930864322 0 0.034376785636774793 -0.40456410226465828 0 0.017718711933679049 -0.39595400610557008 0 0.018040639033788289 -0.41861746999137689 0 0.017718711933679049 -0.39595400610557008 0 0.018040639033788289 -0.41861746999137689 0 0.0027727943578457529 -0.4070150055845157 0 0.018040639033788289 -0.41861746999137689 0 0.0027727943578457529 -0.4070150055845157 0 0.0038571219342519768 -0.42988645953386467 0 0.018040639033788289 -0.41861746999137689 0 0.0038571219342519768 -0.42988645953386467 0 0.017785019619735911 -0.44180036128367589 0 0.018040639033788289 -0.41861746999137689 0 0.039184669796479388 -0.42364008930864322 0 0.017785019619735911 -0.44180036128367589 0 0.039184669796479388 -0.42364008930864322 0 0.051627885008911613 -0.43931480780109311 0 0.039184669796479388 -0.42364008930864322 0 0.051627885008911613 -0.43931480780109311 0 0.037186559208202297 -0.44713347849436141 0 0.034376785636774793 -0.40456410226465828 0 0.039184669796479388 -0.42364008930864322 0 0.049337579597999573 -0.40914689283600342 0 0.062729103111697937 -0.42118313664057683 0 0.062246035395373711 -0.40080372307708068 0 0.049337579597999573 -0.40914689283600342 0 0.062729103111697937 -0.42118313664057683 0 0.039184669796479388 -0.42364008930864322 0 0.049337579597999573 -0.40914689283600342 0 0.062729103111697937 -0.42118313664057683 0 0.039184669796479388 -0.42364008930864322 0 0.051627885008911613 -0.43931480780109311 0 0.069070448158499859 -0.43857749530115692 0 0.062729103111697937 -0.42118313664057683 0 0.051627885008911613 -0.43931480780109311 0 0.064071100221343727 -0.45498952629354289 0 0.069070448158499859 -0.43857749530115692 0 0.051627885008911613 -0.43931480780109311 0 0.064071100221343727 -0.45498952629354289 0 0.051627885008911613 -0.43931480780109311 0 0.064071100221343727 -0.45498952629354289 0 0.0496641683327071 -0.45069093270305988 0 0.051627885008911613 -0.43931480780109311 0 0.064071100221343727 -0.45498952629354289 0 0.045771128892370672 -0.46132591822324248 0 0.064071100221343727 -0.45498952629354289 0 0.0496641683327071 -0.45069093270305988 0 0.045771128892370672 -0.46132591822324248 0 0.064071100221343727 -0.45498952629354289 0 0.058954749807607412 -0.46355474296505628 0 0.045771128892370672 -0.46132591822324248 0 0.063164582242289824 -0.47073098359557602 0 0.058954749807607412 -0.46355474296505628 0 0.052652837206686683 -0.46938509288214508 0 0.058954749807607412 -0.46355474296505628 0 0.045771128892370672 -0.46132591822324248 0 0.052652837206686683 -0.46938509288214508 0 0.045771128892370672 -0.46132591822324248 0 0.027471157563397509 -0.4676623101529418 0 0.045771128892370672 -0.46132591822324248 0 0.037186559208202297 -0.44713347849436141 0 0.027471157563397509 -0.4676623101529418 0 0.039184669796479388 -0.42364008930864322 0 0.037186559208202297 -0.44713347849436141 0 0.017785019619735911 -0.44180036128367589 0 0.0496641683327071 -0.45069093270305988 0 0.051627885008911613 -0.43931480780109311 0 0.037186559208202297 -0.44713347849436141 0 0.0496641683327071 -0.45069093270305988 0 0.045771128892370672 -0.46132591822324248 0 0.037186559208202297 -0.44713347849436141 0 0.037186559208202297 -0.44713347849436141 0 0.017785019619735911 -0.44180036128367589 0 0.027471157563397509 -0.4676623101529418 0 -0.0091600047871993294 -0.44740791858007117 0 0.017785019619735911 -0.44180036128367589 0 0.0081396403685838926 -0.46055270310767887 0 -0.0091600047871993294 -0.44740791858007117 0 0.0038571219342519768 -0.42988645953386467 0 0.017785019619735911 -0.44180036128367589 0 0.017785019619735911 -0.44180036128367589 0 0.0081396403685838926 -0.46055270310767887 0 0.027471157563397509 -0.4676623101529418 0 0.0081396403685838926 -0.46055270310767887 0 0.027471157563397509 -0.4676623101529418 0 0.011847289821028249 -0.4812589191785262 0 0.027471157563397509 -0.4676623101529418 0 0.011847289821028249 -0.4812589191785262 0 0.030223302065171979 -0.48548286164923982 0 -0.0074373051010584914 -0.4737039592900375 0 0.0081396403685838926 -0.46055270310767887 0 0.011847289821028249 -0.4812589191785262 0 -0.0057146054149174227 -0.50000000000000355 0 0.011847289821028249 -0.4812589191785262 0 0.020664597225708459 -0.5 0 0.011847289821028249 -0.4812589191785262 0 0.030223302065171979 -0.48548286164923982 0 0.020664597225708459 -0.5 0 0.030223302065171979 -0.48548286164923982 0 0.020664597225708459 -0.5 0 0.047043799866334217 -0.5 0 0.030223302065171979 -0.48548286164923982 0 0.044089665849391453 -0.47849307891473092 0 0.047043799866334217 -0.5 0 0.045771128892370672 -0.46132591822324248 0 0.027471157563397509 -0.4676623101529418 0 0.044089665849391453 -0.47849307891473092 0 0.027471157563397509 -0.4676623101529418 0 0.030223302065171979 -0.48548286164923982 0 0.044089665849391453 -0.47849307891473092 0 0.045771128892370672 -0.46132591822324248 0 0.044089665849391453 -0.47849307891473092 0 0.052652837206686683 -0.46938509288214508 0 0.063164582242289824 -0.47073098359557602 0 0.052652837206686683 -0.46938509288214508 0 0.061374428314200848 -0.48535353720891788 0 0.044089665849391453 -0.47849307891473092 0 0.052652837206686683 -0.46938509288214508 0 0.061374428314200848 -0.48535353720891788 0 0.0734230025069601 -0.5 0 0.047043799866334217 -0.5 0 0.061374428314200848 -0.48535353720891788 0 0.044089665849391453 -0.47849307891473092 0 0.047043799866334217 -0.5 0 0.061374428314200848 -0.48535353720891788 0 0.082154378254812782 -0.28371236442475622 0 0.090500486208525646 -0.29587302668500448 0 0.099327631306832503 -0.28405690490176733 0 0.082154378254812782 -0.28371236442475622 0 0.099327631306832503 -0.28405690490176733 0 0.078702215704812728 -0.29557621206389262 0 0.082154378254812782 -0.28371236442475622 0 0.090500486208525646 -0.29587302668500448 0 0.090500486208525646 -0.29587302668500448 0 0.085466142841737563 -0.30973645380271708 0 0.098935176519429069 -0.30617586477243491 0 0.078702215704812728 -0.29557621206389262 0 0.090500486208525646 -0.29587302668500448 0 0.085466142841737563 -0.30973645380271708 0 0.078702215704812728 -0.29557621206389262 0 0.085466142841737563 -0.30973645380271708 0 0.063972368104223354 -0.30194243963918371 0 0.085466142841737563 -0.30973645380271708 0 0.063972368104223354 -0.30194243963918371 0 0.068297587895928769 -0.32249743300430772 0 0.085466142841737563 -0.30973645380271708 0 0.063972368104223354 -0.30194243963918371 0 0.063972368104223354 -0.30194243963918371 0 0.072462129978784276 -0.28734727108459579 0 0.060683044974940419 -0.28370491846812812 0 0.072462129978784276 -0.28734727108459579 0 0.078887496583171915 -0.27326141146060712 0 0.060683044974940419 -0.28370491846812812 0 0.078702215704812728 -0.29557621206389262 0 0.063972368104223354 -0.30194243963918371 0 0.072462129978784276 -0.28734727108459579 0 0.082154378254812782 -0.28371236442475622 0 0.072462129978784276 -0.28734727108459579 0 0.078887496583171915 -0.27326141146060712 0 0.078702215704812728 -0.29557621206389262 0 0.082154378254812782 -0.28371236442475622 0 0.072462129978784276 -0.28734727108459579 0 0.078887496583171915 -0.27326141146060712 0 0.060683044974940419 -0.28370491846812812 0 0.070973581116982168 -0.26329130167816311 0 0.078887496583171915 -0.27326141146060712 0 0.060683044974940419 -0.28370491846812812 0 0.070973581116982168 -0.26329130167816311 0 0.076528211854956063 -0.25363930979043159 0 0.05481627597199748 -0.24511941280613139 0 0.070973581116982168 -0.26329130167816311 0 0.097091948191403765 -0.26281790445308678 0 0.070973581116982168 -0.26329130167816311 0 0.076528211854956063 -0.25363930979043159 0 0.097091948191403765 -0.26281790445308678 0 0.076528211854956063 -0.25363930979043159 0 0.097091948191403765 -0.26281790445308678 0 0.076528211854956063 -0.25363930979043159 0 0.1006352661651175 -0.25120832856657488 0 0.097091948191403765 -0.26281790445308678 0 0.078887496583171915 -0.27326141146060712 0 0.097091948191403765 -0.26281790445308678 0 0.078887496583171915 -0.27326141146060712 0 0.091570642478969788 -0.27515420455811562 0 0.097091948191403765 -0.26281790445308678 0 0.082154378254812782 -0.28371236442475622 0 0.091570642478969788 -0.27515420455811562 0 0.099327631306832503 -0.28405690490176733 0 0.070973581116982168 -0.26329130167816311 0 0.078887496583171915 -0.27326141146060712 0 0.097091948191403765 -0.26281790445308678 0 0.082154378254812782 -0.28371236442475622 0 0.078887496583171915 -0.27326141146060712 0 0.091570642478969788 -0.27515420455811562 0 0.1092712299886056 -0.27426975501299572 0 0.11650088435885229 -0.28440144537877821 0 0.099327631306832503 -0.28405690490176733 0 0.091570642478969788 -0.27515420455811562 0 0.099411081443891103 -0.27181353986251511 0 0.099327631306832503 -0.28405690490176733 0 0.099411081443891103 -0.27181353986251511 0 0.097091948191403765 -0.26281790445308678 0 0.099793955253643832 -0.2627689303866102 0 0.091570642478969788 -0.27515420455811562 0 0.099411081443891103 -0.27181353986251511 0 0.097091948191403765 -0.26281790445308678 0 0.099411081443891103 -0.27181353986251511 0 0.1092712299886056 -0.27426975501299572 0 0.099793955253643832 -0.2627689303866102 0 0.099411081443891103 -0.27181353986251511 0 0.1092712299886056 -0.27426975501299572 0 0.099327631306832503 -0.28405690490176733 0 0.1006352661651175 -0.25120832856657488 0 0.097091948191403765 -0.26281790445308678 0 0.1130301842628928 -0.25367447713749142 0 0.099793955253643832 -0.2627689303866102 0 0.11642342688149079 -0.26246752005338853 0 0.097091948191403765 -0.26281790445308678 0 0.099793955253643832 -0.2627689303866102 0 0.1130301842628928 -0.25367447713749142 0 0.097091948191403765 -0.26281790445308678 0 0.1130301842628928 -0.25367447713749142 0 0.097091948191403765 -0.26281790445308678 0 0.099793955253643832 -0.2627689303866102 0 0.1006352661651175 -0.25120832856657488 0 0.1118258784431849 -0.25055371215048589 0 0.1130301842628928 -0.25367447713749142 0 0.099793955253643832 -0.2627689303866102 0 0.1130301842628928 -0.25367447713749142 0 0.11642342688149079 -0.26246752005338853 0 0.099793955253643832 -0.2627689303866102 0 0.11642342688149079 -0.26246752005338853 0 0.1204019945794826 -0.27085565158231828 0 0.1118258784431849 -0.25055371215048589 0 0.1130301842628928 -0.25367447713749142 0 0.1199093265075081 -0.24972805942696519 0 0.1130301842628928 -0.25367447713749142 0 0.11642342688149079 -0.26246752005338853 0 0.1182263983028532 -0.25715226036245309 0 0.1130301842628928 -0.25367447713749142 0 0.1199093265075081 -0.24972805942696519 0 0.1130301842628928 -0.25367447713749142 0 0.1182263983028532 -0.25715226036245309 0 0.1199093265075081 -0.24972805942696519 0 0.1118258784431849 -0.25055371215048589 0 0.1130301842628928 -0.25367447713749142 0 0.1130301842628928 -0.25367447713749142 0 0.11642342688149079 -0.26246752005338853 0 0.1242646691526012 -0.25744331757706962 0 0.1204019945794826 -0.27085565158231828 0 0.11642342688149079 -0.26246752005338853 0 0.1182263983028532 -0.25715226036245309 0 0.1242646691526012 -0.25744331757706962 0 0.11642342688149079 -0.26246752005338853 0 0.1242646691526012 -0.25744331757706962 0 0.1204019945794826 -0.27085565158231828 0 0.1242646691526012 -0.25744331757706962 0 0.1199093265075081 -0.24972805942696519 0 0.12778836299882071 -0.2452080236367912 0 0.1182263983028532 -0.25715226036245309 0 0.1242646691526012 -0.25744331757706962 0 0.1199093265075081 -0.24972805942696519 0 0.1242646691526012 -0.25744331757706962 0 0.1199093265075081 -0.24972805942696519 0 0.1092712299886056 -0.27426975501299572 0 0.099793955253643832 -0.2627689303866102 0 0.1204019945794826 -0.27085565158231828 0 0.099793955253643832 -0.2627689303866102 0 0.1204019945794826 -0.27085565158231828 0 0.1092712299886056 -0.27426975501299572 0 0.1204019945794826 -0.27085565158231828 0 0.11650088435885229 -0.28440144537877821 0 0.11642342688149079 -0.26246752005338853 0 0.1204019945794826 -0.27085565158231828 0 0.1204019945794826 -0.27085565158231828 0 0.11650088435885229 -0.28440144537877821 0 0.1204019945794826 -0.27085565158231828 0 0.12495318628080269 -0.28457102071358631 0 0.11650088435885229 -0.28440144537877821 0 0.1260179065009088 -0.27691337523883458 0 0.1204019945794826 -0.27085565158231828 0 0.12495318628080269 -0.28457102071358631 0 0.1204019945794826 -0.27085565158231828 0 0.12495318628080269 -0.28457102071358631 0 0.12495318628080269 -0.28457102071358631 0 0.11650088435885229 -0.28440144537877821 0 0.12495318628080269 -0.28457102071358631 0 0.1203782721104405 -0.29489345490601648 0 0.11650088435885229 -0.28440144537877821 0 0.11650088435885229 -0.28440144537877821 0 0.1117304009690504 -0.30096595667251402 0 0.1203782721104405 -0.29489345490601648 0 0.11650088435885229 -0.28440144537877821 0 0.1117304009690504 -0.30096595667251402 0 0.11650088435885229 -0.28440144537877821 0 0.099327631306832503 -0.28405690490176733 0 0.11650088435885229 -0.28440144537877821 0 0.099327631306832503 -0.28405690490176733 0 0.1117304009690504 -0.30096595667251402 0 0.090500486208525646 -0.29587302668500448 0 0.099327631306832503 -0.28405690490176733 0 0.1117304009690504 -0.30096595667251402 0 0.1117304009690504 -0.30096595667251402 0 0.1069599175792517 -0.31753046796625062 0 0.085466142841737563 -0.30973645380271708 0 0.098935176519429069 -0.30617586477243491 0 0.1069599175792517 -0.31753046796625062 0 0.098935176519429069 -0.30617586477243491 0 0.1117304009690504 -0.30096595667251402 0 0.1069599175792517 -0.31753046796625062 0 0.090500486208525646 -0.29587302668500448 0 0.098935176519429069 -0.30617586477243491 0 0.1117304009690504 -0.30096595667251402 0 0.130538559069965 -0.29904461666786131 0 0.1160759935389986 -0.31065227393687328 0 0.1223565595246926 -0.31921167857908689 0 0.130538559069965 -0.29904461666786131 0 0.1203782721104405 -0.29489345490601648 0 0.1160759935389986 -0.31065227393687328 0 0.1203782721104405 -0.29489345490601648 0 0.1117304009690504 -0.30096595667251402 0 0.1160759935389986 -0.31065227393687328 0 0.1117304009690504 -0.30096595667251402 0 0.1160759935389986 -0.31065227393687328 0 0.1069599175792517 -0.31753046796625062 0 0.1160759935389986 -0.31065227393687328 0 0.1223565595246926 -0.31921167857908689 0 0.1155086526164881 -0.31765248984787342 0 0.1223565595246926 -0.31921167857908689 0 0.113235819085234 -0.32325782729604502 0 0.1141346010072406 -0.33936252869438288 0 0.1160759935389986 -0.31065227393687328 0 0.1155086526164881 -0.31765248984787342 0 0.1084990360183815 -0.31808857891048559 0 0.1160759935389986 -0.31065227393687328 0 0.1069599175792517 -0.31753046796625062 0 0.1084990360183815 -0.31808857891048559 0 0.1223565595246926 -0.31921167857908689 0 0.1155086526164881 -0.31765248984787342 0 0.113235819085234 -0.32325782729604502 0 0.1155086526164881 -0.31765248984787342 0 0.113235819085234 -0.32325782729604502 0 0.1084990360183815 -0.31808857891048559 0 0.1296573364710111 -0.33518003594979717 0 0.1223565595246926 -0.31921167857908689 0 0.1141346010072406 -0.33936252869438288 0 0.1223565595246926 -0.31921167857908689 0 0.1141346010072406 -0.33936252869438288 0 0.113235819085234 -0.32325782729604502 0 0.1141346010072406 -0.33936252869438288 0 0.1056802462593672 -0.32197386044839599 0 0.1296573364710111 -0.33518003594979717 0 0.1141346010072406 -0.33936252869438288 0 0.1246791938041473 -0.34912575410446728 0 0.10043757768112339 -0.34452091084193048 0 0.08992282336595632 -0.34943886924793 0 0.091216094451584712 -0.33092998084934527 0 0.1141346010072406 -0.33936252869438288 0 0.1056802462593672 -0.32197386044839599 0 0.091216094451584712 -0.33092998084934527 0 0.1141346010072406 -0.33936252869438288 0 0.10043757768112339 -0.34452091084193048 0 0.091216094451584712 -0.33092998084934527 0 0.1141346010072406 -0.33936252869438288 0 0.091216094451584712 -0.33092998084934527 0 0.085466142841737563 -0.30973645380271708 0 0.1069599175792517 -0.31753046796625062 0 0.1056802462593672 -0.32197386044839599 0 0.085466142841737563 -0.30973645380271708 0 0.1069599175792517 -0.31753046796625062 0 0.085466142841737563 -0.30973645380271708 0 0.1056802462593672 -0.32197386044839599 0 0.091216094451584712 -0.33092998084934527 0 0.1069599175792517 -0.31753046796625062 0 0.1056802462593672 -0.32197386044839599 0 0.1069599175792517 -0.31753046796625062 0 0.1084990360183815 -0.31808857891048559 0 0.1056802462593672 -0.32197386044839599 0 0.1069599175792517 -0.31753046796625062 0 0.1084990360183815 -0.31808857891048559 0 0.113235819085234 -0.32325782729604502 0 0.1084990360183815 -0.31808857891048559 0 0.1056802462593672 -0.32197386044839599 0 0.13038848343131931 -0.3824974167445323 0 0.11048219546534049 -0.37289190561521302 0 0.113924078995774 -0.35913350745654732 0 0.13038848343131931 -0.3824974167445323 0 0.113924078995774 -0.35913350745654732 0 0.11048219546534049 -0.37289190561521302 0 0.113924078995774 -0.35913350745654732 0 0.106476791899712 -0.35835226457606378 0 0.1141346010072406 -0.33936252869438288 0 0.106476791899712 -0.35835226457606378 0 0.1141346010072406 -0.33936252869438288 0 0.113924078995774 -0.35913350745654732 0 0.106476791899712 -0.35835226457606378 0 0.13322286882896051 -0.36037312225066498 0 0.113924078995774 -0.35913350745654732 0 0.1246791938041473 -0.34912575410446728 0 0.1141346010072406 -0.33936252869438288 0 0.113924078995774 -0.35913350745654732 0 0.1246791938041473 -0.34912575410446728 0 0.106476791899712 -0.35835226457606378 0 0.091992508999158729 -0.36411711071682951 0 0.08992282336595632 -0.34943886924793 0 0.10043757768112339 -0.34452091084193048 0 0.106476791899712 -0.35835226457606378 0 0.08992282336595632 -0.34943886924793 0 0.1141346010072406 -0.33936252869438288 0 0.10043757768112339 -0.34452091084193048 0 0.106476791899712 -0.35835226457606378 0 0.098779023820001616 -0.37732578866181432 0 0.106476791899712 -0.35835226457606378 0 0.091992508999158729 -0.36411711071682951 0 0.098779023820001616 -0.37732578866181432 0 0.11048219546534049 -0.37289190561521302 0 0.106476791899712 -0.35835226457606378 0 0.098779023820001616 -0.37732578866181432 0 0.106476791899712 -0.35835226457606378 0 0.083631167511294929 -0.37580947905749529 0 0.091992508999158729 -0.36411711071682951 0 0.069668717584105477 -0.36017076782519092 0 0.098779023820001616 -0.37732578866181432 0 0.083631167511294929 -0.37580947905749529 0 0.091992508999158729 -0.36411711071682951 0 0.091992508999158729 -0.36411711071682951 0 0.08992282336595632 -0.34943886924793 0 0.069668717584105477 -0.36017076782519092 0 0.08992282336595632 -0.34943886924793 0 0.069668717584105477 -0.36017076782519092 0 0.076949808064739625 -0.34165655854687649 0 0.069668717584105477 -0.36017076782519092 0 0.076949808064739625 -0.34165655854687649 0 0.063660901260304423 -0.34256438993694632 0 0.083631167511294929 -0.37580947905749529 0 0.059785370224447937 -0.38060190838515712 0 0.069668717584105477 -0.36017076782519092 0 0.085466142841737563 -0.30973645380271708 0 0.091216094451584712 -0.33092998084934527 0 0.068297587895928769 -0.32249743300430772 0 0.091216094451584712 -0.33092998084934527 0 0.068297587895928769 -0.32249743300430772 0 0.091216094451584712 -0.33092998084934527 0 0.076949808064739625 -0.34165655854687649 0 0.070280503661747235 -0.32517878487497032 0 0.08992282336595632 -0.34943886924793 0 0.091216094451584712 -0.33092998084934527 0 0.076949808064739625 -0.34165655854687649 0 0.076949808064739625 -0.34165655854687649 0 0.063660901260304423 -0.34256438993694632 0 0.070280503661747235 -0.32517878487497032 0 0.091216094451584712 -0.33092998084934527 0 0.070280503661747235 -0.32517878487497032 0 0.068297587895928769 -0.32249743300430772 0 0.063972368104223354 -0.30194243963918371 0 0.068297587895928769 -0.32249743300430772 0 0.045379081340272839 -0.31406488515927 0 0.068297587895928769 -0.32249743300430772 0 0.047047570666395887 -0.33419327018498363 0 0.045379081340272839 -0.31406488515927 0 0.068297587895928769 -0.32249743300430772 0 0.045379081340272839 -0.31406488515927 0 0.070280503661747235 -0.32517878487497032 0 0.068297587895928769 -0.32249743300430772 0 0.047047570666395887 -0.33419327018498363 0 0.070280503661747235 -0.32517878487497032 0 0.047047570666395887 -0.33419327018498363 0 0.063660901260304423 -0.34256438993694632 0 0.070280503661747235 -0.32517878487497032 0 0.047047570666395887 -0.33419327018498363 0 0.047047570666395887 -0.33419327018498363 0 0.03073572381518137 -0.32516253625482289 0 0.023814637671044671 -0.34320775549499682 0 0.047047570666395887 -0.33419327018498363 0 0.023814637671044671 -0.34320775549499682 0 0.045379081340272839 -0.31406488515927 0 0.03073572381518137 -0.32516253625482289 0 0.02246057478461623 -0.30563233731423389 0 0.047047570666395887 -0.33419327018498363 0 0.045379081340272839 -0.31406488515927 0 0.03073572381518137 -0.32516253625482289 0 0.069668717584105477 -0.36017076782519092 0 0.04209818719046856 -0.36248549253571838 0 0.059785370224447937 -0.38060190838515712 0 0.069668717584105477 -0.36017076782519092 0 0.04209818719046856 -0.36248549253571838 0 0.063660901260304423 -0.34256438993694632 0 0.047047570666395887 -0.33419327018498363 0 0.04209818719046856 -0.36248549253571838 0 0.069668717584105477 -0.36017076782519092 0 0.063660901260304423 -0.34256438993694632 0 0.04209818719046856 -0.36248549253571838 0 0.047047570666395887 -0.33419327018498363 0 0.04209818719046856 -0.36248549253571838 0 0.023814637671044671 -0.34320775549499682 0 0.059785370224447937 -0.38060190838515712 0 0.034148361866248783 -0.38173480306827912 0 0.04209818719046856 -0.36248549253571838 0 0.04209818719046856 -0.36248549253571838 0 0.01452765679683155 -0.36480021724624589 0 0.034148361866248783 -0.38173480306827912 0 0.04209818719046856 -0.36248549253571838 0 0.01452765679683155 -0.36480021724624589 0 0.04209818719046856 -0.36248549253571838 0 0.01452765679683155 -0.36480021724624589 0 0.023814637671044671 -0.34320775549499682 0 0.00058170467569445975 -0.35222224080501291 0 0.023814637671044671 -0.34320775549499682 0 0.00058170467569445975 -0.35222224080501291 0 0.01452765679683155 -0.36480021724624589 0 0.023814637671044671 -0.34320775549499682 0 0.0079505760130245268 -0.34416750351644282 0 0.00058170467569445975 -0.35222224080501291 0 0.023814637671044671 -0.34320775549499682 0 0.0079505760130245268 -0.34416750351644282 0 0.00058170467569445975 -0.35222224080501291 0 -0.0044980580436576201 -0.34192025809804982 0 0.0079505760130245268 -0.34416750351644282 0 0.00058170467569445975 -0.35222224080501291 0 -0.014328103845621189 -0.36851979645017258 0 0.00058170467569445975 -0.35222224080501291 0 0.01452765679683155 -0.36480021724624589 0 -0.014328103845621189 -0.36851979645017258 0 0.00045703181057857539 -0.38075564520811789 0 0.01452765679683155 -0.36480021724624589 0 -0.014328103845621189 -0.36851979645017258 0 0.01452765679683155 -0.36480021724624589 0 0.03073572381518137 -0.32516253625482289 0 0.01497675461357661 -0.3287144331206317 0 0.02246057478461623 -0.30563233731423389 0 0.03073572381518137 -0.32516253625482289 0 0.023814637671044671 -0.34320775549499682 0 0.01497675461357661 -0.3287144331206317 0 0.0079505760130245268 -0.34416750351644282 0 0.023814637671044671 -0.34320775549499682 0 0.01497675461357661 -0.3287144331206317 0 0.0079505760130245268 -0.34416750351644282 0 0.01497675461357661 -0.3287144331206317 0 0.00084205002565354136 -0.3319988658419315 0 -0.0044980580436576201 -0.34192025809804982 0 0.0079505760130245268 -0.34416750351644282 0 0.00084205002565354136 -0.3319988658419315 0 0.01497675461357661 -0.3287144331206317 0 0.00084205002565354136 -0.3319988658419315 0 0.0027471841099788378 -0.31694149059625498 0 0.01497675461357661 -0.3287144331206317 0 0.0027471841099788378 -0.31694149059625498 0 0.02246057478461623 -0.30563233731423389 0 -0.003720110744566919 -0.31110313005453483 0 0.0027471841099788378 -0.31694149059625498 0 0.0026907961310110879 -0.31343780854725622 0 0.0027471841099788378 -0.31694149059625498 0 0.02246057478461623 -0.30563233731423389 0 0.0026907961310110879 -0.31343780854725622 0 0.0063357997597688256 -0.29969944912374907 0 -0.00018652873610240761 -0.30712312460195812 0 0.0026907961310110879 -0.31343780854725622 0 0.0063357997597688256 -0.29969944912374907 0 0.0027471841099788378 -0.31694149059625498 0 0.0026907961310110879 -0.31343780854725622 0 0.02246057478461623 -0.30563233731423389 0 0.0026907961310110879 -0.31343780854725622 0 0.0063357997597688256 -0.29969944912374907 0 0.02246057478461623 -0.30563233731423389 0 0.0063357997597688256 -0.29969944912374907 0 0.02246057478461623 -0.30563233731423389 0 -0.00018652873610240761 -0.30712312460195812 0 -0.0060526000906228547 -0.3042521106822923 0 0.0063357997597688256 -0.29969944912374907 0 0.0063357997597688256 -0.29969944912374907 0 0.01085136879947772 -0.28267984728310203 0 -0.00069059069152978833 -0.28679115666807747 0 -0.006914791174482203 -0.27623753065143941 0 0.01085136879947772 -0.28267984728310203 0 -0.00069059069152978833 -0.28679115666807747 0 0.0063357997597688256 -0.29969944912374907 0 0.01085136879947772 -0.28267984728310203 0 0.0063357997597688256 -0.29969944912374907 0 0.01085136879947772 -0.28267984728310203 0 0.026664981083093849 -0.28841413637937502 0 0.01085136879947772 -0.28267984728310203 0 0.026664981083093849 -0.28841413637937502 0 0.026664981083093849 -0.28841413637937502 0 0.02246057478461623 -0.30563233731423389 0 0.04247859336670945 -0.29414842547564968 0 0.01085136879947772 -0.28267984728310203 0 0.026664981083093849 -0.28841413637937502 0 0.02154372525542728 -0.27807547751467021 0 0.0063357997597688256 -0.29969944912374907 0 0.026664981083093849 -0.28841413637937502 0 0.02246057478461623 -0.30563233731423389 0 0.045379081340272839 -0.31406488515927 0 0.02246057478461623 -0.30563233731423389 0 0.04247859336670945 -0.29414842547564968 0 0.02246057478461623 -0.30563233731423389 0 0.04247859336670945 -0.29414842547564968 0 0.045379081340272839 -0.31406488515927 0 0.02246057478461623 -0.30563233731423389 0 0.026664981083093849 -0.28841413637937502 0 0.04247859336670945 -0.29414842547564968 0 0.04247859336670945 -0.29414842547564968 0 0.060683044974940419 -0.28370491846812812 0 0.031808994739882912 -0.27333927123362378 0 0.026664981083093849 -0.28841413637937502 0 0.04247859336670945 -0.29414842547564968 0 0.031808994739882912 -0.27333927123362378 0 0.063972368104223354 -0.30194243963918371 0 0.04247859336670945 -0.29414842547564968 0 0.060683044974940419 -0.28370491846812812 0 0.04247859336670945 -0.29414842547564968 0 0.060683044974940419 -0.28370491846812812 0 0.063972368104223354 -0.30194243963918371 0 0.045379081340272839 -0.31406488515927 0 0.04247859336670945 -0.29414842547564968 0 0.063972368104223354 -0.30194243963918371 0 0.04247859336670945 -0.29414842547564968 0 0.070973581116982168 -0.26329130167816311 0 0.04485521404256055 -0.26376469890323861 0 0.070973581116982168 -0.26329130167816311 0 0.04485521404256055 -0.26376469890323861 0 0.05481627597199748 -0.24511941280613139 0 0.070973581116982168 -0.26329130167816311 0 0.060683044974940419 -0.28370491846812812 0 0.04485521404256055 -0.26376469890323861 0 0.060683044974940419 -0.28370491846812812 0 0.031808994739882912 -0.27333927123362378 0 0.04485521404256055 -0.26376469890323861 0 0.031808994739882912 -0.27333927123362378 0 0.04485521404256055 -0.26376469890323861 0 0.018736846968138921 -0.26423809612831489 0 0.04485521404256055 -0.26376469890323861 0 0.018736846968138921 -0.26423809612831489 0 0.04485521404256055 -0.26376469890323861 0 0.040648875657193891 -0.24929825265882011 0 0.05481627597199748 -0.24511941280613139 0 0.04485521404256055 -0.26376469890323861 0 0.025920593528589959 -0.25041880597507199 0 0.040648875657193891 -0.24929825265882011 0 0.04485521404256055 -0.26376469890323861 0 0.025920593528589959 -0.25041880597507199 0 0.018736846968138921 -0.26423809612831489 0 0.015729795993685521 -0.26429259913697989 0 0.019876253309078371 -0.2486642138910479 0 0.018736846968138921 -0.26423809612831489 0 0.015729795993685521 -0.26429259913697989 0 0.019876253309078371 -0.2486642138910479 0 0.018736846968138921 -0.26423809612831489 0 0.015729795993685521 -0.26429259913697989 0 0.016849556399254839 -0.26786865516258013 0 0.018736846968138921 -0.26423809612831489 0 0.015729795993685521 -0.26429259913697989 0 0.025920593528589959 -0.25041880597507199 0 0.018736846968138921 -0.26423809612831489 0 0.025920593528589959 -0.25041880597507199 0 0.018736846968138921 -0.26423809612831489 0 0.019876253309078371 -0.2486642138910479 0 0.026664981083093849 -0.28841413637937502 0 0.031808994739882912 -0.27333927123362378 0 0.02154372525542728 -0.27807547751467021 0 0.031808994739882912 -0.27333927123362378 0 0.018736846968138921 -0.26423809612831489 0 0.016849556399254839 -0.26786865516258013 0 0.031808994739882912 -0.27333927123362378 0 0.016849556399254839 -0.26786865516258013 0 0.02154372525542728 -0.27807547751467021 0 0.018736846968138921 -0.26423809612831489 0 0.016849556399254839 -0.26786865516258013 0 0.01085136879947772 -0.28267984728310203 0 0.016849556399254839 -0.26786865516258013 0 0.02154372525542728 -0.27807547751467021 0 -0.0090383860005128977 -0.26474152416329522 0 0.015729795993685521 -0.26429259913697989 0 0.0033086062813970571 -0.27178278322227301 0 0.01085136879947772 -0.28267984728310203 0 0.015729795993685521 -0.26429259913697989 0 0.0033086062813970571 -0.27178278322227301 0 0.01085136879947772 -0.28267984728310203 0 0.015729795993685521 -0.26429259913697989 0 0.016849556399254839 -0.26786865516258013 0 -0.006914791174482203 -0.27623753065143941 0 0.01085136879947772 -0.28267984728310203 0 0.01085136879947772 -0.28267984728310203 0 0.015729795993685521 -0.26429259913697989 0 -0.006914791174482203 -0.27623753065143941 0 0.01085136879947772 -0.28267984728310203 0 0.0033086062813970571 -0.27178278322227301 0 -0.0090383860005128977 -0.26474152416329522 0 0.015729795993685521 -0.26429259913697989 0 0.003850180098302871 -0.25648338442345447 0 0.015729795993685521 -0.26429259913697989 0 0.003850180098302871 -0.25648338442345447 0 0.019876253309078371 -0.2486642138910479 0 -0.0090383860005128977 -0.26474152416329522 0 0.015729795993685521 -0.26429259913697989 0 0.003850180098302871 -0.25648338442345447 0 0.0085046026332297638 -0.2269464277649155 0 -0.0075699640435386607 -0.23421979761468259 0 0.003850180098302871 -0.25648338442345447 0 0.0085046026332297638 -0.2269464277649155 0 0.003850180098302871 -0.25648338442345447 0 0.0085046026332297638 -0.2269464277649155 0 0.019876253309078371 -0.2486642138910479 0 0.0085046026332297638 -0.2269464277649155 0 0.024022710624467741 -0.2330358286451151 0 0.0085046026332297638 -0.2269464277649155 0 0.018213117410866751 -0.22214868966035811 0 0.024022710624467741 -0.2330358286451151 0 0.018213117410866751 -0.22214868966035811 0 0.024022710624467741 -0.2330358286451151 0 0.025304162459846569 -0.2282059168833146 0 0.018213117410866751 -0.22214868966035811 0 0.026875822058261101 -0.22106061215775599 0 0.025304162459846569 -0.2282059168833146 0 0.026875822058261101 -0.22106061215775599 0 0.02979252807377589 -0.2247649953805389 0 0.034698878988864999 -0.2212088267974395 0 0.026875822058261101 -0.22106061215775599 0 0.02979252807377589 -0.2247649953805389 0 0.025304162459846569 -0.2282059168833146 0 0.024022710624467741 -0.2330358286451151 0 0.029850937096616108 -0.22932162786857399 0 0.033104340089039938 -0.2365995158218285 0 0.024022710624467741 -0.2330358286451151 0 0.025304162459846569 -0.2282059168833146 0 0.024022710624467741 -0.2330358286451151 0 0.025304162459846569 -0.2282059168833146 0 0.029850937096616108 -0.22932162786857399 0 0.02979252807377589 -0.2247649953805389 0 0.025304162459846569 -0.2282059168833146 0 0.029850937096616108 -0.22932162786857399 0 0.024022710624467741 -0.2330358286451151 0 0.019876253309078371 -0.2486642138910479 0 0.0085046026332297638 -0.2269464277649155 0 0.024022710624467741 -0.2330358286451151 0 0.019876253309078371 -0.2486642138910479 0 0.024022710624467741 -0.2330358286451151 0 0.02580962340431912 -0.24190887663296309 0 0.033104340089039938 -0.2365995158218285 0 0.024022710624467741 -0.2330358286451151 0 0.02580962340431912 -0.24190887663296309 0 0.019876253309078371 -0.2486642138910479 0 0.024022710624467741 -0.2330358286451151 0 0.033104340089039938 -0.2365995158218285 0 0.025920593528589959 -0.25041880597507199 0 0.02580962340431912 -0.24190887663296309 0 0.019876253309078371 -0.2486642138910479 0 0.025920593528589959 -0.25041880597507199 0 0.02580962340431912 -0.24190887663296309 0 0.033104340089039938 -0.2365995158218285 0 0.025920593528589959 -0.25041880597507199 0 0.033104340089039938 -0.2365995158218285 0 -0.0035704735440470212 -0.20599808009561321 0 -0.0078193059117164058 -0.18911379703751391 0 0.01275553944605967 -0.1999699907404402 0 -0.0078193059117164058 -0.18911379703751391 0 0.01275553944605967 -0.1999699907404402 0 0.00068028629314922429 -0.17591475349096641 0 0.0085046026332297638 -0.2269464277649155 0 0.01275553944605967 -0.1999699907404402 0 0.0085046026332297638 -0.2269464277649155 0 0.018213117410866751 -0.22214868966035811 0 0.01275553944605967 -0.1999699907404402 0 -0.0035704735440470212 -0.20599808009561321 0 0.0085046026332297638 -0.2269464277649155 0 0.01275553944605967 -0.1999699907404402 0 0.018213117410866751 -0.22214868966035811 0 0.01275553944605967 -0.1999699907404402 0 0.028159021201693321 -0.2107705158191514 0 0.018213117410866751 -0.22214868966035811 0 0.026875822058261101 -0.22106061215775599 0 0.028159021201693321 -0.2107705158191514 0 0.026875822058261101 -0.22106061215775599 0 0.028159021201693321 -0.2107705158191514 0 0.034698878988864999 -0.2212088267974395 0 0.01275553944605967 -0.1999699907404402 0 0.028159021201693321 -0.2107705158191514 0 0.02770634888318655 -0.19373879768536309 0 0.01275553944605967 -0.1999699907404402 0 0.02770634888318655 -0.19373879768536309 0 0.017006476258889729 -0.172993553715965 0 0.028159021201693321 -0.2107705158191514 0 0.02770634888318655 -0.19373879768536309 0 0.041967911638906077 -0.20235350856361101 0 0.041967911638906077 -0.20235350856361101 0 0.055828527751800083 -0.19288525889949371 0 0.038642795870383932 -0.1826064195876477 0 0.02770634888318655 -0.19373879768536309 0 0.041967911638906077 -0.20235350856361101 0 0.038642795870383932 -0.1826064195876477 0 0.041967911638906077 -0.20235350856361101 0 0.037323061437471043 -0.21226880963521569 0 0.044466433920419747 -0.21474238736066101 0 0.028159021201693321 -0.2107705158191514 0 0.041967911638906077 -0.20235350856361101 0 0.037323061437471043 -0.21226880963521569 0 0.037323061437471043 -0.21226880963521569 0 0.044466433920419747 -0.21474238736066101 0 0.034698878988864999 -0.2212088267974395 0 0.028159021201693321 -0.2107705158191514 0 0.037323061437471043 -0.21226880963521569 0 0.034698878988864999 -0.2212088267974395 0 0.044466433920419747 -0.21474238736066101 0 0.053292910828001333 -0.22997898702656319 0 0.069001357319702361 -0.2086764808570955 0 0.044466433920419747 -0.21474238736066101 0 0.055828527751800083 -0.19288525889949371 0 0.041967911638906077 -0.20235350856361101 0 0.044466433920419747 -0.21474238736066101 0 0.055828527751800083 -0.19288525889949371 0 0.044466433920419747 -0.21474238736066101 0 0.055828527751800083 -0.19288525889949371 0 0.069001357319702361 -0.2086764808570955 0 0.041967911638906077 -0.20235350856361101 0 0.055828527751800083 -0.19288525889949371 0 0.033104340089039938 -0.2365995158218285 0 0.05481627597199748 -0.24511941280613139 0 0.040648875657193891 -0.24929825265882011 0 0.033104340089039938 -0.2365995158218285 0 0.05481627597199748 -0.24511941280613139 0 0.025920593528589959 -0.25041880597507199 0 0.040648875657193891 -0.24929825265882011 0 0.033104340089039938 -0.2365995158218285 0 0.029850937096616108 -0.22932162786857399 0 0.033104340089039938 -0.2365995158218285 0 0.034698878988864999 -0.2212088267974395 0 0.044466433920419747 -0.21474238736066101 0 0.033104340089039938 -0.2365995158218285 0 0.044466433920419747 -0.21474238736066101 0 0.033104340089039938 -0.2365995158218285 0 0.034698878988864999 -0.2212088267974395 0 0.044466433920419747 -0.21474238736066101 0 0.033104340089039938 -0.2365995158218285 0 0.053292910828001333 -0.22997898702656319 0 0.02979252807377589 -0.2247649953805389 0 0.029850937096616108 -0.22932162786857399 0 0.034698878988864999 -0.2212088267974395 0 0.053292910828001333 -0.22997898702656319 0 0.069001357319702361 -0.2086764808570955 0 0.033104340089039938 -0.2365995158218285 0 0.053292910828001333 -0.22997898702656319 0 0.05481627597199748 -0.24511941280613139 0 0.053292910828001333 -0.22997898702656319 0 0.05481627597199748 -0.24511941280613139 0 0.064546578457968962 -0.2373249834374529 0 0.076528211854956063 -0.25363930979043159 0 0.05481627597199748 -0.24511941280613139 0 0.076528211854956063 -0.25363930979043159 0 0.064546578457968962 -0.2373249834374529 0 0.075386515115610661 -0.2298278391120841 0 0.076528211854956063 -0.25363930979043159 0 0.05481627597199748 -0.24511941280613139 0 0.064546578457968962 -0.2373249834374529 0 0.076528211854956063 -0.25363930979043159 0 0.089972665511446615 -0.24023797592063939 0 0.075386515115610661 -0.2298278391120841 0 0.076528211854956063 -0.25363930979043159 0 0.1006352661651175 -0.25120832856657488 0 0.089972665511446615 -0.24023797592063939 0 0.092766718851721441 -0.22735881179938469 0 0.075386515115610661 -0.2298278391120841 0 0.082626390148942463 -0.21602748382475351 0 0.089972665511446615 -0.24023797592063939 0 0.092766718851721441 -0.22735881179938469 0 0.075386515115610661 -0.2298278391120841 0 0.053292910828001333 -0.22997898702656319 0 0.075386515115610661 -0.2298278391120841 0 0.069001357319702361 -0.2086764808570955 0 0.053292910828001333 -0.22997898702656319 0 0.064546578457968962 -0.2373249834374529 0 0.075386515115610661 -0.2298278391120841 0 0.075386515115610661 -0.2298278391120841 0 0.069001357319702361 -0.2086764808570955 0 0.082626390148942463 -0.21602748382475351 0 0.069001357319702361 -0.2086764808570955 0 0.0847098038113967 -0.18737397468762279 0 0.069001357319702361 -0.2086764808570955 0 0.070944005170373081 -0.1936660380583449 0 0.0847098038113967 -0.18737397468762279 0 0.055828527751800083 -0.19288525889949371 0 0.070944005170373081 -0.1936660380583449 0 0.0789174434477449 -0.1771131159801401 0 0.055828527751800083 -0.19288525889949371 0 0.069001357319702361 -0.2086764808570955 0 0.070944005170373081 -0.1936660380583449 0 0.09644297804343184 -0.20815866960073801 0 0.0847098038113967 -0.18737397468762279 0 0.082788382229020741 -0.205176537299432 0 0.09644297804343184 -0.20815866960073801 0 0.0847098038113967 -0.18737397468762279 0 0.087779115422773973 -0.19113745582413999 0 0.09644297804343184 -0.20815866960073801 0 0.0847098038113967 -0.18737397468762279 0 0.069001357319702361 -0.2086764808570955 0 0.082788382229020741 -0.205176537299432 0 0.0847098038113967 -0.18737397468762279 0 0.087779115422773973 -0.19113745582413999 0 0.095444117926754779 -0.18550838900392869 0 0.0847098038113967 -0.18737397468762279 0 0.092766718851721441 -0.22735881179938469 0 0.082626390148942463 -0.21602748382475351 0 0.09644297804343184 -0.20815866960073801 0 0.069001357319702361 -0.2086764808570955 0 0.082626390148942463 -0.21602748382475351 0 0.082788382229020741 -0.205176537299432 0 0.082626390148942463 -0.21602748382475351 0 0.082788382229020741 -0.205176537299432 0 0.09644297804343184 -0.20815866960073801 0 0.1013569253267735 -0.20832278781681021 0 0.09644297804343184 -0.20815866960073801 0 0.10817615227547001 -0.22894336451385169 0 0.09644297804343184 -0.20815866960073801 0 0.10817615227547001 -0.22894336451385169 0 0.1013569253267735 -0.20832278781681021 0 0.11493473523077299 -0.2255081198094803 0 0.1013569253267735 -0.20832278781681021 0 0.1089854939490532 -0.2075717758235045 0 0.1150824202466085 -0.21472480651399481 0 0.1013569253267735 -0.20832278781681021 0 0.1089854939490532 -0.2075717758235045 0 0.1053367745821419 -0.1988826211113659 0 0.087779115422773973 -0.19113745582413999 0 0.1013569253267735 -0.20832278781681021 0 0.09644297804343184 -0.20815866960073801 0 0.087779115422773973 -0.19113745582413999 0 0.1013569253267735 -0.20832278781681021 0 0.087779115422773973 -0.19113745582413999 0 0.1013569253267735 -0.20832278781681021 0 0.098845483784344226 -0.19496681889971609 0 0.098845483784344226 -0.19496681889971609 0 0.104310485663277 -0.19098284074233571 0 0.095444117926754779 -0.18550838900392869 0 0.087779115422773973 -0.19113745582413999 0 0.098845483784344226 -0.19496681889971609 0 0.095444117926754779 -0.18550838900392869 0 0.1089854939490532 -0.2075717758235045 0 0.1053367745821419 -0.1988826211113659 0 0.11179631843392041 -0.19492023412667181 0 0.1013569253267735 -0.20832278781681021 0 0.098845483784344226 -0.19496681889971609 0 0.1053367745821419 -0.1988826211113659 0 0.1053367745821419 -0.1988826211113659 0 0.104310485663277 -0.19098284074233571 0 0.11179631843392041 -0.19492023412667181 0 0.098845483784344226 -0.19496681889971609 0 0.1053367745821419 -0.1988826211113659 0 0.104310485663277 -0.19098284074233571 0 0.104310485663277 -0.19098284074233571 0 0.11179631843392041 -0.19492023412667181 0 0.11177623700667649 -0.18614166230744369 0 0.1089854939490532 -0.2075717758235045 0 0.1285726009684533 -0.19102227064870919 0 0.1089854939490532 -0.2075717758235045 0 0.11179631843392041 -0.19492023412667181 0 0.1285726009684533 -0.19102227064870919 0 0.11179631843392041 -0.19492023412667181 0 0.11177623700667649 -0.18614166230744369 0 0.1285726009684533 -0.19102227064870919 0 0.1089854939490532 -0.2075717758235045 0 0.1212369293437254 -0.2066622781128461 0 0.1285726009684533 -0.19102227064870919 0 0.1013569253267735 -0.20832278781681021 0 0.1150824202466085 -0.21472480651399481 0 0.11493473523077299 -0.2255081198094803 0 0.1089854939490532 -0.2075717758235045 0 0.1150824202466085 -0.21472480651399481 0 0.1212369293437254 -0.2066622781128461 0 0.1212369293437254 -0.2066622781128461 0 0.124030250411185 -0.21442050609113511 0 0.12951388114332721 -0.20557203148688691 0 0.1150824202466085 -0.21472480651399481 0 0.124030250411185 -0.21442050609113511 0 0.1247042623426802 -0.22324572305378251 0 0.1150824202466085 -0.21472480651399481 0 0.1212369293437254 -0.2066622781128461 0 0.124030250411185 -0.21442050609113511 0 0.11493473523077299 -0.2255081198094803 0 0.12851254513477239 -0.24269345180215049 0 0.1150824202466085 -0.21472480651399481 0 0.1247042623426802 -0.22324572305378251 0 0.11493473523077299 -0.2255081198094803 0 0.1247042623426802 -0.22324572305378251 0 0.11493473523077299 -0.2255081198094803 0 0.12851254513477239 -0.24269345180215049 0 0.1199093265075081 -0.24972805942696519 0 0.1056226124228145 -0.24048799759672521 0 0.10817615227547001 -0.22894336451385169 0 0.1199093265075081 -0.24972805942696519 0 0.10817615227547001 -0.22894336451385169 0 0.11493473523077299 -0.2255081198094803 0 0.1199093265075081 -0.24972805942696519 0 0.10817615227547001 -0.22894336451385169 0 0.11493473523077299 -0.2255081198094803 0 0.1199093265075081 -0.24972805942696519 0 0.12851254513477239 -0.24269345180215049 0 0.1199093265075081 -0.24972805942696519 0 0.12778836299882071 -0.2452080236367912 0 0.1118258784431849 -0.25055371215048589 0 0.1199093265075081 -0.24972805942696519 0 0.1056226124228145 -0.24048799759672521 0 0.1006352661651175 -0.25120832856657488 0 0.089972665511446615 -0.24023797592063939 0 0.1056226124228145 -0.24048799759672521 0 0.089972665511446615 -0.24023797592063939 0 0.092766718851721441 -0.22735881179938469 0 0.1056226124228145 -0.24048799759672521 0 0.1006352661651175 -0.25120832856657488 0 0.1118258784431849 -0.25055371215048589 0 0.1056226124228145 -0.24048799759672521 0 0.092766718851721441 -0.22735881179938469 0 0.09644297804343184 -0.20815866960073801 0 0.10817615227547001 -0.22894336451385169 0 0.1013569253267735 -0.20832278781681021 0 0.11493473523077299 -0.2255081198094803 0 0.10817615227547001 -0.22894336451385169 0 0.092766718851721441 -0.22735881179938469 0 0.1056226124228145 -0.24048799759672521 0 0.10817615227547001 -0.22894336451385169 0 0.1022150789683042 -0.14161845864069919 0 0.10563061468938501 -0.1588652276773275 0 0.086763744207423749 -0.14922515358805341 0 0.1022150789683042 -0.14161845864069919 0 0.1202660760009565 -0.13915547592765229 0 0.10563061468938501 -0.1588652276773275 0 0.1022150789683042 -0.14161845864069919 0 0.09707054321951919 -0.1254246091917578 0 0.1122617621997459 -0.12172028827578819 0 0.1022150789683042 -0.14161845864069919 0 0.09707054321951919 -0.1254246091917578 0 0.083194058558116943 -0.13300082047289619 0 0.1202660760009565 -0.13915547592765229 0 0.1122617621997459 -0.12172028827578819 0 0.13483578195102791 -0.1193972362409499 0 0.1022150789683042 -0.14161845864069919 0 0.1202660760009565 -0.13915547592765229 0 0.1122617621997459 -0.12172028827578819 0 0.1202660760009565 -0.13915547592765229 0 0.1245135999541712 -0.1505208639130812 0 0.10563061468938501 -0.1588652276773275 0 0.1202660760009565 -0.13915547592765229 0 0.10563061468938501 -0.1588652276773275 0 0.1245135999541712 -0.1505208639130812 0 0.1185080735911636 -0.16578466505890629 0 0.10563061468938501 -0.1588652276773275 0 0.1185080735911636 -0.16578466505890629 0 0.1063158914261753 -0.1772557463665751 0 0.10563061468938501 -0.1588652276773275 0 0.1245135999541712 -0.1505208639130812 0 0.1185080735911636 -0.16578466505890629 0 0.12905529237354479 -0.1608875982413393 0 0.1185295763131915 -0.1791020806061441 0 0.11177623700667649 -0.18614166230744369 0 0.1285726009684533 -0.19102227064870919 0 0.1185080735911636 -0.16578466505890629 0 0.1185295763131915 -0.1791020806061441 0 0.130499484564012 -0.17215707900109911 0 0.1185080735911636 -0.16578466505890629 0 0.1185295763131915 -0.1791020806061441 0 0.1063158914261753 -0.1772557463665751 0 0.1185295763131915 -0.1791020806061441 0 0.11177623700667649 -0.18614166230744369 0 0.1063158914261753 -0.1772557463665751 0 0.104310485663277 -0.19098284074233571 0 0.1063158914261753 -0.1772557463665751 0 0.095444117926754779 -0.18550838900392869 0 0.104310485663277 -0.19098284074233571 0 0.11177623700667649 -0.18614166230744369 0 0.1063158914261753 -0.1772557463665751 0 0.1063158914261753 -0.1772557463665751 0 0.095203086931143627 -0.17314384515099079 0 0.095444117926754779 -0.18550838900392869 0 0.1063158914261753 -0.1772557463665751 0 0.095203086931143627 -0.17314384515099079 0 0.10563061468938501 -0.1588652276773275 0 0.10563061468938501 -0.1588652276773275 0 0.092274029068563385 -0.16798917182873149 0 0.086763744207423749 -0.14922515358805341 0 0.095203086931143627 -0.17314384515099079 0 0.10563061468938501 -0.1588652276773275 0 0.092274029068563385 -0.16798917182873149 0 0.095203086931143627 -0.17314384515099079 0 0.10563061468938501 -0.1588652276773275 0 0.10563061468938501 -0.1588652276773275 0 0.092274029068563385 -0.16798917182873149 0 0.092274029068563385 -0.16798917182873149 0 0.067413678233212052 -0.15673480695586239 0 0.086763744207423749 -0.14922515358805341 0 0.092274029068563385 -0.16798917182873149 0 0.0789174434477449 -0.1771131159801401 0 0.067413678233212052 -0.15673480695586239 0 0.095203086931143627 -0.17314384515099079 0 0.0789174434477449 -0.1771131159801401 0 0.0847098038113967 -0.18737397468762279 0 0.095203086931143627 -0.17314384515099079 0 0.092274029068563385 -0.16798917182873149 0 0.0789174434477449 -0.1771131159801401 0 0.070944005170373081 -0.1936660380583449 0 0.0789174434477449 -0.1771131159801401 0 0.0847098038113967 -0.18737397468762279 0 0.095203086931143627 -0.17314384515099079 0 0.0847098038113967 -0.18737397468762279 0 0.095203086931143627 -0.17314384515099079 0 0.095444117926754779 -0.18550838900392869 0 0.0847098038113967 -0.18737397468762279 0 0.092274029068563385 -0.16798917182873149 0 0.0789174434477449 -0.1771131159801401 0 0.0789174434477449 -0.1771131159801401 0 0.0847098038113967 -0.18737397468762279 0 0.055828527751800083 -0.19288525889949371 0 0.0789174434477449 -0.1771131159801401 0 0.055828527751800083 -0.19288525889949371 0 0.0789174434477449 -0.1771131159801401 0 0.064679927007652072 -0.17585792454832619 0 0.0789174434477449 -0.1771131159801401 0 0.067413678233212052 -0.15673480695586239 0 0.0789174434477449 -0.1771131159801401 0 0.064679927007652072 -0.17585792454832619 0 0.067413678233212052 -0.15673480695586239 0 0.067413678233212052 -0.15673480695586239 0 0.086763744207423749 -0.14922515358805341 0 0.071023491945611875 -0.13914076187987121 0 0.067413678233212052 -0.15673480695586239 0 0.071023491945611875 -0.13914076187987121 0 0.055909913018678793 -0.13635649793158491 0 0.1022150789683042 -0.14161845864069919 0 0.086763744207423749 -0.14922515358805341 0 0.083194058558116943 -0.13300082047289619 0 0.09707054321951919 -0.1254246091917578 0 0.083194058558116943 -0.13300082047289619 0 0.08541913660358838 -0.11723070444048329 0 0.086763744207423749 -0.14922515358805341 0 0.083194058558116943 -0.13300082047289619 0 0.071023491945611875 -0.13914076187987121 0 0.1022150789683042 -0.14161845864069919 0 0.083194058558116943 -0.13300082047289619 0 0.083194058558116943 -0.13300082047289619 0 0.064173038147929726 -0.12438318230509331 0 0.083194058558116943 -0.13300082047289619 0 0.075444347004050991 -0.1197402304492845 0 0.064173038147929726 -0.12438318230509331 0 0.083194058558116943 -0.13300082047289619 0 0.071023491945611875 -0.13914076187987121 0 0.064173038147929726 -0.12438318230509331 0 0.071023491945611875 -0.13914076187987121 0 0.055909913018678793 -0.13635649793158491 0 0.064173038147929726 -0.12438318230509331 0 0.055909913018678793 -0.13635649793158491 0 0.044406147804145812 -0.11597818890730729 0 0.064173038147929726 -0.12438318230509331 0 0.055909913018678793 -0.13635649793158491 0 0.044406147804145812 -0.11597818890730729 0 0.067413678233212052 -0.15673480695586239 0 0.055909913018678793 -0.13635649793158491 0 0.044720261971180883 -0.14898464320447791 0 0.067413678233212052 -0.15673480695586239 0 0.055909913018678793 -0.13635649793158491 0 0.044720261971180883 -0.14898464320447791 0 0.037705277052666727 -0.16579024624067679 0 0.021257413071719789 -0.14601711669148981 0 0.044720261971180883 -0.14898464320447791 0 0.037714658519242612 -0.13033723745427839 0 0.021257413071719789 -0.14601711669148981 0 0.055909913018678793 -0.13635649793158491 0 0.044720261971180883 -0.14898464320447791 0 0.037714658519242612 -0.13033723745427839 0 0.055909913018678793 -0.13635649793158491 0 0.037714658519242612 -0.13033723745427839 0 0.044406147804145812 -0.11597818890730729 0 0.055828527751800083 -0.19288525889949371 0 0.064679927007652072 -0.17585792454832619 0 0.051862821461198597 -0.18000944773995101 0 0.055828527751800083 -0.19288525889949371 0 0.064679927007652072 -0.17585792454832619 0 0.055828527751800083 -0.19288525889949371 0 0.051862821461198597 -0.18000944773995101 0 0.038642795870383932 -0.1826064195876477 0 0.064679927007652072 -0.17585792454832619 0 0.051862821461198597 -0.18000944773995101 0 0.052895180744134629 -0.16495207067748319 0 0.064679927007652072 -0.17585792454832619 0 0.067413678233212052 -0.15673480695586239 0 0.052895180744134629 -0.16495207067748319 0 0.067413678233212052 -0.15673480695586239 0 0.044720261971180883 -0.14898464320447791 0 0.052895180744134629 -0.16495207067748319 0 0.051862821461198597 -0.18000944773995101 0 0.052895180744134629 -0.16495207067748319 0 0.037705277052666727 -0.16579024624067679 0 0.044720261971180883 -0.14898464320447791 0 0.052895180744134629 -0.16495207067748319 0 0.037705277052666727 -0.16579024624067679 0 0.051862821461198597 -0.18000944773995101 0 0.037705277052666727 -0.16579024624067679 0 0.038642795870383932 -0.1826064195876477 0 0.037705277052666727 -0.16579024624067679 0 0.038642795870383932 -0.1826064195876477 0 0.017006476258889729 -0.172993553715965 0 0.02770634888318655 -0.19373879768536309 0 0.038642795870383932 -0.1826064195876477 0 0.017006476258889729 -0.172993553715965 0 0.017006476258889729 -0.172993553715965 0 0.021257413071719789 -0.14601711669148981 0 0.037705277052666727 -0.16579024624067679 0 0.017006476258889729 -0.172993553715965 0 0.021257413071719789 -0.14601711669148981 0 -0.0013603986966012731 -0.156519041627322 0 0.017006476258889729 -0.172993553715965 0 0.00068028629314922429 -0.17591475349096641 0 -0.0013603986966012731 -0.156519041627322 0 0.017006476258889729 -0.172993553715965 0 0.021257413071719789 -0.14601711669148981 0 0.01275553944605967 -0.1999699907404402 0 0.017006476258889729 -0.172993553715965 0 0.00068028629314922429 -0.17591475349096641 0 0.01275553944605967 -0.1999699907404402 0 0.017006476258889729 -0.172993553715965 0 0.021257413071719789 -0.14601711669148981 0 0.01389342101894217 -0.12696175253972411 0 0.025508349884549839 -0.11904067966701461 0 0.037714658519242612 -0.13033723745427839 0 0.021257413071719789 -0.14601711669148981 0 0.025508349884549839 -0.11904067966701461 0 0.021257413071719789 -0.14601711669148981 0 0.025508349884549839 -0.11904067966701461 0 -0.0013603986966012731 -0.156519041627322 0 0.021257413071719789 -0.14601711669148981 0 0.003046995076066511 -0.13631712994587561 0 -0.0040602233222691809 -0.12485705104587071 0 0.003046995076066511 -0.13631712994587561 0 0.0045734576361993089 -0.1188486631618913 0 0.021257413071719789 -0.14601711669148981 0 0.003046995076066511 -0.13631712994587561 0 0.01389342101894217 -0.12696175253972411 0 0.003046995076066511 -0.13631712994587561 0 0.01389342101894217 -0.12696175253972411 0 0.0045734576361993089 -0.1188486631618913 0 0.0045734576361993089 -0.1188486631618913 0 0.01358001458398954 -0.1152489239646772 0 0.001467510519420079 -0.1085974737393718 0 0.01389342101894217 -0.12696175253972411 0 0.0045734576361993089 -0.1188486631618913 0 0.01358001458398954 -0.1152489239646772 0 0.025508349884549839 -0.11904067966701461 0 0.019455584176464469 -0.1041235521800405 0 0.036391927370418062 -0.1182630136256739 0 0.01389342101894217 -0.12696175253972411 0 0.01358001458398954 -0.1152489239646772 0 0.025508349884549839 -0.11904067966701461 0 0.01358001458398954 -0.1152489239646772 0 0.025508349884549839 -0.11904067966701461 0 0.019455584176464469 -0.1041235521800405 0 0.019455584176464469 -0.1041235521800405 0 0.015713986550825992 -0.090640158586705377 0 0.033872406751904817 -0.097318226161102611 0 -0.0050773728597287432 -0.093008683347296964 0 0.019455584176464469 -0.1041235521800405 0 0.01358001458398954 -0.1152489239646772 0 0.019455584176464469 -0.1041235521800405 0 0.001467510519420079 -0.1085974737393718 0 -0.0050773728597287432 -0.093008683347296964 0 0.019455584176464469 -0.1041235521800405 0 0.015713986550825992 -0.090640158586705377 0 -0.0050773728597287432 -0.093008683347296964 0 0.019455584176464469 -0.1041235521800405 0 0.001467510519420079 -0.1085974737393718 0 -0.0050773728597287432 -0.093008683347296964 0 0.0065630423943395114 -0.079352299935663451 0 0.015713986550825992 -0.090640158586705377 0 0.0065630423943395114 -0.079352299935663451 0 0.015713986550825992 -0.090640158586705377 0 0.023756272291149891 -0.079398031309423356 0 0.0065630423943395114 -0.079352299935663451 0 0.0010486274136207059 -0.067011217515601268 0 0.01364013783039494 -0.061477836457744052 0 0.0065630423943395114 -0.079352299935663451 0 0.023756272291149891 -0.079398031309423356 0 0.01364013783039494 -0.061477836457744052 0 0.029727715370159322 -0.066305120161283759 0 0.023756272291149891 -0.079398031309423356 0 0.01364013783039494 -0.061477836457744052 0 0.023756272291149891 -0.079398031309423356 0 0.01364013783039494 -0.061477836457744052 0 0.029727715370159322 -0.066305120161283759 0 0.023756272291149891 -0.079398031309423356 0 0.035378491809851968 -0.083454161794692713 0 0.023756272291149891 -0.079398031309423356 0 0.035378491809851968 -0.083454161794692713 0 0.033872406751904817 -0.097318226161102611 0 0.015713986550825992 -0.090640158586705377 0 0.023756272291149891 -0.079398031309423356 0 0.033872406751904817 -0.097318226161102611 0 0.023756272291149891 -0.079398031309423356 0 0.033872406751904817 -0.097318226161102611 0 0.035378491809851968 -0.083454161794692713 0 0.033872406751904817 -0.097318226161102611 0 0.043694913069241732 -0.094703786443722973 0 0.043222099458034013 -0.071677040459678695 0 0.043694913069241732 -0.094703786443722973 0 0.035378491809851968 -0.083454161794692713 0 0.043222099458034013 -0.071677040459678695 0 0.043694913069241732 -0.094703786443722973 0 0.029727715370159322 -0.066305120161283759 0 0.035378491809851968 -0.083454161794692713 0 0.043222099458034013 -0.071677040459678695 0 0.029727715370159322 -0.066305120161283759 0 0.043222099458034013 -0.071677040459678695 0 0.035821317440694597 -0.05917264273810964 0 0.043222099458034013 -0.071677040459678695 0 0.059972672223578931 -0.070585565642594744 0 0.059844554922302007 -0.085682671991679032 0 0.043222099458034013 -0.071677040459678695 0 0.059972672223578931 -0.070585565642594744 0 0.053072177754060638 -0.059485439080860583 0 0.043222099458034013 -0.071677040459678695 0 0.059844554922302007 -0.085682671991679032 0 0.043694913069241732 -0.094703786443722973 0 0.059844554922302007 -0.085682671991679032 0 0.054678238696128367 -0.10238701362416169 0 0.043694913069241732 -0.094703786443722973 0 0.054678238696128367 -0.10238701362416169 0 0.044406147804145812 -0.11597818890730729 0 0.070934089913227 -0.1084151703505431 0 0.059844554922302007 -0.085682671991679032 0 0.054678238696128367 -0.10238701362416169 0 0.070934089913227 -0.1084151703505431 0 0.054678238696128367 -0.10238701362416169 0 0.043694913069241732 -0.094703786443722973 0 0.044631475291299599 -0.105260776329011 0 0.054678238696128367 -0.10238701362416169 0 0.044406147804145812 -0.11597818890730729 0 0.044631475291299599 -0.105260776329011 0 0.044406147804145812 -0.11597818890730729 0 0.064173038147929726 -0.12438318230509331 0 0.044406147804145812 -0.11597818890730729 0 0.064173038147929726 -0.12438318230509331 0 0.070934089913227 -0.1084151703505431 0 0.044406147804145812 -0.11597818890730729 0 0.070934089913227 -0.1084151703505431 0 0.019455584176464469 -0.1041235521800405 0 0.044406147804145812 -0.11597818890730729 0 0.019455584176464469 -0.1041235521800405 0 0.044406147804145812 -0.11597818890730729 0 0.036391927370418062 -0.1182630136256739 0 0.044406147804145812 -0.11597818890730729 0 0.036391927370418062 -0.1182630136256739 0 0.037714658519242612 -0.13033723745427839 0 0.044406147804145812 -0.11597818890730729 0 0.036391927370418062 -0.1182630136256739 0 0.037714658519242612 -0.13033723745427839 0 0.025508349884549839 -0.11904067966701461 0 0.036391927370418062 -0.1182630136256739 0 0.044406147804145812 -0.11597818890730729 0 0.033872406751904817 -0.097318226161102611 0 0.044631475291299599 -0.105260776329011 0 0.019455584176464469 -0.1041235521800405 0 0.044406147804145812 -0.11597818890730729 0 0.033872406751904817 -0.097318226161102611 0 0.044406147804145812 -0.11597818890730729 0 0.033872406751904817 -0.097318226161102611 0 0.033872406751904817 -0.097318226161102611 0 0.043694913069241732 -0.094703786443722973 0 0.044631475291299599 -0.105260776329011 0 0.03096007163375428 -0.00035271675513010031 0 0.018132236175202529 -0.0052721079898190608 0 0.025683630840443311 -0.017930811619266119 0 0.018132236175202529 -0.0052721079898190608 0 0.0141479042774077 -0.015602732883837201 0 0.025683630840443311 -0.017930811619266119 0 0.0063099898206301838 0.001436693533877764 0 0.018132236175202529 -0.0052721079898190608 0 0.0141479042774077 -0.015602732883837201 0 0.0063099898206301838 0.001436693533877764 0 0.0005842597783277852 -0.02458093061347286 0 -0.0059468681258598799 -0.0082163695027096424 0 0.0063099898206301838 0.001436693533877764 0 0.0005842597783277852 -0.02458093061347286 0 0.0063099898206301838 0.001436693533877764 0 0.0141479042774077 -0.015602732883837201 0 0.0005842597783277852 -0.02458093061347286 0 0.0141479042774077 -0.015602732883837201 0 0.0005842597783277852 -0.02458093061347286 0 0.020029404772434679 -0.031666507730505743 0 0.0141479042774077 -0.015602732883837201 0 0.025683630840443311 -0.017930811619266119 0 0.020029404772434679 -0.031666507730505743 0 0.025683630840443311 -0.017930811619266119 0 0.030232718277935791 -0.027959885024653609 0 0.020029404772434679 -0.031666507730505743 0 0.020029404772434679 -0.031666507730505743 0 0.011339700240988321 -0.043676389083677568 0 0.02758616908775878 -0.050058115855841703 0 0.020029404772434679 -0.031666507730505743 0 0.02758616908775878 -0.050058115855841703 0 0.032941365263245259 -0.036618672257252592 0 0.030232718277935791 -0.027959885024653609 0 0.020029404772434679 -0.031666507730505743 0 0.032941365263245259 -0.036618672257252592 0 0.0005842597783277852 -0.02458093061347286 0 0.020029404772434679 -0.031666507730505743 0 0.011339700240988321 -0.043676389083677568 0 -0.0051414702639746134 -0.050598554760823491 0 0.0005842597783277852 -0.02458093061347286 0 0.011339700240988321 -0.043676389083677568 0 -0.0051414702639746134 -0.050598554760823491 0 0.011339700240988321 -0.043676389083677568 0 0.01364013783039494 -0.061477836457744052 0 -0.0051414702639746134 -0.050598554760823491 0 0.0010486274136207059 -0.067011217515601268 0 0.01364013783039494 -0.061477836457744052 0 0.029727715370159322 -0.066305120161283759 0 0.01364013783039494 -0.061477836457744052 0 0.02758616908775878 -0.050058115855841703 0 0.011339700240988321 -0.043676389083677568 0 0.01364013783039494 -0.061477836457744052 0 0.02758616908775878 -0.050058115855841703 0 0.029727715370159322 -0.066305120161283759 0 0.02758616908775878 -0.050058115855841703 0 0.035821317440694597 -0.05917264273810964 0 0.043222099458034013 -0.071677040459678695 0 0.042749285846826288 -0.048650294475634411 0 0.043222099458034013 -0.071677040459678695 0 0.035821317440694597 -0.05917264273810964 0 0.042749285846826288 -0.048650294475634411 0 0.043222099458034013 -0.071677040459678695 0 0.042749285846826288 -0.048650294475634411 0 0.053072177754060638 -0.059485439080860583 0 0.02758616908775878 -0.050058115855841703 0 0.035821317440694597 -0.05917264273810964 0 0.042749285846826288 -0.048650294475634411 0 0.05306167267972231 -0.049708148821301312 0 0.046672023344142853 -0.035439322637489952 0 0.063577631959428213 -0.057033518932571303 0 0.059972672223578931 -0.070585565642594744 0 0.053072177754060638 -0.059485439080860583 0 0.063577631959428213 -0.057033518932571303 0 0.053072177754060638 -0.059485439080860583 0 0.05306167267972231 -0.049708148821301312 0 0.063577631959428213 -0.057033518932571303 0 0.042749285846826288 -0.048650294475634411 0 0.053072177754060638 -0.059485439080860583 0 0.05306167267972231 -0.049708148821301312 0 0.046672023344142853 -0.035439322637489952 0 0.063577631959428213 -0.057033518932571303 0 0.046672023344142853 -0.035439322637489952 0 0.071435041288444551 -0.03151275320990022 0 0.063577631959428213 -0.057033518932571303 0 0.042749285846826288 -0.048650294475634411 0 0.05306167267972231 -0.049708148821301312 0 0.046672023344142853 -0.035439322637489952 0 0.05306167267972231 -0.049708148821301312 0 0.046672023344142853 -0.035439322637489952 0 0.042749285846826288 -0.048650294475634411 0 0.032941365263245259 -0.036618672257252592 0 0.042276472235619908 -0.025623548491590011 0 0.042749285846826288 -0.048650294475634411 0 0.046672023344142853 -0.035439322637489952 0 0.042276472235619908 -0.025623548491590011 0 0.042749285846826288 -0.048650294475634411 0 0.042276472235619908 -0.025623548491590011 0 0.02758616908775878 -0.050058115855841703 0 0.042749285846826288 -0.048650294475634411 0 0.032941365263245259 -0.036618672257252592 0 0.042276472235619908 -0.025623548491590011 0 0.041872012393510953 -0.0059257356025546456 0 0.042276472235619908 -0.025623548491590011 0 0.048998755154149302 -0.017564501016111771 0 0.041872012393510953 -0.0059257356025546456 0 0.025683630840443311 -0.017930811619266119 0 0.030232718277935791 -0.027959885024653609 0 0.042276472235619908 -0.025623548491590011 0 0.046672023344142853 -0.035439322637489952 0 0.042276472235619908 -0.025623548491590011 0 0.048998755154149302 -0.017564501016111771 0 0.030232718277935791 -0.027959885024653609 0 0.032941365263245259 -0.036618672257252592 0 0.042276472235619908 -0.025623548491590011 0 0.046672023344142853 -0.035439322637489952 0 0.042276472235619908 -0.025623548491590011 0 0.046672023344142853 -0.035439322637489952 0 0.061938508061367387 -0.016310233387714871 0 0.046672023344142853 -0.035439322637489952 0 0.061938508061367387 -0.016310233387714871 0 0.048998755154149302 -0.017564501016111771 0 0.046672023344142853 -0.035439322637489952 0 0.061938508061367387 -0.016310233387714871 0 0.071435041288444551 -0.03151275320990022 0 0.061938508061367387 -0.016310233387714871 0 0.048998755154149302 -0.017564501016111771 0 0.051713919816959893 -0.006156320578333473 0 0.048998755154149302 -0.017564501016111771 0 0.051713919816959893 -0.006156320578333473 0 0.041872012393510953 -0.0059257356025546456 0 0.059577453075373633 0.0028886920442635182 0 0.061938508061367387 -0.016310233387714871 0 0.051713919816959893 -0.006156320578333473 0 0.046182870400398167 0.0061301750704504049 0 0.03096007163375428 -0.00035271675513010031 0 0.041872012393510953 -0.0059257356025546456 0 0.03096007163375428 -0.00035271675513010031 0 0.025683630840443311 -0.017930811619266119 0 0.042276472235619908 -0.025623548491590011 0 0.03096007163375428 -0.00035271675513010031 0 0.042276472235619908 -0.025623548491590011 0 0.046182870400398167 0.0061301750704504049 0 0.051713919816959893 -0.006156320578333473 0 0.041872012393510953 -0.0059257356025546456 0 0.03096007163375428 -0.00035271675513010031 0 0.042276472235619908 -0.025623548491590011 0 0.041872012393510953 -0.0059257356025546456 0 0.089100235194546407 0.0012405456441897389 0 0.082013852727550962 -0.0086393301683970365 0 0.10024676718919209 -0.02170077287841353 0 0.076868649227946562 0.0023974133415296081 0 0.089100235194546407 0.0012405456441897389 0 0.082013852727550962 -0.0086393301683970365 0 0.061938508061367387 -0.016310233387714871 0 0.082013852727550962 -0.0086393301683970365 0 0.080989698989372597 -0.019549915390982719 0 0.076868649227946562 0.0023974133415296081 0 0.061938508061367387 -0.016310233387714871 0 0.059577453075373633 0.0028886920442635182 0 0.076868649227946562 0.0023974133415296081 0 0.061938508061367387 -0.016310233387714871 0 0.076868649227946562 0.0023974133415296081 0 0.061938508061367387 -0.016310233387714871 0 0.082013852727550962 -0.0086393301683970365 0 0.061938508061367387 -0.016310233387714871 0 0.080989698989372597 -0.019549915390982719 0 0.071435041288444551 -0.03151275320990022 0 0.088922812840933924 -0.029958143497602171 0 0.080989698989372597 -0.019549915390982719 0 0.10024676718919209 -0.02170077287841353 0 0.082013852727550962 -0.0086393301683970365 0 0.080989698989372597 -0.019549915390982719 0 0.10024676718919209 -0.02170077287841353 0 0.088922812840933924 -0.029958143497602171 0 0.080989698989372597 -0.019549915390982719 0 0.071435041288444551 -0.03151275320990022 0 0.086272538265493914 -0.043802557949530092 0 0.063577631959428213 -0.057033518932571303 0 0.094895612043541744 -0.062131499756483501 0 0.088922812840933924 -0.029958143497602171 0 0.086272538265493914 -0.043802557949530092 0 0.071435041288444551 -0.03151275320990022 0 0.086272538265493914 -0.043802557949530092 0 0.071435041288444551 -0.03151275320990022 0 0.063577631959428213 -0.057033518932571303 0 0.086272538265493914 -0.043802557949530092 0 0.094895612043541744 -0.062131499756483501 0 0.1113932991838379 -0.04464209140101684 0 0.094895612043541744 -0.062131499756483501 0 0.1113932991838379 -0.04464209140101684 0 0.1225398311784837 -0.067583409923620247 0 0.1113932991838379 -0.04464209140101684 0 0.1225398311784837 -0.067583409923620247 0 0.1113932991838379 -0.04464209140101684 0 0.1225398311784837 -0.067583409923620247 0 0.12867568084704761 -0.051336918940334889 0 0.1113932991838379 -0.04464209140101684 0 0.12666490490222529 -0.029261923243427392 0 0.12867568084704761 -0.051336918940334889 0 0.088922812840933924 -0.029958143497602171 0 0.1113932991838379 -0.04464209140101684 0 0.10024676718919209 -0.02170077287841353 0 0.1113932991838379 -0.04464209140101684 0 0.10024676718919209 -0.02170077287841353 0 0.088922812840933924 -0.029958143497602171 0 0.086272538265493914 -0.043802557949530092 0 0.1113932991838379 -0.04464209140101684 0 0.1113932991838379 -0.04464209140101684 0 0.10024676718919209 -0.02170077287841353 0 0.1143011709264008 -0.01931208665665143 0 0.10024676718919209 -0.02170077287841353 0 0.1143011709264008 -0.01931208665665143 0 0.098214229025618924 -0.011593063646320101 0 0.1143011709264008 -0.01931208665665143 0 0.12202783944633749 -0.0073316576218664144 0 0.12666490490222529 -0.029261923243427392 0 0.1113932991838379 -0.04464209140101684 0 0.1143011709264008 -0.01931208665665143 0 0.12666490490222529 -0.029261923243427392 0 0.1143011709264008 -0.01931208665665143 0 0.12202783944633749 -0.0073316576218664144 0 0.098214229025618924 -0.011593063646320101 0 0.12202783944633749 -0.0073316576218664144 0 0.098214229025618924 -0.011593063646320101 0 0.089100235194546407 0.0012405456441897389 0 0.10024676718919209 -0.02170077287841353 0 0.10064342727750129 0.00058934272498819228 0 0.12202783944633749 -0.0073316576218664144 0 0.098214229025618924 -0.011593063646320101 0 0.089100235194546407 0.0012405456441897389 0 0.10024676718919209 -0.02170077287841353 0 0.098214229025618924 -0.011593063646320101 0 0.089100235194546407 0.0012405456441897389 0 0.10064342727750129 0.00058934272498819228 0 0.098214229025618924 -0.011593063646320101 0 0.070934089913227 -0.1084151703505431 0 0.096716162088711921 -0.1010647965637964 0 0.070934089913227 -0.1084151703505431 0 0.080146897024069741 -0.079049157748184121 0 0.096716162088711921 -0.1010647965637964 0 0.08541913660358838 -0.11723070444048329 0 0.070934089913227 -0.1084151703505431 0 0.096716162088711921 -0.1010647965637964 0 0.09707054321951919 -0.1254246091917578 0 0.08541913660358838 -0.11723070444048329 0 0.096716162088711921 -0.1010647965637964 0 0.083194058558116943 -0.13300082047289619 0 0.08541913660358838 -0.11723070444048329 0 0.075444347004050991 -0.1197402304492845 0 0.075444347004050991 -0.1197402304492845 0 0.064173038147929726 -0.12438318230509331 0 0.070934089913227 -0.1084151703505431 0 0.08541913660358838 -0.11723070444048329 0 0.075444347004050991 -0.1197402304492845 0 0.070934089913227 -0.1084151703505431 0 0.063577631959428213 -0.057033518932571303 0 0.094895612043541744 -0.062131499756483501 0 0.080146897024069741 -0.079049157748184121 0 0.059972672223578931 -0.070585565642594744 0 0.059844554922302007 -0.085682671991679032 0 0.080146897024069741 -0.079049157748184121 0 0.059844554922302007 -0.085682671991679032 0 0.070934089913227 -0.1084151703505431 0 0.080146897024069741 -0.079049157748184121 0 0.063577631959428213 -0.057033518932571303 0 0.080146897024069741 -0.079049157748184121 0 0.059972672223578931 -0.070585565642594744 0 0.063577631959428213 -0.057033518932571303 0 0.080146897024069741 -0.079049157748184121 0 0.094895612043541744 -0.062131499756483501 0 0.080146897024069741 -0.079049157748184121 0 0.105443474649937 -0.080678262583978394 0 0.080146897024069741 -0.079049157748184121 0 0.096716162088711921 -0.1010647965637964 0 0.105443474649937 -0.080678262583978394 0 0.1152012626309203 -0.095794762505008652 0 0.096716162088711921 -0.1010647965637964 0 0.080146897024069741 -0.079049157748184121 0 0.105443474649937 -0.080678262583978394 0 0.096716162088711921 -0.1010647965637964 0 0.094895612043541744 -0.062131499756483501 0 0.105443474649937 -0.080678262583978394 0 0.1225398311784837 -0.067583409923620247 0 0.105443474649937 -0.080678262583978394 0 0.1225398311784837 -0.067583409923620247 0 0.1192177329081176 -0.083645290864707594 0 0.1152012626309203 -0.095794762505008652 0 0.13368636317312951 -0.090524728446223585 0 0.1192177329081176 -0.083645290864707594 0 0.1152012626309203 -0.095794762505008652 0 0.13368636317312951 -0.090524728446223585 0 0.105443474649937 -0.080678262583978394 0 0.1192177329081176 -0.083645290864707594 0 0.1152012626309203 -0.095794762505008652 0 0.1152012626309203 -0.095794762505008652 0 0.1122617621997459 -0.12172028827578819 0 0.12653846452262221 -0.104835800895155 0 0.1152012626309203 -0.095794762505008652 0 0.096716162088711921 -0.1010647965637964 0 0.1122617621997459 -0.12172028827578819 0 0.1152012626309203 -0.095794762505008652 0 0.096716162088711921 -0.1010647965637964 0 0.09707054321951919 -0.1254246091917578 0 0.096716162088711921 -0.1010647965637964 0 0.1122617621997459 -0.12172028827578819 0 0.096716162088711921 -0.1010647965637964 0 0.1122617621997459 -0.12172028827578819 0 0.1122617621997459 -0.12172028827578819 0 0.13483578195102791 -0.1193972362409499 0 0.12653846452262221 -0.104835800895155 0 0.13483578195102791 -0.1193972362409499 0 0.1425993098992821 -0.1088689766767873 0 0.13483578195102791 -0.1193972362409499 0 0.15027600186575321 -0.1246688178908331 0 0.1425993098992821 -0.1088689766767873 0 0.15027600186575321 -0.1246688178908331 0 0.1425993098992821 -0.1088689766767873 0 0.1560574813557164 -0.11485509424073539 0 0.15027600186575321 -0.1246688178908331 0 0.1425993098992821 -0.1088689766767873 0 0.1560574813557164 -0.11485509424073539 0 0.1425993098992821 -0.1088689766767873 0 0.15707465403105189 -0.10444960473736201 0 0.1425993098992821 -0.1088689766767873 0 0.15484649927942401 -0.092260343387236099 0 0.15707465403105189 -0.10444960473736201 0 0.1425993098992821 -0.1088689766767873 0 0.1461411256948483 -0.093993618915238913 0 0.15484649927942401 -0.092260343387236099 0 0.1425993098992821 -0.1088689766767873 0 0.15484649927942401 -0.092260343387236099 0 0.1425993098992821 -0.1088689766767873 0 0.1461411256948483 -0.093993618915238913 0 0.1367071526582839 -0.096741989007804535 0 0.13483578195102791 -0.1193972362409499 0 0.1367071526582839 -0.096741989007804535 0 0.12653846452262221 -0.104835800895155 0 0.13483578195102791 -0.1193972362409499 0 0.1367071526582839 -0.096741989007804535 0 0.1152012626309203 -0.095794762505008652 0 0.12653846452262221 -0.104835800895155 0 0.13368636317312951 -0.090524728446223585 0 0.13483578195102791 -0.1193972362409499 0 0.1425993098992821 -0.1088689766767873 0 0.1367071526582839 -0.096741989007804535 0 0.1425993098992821 -0.1088689766767873 0 0.1367071526582839 -0.096741989007804535 0 0.1367071526582839 -0.096741989007804535 0 0.12653846452262221 -0.104835800895155 0 0.13368636317312951 -0.090524728446223585 0 0.1225398311784837 -0.067583409923620247 0 0.13368636317312951 -0.090524728446223585 0 0.1225398311784837 -0.067583409923620247 0 0.1192177329081176 -0.083645290864707594 0 0.13368636317312951 -0.090524728446223585 0 0.1225398311784837 -0.067583409923620247 0 0.13730595102497961 -0.089492797285530834 0 0.13368636317312951 -0.090524728446223585 0 0.1461411256948483 -0.093993618915238913 0 0.1367071526582839 -0.096741989007804535 0 0.13730595102497961 -0.089492797285530834 0 0.1367071526582839 -0.096741989007804535 0 0.13730595102497961 -0.089492797285530834 0 0.1367071526582839 -0.096741989007804535 0 0.13368636317312951 -0.090524728446223585 0 0.1367071526582839 -0.096741989007804535 0 0.13730595102497961 -0.089492797285530834 0 0.13368636317312951 -0.090524728446223585 0 0.13730595102497961 -0.089492797285530834 0 0.13368636317312951 -0.090524728446223585 0 0.1225398311784837 -0.067583409923620247 0 0.13730595102497961 -0.089492797285530834 0 0.13931871850685559 -0.065125767948186322 0 0.13730595102497961 -0.089492797285530834 0 0.13931871850685559 -0.065125767948186322 0 0.13730595102497961 -0.089492797285530834 0 0.13931871850685559 -0.065125767948186322 0 0.14646012580603629 -0.0779823071627576 0 0.13931871850685559 -0.065125767948186322 0 0.14646012580603629 -0.0779823071627576 0 0.1540055971320127 -0.064287278285078159 0 0.14646012580603629 -0.0779823071627576 0 0.1540055971320127 -0.064287278285078159 0 0.15762118347347731 -0.073778528877054675 0 0.1461411256948483 -0.093993618915238913 0 0.13730595102497961 -0.089492797285530834 0 0.1603079008449102 -0.082935026139374701 0 0.13730595102497961 -0.089492797285530834 0 0.1603079008449102 -0.082935026139374701 0 0.13730595102497961 -0.089492797285530834 0 0.14646012580603629 -0.0779823071627576 0 0.1603079008449102 -0.082935026139374701 0 0.14646012580603629 -0.0779823071627576 0 0.1603079008449102 -0.082935026139374701 0 0.15762118347347731 -0.073778528877054675 0 0.1461411256948483 -0.093993618915238913 0 0.15484649927942401 -0.092260343387236099 0 0.1603079008449102 -0.082935026139374701 0 0.15484649927942401 -0.092260343387236099 0 0.16580005436610129 -0.088551092964249345 0 0.16305099802156139 -0.097389633340340453 0 0.15484649927942401 -0.092260343387236099 0 0.1603079008449102 -0.082935026139374701 0 0.16709368865956839 -0.075651710097686967 0 0.15484649927942401 -0.092260343387236099 0 0.16709368865956839 -0.075651710097686967 0 0.15484649927942401 -0.092260343387236099 0 0.16580005436610129 -0.088551092964249345 0 0.16709368865956839 -0.075651710097686967 0 0.17120988230531939 -0.083402171481212803 0 0.16580005436610129 -0.088551092964249345 0 0.16709368865956839 -0.075651710097686967 0 0.16580005436610129 -0.088551092964249345 0 0.17279920356463341 -0.094051606514770472 0 0.16305099802156139 -0.097389633340340453 0 0.17120988230531939 -0.083402171481212803 0 0.16580005436610129 -0.088551092964249345 0 0.17279920356463341 -0.094051606514770472 0 0.1540055971320127 -0.064287278285078159 0 0.15762118347347731 -0.073778528877054675 0 0.16415378888105189 -0.066583938808300464 0 0.15762118347347731 -0.073778528877054675 0 0.16709368865956839 -0.075651710097686967 0 0.16415378888105189 -0.066583938808300464 0 0.1603079008449102 -0.082935026139374701 0 0.15762118347347731 -0.073778528877054675 0 0.16709368865956839 -0.075651710097686967 0 0.16709368865956839 -0.075651710097686967 0 0.16415378888105189 -0.066583938808300464 0 0.17343933911659939 -0.064495584145351142 0 0.17343933911659939 -0.064495584145351142 0 0.17768761326219931 -0.07181722872898233 0 0.18508542346040691 -0.067059497725838912 0 0.16709368865956839 -0.075651710097686967 0 0.17768761326219931 -0.07181722872898233 0 0.1782553011730085 -0.07967229586061364 0 0.16709368865956839 -0.075651710097686967 0 0.17343933911659939 -0.064495584145351142 0 0.17768761326219931 -0.07181722872898233 0 0.17768761326219931 -0.07181722872898233 0 0.1862769777831387 -0.078013846977099593 0 0.18508542346040691 -0.067059497725838912 0 0.17768761326219931 -0.07181722872898233 0 0.1862769777831387 -0.078013846977099593 0 0.1782553011730085 -0.07967229586061364 0 0.17120988230531939 -0.083402171481212803 0 0.1824966109883317 -0.089191414343705519 0 0.17279920356463341 -0.094051606514770472 0 0.17120988230531939 -0.083402171481212803 0 0.16709368865956839 -0.075651710097686967 0 0.1782553011730085 -0.07967229586061364 0 0.17120988230531939 -0.083402171481212803 0 0.1782553011730085 -0.07967229586061364 0 0.1824966109883317 -0.089191414343705519 0 0.1862769777831387 -0.078013846977099593 0 0.1782553011730085 -0.07967229586061364 0 0.1824966109883317 -0.089191414343705519 0 0.1862769777831387 -0.078013846977099593 0 0.1824966109883317 -0.089191414343705519 0 0.19076304185366469 -0.087425506673636785 0 0.1824966109883317 -0.089191414343705519 0 0.1840976433725228 -0.1043315214516836 0 0.19285841773527471 -0.096315931867454463 0 0.1824966109883317 -0.089191414343705519 0 0.17279920356463341 -0.094051606514770472 0 0.1840976433725228 -0.1043315214516836 0 0.17279920356463341 -0.094051606514770472 0 0.1840976433725228 -0.1043315214516836 0 0.1673071588289424 -0.10798722516545629 0 0.1840976433725228 -0.1043315214516836 0 0.1791063674942345 -0.1201791954067007 0 0.19401611512273079 -0.1162496659085315 0 0.1840976433725228 -0.1043315214516836 0 0.1791063674942345 -0.1201791954067007 0 0.1673071588289424 -0.10798722516545629 0 0.1560574813557164 -0.11485509424073539 0 0.16262992633058451 -0.1242279421351679 0 0.1673071588289424 -0.10798722516545629 0 0.1791063674942345 -0.1201791954067007 0 0.16262992633058451 -0.1242279421351679 0 0.1673071588289424 -0.10798722516545629 0 0.16262992633058451 -0.1242279421351679 0 0.1673071588289424 -0.10798722516545629 0 0.1560574813557164 -0.11485509424073539 0 0.15027600186575321 -0.1246688178908331 0 0.16262992633058451 -0.1242279421351679 0 0.15707465403105189 -0.10444960473736201 0 0.16305099802156139 -0.097389633340340453 0 0.1673071588289424 -0.10798722516545629 0 0.1560574813557164 -0.11485509424073539 0 0.15707465403105189 -0.10444960473736201 0 0.1673071588289424 -0.10798722516545629 0 0.15484649927942401 -0.092260343387236099 0 0.15707465403105189 -0.10444960473736201 0 0.16305099802156139 -0.097389633340340453 0 0.17279920356463341 -0.094051606514770472 0 0.16305099802156139 -0.097389633340340453 0 0.1673071588289424 -0.10798722516545629 0 0.14584144986705619 -0.0030702515974127282 0 0.14334425347060811 -0.01639170927349742 0 0.1602595410847947 -0.01416229725472387 0 0.13765514584181521 0.0076051518222601689 0 0.12202783944633749 -0.0073316576218664144 0 0.14584144986705619 -0.0030702515974127282 0 0.12202783944633749 -0.0073316576218664144 0 0.14584144986705619 -0.0030702515974127282 0 0.14334425347060811 -0.01639170927349742 0 0.12202783944633749 -0.0073316576218664144 0 0.14584144986705619 -0.0030702515974127282 0 0.12202783944633749 -0.0073316576218664144 0 0.12666490490222529 -0.029261923243427392 0 0.14334425347060811 -0.01639170927349742 0 0.12666490490222529 -0.029261923243427392 0 0.14334425347060811 -0.01639170927349742 0 0.14133148598873191 -0.040758738610841838 0 0.14334425347060811 -0.01639170927349742 0 0.14133148598873191 -0.040758738610841838 0 0.1557436810964006 -0.034368681438105869 0 0.14334425347060811 -0.01639170927349742 0 0.1557436810964006 -0.034368681438105869 0 0.1602595410847947 -0.01416229725472387 0 0.14334425347060811 -0.01639170927349742 0 0.14133148598873191 -0.040758738610841838 0 0.14133148598873191 -0.040758738610841838 0 0.1557436810964006 -0.034368681438105869 0 0.1527785607923878 -0.050078863843541321 0 0.12666490490222529 -0.029261923243427392 0 0.14133148598873191 -0.040758738610841838 0 0.12867568084704761 -0.051336918940334889 0 0.13931871850685559 -0.065125767948186322 0 0.14133148598873191 -0.040758738610841838 0 0.1225398311784837 -0.067583409923620247 0 0.13931871850685559 -0.065125767948186322 0 0.12867568084704761 -0.051336918940334889 0 0.13931871850685559 -0.065125767948186322 0 0.14133148598873191 -0.040758738610841838 0 0.12867568084704761 -0.051336918940334889 0 0.13931871850685559 -0.065125767948186322 0 0.14133148598873191 -0.040758738610841838 0 0.1527785607923878 -0.050078863843541321 0 0.13931871850685559 -0.065125767948186322 0 0.1540055971320127 -0.064287278285078159 0 0.1527785607923878 -0.050078863843541321 0 0.1540055971320127 -0.064287278285078159 0 0.1527785607923878 -0.050078863843541321 0 0.1655511835551389 -0.051329216386053478 0 0.1540055971320127 -0.064287278285078159 0 0.16415378888105189 -0.066583938808300464 0 0.1655511835551389 -0.051329216386053478 0 0.16415378888105189 -0.066583938808300464 0 0.17343933911659939 -0.064495584145351142 0 0.1655511835551389 -0.051329216386053478 0 0.1655511835551389 -0.051329216386053478 0 0.18084910937078169 -0.054294203648169989 0 0.17257798927101439 -0.035920338346818827 0 0.17343933911659939 -0.064495584145351142 0 0.1655511835551389 -0.051329216386053478 0 0.18084910937078169 -0.054294203648169989 0 0.17343933911659939 -0.064495584145351142 0 0.18508542346040691 -0.067059497725838912 0 0.18084910937078169 -0.054294203648169989 0 0.18508542346040691 -0.067059497725838912 0 0.18084910937078169 -0.054294203648169989 0 0.1929966833748531 -0.061003749258287332 0 0.18084910937078169 -0.054294203648169989 0 0.17257798927101439 -0.035920338346818827 0 0.19215927243778541 -0.041308093394556572 0 0.17257798927101439 -0.035920338346818827 0 0.18090514808118541 -0.020059537959303191 0 0.19215927243778541 -0.041308093394556572 0 0.1557436810964006 -0.034368681438105869 0 0.1527785607923878 -0.050078863843541321 0 0.1655511835551389 -0.051329216386053478 0 0.1557436810964006 -0.034368681438105869 0 0.1655511835551389 -0.051329216386053478 0 0.17257798927101439 -0.035920338346818827 0 0.1557436810964006 -0.034368681438105869 0 0.17257798927101439 -0.035920338346818827 0 0.1602595410847947 -0.01416229725472387 0 0.17257798927101439 -0.035920338346818827 0 0.18090514808118541 -0.020059537959303191 0 0.1602595410847947 -0.01416229725472387 0 0.18090514808118541 -0.020059537959303191 0 0.19215927243778541 -0.041308093394556572 0 0.1819249663380034 0.0033868337313615361 0 0.18090514808118541 -0.020059537959303191 0 0.1937811550467875 -0.0023769228609781712 0 0.16965506028777491 0.001191154427040698 0 0.18090514808118541 -0.020059537959303191 0 0.1819249663380034 0.0033868337313615361 0 0.16965506028777491 0.001191154427040698 0 0.18090514808118541 -0.020059537959303191 0 0.16965506028777491 0.001191154427040698 0 0.14584144986705619 -0.0030702515974127282 0 0.16965506028777491 0.001191154427040698 0 0.18090514808118541 -0.020059537959303191 0 0.1602595410847947 -0.01416229725472387 0 0.16965506028777491 0.001191154427040698 0 0.14584144986705619 -0.0030702515974127282 0 0.1602595410847947 -0.01416229725472387 0 0.2044134142821534 -0.010826787286320539 0 0.21663534476304699 -0.001567312408006177 0 0.22487925636257119 -0.019420657877120939 0 0.20400220656931661 0.0066988266659244004 0 0.2044134142821534 -0.010826787286320539 0 0.21663534476304699 -0.001567312408006177 0 0.20400220656931661 0.0066988266659244004 0 0.2044134142821534 -0.010826787286320539 0 0.1937811550467875 -0.0023769228609781712 0 0.18090514808118541 -0.020059537959303191 0 0.2044134142821534 -0.010826787286320539 0 0.1937811550467875 -0.0023769228609781712 0 0.18090514808118541 -0.020059537959303191 0 0.2044134142821534 -0.010826787286320539 0 0.20308630162657329 -0.02714793196620029 0 0.18090514808118541 -0.020059537959303191 0 0.20308630162657329 -0.02714793196620029 0 0.19215927243778541 -0.041308093394556572 0 0.2044134142821534 -0.010826787286320539 0 0.20308630162657329 -0.02714793196620029 0 0.22487925636257119 -0.019420657877120939 0 0.20308630162657329 -0.02714793196620029 0 0.21534392512248449 -0.037341938602451233 0 0.22487925636257119 -0.019420657877120939 0 0.21534392512248449 -0.037341938602451233 0 0.19215927243778541 -0.041308093394556572 0 0.21267776986643991 -0.049647064821983167 0 0.20308630162657329 -0.02714793196620029 0 0.21534392512248449 -0.037341938602451233 0 0.19215927243778541 -0.041308093394556572 0 0.21534392512248449 -0.037341938602451233 0 0.21267776986643991 -0.049647064821983167 0 0.22556776963351671 -0.046476879315964621 0 0.19215927243778541 -0.041308093394556572 0 0.2103008533901734 -0.062700321422081817 0 0.20466474154089201 -0.064939882104929195 0 0.19215927243778541 -0.041308093394556572 0 0.1929966833748531 -0.061003749258287332 0 0.20466474154089201 -0.064939882104929195 0 0.19215927243778541 -0.041308093394556572 0 0.2103008533901734 -0.062700321422081817 0 0.19215927243778541 -0.041308093394556572 0 0.20466474154089201 -0.064939882104929195 0 0.18084910937078169 -0.054294203648169989 0 0.19215927243778541 -0.041308093394556572 0 0.1929966833748531 -0.061003749258287332 0 0.19215927243778541 -0.041308093394556572 0 0.21267776986643991 -0.049647064821983167 0 0.2103008533901734 -0.062700321422081817 0 0.21267776986643991 -0.049647064821983167 0 0.22069514032597459 -0.059127087556813708 0 0.2103008533901734 -0.062700321422081817 0 0.2318571123985709 -0.05767360563814028 0 0.24254315723337269 -0.039749095113123689 0 0.22556776963351671 -0.046476879315964621 0 0.22069514032597459 -0.059127087556813708 0 0.2318571123985709 -0.05767360563814028 0 0.22523627937790161 -0.069229555458874326 0 0.22069514032597459 -0.059127087556813708 0 0.2318571123985709 -0.05767360563814028 0 0.22556776963351671 -0.046476879315964621 0 0.21267776986643991 -0.049647064821983167 0 0.22069514032597459 -0.059127087556813708 0 0.22556776963351671 -0.046476879315964621 0 0.2318571123985709 -0.05767360563814028 0 0.2463226552930966 -0.055063556558404211 0 0.23623433076224931 -0.067648088305552939 0 0.2318571123985709 -0.05767360563814028 0 0.2463226552930966 -0.055063556558404211 0 0.24254315723337269 -0.039749095113123689 0 0.25794807121498647 -0.037913446665112087 0 0.2463226552930966 -0.055063556558404211 0 0.24254315723337269 -0.039749095113123689 0 0.25794807121498647 -0.037913446665112087 0 0.24254315723337269 -0.039749095113123689 0 0.2433549403846752 -0.02541717065214413 0 0.24254315723337269 -0.039749095113123689 0 0.2303378097473241 -0.033681148312160923 0 0.2433549403846752 -0.02541717065214413 0 0.24254315723337269 -0.039749095113123689 0 0.2303378097473241 -0.033681148312160923 0 0.22556776963351671 -0.046476879315964621 0 0.21534392512248449 -0.037341938602451233 0 0.2303378097473241 -0.033681148312160923 0 0.22556776963351671 -0.046476879315964621 0 0.2303378097473241 -0.033681148312160923 0 0.22487925636257119 -0.019420657877120939 0 0.2433549403846752 -0.02541717065214413 0 0.21534392512248449 -0.037341938602451233 0 0.2303378097473241 -0.033681148312160923 0 0.22487925636257119 -0.019420657877120939 0 0.22487925636257119 -0.019420657877120939 0 0.2433549403846752 -0.02541717065214413 0 0.2393739731553505 -0.01147472375676878 0 0.25725354476765472 -0.015818745994583151 0 0.2433549403846752 -0.02541717065214413 0 0.2393739731553505 -0.01147472375676878 0 0.2485809188977687 0.0003435598250259543 0 0.25725354476765472 -0.015818745994583151 0 0.2393739731553505 -0.01147472375676878 0 0.2485809188977687 0.0003435598250259543 0 0.2310181963881548 0.00012559392120288501 0 0.2393739731553505 -0.01147472375676878 0 0.2310181963881548 0.00012559392120288501 0 0.22487925636257119 -0.019420657877120939 0 0.2393739731553505 -0.01147472375676878 0 0.2310181963881548 0.00012559392120288501 0 0.21663534476304699 -0.001567312408006177 0 0.22487925636257119 -0.019420657877120939 0 0.2131975881649919 -0.1035553163190522 0 0.2119176428637834 -0.11786348215063699 0 0.20138054821331919 -0.1058309830141026 0 0.2131975881649919 -0.1035553163190522 0 0.20138054821331919 -0.1058309830141026 0 0.2031226259870153 -0.092546194695208819 0 0.2131975881649919 -0.1035553163190522 0 0.2031226259870153 -0.092546194695208819 0 0.2171742472071875 -0.088569533864211833 0 0.2131975881649919 -0.1035553163190522 0 0.2119176428637834 -0.11786348215063699 0 0.22968375287348289 -0.1121991856234944 0 0.1791063674942345 -0.1201791954067007 0 0.19401611512273079 -0.1162496659085315 0 0.19757082722819369 -0.13272440657892659 0 0.2119176428637834 -0.11786348215063699 0 0.19401611512273079 -0.1162496659085315 0 0.19757082722819369 -0.13272440657892659 0 0.2119176428637834 -0.11786348215063699 0 0.19401611512273079 -0.1162496659085315 0 0.20138054821331919 -0.1058309830141026 0 0.1840976433725228 -0.1043315214516836 0 0.20138054821331919 -0.1058309830141026 0 0.19285841773527471 -0.096315931867454463 0 0.1840976433725228 -0.1043315214516836 0 0.19401611512273079 -0.1162496659085315 0 0.20138054821331919 -0.1058309830141026 0 0.20138054821331919 -0.1058309830141026 0 0.19285841773527471 -0.096315931867454463 0 0.2031226259870153 -0.092546194695208819 0 0.1824966109883317 -0.089191414343705519 0 0.19285841773527471 -0.096315931867454463 0 0.19076304185366469 -0.087425506673636785 0 0.1862769777831387 -0.078013846977099593 0 0.19076304185366469 -0.087425506673636785 0 0.19704156851997839 -0.081490912609383903 0 0.19704156851997839 -0.081490912609383903 0 0.20259160258454559 -0.075932659250024792 0 0.20527292015684859 -0.084115478630445828 0 0.19704156851997839 -0.081490912609383903 0 0.2031226259870153 -0.092546194695208819 0 0.20527292015684859 -0.084115478630445828 0 0.19285841773527471 -0.096315931867454463 0 0.19076304185366469 -0.087425506673636785 0 0.2031226259870153 -0.092546194695208819 0 0.19076304185366469 -0.087425506673636785 0 0.19704156851997839 -0.081490912609383903 0 0.2031226259870153 -0.092546194695208819 0 0.1929966833748531 -0.061003749258287332 0 0.19422224275465741 -0.070911789429887656 0 0.1985238274502745 -0.06764596094625433 0 0.18508542346040691 -0.067059497725838912 0 0.1929966833748531 -0.061003749258287332 0 0.19422224275465741 -0.070911789429887656 0 0.1862769777831387 -0.078013846977099593 0 0.19704156851997839 -0.081490912609383903 0 0.19422224275465741 -0.070911789429887656 0 0.1862769777831387 -0.078013846977099593 0 0.18508542346040691 -0.067059497725838912 0 0.19422224275465741 -0.070911789429887656 0 0.19422224275465741 -0.070911789429887656 0 0.20259160258454559 -0.075932659250024792 0 0.1985238274502745 -0.06764596094625433 0 0.19704156851997839 -0.081490912609383903 0 0.19422224275465741 -0.070911789429887656 0 0.20259160258454559 -0.075932659250024792 0 0.20259160258454559 -0.075932659250024792 0 0.1985238274502745 -0.06764596094625433 0 0.20466474154089201 -0.064939882104929195 0 0.1929966833748531 -0.061003749258287332 0 0.1985238274502745 -0.06764596094625433 0 0.20466474154089201 -0.064939882104929195 0 0.20466474154089201 -0.064939882104929195 0 0.2171742472071875 -0.088569533864211833 0 0.2103008533901734 -0.062700321422081817 0 0.20466474154089201 -0.064939882104929195 0 0.2171742472071875 -0.088569533864211833 0 0.20259160258454559 -0.075932659250024792 0 0.20466474154089201 -0.064939882104929195 0 0.2171742472071875 -0.088569533864211833 0 0.22069514032597459 -0.059127087556813708 0 0.2103008533901734 -0.062700321422081817 0 0.22116867685915281 -0.068787378471844213 0 0.2103008533901734 -0.062700321422081817 0 0.2171742472071875 -0.088569533864211833 0 0.22844243434256151 -0.084092549449607021 0 0.2031226259870153 -0.092546194695208819 0 0.20527292015684859 -0.084115478630445828 0 0.2171742472071875 -0.088569533864211833 0 0.20259160258454559 -0.075932659250024792 0 0.20527292015684859 -0.084115478630445828 0 0.2171742472071875 -0.088569533864211833 0 0.22844243434256151 -0.084092549449607021 0 0.231783851254206 -0.075029575505866003 0 0.23722236053411169 -0.079148108809429796 0 0.2103008533901734 -0.062700321422081817 0 0.22844243434256151 -0.084092549449607021 0 0.22116867685915281 -0.068787378471844213 0 0.2103008533901734 -0.062700321422081817 0 0.22844243434256151 -0.084092549449607021 0 0.22069514032597459 -0.059127087556813708 0 0.22523627937790161 -0.069229555458874326 0 0.22116867685915281 -0.068787378471844213 0 0.22844243434256151 -0.084092549449607021 0 0.22523627937790161 -0.069229555458874326 0 0.22116867685915281 -0.068787378471844213 0 0.22523627937790161 -0.069229555458874326 0 0.231783851254206 -0.075029575505866003 0 0.23623433076224931 -0.067648088305552939 0 0.22844243434256151 -0.084092549449607021 0 0.22523627937790161 -0.069229555458874326 0 0.231783851254206 -0.075029575505866003 0 0.2318571123985709 -0.05767360563814028 0 0.22523627937790161 -0.069229555458874326 0 0.23623433076224931 -0.067648088305552939 0 0.231783851254206 -0.075029575505866003 0 0.23623433076224931 -0.067648088305552939 0 0.23722236053411169 -0.079148108809429796 0 0.23623433076224931 -0.067648088305552939 0 0.24858731373966719 -0.070049348228236816 0 0.23722236053411169 -0.079148108809429796 0 0.2463226552930966 -0.055063556558404211 0 0.23623433076224931 -0.067648088305552939 0 0.24858731373966719 -0.070049348228236816 0 0.26214888078866933 -0.088760986433267297 0 0.24858731373966719 -0.070049348228236816 0 0.23722236053411169 -0.079148108809429796 0 0.22844243434256151 -0.084092549449607021 0 0.2471849002338018 -0.090439001166736879 0 0.23722236053411169 -0.079148108809429796 0 0.26214888078866933 -0.088760986433267297 0 0.23722236053411169 -0.079148108809429796 0 0.22844243434256151 -0.084092549449607021 0 0.2471849002338018 -0.090439001166736879 0 0.24658401529494961 -0.1054847774771322 0 0.26214888078866933 -0.088760986433267297 0 0.2471849002338018 -0.090439001166736879 0 0.23722236053411169 -0.079148108809429796 0 0.22844243434256151 -0.084092549449607021 0 0.24658401529494961 -0.1054847774771322 0 0.22968375287348289 -0.1121991856234944 0 0.22844243434256151 -0.084092549449607021 0 0.24658401529494961 -0.1054847774771322 0 0.2131975881649919 -0.1035553163190522 0 0.2171742472071875 -0.088569533864211833 0 0.22968375287348289 -0.1121991856234944 0 0.2171742472071875 -0.088569533864211833 0 0.22844243434256151 -0.084092549449607021 0 0.22968375287348289 -0.1121991856234944 0 0.2171742472071875 -0.088569533864211833 0 0.22968375287348289 -0.1121991856234944 0 0.22968375287348289 -0.1121991856234944 0 0.24205404588574109 -0.12800992710317699 0 0.22204869996139681 -0.1320428800431975 0 0.2119176428637834 -0.11786348215063699 0 0.22968375287348289 -0.1121991856234944 0 0.22204869996139681 -0.1320428800431975 0 0.24658401529494961 -0.1054847774771322 0 0.22968375287348289 -0.1121991856234944 0 0.24205404588574109 -0.12800992710317699 0 0.25424405677824552 -0.1466631387513202 0 0.24205404588574109 -0.12800992710317699 0 0.23235305171916701 -0.14683434284946831 0 0.25424405677824552 -0.1466631387513202 0 0.23235305171916701 -0.14683434284946831 0 0.24516962628396019 -0.1607664455410798 0 0.23235305171916701 -0.14683434284946831 0 0.24516962628396019 -0.1607664455410798 0 0.23235305171916701 -0.14683434284946831 0 0.21600375551784159 -0.15385873370587541 0 0.23169239769146521 -0.16515842991018001 0 0.23235305171916701 -0.14683434284946831 0 0.22204869996139681 -0.1320428800431975 0 0.21600375551784159 -0.15385873370587541 0 0.24205404588574109 -0.12800992710317699 0 0.23235305171916701 -0.14683434284946831 0 0.22204869996139681 -0.1320428800431975 0 0.22204869996139681 -0.1320428800431975 0 0.21600375551784159 -0.15385873370587541 0 0.19757082722819369 -0.13272440657892659 0 0.2119176428637834 -0.11786348215063699 0 0.22204869996139681 -0.1320428800431975 0 0.19757082722819369 -0.13272440657892659 0 0.21600375551784159 -0.15385873370587541 0 0.19331747810071731 -0.1527120030994388 0 0.19757082722819369 -0.13272440657892659 0 0.19331747810071731 -0.1527120030994388 0 0.19757082722819369 -0.13272440657892659 0 0.1753215979982648 -0.15152318752759941 0 0.19577911141842441 -0.18214016399488581 0 0.1889057192070186 -0.17392209908470799 0 0.20514298485184651 -0.17578945799141951 0 0.19577911141842441 -0.18214016399488581 0 0.20514298485184651 -0.17578945799141951 0 0.20568778369403579 -0.1871093657348914 0 0.19577911141842441 -0.18214016399488581 0 0.20568778369403579 -0.1871093657348914 0 0.19694812295793029 -0.19322646597047691 0 0.19577911141842441 -0.18214016399488581 0 0.1889057192070186 -0.17392209908470799 0 0.18673711958338809 -0.18525363973384809 0 0.19577911141842441 -0.18214016399488581 0 0.19694812295793029 -0.19322646597047691 0 0.18673711958338809 -0.18525363973384809 0 0.1889057192070186 -0.17392209908470799 0 0.20013716127808329 -0.16484186696798611 0 0.20514298485184651 -0.17578945799141951 0 0.19331747810071731 -0.1527120030994388 0 0.20013716127808329 -0.16484186696798611 0 0.18392678270293211 -0.16432107748468269 0 0.1889057192070186 -0.17392209908470799 0 0.20013716127808329 -0.16484186696798611 0 0.18392678270293211 -0.16432107748468269 0 0.20013716127808329 -0.16484186696798611 0 0.2179165987803314 -0.17155004750206909 0 0.20514298485184651 -0.17578945799141951 0 0.21600375551784159 -0.15385873370587541 0 0.20013716127808329 -0.16484186696798611 0 0.2179165987803314 -0.17155004750206909 0 0.21600375551784159 -0.15385873370587541 0 0.19331747810071731 -0.1527120030994388 0 0.20013716127808329 -0.16484186696798611 0 0.2179165987803314 -0.17155004750206909 0 0.20514298485184651 -0.17578945799141951 0 0.21801459051957769 -0.18757042522760589 0 0.20514298485184651 -0.17578945799141951 0 0.20568778369403579 -0.1871093657348914 0 0.21801459051957769 -0.18757042522760589 0 0.2179165987803314 -0.17155004750206909 0 0.23347449829443589 -0.18448238177271151 0 0.21801459051957769 -0.18757042522760589 0 0.2179165987803314 -0.17155004750206909 0 0.23347449829443589 -0.18448238177271151 0 0.23169239769146521 -0.16515842991018001 0 0.21600375551784159 -0.15385873370587541 0 0.2179165987803314 -0.17155004750206909 0 0.23169239769146521 -0.16515842991018001 0 0.23235305171916701 -0.14683434284946831 0 0.23169239769146521 -0.16515842991018001 0 0.24516962628396019 -0.1607664455410798 0 0.23169239769146521 -0.16515842991018001 0 0.24516962628396019 -0.1607664455410798 0 0.243361587199424 -0.17436576725600569 0 0.25798620084875301 -0.17469854823269179 0 0.24516962628396019 -0.1607664455410798 0 0.243361587199424 -0.17436576725600569 0 0.23347449829443589 -0.18448238177271151 0 0.23169239769146521 -0.16515842991018001 0 0.243361587199424 -0.17436576725600569 0 0.23347449829443589 -0.18448238177271151 0 0.243361587199424 -0.17436576725600569 0 0.24848521287850581 -0.1867230308233653 0 0.25798620084875301 -0.17469854823269179 0 0.243361587199424 -0.17436576725600569 0 0.24848521287850581 -0.1867230308233653 0 0.23347449829443589 -0.18448238177271151 0 0.24848521287850581 -0.1867230308233653 0 0.24409064992538301 -0.1989195352933838 0 0.23347449829443589 -0.18448238177271151 0 0.24409064992538301 -0.1989195352933838 0 0.230809323177706 -0.19928951787178931 0 0.24409064992538301 -0.1989195352933838 0 0.2404241157327518 -0.21116358987085429 0 0.230809323177706 -0.19928951787178931 0 0.25172363415599802 -0.21332580686377009 0 0.24409064992538301 -0.1989195352933838 0 0.2404241157327518 -0.21116358987085429 0 0.25172363415599802 -0.21332580686377009 0 0.2404241157327518 -0.21116358987085429 0 0.24717602665790411 -0.22507627520281451 0 0.2404241157327518 -0.21116358987085429 0 0.22953612675698351 -0.21203511706541739 0 0.23438028913968731 -0.22595135549655901 0 0.2404241157327518 -0.21116358987085429 0 0.22953612675698351 -0.21203511706541739 0 0.230809323177706 -0.19928951787178931 0 0.22953612675698351 -0.21203511706541739 0 0.2213545679592071 -0.22621546487551991 0 0.21796463434926061 -0.21427759207166819 0 0.22953612675698351 -0.21203511706541739 0 0.21903818200646291 -0.20170331598956021 0 0.230809323177706 -0.19928951787178931 0 0.22953612675698351 -0.21203511706541739 0 0.21903818200646291 -0.20170331598956021 0 0.21796463434926061 -0.21427759207166819 0 0.21903818200646291 -0.20170331598956021 0 0.230809323177706 -0.19928951787178931 0 0.21801459051957769 -0.18757042522760589 0 0.23347449829443589 -0.18448238177271151 0 0.230809323177706 -0.19928951787178931 0 0.21801459051957769 -0.18757042522760589 0 0.25468490016820272 -0.2485898315504726 0 0.23269746822706741 -0.25915845359030171 0 0.2342467916220812 -0.24068600105304161 0 0.25468490016820272 -0.2485898315504726 0 0.24717602665790411 -0.22507627520281451 0 0.2342467916220812 -0.24068600105304161 0 0.24717602665790411 -0.22507627520281451 0 0.23438028913968731 -0.22595135549655901 0 0.2342467916220812 -0.24068600105304161 0 0.2404241157327518 -0.21116358987085429 0 0.24717602665790411 -0.22507627520281451 0 0.23438028913968731 -0.22595135549655901 0 0.22953612675698351 -0.21203511706541739 0 0.23438028913968731 -0.22595135549655901 0 0.2213545679592071 -0.22621546487551991 0 0.23438028913968731 -0.22595135549655901 0 0.2213545679592071 -0.22621546487551991 0 0.2342467916220812 -0.24068600105304161 0 0.23269746822706741 -0.25915845359030171 0 0.2342467916220812 -0.24068600105304161 0 0.2198219065873146 -0.2419954142518736 0 0.2213545679592071 -0.22621546487551991 0 0.2342467916220812 -0.24068600105304161 0 0.2198219065873146 -0.2419954142518736 0 0.21461413148169539 -0.2620781064322622 0 0.2056451336281179 -0.23568513345432199 0 0.20005158203282461 -0.24232914457006391 0 0.21461413148169539 -0.2620781064322622 0 0.2198219065873146 -0.2419954142518736 0 0.2056451336281179 -0.23568513345432199 0 0.21461413148169539 -0.2620781064322622 0 0.2056451336281179 -0.23568513345432199 0 0.2198219065873146 -0.2419954142518736 0 0.2056451336281179 -0.23568513345432199 0 0.2126422089994785 -0.2299989961615829 0 0.2213545679592071 -0.22621546487551991 0 0.2198219065873146 -0.2419954142518736 0 0.2126422089994785 -0.2299989961615829 0 0.2056451336281179 -0.23568513345432199 0 0.2126422089994785 -0.2299989961615829 0 0.2037367697692492 -0.2246152639355399 0 0.2213545679592071 -0.22621546487551991 0 0.2126422089994785 -0.2299989961615829 0 0.21260613092551331 -0.2217378706746814 0 0.2213545679592071 -0.22621546487551991 0 0.21260613092551331 -0.2217378706746814 0 0.21796463434926061 -0.21427759207166819 0 0.2126422089994785 -0.2299989961615829 0 0.21260613092551331 -0.2217378706746814 0 0.2037367697692492 -0.2246152639355399 0 0.21260613092551331 -0.2217378706746814 0 0.2037367697692492 -0.2246152639355399 0 0.20733247355037099 -0.21358203632909631 0 0.2037367697692492 -0.2246152639355399 0 0.19387570588631309 -0.22520427605428339 0 0.19654907528463009 -0.21442016005201839 0 0.19387570588631309 -0.22520427605428339 0 0.19654907528463009 -0.21442016005201839 0 0.18995670308767279 -0.2185093394379006 0 0.19387570588631309 -0.22520427605428339 0 0.18995670308767279 -0.2185093394379006 0 0.18714574817300561 -0.22912710228327721 0 0.19387570588631309 -0.22520427605428339 0 0.1984843143524142 -0.23311406554358821 0 0.18911238044556641 -0.23773650970373161 0 0.19387570588631309 -0.22520427605428339 0 0.18911238044556641 -0.23773650970373161 0 0.18714574817300561 -0.22912710228327721 0 0.2056451336281179 -0.23568513345432199 0 0.2037367697692492 -0.2246152639355399 0 0.1984843143524142 -0.23311406554358821 0 0.2037367697692492 -0.2246152639355399 0 0.19387570588631309 -0.22520427605428339 0 0.1984843143524142 -0.23311406554358821 0 0.18562478805855659 -0.2566109831231761 0 0.18911238044556641 -0.23773650970373161 0 0.20005158203282461 -0.24232914457006391 0 0.2056451336281179 -0.23568513345432199 0 0.1984843143524142 -0.23311406554358821 0 0.20005158203282461 -0.24232914457006391 0 0.1984843143524142 -0.23311406554358821 0 0.18911238044556641 -0.23773650970373161 0 0.20005158203282461 -0.24232914457006391 0 0.18562478805855659 -0.2566109831231761 0 0.20005158203282461 -0.24232914457006391 0 0.20974363742005681 -0.19605324043875749 0 0.21010862200630609 -0.20514833860955031 0 0.20197500097396209 -0.2033836552826554 0 0.20568778369403579 -0.1871093657348914 0 0.20974363742005681 -0.19605324043875749 0 0.19694812295793029 -0.19322646597047691 0 0.20568778369403579 -0.1871093657348914 0 0.20974363742005681 -0.19605324043875749 0 0.21801459051957769 -0.18757042522760589 0 0.21903818200646291 -0.20170331598956021 0 0.20974363742005681 -0.19605324043875749 0 0.21801459051957769 -0.18757042522760589 0 0.21903818200646291 -0.20170331598956021 0 0.20974363742005681 -0.19605324043875749 0 0.21010862200630609 -0.20514833860955031 0 0.21903818200646291 -0.20170331598956021 0 0.21796463434926061 -0.21427759207166819 0 0.21010862200630609 -0.20514833860955031 0 0.21796463434926061 -0.21427759207166819 0 0.20733247355037099 -0.21358203632909631 0 0.21010862200630609 -0.20514833860955031 0 0.21260613092551331 -0.2217378706746814 0 0.21796463434926061 -0.21427759207166819 0 0.20733247355037099 -0.21358203632909631 0 0.20733247355037099 -0.21358203632909631 0 0.21010862200630609 -0.20514833860955031 0 0.20197500097396209 -0.2033836552826554 0 0.20733247355037099 -0.21358203632909631 0 0.20197500097396209 -0.2033836552826554 0 0.19654907528463009 -0.21442016005201839 0 0.20197500097396209 -0.2033836552826554 0 0.19654907528463009 -0.21442016005201839 0 0.19175149411614981 -0.2037503073892265 0 0.2037367697692492 -0.2246152639355399 0 0.20733247355037099 -0.21358203632909631 0 0.19654907528463009 -0.21442016005201839 0 0.19654907528463009 -0.21442016005201839 0 0.18995670308767279 -0.2185093394379006 0 0.18594014162435479 -0.21171753557533379 0 0.19654907528463009 -0.21442016005201839 0 0.19175149411614981 -0.2037503073892265 0 0.18594014162435479 -0.21171753557533379 0 0.19175149411614981 -0.2037503073892265 0 0.19694812295793029 -0.19322646597047691 0 0.18696271349949531 -0.19489488921907361 0 0.20974363742005681 -0.19605324043875749 0 0.20197500097396209 -0.2033836552826554 0 0.19694812295793029 -0.19322646597047691 0 0.20197500097396209 -0.2033836552826554 0 0.19175149411614981 -0.2037503073892265 0 0.19694812295793029 -0.19322646597047691 0 0.19694812295793029 -0.19322646597047691 0 0.18696271349949531 -0.19489488921907361 0 0.18673711958338809 -0.18525363973384809 0 0.18696271349949531 -0.19489488921907361 0 0.17782433594309011 -0.1897871446543723 0 0.18673711958338809 -0.18525363973384809 0 0.17782433594309011 -0.1897871446543723 0 0.18118399745292321 -0.20131610735912239 0 0.16868983184942321 -0.19751971035128069 0 0.18118399745292321 -0.20131610735912239 0 0.17366857701467869 -0.21039811572212239 0 0.16868983184942321 -0.19751971035128069 0 0.18696271349949531 -0.19489488921907361 0 0.17782433594309011 -0.1897871446543723 0 0.18118399745292321 -0.20131610735912239 0 0.19175149411614981 -0.2037503073892265 0 0.18696271349949531 -0.19489488921907361 0 0.18118399745292321 -0.20131610735912239 0 0.18118399745292321 -0.20131610735912239 0 0.18594014162435479 -0.21171753557533379 0 0.17366857701467869 -0.21039811572212239 0 0.19175149411614981 -0.2037503073892265 0 0.18118399745292321 -0.20131610735912239 0 0.18594014162435479 -0.21171753557533379 0 0.18594014162435479 -0.21171753557533379 0 0.17366857701467869 -0.21039811572212239 0 0.18153745491908699 -0.2216947040307802 0 0.18995670308767279 -0.2185093394379006 0 0.18594014162435479 -0.21171753557533379 0 0.18153745491908699 -0.2216947040307802 0 0.17366857701467869 -0.21039811572212239 0 0.18153745491908699 -0.2216947040307802 0 0.17167828305845029 -0.22056582164943039 0 0.17366857701467869 -0.21039811572212239 0 0.16122236399816511 -0.21600282464351669 0 0.16052115243394219 -0.20518222722576529 0 0.17366857701467869 -0.21039811572212239 0 0.16052115243394219 -0.20518222722576529 0 0.16868983184942321 -0.19751971035128069 0 0.17366857701467869 -0.21039811572212239 0 0.16122236399816511 -0.21600282464351669 0 0.17167828305845029 -0.22056582164943039 0 0.16122236399816511 -0.21600282464351669 0 0.15886756697561991 -0.2273785448090315 0 0.15024651009627579 -0.21219720913142559 0 0.16122236399816511 -0.21600282464351669 0 0.16052115243394219 -0.20518222722576529 0 0.15024651009627579 -0.21219720913142559 0 0.16868983184942321 -0.19751971035128069 0 0.15165943943230559 -0.19125958880384891 0 0.16630435678085029 -0.1821822269688266 0 0.16052115243394219 -0.20518222722576529 0 0.16868983184942321 -0.19751971035128069 0 0.15165943943230559 -0.19125958880384891 0 0.17782433594309011 -0.1897871446543723 0 0.16868983184942321 -0.19751971035128069 0 0.16630435678085029 -0.1821822269688266 0 0.18562478805855659 -0.2566109831231761 0 0.18911238044556641 -0.23773650970373161 0 0.17873448559936961 -0.24574127951022259 0 0.17168332840821471 -0.25059450629993563 0 0.17873448559936961 -0.24574127951022259 0 0.16651455875841659 -0.2423032906649335 0 0.18911238044556641 -0.23773650970373161 0 0.17873448559936961 -0.24574127951022259 0 0.18015076463885071 -0.23294984181562131 0 0.17873448559936961 -0.24574127951022259 0 0.17362019766089301 -0.23819858339801869 0 0.16651455875841659 -0.2423032906649335 0 0.17873448559936961 -0.24574127951022259 0 0.17362019766089301 -0.23819858339801869 0 0.18015076463885071 -0.23294984181562131 0 0.17561187106583079 -0.2267525722742823 0 0.18015076463885071 -0.23294984181562131 0 0.169080981646935 -0.23179992160129731 0 0.17362019766089301 -0.23819858339801869 0 0.18015076463885071 -0.23294984181562131 0 0.169080981646935 -0.23179992160129731 0 0.17561187106583079 -0.2267525722742823 0 0.18015076463885071 -0.23294984181562131 0 0.18153745491908699 -0.2216947040307802 0 0.18911238044556641 -0.23773650970373161 0 0.18015076463885071 -0.23294984181562131 0 0.18714574817300561 -0.22912710228327721 0 0.18015076463885071 -0.23294984181562131 0 0.18714574817300561 -0.22912710228327721 0 0.18153745491908699 -0.2216947040307802 0 0.18995670308767279 -0.2185093394379006 0 0.18714574817300561 -0.22912710228327721 0 0.18153745491908699 -0.2216947040307802 0 0.17561187106583079 -0.2267525722742823 0 0.18153745491908699 -0.2216947040307802 0 0.17167828305845029 -0.22056582164943039 0 0.17561187106583079 -0.2267525722742823 0 0.17167828305845029 -0.22056582164943039 0 0.169080981646935 -0.23179992160129731 0 0.16122236399816511 -0.21600282464351669 0 0.17167828305845029 -0.22056582164943039 0 0.15886756697561991 -0.2273785448090315 0 0.15886756697561991 -0.2273785448090315 0 0.169080981646935 -0.23179992160129731 0 0.16204573992062729 -0.23571047924071961 0 0.15886756697561991 -0.2273785448090315 0 0.16204573992062729 -0.23571047924071961 0 0.1557662663114964 -0.23571068095627409 0 0.17167828305845029 -0.22056582164943039 0 0.15886756697561991 -0.2273785448090315 0 0.169080981646935 -0.23179992160129731 0 0.169080981646935 -0.23179992160129731 0 0.16204573992062729 -0.23571047924071961 0 0.16651455875841659 -0.2423032906649335 0 0.17362019766089301 -0.23819858339801869 0 0.169080981646935 -0.23179992160129731 0 0.16651455875841659 -0.2423032906649335 0 0.16204573992062729 -0.23571047924071961 0 0.15854191814975749 -0.24274748508048249 0 0.16651455875841659 -0.2423032906649335 0 0.16204573992062729 -0.23571047924071961 0 0.15854191814975749 -0.24274748508048249 0 0.1557662663114964 -0.23571068095627409 0 0.16136981588237909 -0.25002704538369591 0 0.15854191814975749 -0.24274748508048249 0 0.16651455875841659 -0.2423032906649335 0 0.16136981588237909 -0.25002704538369591 0 0.15854191814975749 -0.24274748508048249 0 0.15592759258352759 -0.2480150403775537 0 0.16136981588237909 -0.25002704538369591 0 0.17168332840821471 -0.25059450629993563 0 0.16651455875841659 -0.2423032906649335 0 0.14261804240171119 -0.2483148659245355 0 0.14798526181316601 -0.2457057200037211 0 0.13983752168993629 -0.2442438541087126 0 0.14414500287055351 -0.2515473987286046 0 0.14261804240171119 -0.2483148659245355 0 0.14798526181316601 -0.2457057200037211 0 0.14414500287055351 -0.2515473987286046 0 0.14798526181316601 -0.2457057200037211 0 0.15074446877201189 -0.24924091896789649 0 0.15074446877201189 -0.24924091896789649 0 0.15592759258352759 -0.2480150403775537 0 0.15276199535072901 -0.24242129416010241 0 0.15854191814975749 -0.24274748508048249 0 0.15592759258352759 -0.2480150403775537 0 0.15276199535072901 -0.24242129416010241 0 0.14798526181316601 -0.2457057200037211 0 0.15074446877201189 -0.24924091896789649 0 0.15276199535072901 -0.24242129416010241 0 0.15276199535072901 -0.24242129416010241 0 0.1557662663114964 -0.23571068095627409 0 0.14883358076024661 -0.23313482945900241 0 0.14798526181316601 -0.2457057200037211 0 0.15276199535072901 -0.24242129416010241 0 0.14883358076024661 -0.23313482945900241 0 0.15854191814975749 -0.24274748508048249 0 0.15276199535072901 -0.24242129416010241 0 0.1557662663114964 -0.23571068095627409 0 0.14798526181316601 -0.2457057200037211 0 0.14883358076024661 -0.23313482945900241 0 0.14798526181316601 -0.2457057200037211 0 0.14883358076024661 -0.23313482945900241 0 0.13983752168993629 -0.2442438541087126 0 0.14883358076024661 -0.23313482945900241 0 0.1350615994191324 -0.21995322302607159 0 0.15024651009627579 -0.21219720913142559 0 0.15886756697561991 -0.2273785448090315 0 0.14883358076024661 -0.23313482945900241 0 0.15024651009627579 -0.21219720913142559 0 0.14883358076024661 -0.23313482945900241 0 0.15024651009627579 -0.21219720913142559 0 0.15886756697561991 -0.2273785448090315 0 0.1557662663114964 -0.23571068095627409 0 0.14883358076024661 -0.23313482945900241 0 0.15886756697561991 -0.2273785448090315 0 0.14883358076024661 -0.23313482945900241 0 0.1247042623426802 -0.22324572305378251 0 0.1350615994191324 -0.21995322302607159 0 0.12851254513477239 -0.24269345180215049 0 0.14883358076024661 -0.23313482945900241 0 0.1350615994191324 -0.21995322302607159 0 0.12851254513477239 -0.24269345180215049 0 0.1350615994191324 -0.21995322302607159 0 0.12851254513477239 -0.24269345180215049 0 0.124030250411185 -0.21442050609113511 0 0.1247042623426802 -0.22324572305378251 0 0.1350615994191324 -0.21995322302607159 0 0.14883358076024661 -0.23313482945900241 0 0.12965376333636139 -0.24413788310653931 0 0.13983752168993629 -0.2442438541087126 0 0.14883358076024661 -0.23313482945900241 0 0.12965376333636139 -0.24413788310653931 0 0.14883358076024661 -0.23313482945900241 0 0.12965376333636139 -0.24413788310653931 0 0.12851254513477239 -0.24269345180215049 0 0.1199093265075081 -0.24972805942696519 0 0.12851254513477239 -0.24269345180215049 0 0.12778836299882071 -0.2452080236367912 0 0.1377637405829498 -0.25440262038162609 0 0.12965376333636139 -0.24413788310653931 0 0.12778836299882071 -0.2452080236367912 0 0.12965376333636139 -0.24413788310653931 0 0.12851254513477239 -0.24269345180215049 0 0.12965376333636139 -0.24413788310653931 0 0.12851254513477239 -0.24269345180215049 0 0.12778836299882071 -0.2452080236367912 0 0.12851254513477239 -0.24269345180215049 0 0.12778836299882071 -0.2452080236367912 0 0.12965376333636139 -0.24413788310653931 0 0.12778836299882071 -0.2452080236367912 0 0.1377637405829498 -0.25440262038162609 0 0.12965376333636139 -0.24413788310653931 0 0.1377637405829498 -0.25440262038162609 0 0.14261804240171119 -0.2483148659245355 0 0.13983752168993629 -0.2442438541087126 0 0.1377637405829498 -0.25440262038162609 0 0.12965376333636139 -0.24413788310653931 0 0.13983752168993629 -0.2442438541087126 0 0.16052115243394219 -0.20518222722576529 0 0.15165943943230559 -0.19125958880384891 0 0.15024651009627579 -0.21219720913142559 0 0.15165943943230559 -0.19125958880384891 0 0.15024651009627579 -0.21219720913142559 0 0.15165943943230559 -0.19125958880384891 0 0.1416106537034926 -0.1972129942499927 0 0.15024651009627579 -0.21219720913142559 0 0.15165943943230559 -0.19125958880384891 0 0.1416106537034926 -0.1972129942499927 0 0.14815970798785311 -0.1744727654739138 0 0.1350615994191324 -0.21995322302607159 0 0.1416106537034926 -0.1972129942499927 0 0.15024651009627579 -0.21219720913142559 0 0.1350615994191324 -0.21995322302607159 0 0.1416106537034926 -0.1972129942499927 0 0.1350615994191324 -0.21995322302607159 0 0.1416106537034926 -0.1972129942499927 0 0.12951388114332721 -0.20557203148688691 0 0.124030250411185 -0.21442050609113511 0 0.1350615994191324 -0.21995322302607159 0 0.12951388114332721 -0.20557203148688691 0 0.1212369293437254 -0.2066622781128461 0 0.12951388114332721 -0.20557203148688691 0 0.1285726009684533 -0.19102227064870919 0 0.1416106537034926 -0.1972129942499927 0 0.1285726009684533 -0.19102227064870919 0 0.14815970798785311 -0.1744727654739138 0 0.1416106537034926 -0.1972129942499927 0 0.12951388114332721 -0.20557203148688691 0 0.1285726009684533 -0.19102227064870919 0 0.1185295763131915 -0.1791020806061441 0 0.1285726009684533 -0.19102227064870919 0 0.130499484564012 -0.17215707900109911 0 0.1285726009684533 -0.19102227064870919 0 0.14815970798785311 -0.1744727654739138 0 0.1285726009684533 -0.19102227064870919 0 0.130499484564012 -0.17215707900109911 0 0.14815970798785311 -0.1744727654739138 0 0.15165943943230559 -0.19125958880384891 0 0.14815970798785311 -0.1744727654739138 0 0.1530723687683356 -0.1703219684762721 0 0.1416106537034926 -0.1972129942499927 0 0.14815970798785311 -0.1744727654739138 0 0.15165943943230559 -0.19125958880384891 0 0.1530723687683356 -0.1703219684762721 0 0.14815970798785311 -0.1744727654739138 0 0.1530723687683356 -0.1703219684762721 0 0.14815970798785311 -0.1744727654739138 0 0.15305620091003971 -0.1574707122893966 0 0.14165572828944811 -0.16339354955639671 0 0.14815970798785311 -0.1744727654739138 0 0.15305620091003971 -0.1574707122893966 0 0.15359508051548801 -0.16257611748176981 0 0.14815970798785311 -0.1744727654739138 0 0.15305620091003971 -0.1574707122893966 0 0.14815970798785311 -0.1744727654739138 0 0.15359508051548801 -0.16257611748176981 0 0.1530723687683356 -0.1703219684762721 0 0.15359508051548801 -0.16257611748176981 0 0.1530723687683356 -0.1703219684762721 0 0.15305620091003971 -0.1574707122893966 0 0.14165572828944811 -0.16339354955639671 0 0.1412154417453432 -0.14846314297209739 0 0.130499484564012 -0.17215707900109911 0 0.14815970798785311 -0.1744727654739138 0 0.14165572828944811 -0.16339354955639671 0 0.14165572828944811 -0.16339354955639671 0 0.12905529237354479 -0.1608875982413393 0 0.1412154417453432 -0.14846314297209739 0 0.130499484564012 -0.17215707900109911 0 0.14165572828944811 -0.16339354955639671 0 0.12905529237354479 -0.1608875982413393 0 0.1185080735911636 -0.16578466505890629 0 0.130499484564012 -0.17215707900109911 0 0.12905529237354479 -0.1608875982413393 0 0.1245135999541712 -0.1505208639130812 0 0.12905529237354479 -0.1608875982413393 0 0.1412154417453432 -0.14846314297209739 0 0.1245135999541712 -0.1505208639130812 0 0.13382441810271739 -0.13164104124295259 0 0.1412154417453432 -0.14846314297209739 0 0.1202660760009565 -0.13915547592765229 0 0.13483578195102791 -0.1193972362409499 0 0.13382441810271739 -0.13164104124295259 0 0.1202660760009565 -0.13915547592765229 0 0.13483578195102791 -0.1193972362409499 0 0.13382441810271739 -0.13164104124295259 0 0.14569681141751989 -0.13638547285861771 0 0.1412154417453432 -0.14846314297209739 0 0.1202660760009565 -0.13915547592765229 0 0.1245135999541712 -0.1505208639130812 0 0.13382441810271739 -0.13164104124295259 0 0.13483578195102791 -0.1193972362409499 0 0.15027600186575321 -0.1246688178908331 0 0.13382441810271739 -0.13164104124295259 0 0.13483578195102791 -0.1193972362409499 0 0.13382441810271739 -0.13164104124295259 0 0.15027600186575321 -0.1246688178908331 0 0.15795269383222441 -0.14046865910487891 0 0.15027600186575321 -0.1246688178908331 0 0.14569681141751989 -0.13638547285861771 0 0.15795269383222441 -0.14046865910487891 0 0.15027600186575321 -0.1246688178908331 0 0.13382441810271739 -0.13164104124295259 0 0.14569681141751989 -0.13638547285861771 0 0.15305620091003971 -0.1574707122893966 0 0.1412154417453432 -0.14846314297209739 0 0.15795269383222441 -0.14046865910487891 0 0.14569681141751989 -0.13638547285861771 0 0.1412154417453432 -0.14846314297209739 0 0.15795269383222441 -0.14046865910487891 0 0.15305620091003971 -0.1574707122893966 0 0.15795269383222441 -0.14046865910487891 0 0.15305620091003971 -0.1574707122893966 0 0.15359508051548801 -0.16257611748176981 0 0.1617614451624392 -0.1483076692545704 0 0.15359508051548801 -0.16257611748176981 0 0.1617614451624392 -0.1483076692545704 0 0.1753215979982648 -0.15152318752759941 0 0.15305620091003971 -0.1574707122893966 0 0.1617614451624392 -0.1483076692545704 0 0.15795269383222441 -0.14046865910487891 0 0.1617614451624392 -0.1483076692545704 0 0.15795269383222441 -0.14046865910487891 0 0.1617614451624392 -0.1483076692545704 0 0.15795269383222441 -0.14046865910487891 0 0.16677271223594939 -0.13970080893396389 0 0.1617614451624392 -0.1483076692545704 0 0.16677271223594939 -0.13970080893396389 0 0.1753215979982648 -0.15152318752759941 0 0.16262992633058451 -0.1242279421351679 0 0.15795269383222441 -0.14046865910487891 0 0.16677271223594939 -0.13970080893396389 0 0.15027600186575321 -0.1246688178908331 0 0.16262992633058451 -0.1242279421351679 0 0.15795269383222441 -0.14046865910487891 0 0.16262992633058451 -0.1242279421351679 0 0.15795269383222441 -0.14046865910487891 0 0.16262992633058451 -0.1242279421351679 0 0.16677271223594939 -0.13970080893396389 0 0.17619789785623571 -0.1339765866476022 0 0.19757082722819369 -0.13272440657892659 0 0.17619789785623571 -0.1339765866476022 0 0.1753215979982648 -0.15152318752759941 0 0.1791063674942345 -0.1201791954067007 0 0.16262992633058451 -0.1242279421351679 0 0.17619789785623571 -0.1339765866476022 0 0.1791063674942345 -0.1201791954067007 0 0.19757082722819369 -0.13272440657892659 0 0.17619789785623571 -0.1339765866476022 0 0.19757082722819369 -0.13272440657892659 0 0.1753215979982648 -0.15152318752759941 0 0.19331747810071731 -0.1527120030994388 0 0.1753215979982648 -0.15152318752759941 0 0.18392678270293211 -0.16432107748468269 0 0.16677271223594939 -0.13970080893396389 0 0.17619789785623571 -0.1339765866476022 0 0.1753215979982648 -0.15152318752759941 0 0.1753215979982648 -0.15152318752759941 0 0.18392678270293211 -0.16432107748468269 0 0.17131989617449331 -0.16906405847064171 0 0.18392678270293211 -0.16432107748468269 0 0.17797437462208421 -0.1769718318958273 0 0.17131989617449331 -0.16906405847064171 0 0.1889057192070186 -0.17392209908470799 0 0.18392678270293211 -0.16432107748468269 0 0.17797437462208421 -0.1769718318958273 0 0.1889057192070186 -0.17392209908470799 0 0.18673711958338809 -0.18525363973384809 0 0.17797437462208421 -0.1769718318958273 0 0.17782433594309011 -0.1897871446543723 0 0.18673711958338809 -0.18525363973384809 0 0.17797437462208421 -0.1769718318958273 0 0.17782433594309011 -0.1897871446543723 0 0.17797437462208421 -0.1769718318958273 0 0.16630435678085029 -0.1821822269688266 0 0.1530723687683356 -0.1703219684762721 0 0.16630435678085029 -0.1821822269688266 0 0.17131989617449331 -0.16906405847064171 0 0.15165943943230559 -0.19125958880384891 0 0.1530723687683356 -0.1703219684762721 0 0.16630435678085029 -0.1821822269688266 0 0.17797437462208421 -0.1769718318958273 0 0.16630435678085029 -0.1821822269688266 0 0.17131989617449331 -0.16906405847064171 0 0.1530723687683356 -0.1703219684762721 0 0.1753215979982648 -0.15152318752759941 0 0.15359508051548801 -0.16257611748176981 0 0.1530723687683356 -0.1703219684762721 0 0.1753215979982648 -0.15152318752759941 0 0.1530723687683356 -0.1703219684762721 0 0.1753215979982648 -0.15152318752759941 0 0.17131989617449331 -0.16906405847064171 0 
</DataArray>
</Points>
<Cells>
<DataArray type="UInt32" Name="connectivity" format="ascii">
0 1 2 3 4 5 6 7 8 9 10 11 12 13 14 15 16 17 18 19 20 21 22 23 24 25 26 27 28 29 30 31 32 33 34 35 36 37 38 39 40 41 42 43 44 45 46 47 48 49 50 51 52 53 54 55 56 57 58 59 60 61 62 63 64 65 66 67 68 69 70 71 72 73 74 75 76 77 78 79 80 81 82 83 84 85 86 87 88 89 90 91 92 93 94 95 96 97 98 99 100 101 102 103 104 105 106 107 108 109 110 111 112 113 114 115 116 117 118 119 120 121 122 123 124 125 126 127 128 129 130 131 132 133 134 135 136 137 138 139 140 141 142 143 144 145 146 147 148 149 150 151 152 153 154 155 156 157 158 159 160 161 162 163 164 165 166 167 168 169 170 171 172 173 174 175 176 177 178 179 180 181 182 183 184 185 186 187 188 189 190 191 192 193 194 195 196 197 198 199 200 201 202 203 204 205 206 207 208 209 210 211 212 213 214 215 216 217 218 219 220 221 222 223 224 225 226 227 228 229 230 231 232 233 234 235 236 237 238 239 240 241 242 243 244 245 246 247 248 249 250 251 252 253 254 255 256 257 258 259 260 261 262 263 264 265 266 267 268 269 270 271 272 273 274 275 276 277 278 279 280 281 282 283 284 285 286 287 288 289 290 291 292 293 294 295 296 297 298 299 300 301 302 303 304 305 306 307 308 309 310 311 312 313 314 315 316 317 318 319 320 321 322 323 324 325 326 327 328 329 330 331 332 333 334 335 336 337 338 339 340 341 342 343 344 345 346 347 348 349 350 351 352 353 354 355 356 357 358 359 360 361 362 363 364 365 366 367 368 369 370 371 372 373 374 375 376 377 378 379 380 381 382 383 384 385 386 387 388 389 390 391 392 393 394 395 396 397 398 399 400 401 402 403 404 405 406 407 408 409 410 411 412 413 414 415 416 417 418 419 420 421 422 423 424 425 426 427 428 429 430 431 432 433 434 435 436 437 438 439 440 441 442 443 444 445 446 447 448 449 450 451 452 453 454 455 456 457 458 459 460 461 462 463 464 465 466 467 468 469 470 471 472 473 474 475 476 477 478 479 480 481 482 483 484 485 486 487 488 489 490 491 492 493 494 495 496 497 498 499 500 501 502 503 504 505 506 507 508 509 510 511 512 513 514 515 516 517 518 519 520 521 522 523 524 525 526 527 528 529 530 531 532 533 534 535 536 537 538 539 540 541 542 543 544 545 546 547 548 549 550 551 552 553 554 555 556 557 558 559 560 561 562 563 564 565 566 567 568 569 570 571 572 573 574 575 576 577 578 579 580 581 582 583 584 585 586 587 588 589 590 591 592 593 594 595 596 597 598 599 600 601 602 603 604 605 606 607 608 609 610 611 612 613 614 615 616 617 618 619 620 621 622 623 624 625 626 627 628 629 630 631 632 633 634 635 636 637 638 639 640 641 642 643 644 645 646 647 648 649 650 651 652 653 654 655 656 657 658 659 660 661 662 663 664 665 666 667 668 669 670 671 672 673 674 675 676 677 678 679 680 681 682 683 684 685 686 687 688 689 690 691 692 693 694 695 696 697 698 699 700 701 702 703 704 705 706 707 708 709 710 711 712 713 714 715 716 717 718 719 720 721 722 723 724 725 726 727 728 729 730 731 732 733 734 735 736 737 738 739 740 741 742 743 744 745 746 747 748 749 750 751 752 753 754 755 756 757 758 759 760 761 762 763 764 765 766 767 768 769 770 771 772 773 774 775 776 777 778 779 780 781 782 783 784 785 786 787 788 789 790 791 792 793 794 795 796 797 798 799 800 801 802 803 804 805 806 807 808 809 810 811 812 813 814 815 816 817 818 819 820 821 822 823 824 825 826 827 828 829 830 831 832 833 834 835 836 837 838 839 840 841 842 843 844 845 846 847 848 849 850 851 852 853 854 855 856 857 858 859 860 861 862 863 864 865 866 867 868 869 870 871 872 873 874 875 876 877 878 879 880 881 882 883 884 885 886 887 888 889 890 891 892 893 894 895 896 897 898 899 900 901 902 903 904 905 906 907 908 909 910 911 912 913 914 915 916 917 918 919 920 921 922 923 924 925 926 927 928 929 930 931 932 933 934 935 936 937 938 939 940 941 942 943 944 945 946 947 948 949 950 951 952 953 954 955 956 957 958 959 960 961 962 963 964 965 966 967 968 969 970 971 972 973 974 975 976 977 978 979 980 981 982 983 984 985 986 987 988 989 990 991 992 993 994 995 996 997 998 999 1000 1001 1002 1003 1004 1005 1006 1007 1008 1009 1010 1011 1012 1013 1014 1015 1016 1017 1018 1019 1020 1021 1022 1023 1024 1025 1026 1027 1028 1029 1030 1031 1032 1033 1034 1035 1036 1037 1038 1039 1040 1041 1042 1043 1044 1045 1046 1047 1048 1049 1050 1051 1052 1053 1054 1055 1056 1057 1058 1059 1060 1061 1062 1063 1064 1065 1066 1067 1068 1069 1070 1071 1072 1073 1074 1075 1076 1077 1078 1079 1080 1081 1082 1083 1084 1085 1086 1087 1088 1089 1090 1091 1092 1093 1094 1095 1096 1097 1098 1099 1100 1101 1102 1103 1104 1105 1106 1107 1108 1109 1110 1111 1112 1113 1114 1115 1116 1117 1118 1119 1120 1121 1122 1123 1124 1125 1126 1127 1128 1129 1130 1131 1132 1133 1134 1135 1136 1137 1138 1139 1140 1141 1142 1143 1144 1145 1146 1147 1148 1149 1150 1151 1152 1153 1154 1155 1156 1157 1158 1159 1160 1161 1162 1163 1164 1165 1166 1167 1168 1169 1170 1171 1172 1173 1174 1175 1176 1177 1178 1179 1180 1181 1182 1183 1184 1185 1186 1187 1188 1189 1190 1191 1192 1193 1194 1195 1196 1197 1198 1199 1200 1201 1202 1203 1204 1205 1206 1207 1208 1209 1210 1211 1212 1213 1214 1215 1216 1217 1218 1219 1220 1221 1222 1223 1224 1225 1226 1227 1228 1229 1230 1231 1232 1233 1234 1235 1236 1237 1238 1239 1240 1241 1242 1243 1244 1245 1246 1247 1248 1249 1250 1251 1252 1253 1254 1255 1256 1257 1258 1259 1260 1261 1262 1263 1264 1265 1266 1267 1268 1269 1270 1271 1272 1273 1274 1275 1276 1277 1278 1279 1280 1281 1282 1283 1284 1285 1286 1287 1288 1289 1290 1291 1292 1293 1294 1295 1296 1297 1298 1299 1300 1301 1302 1303 1304 1305 1306 1307 1308 1309 1310 1311 1312 1313 1314 1315 1316 1317 1318 1319 1320 1321 1322 1323 1324 1325 1326 1327 1328 1329 1330 1331 1332 1333 1334 1335 1336 1337 1338 1339 1340 1341 1342 1343 1344 1345 1346 1347 1348 1349 1350 1351 1352 1353 1354 1355 1356 1357 1358 1359 1360 1361 1362 1363 1364 1365 1366 1367 1368 1369 1370 1371 1372 1373 1374 1375 1376 1377 1378 1379 1380 1381 1382 1383 1384 1385 1386 1387 1388 1389 1390 1391 1392 1393 1394 1395 1396 1397 1398 1399 1400 1401 1402 1403 1404 1405 1406 1407 1408 1409 1410 1411 1412 1413 1414 1415 1416 1417 1418 1419 1420 1421 1422 1423 1424 1425 1426 1427 1428 1429 1430 1431 1432 1433 1434 1435 1436 1437 1438 1439 1440 1441 1442 1443 1444 1445 1446 1447 1448 1449 1450 1451 1452 1453 1454 1455 1456 1457 1458 1459 1460 1461 1462 1463 1464 1465 1466 1467 1468 1469 1470 1471 1472 1473 1474 1475 1476 1477 1478 1479 1480 1481 1482 1483 1484 1485 1486 1487 1488 1489 1490 1491 1492 1493 1494 1495 1496 1497 1498 1499 1500 1501 1502 1503 1504 1505 1506 1507 1508 1509 1510 1511 1512 1513 1514 1515 1516 1517 1518 1519 1520 1521 1522 1523 1524 1525 1526 1527 1528 1529 1530 1531 1532 1533 1534 1535 1536 1537 1538 1539 1540 1541 1542 1543 1544 1545 1546 1547 1548 1549 1550 1551 1552 1553 1554 1555 1556 1557 1558 1559 1560 1561 1562 1563 1564 1565 1566 1567 1568 1569 1570 1571 1572 1573 1574 1575 1576 1577 1578 1579 1580 1581 1582 1583 1584 1585 1586 1587 1588 1589 1590 1591 1592 1593 1594 1595 1596 1597 1598 1599 1600 1601 1602 1603 1604 1605 1606 1607 1608 1609 1610 1611 1612 1613 1614 1615 1616 1617 1618 1619 1620 1621 1622 1623 1624 1625 1626 1627 1628 1629 1630 1631 1632 1633 1634 1635 1636 1637 1638 1639 1640 1641 1642 1643 1644 1645 1646 1647 1648 1649 1650 1651 1652 1653 1654 1655 1656 1657 1658 1659 1660 1661 1662 1663 1664 1665 1666 1667 1668 1669 1670 1671 1672 1673 1674 1675 1676 1677 1678 1679 1680 1681 1682 1683 1684 1685 1686 1687 1688 1689 1690 1691 1692 1693 1694 1695 1696 1697 1698 1699 1700 1701 1702 1703 1704 1705 1706 1707 1708 1709 1710 1711 1712 1713 1714 1715 1716 1717 1718 1719 1720 1721 1722 1723 1724 1725 1726 1727 1728 1729 1730 1731 1732 1733 1734 1735 1736 1737 1738 1739 1740 1741 1742 1743 1744 1745 1746 1747 1748 1749 1750 1751 1752 1753 1754 1755 1756 1757 1758 1759 1760 1761 1762 1763 1764 1765 1766 1767 1768 1769 1770 1771 1772 1773 1774 1775 1776 1777 1778 1779 1780 1781 1782 1783 1784 1785 1786 1787 1788 1789 1790 1791 1792 1793 1794 1795 1796 1797 1798 1799 1800 1801 1802 1803 1804 1805 1806 1807 1808 1809 1810 1811 1812 1813 1814 1815 1816 1817 1818 1819 1820 1821 1822 1823 1824 1825 1826 1827 1828 1829 1830 1831 1832 1833 1834 1835 1836 1837 1838 1839 1840 1841 1842 1843 1844 1845 1846 1847 1848 1849 1850 1851 1852 1853 1854 1855 1856 1857 1858 1859 1860 1861 1862 1863 1864 1865 1866 1867 1868 1869 1870 1871 1872 1873 1874 1875 1876 1877 1878 1879 1880 1881 1882 1883 1884 1885 1886 1887 1888 1889 1890 1891 1892 1893 1894 1895 1896 1897 1898 1899 1900 1901 1902 1903 1904 1905 1906 1907 1908 1909 1910 1911 1912 1913 1914 1915 1916 1917 1918 1919 1920 1921 1922 1923 1924 1925 1926 1927 1928 1929 1930 1931 1932 1933 1934 1935 1936 1937 1938 1939 1940 1941 1942 1943 1944 1945 1946 1947 1948 1949 1950 1951 1952 1953 1954 1955 1956 1957 1958 1959 1960 1961 1962 1963 1964 1965 1966 1967 1968 1969 1970 1971 1972 1973 1974 1975 1976 1977 1978 1979 1980 1981 1982 1983 1984 1985 1986 1987 1988 1989 1990 1991 1992 1993 1994 1995 1996 1997 1998 1999 2000 2001 2002 2003 2004 2005 2006 2007 2008 2009 2010 2011 2012 2013 2014 2015 2016 2017 2018 2019 2020 2021 2022 2023 2024 2025 2026 2027 2028 2029 2030 2031 2032 2033 2034 2035 2036 2037 2038 2039 2040 2041 2042 2043 2044 2045 2046 2047 2048 2049 2050 2051 2052 2053 2054 2055 2056 2057 2058 2059 2060 2061 2062 2063 2064 2065 2066 2067 2068 2069 2070 2071 2072 2073 2074 2075 2076 2077 2078 2079 2080 2081 2082 2083 2084 2085 2086 2087 2088 2089 2090 2091 2092 2093 2094 2095 2096 2097 2098 2099 2100 2101 2102 2103 2104 2105 2106 2107 2108 2109 2110 2111 2112 2113 2114 2115 2116 2117 2118 2119 2120 2121 2122 2123 2124 2125 2126 2127 2128 2129 2130 2131 2132 2133 2134 2135 2136 2137 2138 2139 2140 2141 2142 2143 2144 2145 2146 2147 2148 2149 2150 2151 2152 2153 2154 2155 2156 2157 2158 2159 2160 2161 2162 2163 2164 2165 2166 2167 2168 2169 2170 2171 2172 2173 2174 2175 2176 2177 2178 2179 2180 2181 2182 2183 2184 2185 2186 2187 2188 2189 2190 2191 2192 2193 2194 2195 2196 2197 2198 2199 2200 2201 2202 2203 2204 2205 2206 2207 2208 2209 2210 2211 2212 2213 2214 2215 2216 2217 2218 2219 2220 2221 2222 2223 2224 2225 2226 2227 2228 2229 2230 2231 2232 2233 2234 2235 2236 2237 2238 2239 2240 2241 2242 2243 2244 2245 2246 2247 2248 2249 2250 2251 2252 2253 2254 2255 2256 2257 2258 2259 2260 2261 2262 2263 2264 2265 2266 2267 2268 2269 2270 2271 2272 2273 2274 2275 2276 2277 2278 2279 2280 2281 2282 2283 2284 2285 2286 2287 2288 2289 2290 2291 2292 2293 2294 2295 2296 2297 2298 2299 2300 2301 2302 2303 2304 2305 2306 2307 2308 2309 2310 2311 2312 2313 2314 2315 2316 2317 2318 2319 2320 2321 2322 2323 2324 2325 2326 2327 2328 2329 2330 2331 2332 2333 2334 2335 2336 2337 2338 2339 2340 2341 2342 2343 2344 2345 2346 2347 2348 2349 2350 2351 2352 2353 2354 2355 2356 2357 2358 2359 2360 2361 2362 2363 2364 2365 2366 2367 2368 2369 2370 2371 2372 2373 2374 2375 2376 2377 2378 2379 2380 2381 2382 2383 2384 2385 2386 2387 2388 2389 2390 2391 2392 2393 2394 2395 2396 2397 2398 2399 2400 2401 2402 2403 2404 2405 2406 2407 2408 2409 2410 2411 2412 2413 2414 2415 2416 2417 2418 2419 2420 2421 2422 2423 2424 2425 2426 2427 2428 2429 2430 2431 2432 2433 2434 2435 2436 2437 2438 2439 2440 2441 2442 2443 2444 2445 2446 2447 2448 2449 2450 2451 2452 2453 2454 2455 2456 2457 2458 2459 2460 2461 2462 2463 2464 2465 2466 2467 2468 2469 2470 2471 2472 2473 2474 2475 2476 2477 2478 2479 2480 2481 2482 2483 2484 2485 2486 2487 2488 2489 2490 2491 2492 2493 2494 2495 2496 2497 2498 2499 2500 2501 2502 2503 2504 2505 2506 2507 2508 2509 2510 2511 2512 2513 2514 2515 2516 2517 2518 2519 2520 2521 2522 2523 2524 2525 2526 2527 2528 2529 2530 2531 2532 2533 2534 2535 2536 2537 2538 2539 2540 2541 2542 2543 2544 2545 2546 2547 2548 2549 2550 2551 2552 2553 2554 2555 2556 2557 2558 2559 2560 2561 2562 2563 2564 2565 2566 2567 2568 2569 2570 2571 2572 2573 2574 2575 2576 2577 2578 2579 2580 2581 2582 2583 2584 2585 2586 2587 2588 2589 2590 2591 2592 2593 2594 2595 2596 2597 2598 2599 2600 2601 2602 2603 2604 2605 2606 2607 2608 2609 2610 2611 2612 2613 2614 2615 2616 2617 2618 2619 2620 2621 2622 2623 2624 2625 2626 2627 2628 2629 2630 2631 2632 2633 2634 2635 2636 2637 2638 2639 2640 2641 2642 2643 2644 2645 2646 2647 2648 2649 2650 2651 2652 2653 2654 2655 2656 2657 2658 2659 2660 2661 2662 2663 2664 2665 2666 2667 2668 2669 2670 2671 2672 2673 2674 2675 2676 2677 2678 2679 2680 2681 2682 2683 2684 2685 2686 2687 2688 2689 2690 2691 2692 2693 2694 2695 2696 2697 2698 2699 2700 2701 2702 2703 2704 2705 2706 2707 2708 2709 2710 2711 2712 2713 2714 2715 2716 2717 2718 2719 2720 2721 2722 2723 2724 2725 2726 2727 2728 2729 2730 2731 2732 2733 2734 2735 2736 2737 2738 2739 2740 2741 2742 2743 2744 2745 2746 2747 2748 2749 2750 2751 2752 2753 2754 2755 2756 2757 2758 2759 2760 2761 2762 2763 2764 2765 2766 2767 2768 2769 2770 2771 2772 2773 2774 2775 2776 2777 2778 2779 2780 2781 2782 2783 2784 2785 2786 2787 2788 2789 2790 2791 2792 2793 2794 2795 2796 2797 2798 2799 2800 2801 2802 2803 2804 2805 2806 2807 2808 2809 2810 2811 2812 2813 2814 2815 2816 2817 2818 2819 2820 2821 2822 2823 2824 2825 2826 2827 2828 2829 2830 2831 2832 2833 2834 2835 2836 2837 2838 2839 2840 2841 2842 2843 2844 2845 2846 2847 2848 2849 2850 2851 2852 2853 2854 2855 2856 2857 2858 2859 2860 2861 2862 2863 2864 2865 2866 2867 2868 2869 2870 2871 2872 2873 2874 2875 2876 2877 2878 2879 2880 2881 2882 2883 2884 2885 2886 2887 2888 2889 2890 2891 2892 2893 2894 2895 2896 2897 2898 2899 2900 2901 2902 2903 2904 2905 2906 2907 2908 2909 2910 2911 2912 2913 2914 2915 2916 2917 2918 2919 2920 2921 2922 2923 2924 2925 2926 2927 2928 2929 2930 2931 2932 2933 2934 2935 2936 2937 2938 2939 2940 2941 2942 2943 2944 2945 2946 2947 2948 2949 2950 2951 2952 2953 2954 2955 2956 2957 2958 2959 2960 2961 2962 2963 2964 2965 2966 2967 2968 2969 2970 2971 2972 2973 2974 2975 2976 2977 2978 2979 2980 2981 2982 2983 2984 2985 2986 2987 2988 2989 2990 2991 2992 2993 2994 2995 2996 2997 2998 2999 3000 3001 3002 3003 3004 3005 3006 3007 3008 3009 3010 3011 3012 3013 3014 3015 3016 3017 3018 3019 3020 3021 3022 3023 3024 3025 3026 3027 3028 3029 3030 3031 3032 3033 3034 3035 3036 3037 3038 3039 3040 3041 3042 3043 3044 3045 3046 3047 3048 3049 3050 3051 3052 3053 3054 3055 3056 3057 3058 3059 3060 3061 3062 3063 3064 3065 3066 3067 3068 3069 3070 3071 3072 3073 3074 3075 3076 3077 3078 3079 3080 3081 3082 3083 3084 3085 3086 3087 3088 3089 3090 3091 3092 3093 3094 3095 3096 3097 3098 3099 3100 3101 3102 3103 3104 3105 3106 3107 3108 3109 3110 3111 3112 3113 3114 3115 3116 3117 3118 3119 3120 3121 3122 3123 3124 3125 3126 3127 3128 3129 3130 3131 3132 3133 3134 3135 3136 3137 3138 3139 3140 3141 3142 3143 3144 3145 3146 3147 3148 3149 3150 3151 3152 3153 3154 3155 3156 3157 3158 3159 3160 3161 3162 3163 3164 3165 3166 3167 3168 3169 3170 3171 3172 3173 3174 3175 3176 3177 3178 3179 3180 3181 3182 3183 3184 3185 3186 3187 3188 3189 3190 3191 3192 3193 3194 3195 3196 3197 3198 3199 3200 3201 3202 3203 3204 3205 3206 3207 3208 3209 3210 3211 3212 3213 3214 3215 3216 3217 3218 3219 3220 3221 3222 3223 3224 3225 3226 3227 3228 3229 3230 3231 3232 3233 3234 3235 3236 3237 3238 3239 3240 3241 3242 3243 3244 3245 3246 3247 3248 3249 3250 3251 3252 3253 3254 3255 3256 3257 3258 3259 3260 3261 3262 3263 3264 3265 3266 3267 3268 3269 3270 3271 3272 3273 3274 3275 3276 3277 3278 3279 3280 3281 3282 3283 3284 3285 3286 3287 3288 3289 3290 3291 3292 3293 3294 3295 3296 3297 3298 3299 3300 3301 3302 3303 3304 3305 3306 3307 3308 3309 3310 3311 3312 3313 3314 3315 3316 3317 3318 3319 3320 3321 3322 3323 3324 3325 3326 3327 3328 3329 3330 3331 3332 3333 3334 3335 3336 3337 3338 3339 3340 3341 3342 3343 3344 3345 3346 3347 3348 3349 3350 3351 3352 3353 3354 3355 3356 3357 3358 3359 3360 3361 3362 3363 3364 3365 3366 3367 3368 3369 3370 3371 3372 3373 3374 3375 3376 3377 3378 3379 3380 3381 3382 3383 3384 3385 3386 3387 3388 3389 3390 3391 3392 3393 3394 3395 3396 3397 3398 3399 3400 3401 3402 3403 3404 3405 3406 3407 3408 3409 3410 3411 3412 3413 3414 3415 3416 3417 3418 3419 3420 3421 3422 3423 3424 3425 3426 3427 3428 3429 3430 3431 3432 3433 3434 3435 3436 3437 3438 3439 3440 3441 3442 3443 3444 3445 3446 3447 3448 3449 3450 3451 3452 3453 3454 3455 3456 3457 3458 3459 3460 3461 3462 3463 3464 3465 3466 3467 3468 3469 3470 3471 3472 3473 3474 3475 3476 3477 3478 3479 3480 3481 3482 3483 3484 3485 3486 3487 3488 3489 3490 3491 3492 3493 3494 3495 3496 3497 3498 3499 3500 3501 3502 3503 3504 3505 3506 3507 3508 3509 3510 3511 3512 3513 3514 3515 3516 3517 3518 3519 3520 3521 3522 3523 3524 3525 3526 3527 3528 3529 3530 3531 3532 3533 3534 3535 3536 3537 3538 3539 3540 3541 3542 3543 3544 3545 3546 3547 3548 3549 3550 3551 3552 3553 3554 3555 3556 3557 3558 3559 3560 3561 3562 3563 3564 3565 3566 3567 3568 3569 3570 3571 3572 3573 3574 3575 3576 3577 3578 3579 3580 3581 3582 3583 3584 3585 3586 3587 3588 3589 3590 3591 3592 3593 3594 3595 3596 3597 3598 3599 3600 3601 3602 3603 3604 3605 3606 3607 3608 3609 3610 3611 3612 3613 3614 3615 3616 3617 3618 3619 3620 3621 3622 3623 3624 3625 3626 3627 3628 3629 3630 3631 3632 3633 3634 3635 3636 3637 3638 3639 3640 3641 3642 3643 3644 3645 3646 3647 3648 3649 3650 3651 3652 3653 3654 3655 3656 3657 3658 3659 3660 3661 3662 3663 3664 3665 3666 3667 3668 3669 3670 3671 3672 3673 3674 3675 3676 3677 3678 3679 3680 3681 3682 3683 3684 3685 3686 3687 3688 3689 3690 3691 3692 3693 3694 3695 3696 3697 3698 3699 3700 3701 3702 3703 3704 3705 3706 3707 3708 3709 3710 3711 3712 3713 3714 3715 3716 3717 3718 3719 3720 3721 3722 3723 3724 3725 3726 3727 3728 3729 3730 3731 3732 3733 3734 3735 3736 3737 3738 3739 3740 3741 3742 3743 3744 3745 3746 3747 3748 3749 3750 3751 3752 3753 3754 3755 3756 3757 3758 3759 3760 3761 3762 3763 3764 3765 3766 3767 3768 3769 3770 3771 3772 3773 3774 3775 3776 3777 3778 3779 3780 3781 3782 3783 3784 3785 3786 3787 3788 3789 3790 3791 3792 3793 3794 3795 3796 3797 3798 3799 3800 3801 3802 3803 3804 3805 3806 3807 3808 3809 3810 3811 3812 3813 3814 3815 3816 3817 3818 3819 3820 3821 3822 3823 3824 3825 3826 3827 3828 3829 3830 3831 3832 3833 3834 3835 3836 3837 3838 3839 3840 3841 3842 3843 3844 3845 3846 3847 3848 3849 3850 3851 3852 3853 3854 3855 3856 3857 3858 3859 3860 3861 3862 3863 3864 3865 3866 3867 3868 3869 3870 3871 3872 3873 3874 3875 3876 3877 3878 3879 3880 3881 3882 3883 3884 3885 3886 3887 3888 3889 3890 3891 3892 3893 3894 3895 3896 3897 3898 3899 3900 3901 3902 3903 3904 3905 3906 3907 3908 3909 3910 3911 3912 3913 3914 3915 3916 3917 3918 3919 3920 3921 3922 3923 3924 3925 3926 3927 3928 3929 3930 3931 3932 3933 3934 3935 3936 3937 3938 3939 3940 3941 3942 3943 3944 3945 3946 3947 3948 3949 3950 3951 3952 3953 3954 3955 3956 3957 3958 3959 3960 3961 3962 3963 3964 3965 3966 3967 3968 3969 3970 3971 3972 3973 3974 3975 3976 3977 3978 3979 3980 3981 3982 3983 3984 3985 3986 3987 3988 3989 3990 3991 3992 3993 3994 3995 3996 3997 3998 3999 4000 4001 4002 4003 4004 4005 4006 4007 4008 4009 4010 4011 4012 4013 4014 4015 4016 4017 4018 4019 4020 4021 4022 4023 4024 4025 4026 4027 4028 4029 4030 4031 4032 4033 4034 4035 4036 4037 4038 4039 4040 4041 4042 4043 4044 4045 4046 4047 4048 4049 4050 4051 4052 4053 4054 4055 4056 4057 4058 4059 4060 4061 4062 4063 4064 4065 4066 4067 4068 4069 4070 4071 4072 4073 4074 4075 4076 4077 4078 4079 4080 4081 4082 4083 4084 4085 4086 4087 4088 4089 4090 4091 4092 4093 4094 4095 4096 4097 4098 4099 4100 4101 4102 4103 4104 4105 4106 4107 4108 4109 4110 4111 4112 4113 4114 4115 4116 4117 4118 4119 4120 4121 4122 4123 4124 4125 4126 4127 4128 4129 4130 4131 4132 4133 4134 4135 4136 4137 4138 4139 4140 4141 4142 4143 4144 4145 4146 4147 4148 4149 4150 4151 4152 4153 4154 4155 4156 4157 4158 4159 4160 4161 4162 4163 4164 4165 4166 4167 4168 4169 4170 4171 4172 4173 4174 4175 4176 4177 4178 4179 4180 4181 4182 4183 4184 4185 4186 4187 4188 4189 4190 4191 4192 4193 4194 4195 4196 4197 4198 4199 4200 4201 4202 4203 4204 4205 4206 4207 4208 4209 4210 4211 4212 4213 4214 4215 4216 4217 4218 4219 4220 4221 4222 4223 4224 4225 4226 4227 4228 4229 4230 4231 4232 4233 4234 4235 4236 4237 4238 4239 4240 4241 4242 4243 4244 4245 4246 4247 4248 4249 4250 4251 4252 4253 4254 4255 4256 4257 4258 4259 4260 4261 4262 4263 4264 4265 4266 4267 4268 4269 4270 4271 4272 4273 4274 4275 4276 4277 4278 4279 4280 4281 4282 4283 4284 4285 4286 4287 4288 4289 4290 4291 4292 4293 4294 4295 4296 4297 4298 4299 4300 4301 4302 4303 4304 4305 4306 4307 4308 4309 4310 4311 4312 4313 4314 4315 4316 4317 4318 4319 4320 4321 4322 4323 4324 4325 4326 4327 4328 4329 4330 4331 4332 4333 4334 4335 4336 4337 4338 4339 4340 4341 4342 4343 4344 4345 4346 4347 4348 4349 4350 4351 4352 4353 4354 4355 4356 4357 4358 4359 4360 4361 4362 4363 4364 4365 4366 4367 4368 4369 4370 4371 4372 4373 4374 4375 4376 4377 4378 4379 4380 4381 4382 4383 4384 4385 4386 4387 4388 4389 4390 4391 4392 4393 4394 4395 4396 4397 4398 4399 4400 4401 4402 4403 4404 4405 4406 4407 4408 4409 4410 4411 4412 4413 4414 4415 4416 4417 4418 4419 4420 4421 4422 4423 4424 4425 4426 4427 4428 4429 4430 4431 4432 4433 4434 4435 4436 4437 4438 4439 4440 4441 4442 4443 4444 4445 4446 4447 4448 4449 4450 4451 4452 4453 4454 4455 4456 4457 4458 4459 4460 4461 4462 4463 4464 4465 4466 4467 4468 4469 4470 4471 4472 4473 4474 4475 4476 4477 4478 4479 4480 4481 4482 4483 4484 4485 4486 4487 4488 4489 4490 4491 4492 4493 4494 4495 4496 4497 4498 4499 4500 4501 4502 4503 4504 4505 4506 4507 4508 4509 4510 4511 4512 4513 4514 4515 4516 4517 4518 4519 4520 4521 4522 4523 4524 4525 4526 4527 4528 4529 4530 4531 4532 4533 4534 4535 4536 4537 4538 4539 4540 4541 4542 4543 4544 4545 4546 4547 4548 4549 4550 4551 4552 4553 4554 4555 4556 4557 4558 4559 4560 4561 4562 4563 4564 4565 4566 4567 4568 4569 4570 4571 4572 4573 4574 4575 4576 4577 4578 4579 4580 4581 4582 4583 4584 4585 4586 4587 4588 4589 4590 4591 4592 4593 4594 4595 4596 4597 4598 4599 4600 4601 4602 4603 4604 4605 4606 4607 4608 4609 4610 4611 4612 4613 4614 4615 4616 4617 4618 4619 4620 4621 4622 4623 4624 4625 4626 4627 4628 4629 4630 4631 4632 4633 4634 4635 4636 4637 4638 4639 4640 4641 4642 4643 4644 4645 4646 4647 4648 4649 4650 4651 4652 4653 4654 4655 4656 4657 4658 4659 4660 4661 4662 4663 4664 4665 4666 4667 4668 4669 4670 4671 4672 4673 4674 4675 4676 4677 4678 4679 4680 4681 4682 4683 4684 4685 4686 4687 4688 4689 4690 4691 4692 4693 4694 4695 4696 4697 4698 4699 4700 4701 4702 4703 4704 4705 4706 4707 4708 4709 4710 4711 4712 4713 4714 4715 4716 4717 4718 4719 4720 4721 4722 4723 4724 4725 4726 4727 4728 4729 4730 4731 4732 4733 4734 4735 4736 4737 4738 4739 4740 4741 4742 4743 4744 4745 4746 4747 4748 4749 4750 4751 4752 4753 4754 4755 4756 4757 4758 4759 4760 4761 4762 4763 4764 4765 4766 4767 4768 4769 4770 4771 4772 4773 4774 4775 4776 4777 4778 4779 4780 4781 4782 4783 4784 4785 4786 4787 4788 4789 4790 4791 4792 4793 4794 4795 4796 4797 4798 4799 4800 4801 4802 4803 4804 4805 4806 4807 4808 4809 4810 4811 4812 4813 4814 4815 4816 4817 4818 4819 4820 4821 4822 4823 4824 4825 4826 4827 4828 4829 4830 4831 4832 4833 4834 4835 4836 4837 4838 4839 4840 4841 4842 4843 4844 4845 4846 4847 4848 4849 4850 4851 4852 4853 4854 4855 4856 4857 4858 4859 4860 4861 4862 4863 4864 4865 4866 4867 4868 4869 4870 4871 4872 4873 4874 4875 4876 4877 4878 4879 4880 4881 4882 4883 4884 4885 4886 4887 4888 4889 4890 4891 4892 4893 4894 4895 4896 4897 4898 4899 4900 4901 4902 4903 4904 4905 4906 4907 4908 4909 4910 4911 4912 4913 4914 4915 4916 4917 4918 4919 4920 4921 4922 4923 4924 4925 4926 4927 4928 4929 4930 4931 4932 4933 4934 4935 4936 4937 4938 4939 4940 4941 4942 4943 4944 4945 4946 4947 4948 4949 4950 4951 4952 4953 4954 4955 4956 4957 4958 4959 4960 4961 4962 4963 4964 4965 4966 4967 4968 4969 4970 4971 4972 4973 4974 4975 4976 4977 4978 4979 4980 4981 4982 4983 4984 4985 4986 4987 4988 4989 4990 4991 4992 4993 4994 4995 4996 4997 4998 4999 5000 5001 5002 5003 5004 5005 5006 5007 5008 5009 5010 5011 5012 5013 5014 5015 5016 5017 5018 5019 5020 5021 5022 5023 5024 5025 5026 5027 5028 5029 5030 5031 5032 5033 5034 5035 5036 5037 5038 5039 5040 5041 5042 5043 5044 5045 5046 5047 5048 5049 5050 5051 5052 5053 5054 5055 5056 5057 5058 5059 5060 5061 5062 5063 5064 5065 5066 5067 5068 5069 5070 5071 5072 5073 5074 5075 5076 5077 5078 5079 5080 5081 5082 5083 5084 5085 5086 5087 5088 5089 5090 5091 5092 5093 5094 5095 5096 5097 5098 5099 5100 5101 5102 5103 5104 5105 5106 5107 5108 5109 5110 5111 5112 5113 5114 5115 5116 5117 5118 5119 5120 5121 5122 5123 5124 5125 5126 5127 5128 5129 5130 5131 5132 5133 5134 5135 5136 5137 5138 5139 5140 5141 5142 5143 5144 5145 5146 5147 5148 5149 5150 5151 5152 5153 5154 5155 5156 5157 5158 5159 5160 5161 5162 5163 5164 5165 5166 5167 5168 5169 5170 5171 5172 5173 5174 5175 5176 5177 5178 5179 5180 5181 5182 5183 5184 5185 5186 5187 5188 5189 5190 5191 5192 5193 5194 5195 5196 5197 5198 5199 5200 5201 5202 5203 5204 5205 5206 5207 5208 5209 5210 5211 5212 5213 5214 5215 5216 5217 5218 5219 5220 5221 5222 5223 5224 5225 5226 5227 5228 5229 5230 5231 5232 5233 5234 5235 5236 5237 5238 5239 5240 5241 5242 5243 5244 5245 5246 5247 5248 5249 5250 5251 5252 5253 5254 5255 5256 5257 5258 5259 5260 5261 5262 5263 5264 5265 5266 5267 5268 5269 5270 5271 5272 5273 5274 5275 5276 5277 5278 5279 5280 5281 5282 5283 5284 5285 5286 5287 5288 5289 5290 5291 5292 5293 5294 5295 5296 5297 5298 5299 5300 5301 5302 5303 5304 5305 5306 5307 5308 5309 5310 5311 5312 5313 5314 5315 5316 5317 5318 5319 5320 5321 5322 5323 5324 5325 5326 5327 5328 5329 5330 5331 5332 5333 5334 5335 5336 5337 5338 5339 5340 5341 5342 5343 5344 5345 5346 5347 5348 5349 5350 5351 5352 5353 5354 5355 5356 5357 5358 5359 5360 5361 5362 5363 5364 5365 5366 5367 5368 5369 5370 5371 5372 5373 5374 5375 5376 5377 5378 5379 5380 5381 5382 5383 5384 5385 5386 5387 5388 5389 5390 5391 5392 5393 5394 5395 5396 5397 5398 5399 5400 5401 5402 5403 5404 5405 5406 5407 5408 5409 5410 5411 5412 5413 5414 5415 5416 5417 5418 5419 5420 5421 5422 5423 5424 5425 5426 5427 5428 5429 5430 5431 5432 5433 5434 5435 5436 5437 5438 5439 5440 5441 5442 5443 5444 5445 5446 5447 5448 5449 5450 5451 5452 5453 5454 5455 5456 5457 5458 5459 5460 5461 5462 5463 5464 5465 5466 5467 5468 5469 5470 5471 5472 5473 5474 5475 5476 5477 5478 5479 5480 5481 5482 5483 5484 5485 5486 5487 5488 5489 5490 5491 5492 5493 5494 5495 5496 5497 5498 5499 5500 5501 5502 5503 5504 5505 5506 5507 5508 5509 5510 5511 5512 5513 5514 5515 5516 5517 5518 5519 5520 5521 5522 5523 5524 5525 5526 5527 5528 5529 5530 5531 5532 5533 5534 5535 5536 5537 5538 5539 5540 5541 5542 5543 5544 5545 5546 5547 5548 5549 5550 5551 5552 5553 5554 5555 5556 5557 5558 5559 5560 5561 5562 5563 5564 5565 5566 5567 5568 5569 5570 5571 5572 5573 5574 5575 5576 5577 5578 5579 5580 5581 5582 5583 5584 5585 5586 5587 5588 5589 5590 5591 5592 5593 5594 5595 5596 5597 5598 5599 5600 5601 5602 5603 5604 5605 5606 5607 5608 5609 5610 5611 5612 5613 5614 5615 5616 5617 5618 5619 5620 5621 5622 5623 5624 5625 5626 5627 5628 5629 5630 5631 5632 5633 5634 5635 5636 5637 5638 5639 5640 5641 5642 5643 5644 5645 5646 5647 5648 5649 5650 5651 5652 5653 5654 5655 5656 5657 5658 5659 5660 5661 5662 5663 5664 5665 5666 5667 5668 5669 5670 5671 5672 5673 5674 5675 5676 5677 5678 5679 5680 5681 5682 5683 5684 5685 5686 5687 5688 5689 5690 5691 5692 5693 5694 5695 5696 5697 5698 5699 5700 5701 5702 5703 5704 5705 5706 5707 5708 5709 5710 5711 5712 5713 5714 5715 5716 5717 5718 5719 5720 5721 5722 5723 5724 5725 5726 5727 5728 5729 5730 5731 5732 5733 5734 5735 5736 5737 5738 5739 5740 5741 5742 5743 5744 5745 5746 5747 5748 5749 5750 5751 5752 5753 5754 5755 5756 5757 5758 5759 5760 5761 5762 5763 5764 5765 5766 5767 5768 5769 5770 5771 5772 5773 5774 5775 5776 5777 5778 5779 5780 5781 5782 5783 5784 5785 5786 5787 5788 5789 5790 5791 5792 5793 5794 5795 5796 5797 5798 5799 5800 5801 5802 5803 5804 5805 5806 5807 5808 5809 5810 5811 5812 5813 5814 5815 5816 5817 5818 5819 5820 5821 5822 5823 5824 5825 5826 5827 5828 5829 5830 5831 5832 5833 5834 5835 5836 5837 5838 5839 5840 5841 5842 5843 5844 5845 5846 5847 5848 5849 5850 5851 5852 5853 5854 5855 5856 5857 5858 5859 5860 5861 5862 5863 5864 5865 5866 5867 5868 5869 5870 5871 5872 5873 5874 5875 5876 5877 5878 5879 5880 5881 5882 5883 5884 5885 5886 5887 5888 5889 5890 5891 5892 5893 5894 5895 5896 5897 5898 5899 5900 5901 5902 5903 5904 5905 5906 5907 5908 5909 5910 5911 5912 5913 5914 5915 5916 5917 5918 5919 5920 5921 5922 5923 5924 5925 5926 5927 5928 5929 5930 5931 5932 5933 5934 5935 5936 5937 5938 5939 5940 5941 5942 5943 5944 5945 5946 5947 5948 5949 5950 5951 5952 5953 5954 5955 5956 5957 5958 5959 5960 5961 5962 5963 5964 5965 5966 5967 5968 5969 5970 5971 5972 5973 5974 5975 5976 5977 5978 5979 5980 5981 5982 5983 5984 5985 5986 5987 5988 5989 5990 5991 5992 5993 5994 5995 5996 5997 5998 5999 6000 6001 6002 6003 6004 6005 6006 6007 6008 6009 6010 6011 6012 6013 6014 6015 6016 6017 6018 6019 6020 6021 6022 6023 6024 6025 6026 6027 6028 6029 6030 6031 6032 6033 6034 6035 6036 6037 6038 6039 6040 6041 6042 6043 6044 6045 6046 6047 6048 6049 6050 6051 6052 6053 6054 6055 6056 6057 6058 6059 6060 6061 6062 6063 6064 6065 6066 6067 6068 6069 6070 6071 6072 6073 6074 6075 6076 6077 6078 6079 6080 6081 6082 6083 6084 6085 6086 6087 6088 6089 6090 6091 6092 6093 6094 6095 6096 6097 6098 6099 6100 6101 6102 6103 6104 6105 6106 6107 6108 6109 6110 6111 6112 6113 6114 6115 6116 6117 6118 6119 6120 6121 6122 6123 6124 6125 6126 6127 6128 6129 6130 6131 6132 6133 6134 6135 6136 6137 6138 6139 6140 6141 6142 6143 6144 6145 6146 6147 6148 6149 6150 6151 6152 6153 6154 6155 6156 6157 6158 6159 6160 6161 6162 6163 6164 6165 6166 6167 6168 6169 6170 6171 6172 6173 6174 6175 6176 6177 6178 6179 6180 6181 6182 6183 6184 6185 6186 6187 6188 6189 6190 6191 6192 6193 6194 6195 6196 6197 6198 6199 6200 6201 6202 6203 6204 6205 6206 6207 6208 6209 6210 6211 6212 6213 6214 6215 6216 6217 6218 6219 6220 6221 6222 6223 6224 6225 6226 6227 6228 6229 6230 6231 6232 6233 6234 6235 6236 6237 6238 6239 6240 6241 6242 6243 6244 6245 6246 6247 6248 6249 6250 6251 6252 6253 6254 6255 6256 6257 6258 6259 6260 6261 6262 6263 6264 6265 6266 6267 6268 6269 6270 6271 6272 6273 6274 6275 6276 6277 6278 6279 6280 6281 6282 6283 6284 6285 6286 6287 6288 6289 6290 6291 6292 6293 6294 6295 6296 6297 6298 6299 6300 6301 6302 6303 6304 6305 6306 6307 6308 6309 6310 6311 6312 6313 6314 6315 6316 6317 6318 6319 6320 6321 6322 6323 6324 6325 6326 6327 6328 6329 6330 6331 6332 6333 6334 6335 6336 6337 6338 6339 6340 6341 6342 6343 6344 6345 6346 6347 6348 6349 6350 6351 6352 6353 6354 6355 6356 6357 6358 6359 6360 6361 6362 6363 6364 6365 6366 6367 6368 6369 6370 6371 6372 6373 6374 6375 6376 6377 6378 6379 6380 6381 6382 6383 6384 6385 6386 6387 6388 6389 6390 6391 6392 6393 6394 6395 6396 6397 6398 6399 6400 6401 6402 6403 6404 6405 6406 6407 6408 6409 6410 6411 6412 6413 6414 6415 6416 6417 6418 6419 6420 6421 6422 6423 6424 6425 6426 6427 6428 6429 6430 6431 6432 6433 6434 6435 6436 6437 6438 6439 6440 6441 6442 6443 6444 6445 6446 6447 6448 6449 6450 6451 6452 6453 6454 6455 6456 6457 6458 6459 6460 6461 6462 6463 6464 6465 6466 6467 6468 6469 6470 6471 6472 6473 6474 6475 6476 6477 6478 6479 6480 6481 6482 6483 6484 6485 6486 6487 6488 6489 6490 6491 6492 6493 6494 6495 6496 6497 6498 6499 6500 6501 6502 6503 6504 6505 6506 6507 6508 6509 6510 6511 6512 6513 6514 6515 6516 6517 6518 6519 6520 6521 6522 6523 6524 6525 6526 6527 6528 6529 6530 6531 6532 6533 6534 6535 6536 6537 6538 6539 6540 6541 6542 6543 6544 6545 6546 6547 6548 6549 6550 6551 6552 6553 6554 6555 6556 6557 6558 6559 6560 6561 6562 6563 6564 6565 6566 6567 6568 6569 6570 6571 6572 6573 6574 6575 6576 6577 6578 6579 6580 6581 6582 6583 6584 6585 6586 6587 6588 6589 6590 6591 6592 6593 6594 6595 6596 6597 6598 6599 6600 6601 6602 6603 6604 6605 6606 6607 6608 6609 6610 6611 6612 6613 6614 6615 6616 6617 6618 6619 6620 6621 6622 6623 6624 6625 6626 6627 6628 6629 6630 6631 6632 6633 6634 6635 6636 6637 6638 6639 6640 6641 6642 6643 6644 6645 6646 6647 6648 6649 6650 6651 6652 6653 6654 6655 6656 6657 6658 6659 6660 6661 6662 6663 6664 6665 6666 6667 6668 6669 6670 6671 6672 6673 6674 6675 6676 6677 6678 6679 6680 6681 6682 6683 6684 6685 6686 6687 6688 6689 6690 6691 6692 6693 6694 6695 6696 6697 6698 6699 6700 6701 6702 6703 6704 6705 6706 6707 6708 6709 6710 6711 6712 6713 6714 6715 6716 6717 6718 6719 6720 6721 6722 6723 6724 6725 6726 6727 6728 6729 6730 6731 6732 6733 6734 6735 6736 6737 6738 6739 6740 6741 6742 6743 6744 6745 6746 6747 6748 6749 6750 6751 6752 6753 6754 6755 6756 6757 6758 6759 6760 6761 6762 6763 6764 6765 6766 6767 6768 6769 6770 6771 6772 6773 6774 6775 6776 6777 6778 6779 6780 6781 6782 6783 6784 6785 6786 6787 6788 6789 6790 6791 6792 6793 6794 6795 6796 6797 6798 6799 6800 6801 6802 6803 6804 6805 6806 6807 6808 6809 6810 6811 6812 6813 6814 6815 6816 6817 6818 6819 6820 6821 6822 6823 6824 6825 6826 6827 6828 6829 6830 6831 6832 6833 6834 6835 6836 6837 6838 6839 6840 6841 6842 6843 6844 6845 6846 6847 6848 6849 6850 6851 6852 6853 6854 6855 6856 6857 6858 6859 6860 6861 6862 6863 6864 6865 6866 6867 6868 6869 6870 6871 6872 6873 6874 6875 6876 6877 6878 6879 6880 6881 6882 6883 6884 6885 6886 6887 6888 6889 6890 6891 6892 6893 6894 6895 6896 6897 6898 6899 6900 6901 6902 6903 6904 6905 6906 6907 6908 6909 6910 6911 6912 6913 6914 6915 6916 6917 6918 6919 6920 6921 6922 6923 6924 6925 6926 6927 6928 6929 6930 6931 6932 6933 6934 6935 6936 6937 6938 6939 6940 6941 6942 6943 6944 6945 6946 6947 6948 6949 6950 6951 6952 6953 6954 6955 6956 6957 6958 6959 6960 6961 6962 6963 6964 6965 6966 6967 6968 6969 6970 6971 6972 6973 6974 6975 6976 6977 6978 6979 6980 6981 6982 6983 6984 6985 6986 6987 6988 6989 6990 6991 6992 6993 6994 6995 6996 6997 6998 6999 7000 7001 7002 7003 7004 7005 7006 7007 7008 7009 7010 7011 7012 7013 7014 7015 7016 7017 7018 7019 7020 7021 7022 7023 7024 7025 7026 7027 7028 7029 7030 7031 7032 7033 7034 7035 7036 7037 7038 7039 7040 7041 7042 7043 7044 7045 7046 7047 7048 7049 7050 7051 7052 7053 7054 7055 7056 7057 7058 7059 7060 7061 7062 7063 7064 7065 7066 7067 7068 7069 7070 7071 7072 7073 7074 7075 7076 7077 7078 7079 7080 7081 7082 7083 7084 7085 7086 7087 7088 7089 7090 7091 7092 7093 7094 7095 7096 7097 7098 7099 7100 7101 7102 7103 7104 7105 7106 7107 7108 7109 7110 7111 7112 7113 7114 7115 7116 7117 7118 7119 7120 7121 7122 7123 7124 7125 7126 7127 7128 7129 7130 7131 7132 7133 7134 7135 7136 7137 7138 7139 7140 7141 7142 7143 7144 7145 7146 7147 7148 7149 7150 7151 7152 7153 7154 7155 7156 7157 7158 7159 7160 7161 7162 7163 7164 7165 7166 7167 7168 7169 7170 7171 7172 7173 7174 7175 7176 7177 7178 7179 7180 7181 7182 7183 7184 7185 7186 7187 7188 7189 7190 7191 7192 7193 7194 7195 7196 7197 7198 7199 7200 7201 7202 7203 7204 7205 7206 7207 7208 7209 7210 7211 7212 7213 7214 7215 7216 7217 7218 7219 7220 7221 7222 7223 7224 7225 7226 7227 7228 7229 7230 7231 7232 7233 7234 7235 7236 7237 7238 7239 7240 7241 7242 7243 7244 7245 7246 7247 7248 7249 7250 7251 7252 7253 7254 7255 7256 7257 7258 7259 7260 7261 7262 7263 7264 7265 7266 7267 7268 7269 7270 7271 7272 7273 7274 7275 7276 7277 7278 7279 7280 7281 7282 7283 7284 7285 7286 7287 7288 7289 7290 7291 7292 7293 7294 7295 7296 7297 7298 7299 7300 7301 7302 7303 7304 7305 7306 7307 7308 7309 7310 7311 7312 7313 7314 7315 7316 7317 7318 7319 7320 7321 7322 7323 7324 7325 7326 7327 7328 7329 7330 7331 7332 7333 7334 7335 7336 7337 7338 7339 7340 7341 7342 7343 7344 7345 7346 7347 7348 7349 7350 7351 7352 7353 7354 7355 7356 7357 7358 7359 7360 7361 7362 7363 7364 7365 7366 7367 7368 7369 7370 7371 7372 7373 7374 7375 7376 7377 7378 7379 7380 7381 7382 7383 7384 7385 7386 7387 7388 7389 7390 7391 7392 7393 7394 7395 7396 7397 7398 7399 7400 7401 7402 7403 7404 7405 7406 7407 7408 7409 7410 7411 7412 7413 7414 7415 7416 7417 7418 7419 7420 7421 7422 7423 7424 7425 7426 7427 7428 7429 7430 7431 7432 7433 7434 7435 7436 7437 7438 7439 7440 7441 7442 7443 7444 7445 7446 7447 7448 7449 7450 7451 7452 7453 7454 7455 7456 7457 7458 7459 7460 7461 7462 7463 7464 7465 7466 7467 7468 7469 7470 7471 7472 7473 7474 7475 7476 7477 7478 7479 7480 7481 7482 7483 7484 7485 7486 7487 7488 7489 7490 7491 7492 7493 7494 7495 7496 7497 7498 7499 7500 7501 7502 7503 7504 7505 7506 7507 7508 7509 7510 7511 7512 7513 7514 7515 7516 7517 7518 7519 7520 7521 7522 7523 7524 7525 7526 7527 7528 7529 7530 7531 7532 7533 7534 7535 7536 7537 7538 7539 7540 7541 7542 7543 7544 7545 7546 7547 7548 7549 7550 7551 7552 7553 7554 7555 7556 7557 7558 7559 7560 7561 7562 7563 7564 7565 7566 7567 7568 7569 7570 7571 7572 7573 7574 7575 7576 7577 7578 7579 7580 7581 7582 7583 7584 7585 7586 7587 7588 7589 7590 7591 7592 7593 7594 7595 7596 7597 7598 7599 7600 7601 7602 7603 7604 7605 7606 7607 7608 7609 7610 7611 7612 7613 7614 7615 7616 7617 7618 7619 7620 7621 7622 7623 7624 7625 7626 7627 7628 7629 7630 7631 7632 7633 7634 7635 7636 7637 7638 7639 7640 7641 7642 7643 7644 7645 7646 7647 7648 7649 7650 7651 7652 7653 7654 7655 7656 7657 7658 7659 7660 7661 7662 7663 7664 7665 7666 7667 7668 7669 7670 7671 7672 7673 7674 7675 7676 7677 7678 7679 7680 7681 7682 7683 7684 7685 7686 7687 7688 7689 7690 7691 7692 7693 7694 7695 7696 7697 7698 7699 7700 7701 7702 7703 7704 7705 7706 7707 7708 7709 7710 7711 7712 7713 7714 7715 7716 7717 7718 7719 7720 7721 7722 7723 7724 7725 7726 7727 7728 7729 7730 7731 7732 7733 7734 7735 7736 7737 7738 7739 7740 7741 7742 7743 7744 7745 7746 7747 7748 7749 7750 7751 7752 7753 7754 7755 7756 7757 7758 7759 7760 7761 7762 7763 7764 7765 7766 7767 7768 7769 7770 7771 7772 7773 7774 7775 7776 7777 7778 7779 7780 7781 7782 7783 7784 7785 7786 7787 7788 7789 7790 7791 7792 7793 7794 7795 7796 7797 7798 7799 7800 7801 7802 7803 7804 7805 7806 7807 7808 7809 7810 7811 7812 7813 7814 7815 7816 7817 7818 7819 7820 7821 7822 7823 7824 7825 7826 7827 7828 7829 7830 7831 7832 7833 7834 7835 7836 7837 7838 7839 7840 7841 7842 7843 7844 7845 7846 7847 7848 7849 7850 7851 7852 7853 7854 7855 7856 7857 7858 7859 7860 7861 7862 7863 7864 7865 7866 7867 7868 7869 7870 7871 7872 7873 7874 7875 7876 7877 7878 7879 7880 7881 7882 7883 7884 7885 7886 7887 7888 7889 7890 7891 7892 7893 7894 7895 7896 7897 7898 7899 7900 7901 7902 7903 7904 7905 7906 7907 7908 7909 7910 7911 7912 7913 7914 7915 7916 7917 7918 7919 7920 7921 7922 7923 7924 7925 7926 7927 7928 7929 7930 7931 7932 7933 7934 7935 7936 7937 7938 7939 7940 7941 7942 7943 7944 7945 7946 7947 7948 7949 7950 7951 7952 7953 7954 7955 7956 7957 7958 7959 7960 7961 7962 7963 7964 7965 7966 7967 7968 7969 7970 7971 7972 7973 7974 7975 7976 7977 7978 7979 7980 7981 7982 7983 7984 7985 7986 7987 7988 7989 7990 7991 7992 7993 7994 7995 7996 7997 7998 7999 8000 8001 8002 8003 8004 8005 8006 8007 8008 8009 8010 8011 8012 8013 8014 8015 8016 8017 8018 8019 8020 8021 8022 8023 8024 8025 8026 8027 8028 8029 8030 8031 8032 8033 8034 8035 8036 8037 8038 8039 8040 8041 8042 8043 8044 8045 8046 8047 8048 8049 8050 8051 8052 8053 8054 8055 8056 8057 8058 8059 8060 8061 8062 8063 8064 8065 8066 8067 8068 8069 8070 8071 8072 8073 8074 8075 8076 8077 8078 8079 8080 8081 8082 8083 8084 8085 8086 8087 8088 8089 8090 8091 8092 8093 8094 8095 8096 8097 8098 8099 8100 8101 8102 8103 8104 8105 8106 8107 8108 8109 8110 8111 8112 8113 8114 8115 8116 8117 8118 8119 8120 8121 8122 8123 8124 8125 8126 8127 8128 8129 8130 8131 8132 8133 8134 8135 8136 8137 8138 8139 8140 8141 8142 8143 8144 8145 8146 8147 8148 8149 8150 8151 8152 8153 8154 8155 8156 8157 8158 8159 8160 8161 8162 8163 8164 8165 8166 8167 8168 8169 8170 8171 8172 8173 8174 8175 8176 8177 8178 8179 8180 8181 8182 8183 8184 8185 8186 8187 8188 8189 8190 8191 8192 8193 8194 8195 8196 8197 8198 8199 8200 8201 8202 8203 8204 8205 8206 8207 8208 8209 8210 8211 8212 8213 8214 8215 8216 8217 8218 8219 8220 8221 8222 8223 8224 8225 8226 8227 8228 8229 8230 8231 8232 8233 8234 8235 8236 8237 8238 8239 8240 8241 8242 8243 8244 8245 8246 8247 8248 8249 8250 8251 8252 8253 8254 8255 8256 8257 8258 8259 8260 8261 8262 8263 8264 8265 8266 8267 8268 8269 8270 8271 8272 8273 8274 8275 8276 8277 8278 8279 8280 8281 8282 8283 8284 8285 8286 8287 8288 8289 8290 8291 8292 8293 8294 8295 8296 8297 8298 8299 8300 8301 8302 8303 8304 8305 8306 8307 8308 8309 8310 8311 8312 8313 8314 8315 8316 8317 8318 8319 8320 8321 8322 8323 8324 8325 8326 8327 8328 8329 8330 8331 8332 8333 8334 8335 8336 8337 8338 8339 8340 8341 8342 8343 8344 8345 8346 8347 8348 8349 8350 8351 8352 8353 8354 8355 8356 8357 8358 8359 8360 8361 8362 8363 8364 8365 8366 8367 8368 8369 8370 8371 8372 8373 8374 8375 8376 8377 8378 8379 8380 8381 8382 8383 8384 8385 8386 8387 8388 8389 8390 8391 8392 8393 8394 8395 8396 8397 8398 8399 8400 8401 8402 8403 8404 8405 8406 8407 8408 8409 8410 8411 8412 8413 8414 8415 8416 8417 8418 8419 8420 8421 8422 8423 8424 8425 8426 8427 8428 8429 8430 8431 8432 8433 8434 8435 8436 8437 8438 8439 8440 8441 8442 8443 8444 8445 8446 8447 8448 8449 8450 8451 8452 8453 8454 8455 8456 8457 8458 8459 8460 8461 8462 8463 8464 8465 8466 8467 8468 8469 8470 8471 8472 8473 8474 8475 8476 8477 8478 8479 8480 8481 8482 8483 8484 8485 8486 8487 8488 8489 8490 8491 8492 8493 8494 8495 8496 8497 8498 8499 8500 8501 8502 8503 8504 8505 8506 8507 8508 8509 8510 8511 8512 8513 8514 8515 8516 8517 8518 8519 8520 8521 8522 8523 8524 8525 8526 8527 8528 8529 8530 8531 8532 8533 8534 8535 8536 8537 8538 8539 8540 8541 8542 8543 8544 8545 8546 8547 8548 8549 8550 8551 8552 8553 8554 8555 8556 8557 8558 8559 8560 8561 8562 8563 8564 8565 8566 8567 8568 8569 8570 8571 8572 8573 8574 8575 8576 8577 8578 8579 8580 8581 8582 8583 8584 8585 8586 8587 8588 8589 8590 8591 8592 8593 8594 8595 8596 8597 8598 8599 8600 8601 8602 8603 8604 8605 8606 8607 8608 8609 8610 8611 8612 8613 8614 8615 8616 8617 8618 8619 8620 8621 8622 8623 8624 8625 8626 8627 8628 8629 8630 8631 8632 8633 8634 8635 8636 8637 8638 8639 8640 8641 8642 8643 8644 8645 8646 8647 8648 8649 8650 8651 8652 8653 8654 8655 8656 8657 8658 8659 8660 8661 8662 8663 8664 8665 8666 8667 8668 8669 8670 8671 8672 8673 8674 8675 8676 8677 8678 8679 8680 8681 8682 8683 8684 8685 8686 8687 8688 8689 8690 8691 8692 8693 8694 8695 8696 8697 8698 8699 8700 8701 8702 8703 8704 8705 8706 8707 8708 8709 8710 8711 8712 8713 8714 8715 8716 8717 8718 8719 8720 8721 8722 8723 8724 8725 8726 8727 8728 8729 8730 8731 8732 8733 8734 8735 8736 8737 8738 8739 8740 8741 8742 8743 8744 8745 8746 8747 8748 8749 8750 8751 8752 8753 8754 8755 8756 8757 8758 8759 8760 8761 8762 8763 8764 8765 8766 8767 8768 8769 8770 8771 8772 8773 8774 8775 8776 8777 8778 8779 8780 8781 8782 8783 8784 8785 8786 8787 8788 8789 8790 8791 8792 8793 8794 8795 8796 8797 8798 8799 8800 8801 8802 8803 8804 8805 8806 8807 8808 8809 8810 8811 8812 8813 8814 8815 8816 8817 8818 8819 8820 8821 8822 8823 8824 8825 8826 8827 8828 8829 8830 8831 8832 8833 8834 8835 8836 8837 8838 8839 8840 8841 8842 8843 8844 8845 8846 8847 8848 8849 8850 8851 8852 8853 8854 8855 8856 8857 8858 8859 8860 8861 8862 8863 8864 8865 8866 8867 8868 8869 8870 8871 8872 8873 8874 8875 8876 8877 8878 8879 8880 8881 8882 8883 8884 8885 8886 8887 8888 8889 8890 8891 8892 8893 8894 8895 8896 8897 8898 8899 8900 8901 8902 8903 8904 8905 8906 8907 8908 8909 8910 8911 8912 8913 8914 8915 8916 8917 8918 8919 8920 8921 8922 8923 8924 8925 8926 8927 8928 8929 8930 8931 8932 8933 8934 8935 8936 8937 8938 8939 8940 8941 8942 8943 8944 8945 8946 8947 8948 8949 8950 8951 8952 8953 8954 8955 8956 8957 8958 8959 8960 8961 8962 8963 8964 8965 8966 8967 8968 8969 8970 8971 8972 8973 8974 8975 8976 8977 8978 8979 8980 8981 8982 8983 8984 8985 8986 8987 8988 8989 8990 8991 8992 8993 8994 8995 8996 8997 8998 8999 9000 9001 9002 9003 9004 9005 9006 9007 9008 9009 9010 9011 9012 9013 9014 9015 9016 9017 9018 9019 9020 9021 9022 9023 9024 9025 9026 9027 9028 9029 9030 9031 9032 9033 9034 9035 9036 9037 9038 9039 9040 9041 9042 9043 9044 9045 9046 9047 9048 9049 9050 9051 9052 9053 9054 9055 9056 9057 9058 9059 9060 9061 9062 9063 9064 9065 9066 9067 9068 9069 9070 9071 9072 9073 9074 9075 9076 9077 9078 9079 9080 9081 9082 9083 9084 9085 9086 9087 9088 9089 9090 9091 9092 9093 9094 9095 9096 9097 9098 9099 9100 9101 9102 9103 9104 9105 9106 9107 9108 9109 9110 9111 9112 9113 9114 9115 9116 9117 9118 9119 9120 9121 9122 9123 9124 9125 9126 9127 9128 9129 9130 9131 9132 9133 9134 9135 9136 9137 9138 9139 9140 9141 9142 9143 9144 9145 9146 9147 9148 9149 9150 9151 9152 9153 9154 9155 9156 9157 9158 9159 9160 9161 9162 9163 9164 9165 9166 9167 9168 9169 9170 9171 9172 9173 9174 9175 9176 9177 9178 9179 9180 9181 9182 9183 9184 9185 9186 9187 9188 9189 9190 9191 9192 9193 9194 9195 9196 9197 9198 9199 9200 9201 9202 9203 9204 9205 9206 9207 9208 9209 9210 9211 9212 9213 9214 9215 9216 9217 9218 9219 9220 9221 9222 9223 9224 9225 9226 9227 9228 9229 9230 9231 9232 9233 9234 9235 9236 9237 9238 9239 9240 9241 9242 9243 9244 9245 9246 9247 9248 9249 9250 9251 9252 9253 9254 9255 9256 9257 9258 9259 9260 9261 9262 9263 9264 9265 9266 9267 9268 9269 9270 9271 9272 9273 9274 9275 9276 9277 9278 9279 9280 9281 9282 9283 9284 9285 9286 9287 9288 9289 9290 9291 9292 9293 9294 9295 9296 9297 9298 9299 9300 9301 9302 9303 9304 9305 9306 9307 9308 9309 9310 9311 9312 9313 9314 9315 9316 9317 9318 9319 9320 9321 9322 9323 9324 9325 9326 9327 9328 9329 9330 9331 9332 9333 9334 9335 9336 9337 9338 9339 9340 9341 9342 9343 9344 9345 9346 9347 9348 9349 9350 9351 9352 9353 9354 9355 9356 9357 9358 9359 9360 9361 9362 9363 9364 9365 9366 9367 9368 9369 9370 9371 9372 9373 9374 9375 9376 9377 9378 9379 9380 9381 9382 9383 9384 9385 9386 9387 9388 9389 9390 9391 9392 9393 9394 9395 9396 9397 9398 9399 9400 9401 9402 9403 9404 9405 9406 9407 9408 9409 9410 9411 9412 9413 9414 9415 9416 9417 9418 9419 9420 9421 9422 9423 9424 9425 9426 9427 9428 9429 9430 9431 9432 9433 9434 9435 9436 9437 9438 9439 9440 9441 9442 9443 9444 9445 9446 9447 9448 9449 9450 9451 9452 9453 9454 9455 9456 9457 9458 9459 9460 9461 9462 9463 9464 9465 9466 9467 9468 9469 9470 9471 9472 9473 9474 9475 9476 9477 9478 9479 9480 9481 9482 9483 9484 9485 9486 9487 9488 9489 9490 9491 9492 9493 9494 9495 9496 9497 9498 9499 9500 9501 9502 9503 9504 9505 9506 9507 9508 9509 9510 9511 9512 9513 9514 9515 9516 9517 9518 9519 9520 9521 9522 9523 9524 9525 9526 9527 9528 9529 9530 9531 9532 9533 9534 9535 9536 9537 9538 9539 9540 9541 9542 9543 9544 9545 9546 9547 9548 9549 9550 9551 9552 9553 9554 9555 9556 9557 9558 9559 9560 9561 9562 9563 9564 9565 9566 9567 9568 9569 9570 9571 9572 9573 9574 9575 9576 9577 9578 9579 9580 9581 9582 9583 9584 9585 9586 9587 9588 9589 9590 9591 9592 9593 9594 9595 9596 9597 9598 9599 9600 9601 9602 9603 9604 9605 9606 9607 9608 9609 9610 9611 9612 9613 9614 9615 9616 9617 9618 9619 9620 9621 9622 9623 9624 9625 9626 9627 9628 9629 9630 9631 9632 9633 9634 9635 9636 9637 9638 9639 9640 9641 9642 9643 9644 9645 9646 9647 9648 9649 9650 9651 9652 9653 9654 9655 9656 9657 9658 9659 9660 9661 9662 9663 9664 9665 9666 9667 9668 9669 9670 9671 9672 9673 9674 9675 9676 9677 9678 9679 9680 9681 9682 9683 9684 9685 9686 9687 9688 9689 9690 9691 9692 9693 9694 9695 9696 9697 9698 9699 9700 9701 9702 9703 9704 9705 9706 9707 9708 9709 9710 9711 9712 9713 9714 9715 9716 9717 9718 9719 9720 9721 9722 9723 9724 9725 9726 9727 9728 9729 9730 9731 9732 9733 9734 9735 9736 9737 9738 9739 9740 9741 9742 9743 9744 9745 9746 9747 9748 9749 9750 9751 9752 9753 9754 9755 9756 9757 9758 9759 9760 9761 9762 9763 9764 9765 9766 9767 9768 9769 9770 9771 9772 9773 9774 9775 9776 9777 9778 9779 9780 9781 9782 9783 9784 9785 9786 9787 9788 9789 9790 9791 9792 9793 9794 9795 9796 9797 9798 9799 9800 9801 9802 9803 9804 9805 9806 9807 9808 9809 9810 9811 9812 9813 9814 9815 9816 9817 9818 9819 9820 9821 9822 9823 9824 9825 9826 9827 9828 9829 9830 9831 9832 9833 9834 9835 9836 9837 9838 9839 9840 9841 9842 9843 9844 9845 9846 9847 9848 9849 9850 9851 9852 9853 9854 9855 9856 9857 9858 9859 9860 9861 9862 9863 9864 9865 9866 9867 9868 9869 9870 9871 9872 9873 9874 9875 9876 9877 9878 9879 9880 9881 9882 9883 9884 9885 9886 9887 9888 9889 9890 9891 9892 9893 9894 9895 9896 9897 9898 9899 9900 9901 9902 9903 9904 9905 9906 9907 9908 9909 9910 9911 9912 9913 9914 9915 9916 9917 9918 9919 9920 9921 9922 9923 9924 9925 9926 9927 9928 9929 9930 9931 9932 9933 9934 9935 9936 9937 9938 9939 9940 9941 9942 9943 9944 9945 9946 9947 9948 9949 9950 9951 9952 9953 9954 9955 9956 9957 9958 9959 9960 9961 9962 9963 9964 9965 9966 9967 9968 9969 9970 9971 9972 9973 9974 9975 9976 9977 9978 9979 9980 9981 9982 9983 9984 9985 9986 9987 9988 9989 9990 9991 9992 9993 9994 9995 9996 9997 9998 9999 10000 10001 10002 10003 10004 10005 10006 10007 10008 10009 10010 10011 10012 10013 10014 10015 10016 10017 10018 10019 10020 10021 10022 10023 10024 10025 10026 10027 10028 10029 10030 10031 10032 10033 10034 10035 10036 10037 10038 10039 10040 10041 10042 10043 10044 10045 10046 10047 10048 10049 10050 10051 10052 10053 10054 10055 10056 10057 10058 10059 10060 10061 10062 10063 10064 10065 10066 10067 10068 10069 10070 10071 10072 10073 10074 10075 10076 10077 10078 10079 10080 10081 10082 10083 10084 10085 10086 10087 10088 10089 10090 10091 10092 10093 10094 10095 10096 10097 10098 10099 10100 10101 10102 10103 10104 10105 10106 10107 10108 10109 10110 10111 10112 10113 10114 10115 10116 10117 10118 10119 10120 10121 10122 10123 10124 10125 10126 10127 10128 10129 10130 10131 10132 10133 10134 10135 10136 10137 10138 10139 10140 10141 10142 10143 10144 10145 10146 10147 10148 10149 10150 10151 10152 10153 10154 10155 10156 10157 10158 10159 10160 10161 10162 10163 10164 10165 10166 10167 10168 10169 10170 10171 10172 10173 10174 10175 10176 10177 10178 10179 10180 10181 10182 10183 10184 10185 10186 10187 10188 10189 10190 10191 10192 10193 10194 10195 10196 10197 10198 10199 10200 10201 10202 10203 10204 10205 10206 10207 10208 10209 10210 10211 10212 10213 10214 10215 10216 10217 10218 10219 10220 10221 10222 10223 10224 10225 10226 10227 10228 10229 10230 10231 10232 10233 10234 10235 10236 10237 10238 10239 10240 10241 10242 10243 10244 10245 10246 10247 10248 10249 10250 10251 10252 10253 10254 10255 10256 10257 10258 10259 10260 10261 10262 10263 10264 10265 10266 10267 10268 10269 10270 10271 10272 10273 10274 10275 10276 10277 10278 10279 10280 10281 10282 10283 10284 10285 10286 10287 10288 10289 10290 10291 10292 10293 10294 10295 10296 10297 10298 10299 10300 10301 10302 10303 10304 10305 10306 10307 10308 10309 10310 10311 10312 10313 10314 10315 10316 10317 10318 10319 10320 10321 10322 10323 10324 10325 10326 10327 10328 10329 10330 10331 10332 10333 10334 10335 10336 10337 10338 10339 10340 10341 10342 10343 10344 10345 10346 10347 10348 10349 10350 10351 10352 10353 10354 10355 10356 10357 10358 10359 10360 10361 10362 10363 10364 10365 10366 10367 10368 10369 10370 10371 10372 10373 10374 10375 10376 10377 10378 10379 10380 10381 10382 10383 10384 10385 10386 10387 10388 10389 10390 10391 10392 10393 10394 10395 10396 10397 10398 10399 10400 10401 10402 10403 10404 10405 10406 10407 10408 10409 10410 10411 10412 10413 10414 10415 10416 10417 10418 10419 10420 10421 10422 10423 10424 10425 10426 10427 10428 10429 10430 10431 10432 10433 10434 10435 10436 10437 10438 10439 10440 10441 10442 10443 10444 10445 10446 10447 10448 10449 10450 10451 10452 10453 10454 10455 10456 10457 10458 10459 10460 10461 10462 10463 10464 10465 10466 10467 10468 10469 10470 10471 10472 10473 10474 10475 10476 10477 10478 10479 10480 10481 10482 10483 10484 10485 10486 10487 10488 10489 10490 10491 10492 10493 10494 10495 10496 10497 10498 10499 10500 10501 10502 10503 10504 10505 10506 10507 10508 10509 10510 10511 10512 10513 10514 10515 10516 10517 10518 10519 10520 10521 10522 10523 10524 10525 10526 10527 10528 10529 10530 10531 10532 10533 10534 10535 10536 10537 10538 10539 10540 10541 10542 10543 10544 10545 10546 10547 10548 10549 10550 10551 10552 10553 10554 10555 10556 10557 10558 10559 10560 10561 10562 10563 10564 10565 10566 10567 10568 10569 10570 10571 10572 10573 10574 10575 10576 10577 10578 10579 10580 10581 10582 10583 10584 10585 10586 10587 10588 10589 10590 10591 10592 10593 10594 10595 10596 10597 10598 10599 10600 10601 10602 10603 10604 10605 10606 10607 10608 10609 10610 10611 10612 10613 10614 10615 10616 10617 10618 10619 10620 10621 10622 10623 10624 10625 10626 10627 10628 10629 10630 10631 10632 10633 10634 10635 10636 10637 10638 10639 10640 10641 10642 10643 10644 10645 10646 10647 10648 10649 10650 10651 10652 10653 10654 10655 10656 10657 10658 10659 10660 10661 10662 10663 10664 10665 10666 10667 10668 10669 10670 10671 10672 10673 10674 10675 10676 10677 10678 10679 10680 10681 10682 10683 10684 10685 10686 10687 10688 10689 10690 10691 10692 10693 10694 10695 10696 10697 10698 10699 10700 10701 10702 10703 10704 10705 10706 10707 10708 10709 10710 10711 10712 10713 10714 10715 10716 10717 10718 10719 10720 10721 10722 10723 10724 10725 10726 10727 10728 10729 10730 10731 10732 10733 10734 10735 10736 10737 10738 10739 10740 10741 10742 10743 10744 10745 10746 10747 10748 10749 10750 10751 10752 10753 10754 10755 10756 10757 10758 10759 10760 10761 10762 10763 10764 10765 10766 10767 10768 10769 10770 10771 10772 10773 10774 10775 10776 10777 10778 10779 10780 10781 10782 10783 10784 10785 10786 10787 10788 10789 10790 10791 10792 10793 10794 10795 10796 10797 10798 10799 10800 10801 10802 10803 10804 10805 10806 10807 10808 10809 10810 10811 10812 10813 10814 10815 10816 10817 10818 10819 10820 10821 10822 10823 10824 10825 10826 10827 10828 10829 10830 10831 10832 10833 10834 10835 10836 10837 10838 10839 10840 10841 10842 10843 10844 10845 10846 10847 10848 10849 10850 10851 10852 10853 10854 10855 10856 10857 10858 10859 10860 10861 10862 10863 10864 10865 10866 10867 10868 10869 10870 10871 10872 10873 10874 10875 10876 10877 10878 10879 10880 10881 10882 10883 10884 10885 10886 10887 10888 10889 10890 10891 10892 10893 10894 10895 10896 10897 10898 10899 10900 10901 10902 10903 10904 10905 10906 10907 10908 10909 10910 10911 10912 10913 10914 10915 10916 10917 10918 10919 10920 10921 10922 10923 10924 10925 10926 10927 10928 10929 10930 10931 10932 10933 10934 10935 10936 10937 10938 10939 10940 10941 10942 10943 10944 10945 10946 10947 10948 10949 10950 10951 10952 10953 10954 10955 10956 10957 10958 10959 10960 10961 10962 10963 10964 10965 10966 10967 10968 10969 10970 10971 10972 10973 10974 10975 10976 10977 10978 10979 10980 10981 10982 10983 10984 10985 10986 10987 10988 10989 10990 10991 10992 10993 10994 10995 10996 10997 10998 10999 11000 11001 11002 11003 11004 11005 11006 11007 11008 11009 11010 11011 11012 11013 11014 11015 11016 11017 11018 11019 11020 11021 11022 11023 11024 11025 11026 11027 11028 11029 11030 11031 11032 11033 11034 11035 11036 11037 11038 11039 11040 11041 11042 11043 11044 11045 11046 11047 11048 11049 11050 11051 11052 11053 11054 11055 11056 11057 11058 11059 11060 11061 11062 11063 11064 11065 11066 11067 11068 11069 11070 11071 11072 11073 11074 11075 11076 11077 11078 11079 11080 11081 11082 11083 11084 11085 11086 11087 11088 11089 11090 11091 11092 11093 11094 11095 11096 11097 11098 11099 11100 11101 11102 11103 11104 11105 11106 11107 11108 11109 11110 11111 11112 11113 11114 11115 11116 11117 11118 11119 11120 11121 11122 11123 11124 11125 11126 11127 11128 11129 11130 11131 11132 11133 11134 11135 11136 11137 11138 11139 11140 11141 11142 11143 11144 11145 11146 11147 11148 11149 11150 11151 11152 11153 11154 11155 11156 11157 11158 11159 11160 11161 11162 11163 11164 11165 11166 11167 11168 11169 11170 11171 11172 11173 11174 11175 11176 11177 11178 11179 11180 11181 11182 11183 11184 11185 11186 11187 11188 11189 11190 11191 11192 11193 11194 11195 11196 11197 11198 11199 11200 11201 11202 11203 11204 11205 11206 11207 11208 11209 11210 11211 11212 11213 11214 11215 11216 11217 11218 11219 11220 11221 11222 11223 11224 11225 11226 11227 11228 11229 11230 11231 11232 11233 11234 11235 11236 11237 11238 11239 11240 11241 11242 11243 11244 11245 11246 11247 11248 11249 11250 11251 11252 11253 11254 11255 11256 11257 11258 11259 11260 11261 11262 11263 11264 11265 11266 11267 11268 11269 11270 11271 11272 11273 11274 11275 11276 11277 11278 11279 11280 11281 11282 11283 11284 11285 11286 11287 11288 11289 11290 11291 11292 11293 11294 11295 11296 11297 11298 11299 11300 11301 11302 11303 11304 11305 11306 11307 11308 11309 11310 11311 11312 11313 11314 11315 11316 11317 11318 11319 11320 11321 11322 11323 11324 11325 11326 11327 11328 11329 11330 11331 11332 11333 11334 11335 11336 11337 11338 11339 11340 11341 11342 11343 11344 11345 11346 11347 11348 11349 11350 11351 11352 11353 11354 11355 11356 11357 11358 11359 11360 11361 11362 11363 11364 11365 11366 11367 11368 11369 11370 11371 11372 11373 11374 11375 11376 11377 11378 11379 11380 11381 11382 11383 11384 11385 11386 11387 11388 11389 11390 11391 11392 11393 11394 11395 11396 11397 11398 11399 11400 11401 11402 11403 11404 11405 11406 11407 11408 11409 11410 11411 11412 11413 11414 11415 11416 11417 11418 11419 11420 11421 11422 11423 11424 11425 11426 11427 11428 11429 11430 11431 11432 11433 11434 11435 11436 11437 11438 11439 11440 11441 11442 11443 11444 11445 11446 11447 11448 11449 11450 11451 11452 11453 11454 11455 11456 11457 11458 11459 11460 11461 11462 11463 11464 11465 11466 11467 11468 11469 11470 11471 11472 11473 11474 11475 11476 11477 11478 11479 11480 11481 11482 11483 11484 11485 11486 11487 11488 11489 11490 11491 11492 11493 11494 11495 11496 11497 11498 11499 11500 11501 11502 11503 11504 11505 11506 11507 11508 11509 11510 11511 11512 11513 11514 11515 11516 11517 11518 11519 11520 11521 11522 11523 11524 11525 11526 11527 11528 11529 11530 11531 11532 11533 11534 11535 11536 11537 11538 11539 11540 11541 11542 11543 11544 11545 11546 11547 11548 11549 11550 11551 11552 11553 11554 11555 11556 11557 11558 11559 11560 11561 11562 11563 11564 11565 11566 11567 11568 11569 11570 11571 11572 11573 11574 11575 11576 11577 11578 11579 11580 11581 11582 11583 11584 11585 11586 11587 11588 11589 11590 11591 11592 11593 11594 11595 11596 11597 11598 11599 11600 11601 11602 11603 11604 11605 11606 11607 11608 11609 11610 11611 11612 11613 11614 11615 11616 11617 11618 11619 11620 11621 11622 11623 11624 11625 11626 11627 11628 11629 11630 11631 11632 11633 11634 11635 11636 11637 11638 11639 11640 11641 11642 11643 11644 11645 11646 11647 11648 11649 11650 11651 11652 11653 11654 11655 11656 11657 11658 11659 11660 11661 11662 11663 11664 11665 11666 11667 11668 11669 11670 11671 11672 11673 11674 11675 11676 11677 11678 11679 11680 11681 11682 11683 11684 11685 11686 11687 11688 11689 11690 11691 11692 11693 11694 11695 11696 11697 11698 11699 11700 11701 11702 11703 11704 11705 11706 11707 11708 11709 11710 11711 11712 11713 11714 11715 11716 11717 11718 11719 11720 11721 11722 11723 11724 11725 11726 11727 11728 11729 11730 11731 11732 11733 11734 11735 11736 11737 11738 11739 11740 11741 11742 11743 11744 11745 11746 11747 11748 11749 11750 11751 11752 11753 11754 11755 11756 11757 11758 11759 11760 11761 11762 11763 11764 11765 11766 11767 11768 11769 11770 11771 11772 11773 11774 11775 11776 11777 11778 11779 11780 11781 11782 11783 11784 11785 11786 11787 11788 11789 11790 11791 11792 11793 11794 11795 11796 11797 11798 11799 11800 11801 11802 11803 11804 11805 11806 11807 11808 11809 11810 11811 11812 11813 11814 11815 11816 11817 11818 11819 11820 11821 11822 11823 11824 11825 11826 11827 11828 11829 11830 11831 11832 11833 11834 11835 11836 11837 11838 11839 11840 11841 11842 11843 11844 11845 11846 11847 11848 11849 11850 11851 11852 11853 11854 11855 11856 11857 11858 11859 11860 11861 11862 11863 11864 11865 11866 11867 11868 11869 11870 11871 11872 11873 11874 11875 11876 11877 11878 11879 11880 11881 11882 11883 11884 11885 11886 11887 11888 11889 11890 11891 11892 11893 11894 11895 11896 11897 11898 11899 11900 11901 11902 11903 11904 11905 11906 11907 11908 11909 11910 11911 11912 11913 11914 11915 11916 11917 11918 11919 11920 11921 11922 11923 11924 11925 11926 11927 11928 11929 11930 11931 11932 11933 11934 11935 11936 11937 11938 11939 11940 11941 11942 11943 11944 11945 11946 11947 11948 11949 11950 11951 11952 11953 11954 11955 11956 11957 11958 11959 11960 11961 11962 11963 11964 11965 11966 11967 11968 11969 11970 11971 11972 11973 11974 11975 11976 11977 11978 11979 11980 11981 11982 11983 11984 11985 11986 11987 11988 11989 11990 11991 11992 11993 11994 11995 11996 11997 11998 11999 12000 12001 12002 12003 12004 12005 12006 12007 12008 12009 12010 12011 12012 12013 12014 12015 12016 12017 12018 12019 12020 12021 12022 12023 12024 12025 12026 12027 12028 12029 12030 12031 12032 12033 12034 12035 12036 12037 12038 12039 12040 12041 12042 12043 12044 12045 12046 12047 12048 12049 12050 12051 12052 12053 12054 12055 12056 12057 12058 12059 12060 12061 12062 12063 12064 12065 12066 12067 12068 12069 12070 12071 12072 12073 12074 12075 12076 12077 12078 12079 12080 12081 12082 12083 12084 12085 12086 12087 12088 12089 12090 12091 12092 12093 12094 12095 12096 12097 12098 12099 12100 12101 12102 12103 12104 12105 12106 12107 12108 12109 12110 12111 12112 12113 12114 12115 12116 12117 12118 12119 12120 12121 12122 12123 12124 12125 12126 12127 12128 12129 12130 12131 12132 12133 12134 12135 12136 12137 12138 12139 12140 12141 12142 12143 12144 12145 12146 12147 12148 12149 12150 12151 12152 12153 12154 12155 12156 12157 12158 12159 12160 12161 12162 12163 12164 12165 12166 12167 12168 12169 12170 12171 12172 12173 12174 12175 12176 12177 12178 12179 12180 12181 12182 12183 12184 12185 12186 12187 12188 12189 12190 12191 12192 12193 12194 12195 12196 12197 12198 12199 12200 12201 12202 12203 12204 12205 12206 12207 12208 12209 12210 12211 12212 12213 12214 12215 12216 12217 12218 12219 12220 12221 12222 12223 12224 12225 12226 12227 12228 12229 12230 12231 12232 12233 12234 12235 12236 12237 12238 12239 12240 12241 12242 12243 12244 12245 12246 12247 12248 12249 12250 12251 12252 12253 12254 12255 12256 12257 12258 12259 12260 12261 12262 12263 12264 12265 12266 12267 12268 12269 12270 12271 12272 12273 12274 12275 12276 12277 12278 12279 12280 12281 12282 12283 12284 12285 12286 12287 12288 12289 12290 12291 12292 12293 12294 12295 12296 12297 12298 12299 12300 12301 12302 12303 12304 12305 12306 12307 12308 12309 12310 12311 12312 12313 12314 12315 12316 12317 12318 12319 12320 12321 12322 12323 12324 12325 12326 12327 12328 12329 12330 12331 12332 12333 12334 12335 12336 12337 12338 12339 12340 12341 12342 12343 12344 12345 12346 12347 12348 12349 12350 12351 12352 12353 12354 12355 12356 12357 12358 12359 12360 12361 12362 12363 12364 12365 12366 12367 12368 12369 12370 12371 12372 12373 12374 12375 12376 12377 12378 12379 12380 12381 12382 12383 12384 12385 12386 12387 12388 12389 12390 12391 12392 12393 12394 12395 12396 12397 12398 12399 12400 12401 12402 12403 12404 12405 12406 12407 12408 12409 12410 12411 12412 12413 12414 12415 12416 12417 12418 12419 12420 12421 12422 12423 12424 12425 12426 12427 12428 12429 12430 12431 12432 12433 12434 12435 12436 12437 12438 12439 12440 12441 12442 12443 12444 12445 12446 12447 12448 12449 12450 12451 12452 12453 12454 12455 12456 12457 12458 12459 12460 12461 12462 12463 12464 12465 12466 12467 12468 12469 12470 12471 12472 12473 12474 12475 12476 12477 12478 12479 12480 12481 12482 12483 12484 12485 12486 12487 12488 12489 12490 12491 12492 12493 12494 12495 12496 12497 12498 12499 12500 12501 12502 12503 12504 12505 12506 12507 12508 12509 12510 12511 12512 12513 12514 12515 12516 12517 12518 12519 12520 12521 12522 12523 12524 12525 12526 12527 12528 12529 12530 12531 12532 12533 12534 12535 12536 12537 12538 12539 12540 12541 12542 12543 12544 12545 12546 12547 12548 12549 12550 12551 12552 12553 12554 12555 12556 12557 12558 12559 12560 12561 12562 12563 12564 12565 12566 12567 12568 12569 12570 12571 12572 12573 12574 12575 12576 12577 12578 12579 12580 12581 12582 12583 12584 12585 12586 12587 12588 12589 12590 12591 12592 12593 12594 12595 12596 12597 12598 12599 12600 12601 12602 12603 12604 12605 12606 12607 12608 12609 12610 12611 12612 12613 12614 12615 12616 12617 12618 12619 12620 12621 12622 12623 12624 12625 12626 12627 12628 12629 12630 12631 12632 12633 12634 12635 12636 12637 12638 12639 12640 12641 12642 12643 12644 12645 12646 12647 12648 12649 12650 12651 12652 12653 12654 12655 12656 12657 12658 12659 12660 12661 12662 12663 12664 12665 12666 12667 12668 12669 12670 12671 12672 12673 12674 12675 12676 12677 12678 12679 12680 12681 12682 12683 12684 12685 12686 12687 12688 12689 12690 12691 12692 12693 12694 12695 12696 12697 12698 12699 12700 12701 12702 12703 12704 12705 12706 12707 12708 12709 12710 12711 12712 12713 12714 12715 12716 12717 12718 12719 12720 12721 12722 12723 12724 12725 12726 12727 12728 12729 12730 12731 12732 12733 12734 12735 12736 12737 12738 12739 12740 12741 12742 12743 12744 12745 12746 12747 12748 12749 12750 12751 12752 12753 12754 12755 12756 12757 12758 12759 12760 12761 12762 12763 12764 12765 12766 12767 12768 12769 12770 12771 12772 12773 12774 12775 12776 12777 12778 12779 12780 12781 12782 12783 12784 12785 12786 12787 12788 12789 12790 12791 12792 12793 12794 12795 12796 12797 12798 12799 12800 12801 12802 12803 12804 12805 12806 12807 12808 12809 12810 12811 12812 12813 12814 12815 12816 12817 12818 12819 12820 12821 12822 12823 12824 12825 12826 12827 12828 12829 12830 12831 12832 12833 12834 12835 12836 12837 12838 12839 12840 12841 12842 12843 12844 12845 12846 12847 12848 12849 12850 12851 12852 12853 12854 12855 12856 12857 12858 12859 12860 12861 12862 12863 12864 12865 12866 12867 12868 12869 12870 12871 12872 12873 12874 12875 12876 12877 12878 12879 12880 12881 12882 12883 12884 12885 12886 12887 12888 12889 12890 12891 12892 12893 12894 12895 12896 12897 12898 12899 12900 12901 12902 12903 12904 12905 12906 12907 12908 12909 12910 12911 12912 12913 12914 12915 12916 12917 12918 12919 12920 12921 12922 12923 12924 12925 12926 12927 12928 12929 12930 12931 12932 12933 12934 12935 12936 12937 12938 12939 12940 12941 12942 12943 12944 12945 12946 12947 12948 12949 12950 12951 12952 12953 12954 12955 12956 12957 12958 12959 12960 12961 12962 12963 12964 12965 12966 12967 12968 12969 12970 12971 12972 12973 12974 12975 12976 12977 12978 12979 12980 12981 12982 12983 12984 12985 12986 12987 12988 12989 12990 12991 12992 12993 12994 12995 12996 12997 12998 12999 13000 13001 13002 13003 13004 13005 13006 13007 13008 13009 13010 13011 13012 13013 13014 13015 13016 13017 13018 13019 13020 13021 13022 13023 13024 13025 13026 13027 13028 13029 13030 13031 13032 13033 13034 13035 13036 13037 13038 13039 13040 13041 13042 13043 13044 13045 13046 13047 13048 13049 13050 13051 13052 13053 13054 13055 13056 13057 13058 13059 13060 13061 13062 13063 13064 13065 13066 13067 13068 13069 13070 13071 13072 13073 13074 13075 13076 13077 13078 13079 13080 13081 13082 13083 13084 13085 13086 13087 13088 13089 13090 13091 13092 13093 13094 13095 13096 13097 13098 13099 13100 13101 13102 13103 13104 13105 13106 13107 13108 13109 13110 13111 13112 13113 13114 13115 13116 13117 13118 13119 13120 13121 13122 13123 13124 13125 13126 13127 13128 13129 13130 13131 13132 13133 13134 13135 13136 13137 13138 13139 13140 13141 13142 13143 13144 13145 13146 13147 13148 13149 13150 13151 13152 13153 13154 13155 13156 13157 13158 13159 13160 13161 13162 13163 13164 13165 13166 13167 13168 13169 13170 13171 13172 13173 13174 13175 13176 13177 13178 13179 13180 13181 13182 13183 13184 13185 13186 13187 13188 13189 13190 13191 13192 13193 13194 13195 13196 13197 13198 13199 13200 13201 13202 13203 13204 13205 13206 13207 13208 13209 13210 13211 13212 13213 13214 13215 13216 13217 13218 13219 13220 13221 13222 13223 13224 13225 13226 13227 13228 13229 13230 13231 13232 13233 13234 13235 13236 13237 13238 13239 13240 13241 13242 13243 13244 13245 13246 13247 13248 13249 13250 13251 13252 13253 13254 13255 13256 13257 13258 13259 13260 13261 13262 13263 13264 13265 13266 13267 13268 13269 13270 13271 13272 13273 13274 13275 13276 13277 13278 13279 13280 13281 13282 13283 13284 13285 13286 13287 13288 13289 13290 13291 13292 13293 13294 13295 13296 13297 13298 13299 13300 13301 13302 13303 13304 13305 13306 13307 13308 13309 13310 13311 13312 13313 13314 13315 13316 13317 13318 13319 13320 13321 13322 13323 13324 13325 13326 13327 13328 13329 13330 13331 13332 13333 13334 13335 13336 13337 13338 13339 13340 13341 13342 13343 13344 13345 13346 13347 13348 13349 13350 13351 13352 13353 13354 13355 13356 13357 13358 13359 13360 13361 13362 13363 13364 13365 13366 13367 13368 13369 13370 13371 13372 13373 13374 13375 13376 13377 13378 13379 13380 13381 13382 13383 13384 13385 13386 13387 13388 13389 13390 13391 13392 13393 13394 13395 13396 13397 13398 13399 13400 13401 13402 13403 13404 13405 13406 13407 13408 13409 13410 13411 13412 13413 13414 13415 13416 13417 13418 13419 13420 13421 13422 13423 13424 13425 13426 13427 13428 13429 13430 13431 13432 13433 13434 13435 13436 13437 13438 13439 13440 13441 13442 13443 13444 13445 13446 13447 13448 13449 13450 13451 13452 13453 13454 13455 13456 13457 13458 13459 13460 13461 13462 13463 13464 13465 13466 13467 13468 13469 13470 13471 13472 13473 13474 13475 13476 13477 13478 13479 13480 13481 13482 13483 13484 13485 13486 13487 13488 13489 13490 13491 13492 13493 13494 13495 13496 13497 13498 13499 13500 13501 13502 13503 13504 13505 13506 13507 13508 13509 13510 13511 13512 13513 13514 13515 13516 13517 13518 13519 13520 13521 13522 13523 13524 13525 13526 13527 13528 13529 13530 13531 13532 13533 13534 13535 13536 13537 13538 13539 13540 13541 13542 13543 13544 13545 13546 13547 13548 13549 13550 13551 13552 13553 13554 13555 13556 13557 13558 13559 13560 13561 13562 13563 13564 13565 13566 13567 13568 13569 13570 13571 13572 13573 13574 13575 13576 13577 13578 13579 13580 13581 13582 13583 13584 13585 13586 13587 13588 13589 13590 13591 13592 13593 13594 13595 13596 13597 13598 13599 13600 13601 13602 13603 13604 13605 13606 13607 13608 13609 13610 13611 13612 13613 13614 13615 13616 13617 13618 13619 13620 13621 13622 13623 13624 13625 13626 13627 13628 13629 13630 13631 13632 13633 13634 13635 13636 13637 13638 13639 13640 13641 13642 13643 13644 13645 13646 13647 13648 13649 13650 13651 13652 13653 13654 13655 13656 13657 13658 13659 13660 13661 13662 13663 13664 13665 13666 13667 13668 13669 13670 13671 13672 13673 13674 13675 13676 13677 13678 13679 13680 13681 13682 13683 13684 13685 13686 13687 13688 13689 13690 13691 13692 13693 13694 13695 13696 13697 13698 13699 13700 13701 13702 13703 13704 13705 13706 13707 13708 13709 13710 13711 13712 13713 13714 13715 13716 13717 13718 13719 13720 13721 13722 13723 13724 13725 13726 13727 13728 13729 13730 13731 13732 13733 13734 13735 13736 13737 13738 13739 13740 13741 13742 13743 13744 13745 13746 13747 13748 13749 13750 13751 13752 13753 13754 13755 13756 13757 13758 13759 13760 13761 13762 13763 13764 13765 13766 13767 13768 13769 13770 13771 13772 13773 13774 13775 13776 13777 13778 13779 13780 13781 13782 13783 13784 13785 13786 13787 13788 13789 13790 13791 13792 13793 13794 13795 13796 13797 13798 13799 13800 13801 13802 13803 13804 13805 13806 13807 13808 13809 13810 13811 13812 13813 13814 13815 13816 13817 13818 13819 13820 13821 13822 13823 13824 13825 13826 13827 13828 13829 13830 13831 13832 13833 13834 13835 13836 13837 13838 13839 13840 13841 13842 13843 13844 13845 13846 13847 13848 13849 13850 13851 13852 13853 13854 13855 13856 13857 13858 13859 13860 13861 13862 13863 13864 13865 13866 13867 13868 13869 13870 13871 13872 13873 13874 13875 13876 13877 13878 13879 13880 13881 13882 13883 13884 13885 13886 13887 13888 13889 13890 13891 13892 13893 13894 13895 13896 13897 13898 13899 13900 13901 13902 13903 13904 13905 13906 13907 13908 13909 13910 13911 13912 13913 13914 13915 13916 13917 13918 13919 13920 13921 13922 13923 13924 13925 13926 13927 13928 13929 13930 13931 13932 13933 13934 13935 13936 13937 13938 13939 13940 13941 13942 13943 13944 13945 13946 13947 13948 13949 13950 13951 13952 13953 13954 13955 13956 13957 13958 13959 13960 13961 13962 13963 13964 13965 13966 13967 13968 13969 13970 13971 13972 13973 13974 13975 13976 13977 13978 13979 13980 13981 13982 13983 13984 13985 13986 13987 13988 13989 13990 13991 13992 13993 13994 13995 13996 13997 13998 13999 14000 14001 14002 14003 14004 14005 14006 14007 14008 14009 14010 14011 14012 14013 14014 14015 14016 14017 14018 14019 14020 14021 14022 14023 14024 14025 14026 14027 14028 14029 14030 14031 14032 14033 14034 14035 14036 14037 14038 14039 14040 14041 14042 14043 14044 14045 14046 14047 14048 14049 14050 14051 14052 14053 14054 14055 14056 14057 14058 14059 14060 14061 14062 14063 14064 14065 14066 14067 14068 14069 14070 14071 14072 14073 14074 14075 14076 14077 14078 14079 14080 14081 14082 14083 14084 14085 14086 14087 14088 14089 14090 14091 14092 14093 14094 14095 14096 14097 14098 14099 14100 14101 14102 14103 14104 14105 14106 14107 14108 14109 14110 14111 14112 14113 14114 14115 14116 14117 14118 14119 14120 14121 14122 14123 14124 14125 14126 14127 14128 14129 14130 14131 14132 14133 14134 14135 14136 14137 14138 14139 14140 14141 14142 14143 14144 14145 14146 14147 14148 14149 14150 14151 14152 14153 14154 14155 14156 14157 14158 14159 14160 14161 14162 14163 14164 14165 14166 14167 14168 14169 14170 14171 14172 14173 14174 14175 14176 14177 14178 14179 14180 14181 14182 14183 14184 14185 14186 14187 14188 14189 14190 14191 14192 14193 14194 14195 14196 14197 14198 14199 14200 14201 14202 14203 14204 14205 14206 14207 14208 14209 14210 14211 14212 14213 14214 14215 14216 14217 14218 14219 14220 14221 14222 14223 14224 14225 14226 14227 14228 14229 14230 14231 14232 14233 14234 14235 14236 14237 14238 14239 14240 14241 14242 14243 14244 14245 14246 14247 14248 14249 14250 14251 14252 14253 14254 14255 14256 14257 14258 14259 14260 14261 14262 14263 14264 14265 14266 14267 14268 14269 14270 14271 14272 14273 14274 14275 14276 14277 14278 14279 14280 14281 14282 14283 14284 14285 14286 14287 14288 14289 14290 14291 14292 14293 14294 14295 14296 14297 14298 14299 14300 14301 14302 14303 14304 14305 14306 14307 14308 14309 14310 14311 14312 14313 14314 14315 14316 14317 14318 14319 14320 14321 14322 14323 14324 14325 14326 14327 14328 14329 14330 14331 14332 14333 14334 14335 14336 14337 14338 14339 14340 14341 14342 14343 14344 14345 14346 14347 14348 14349 14350 14351 14352 14353 14354 14355 14356 14357 14358 14359 14360 14361 14362 14363 14364 14365 14366 14367 14368 14369 14370 14371 14372 14373 14374 14375 14376 14377 14378 14379 14380 14381 14382 14383 14384 14385 14386 14387 14388 14389 14390 14391 14392 14393 14394 14395 14396 14397 14398 14399 14400 14401 14402 14403 14404 14405 14406 14407 14408 14409 14410 14411 14412 14413 14414 14415 14416 14417 14418 14419 14420 14421 14422 14423 14424 14425 14426 14427 14428 14429 14430 14431 14432 14433 14434 14435 14436 14437 14438 14439 14440 14441 14442 14443 14444 14445 14446 14447 14448 14449 14450 14451 14452 14453 14454 14455 14456 14457 14458 14459 14460 14461 14462 14463 14464 14465 14466 14467 14468 14469 14470 14471 14472 14473 14474 14475 14476 14477 14478 14479 14480 14481 14482 14483 14484 14485 14486 14487 14488 14489 14490 14491 14492 14493 14494 14495 14496 14497 14498 14499 14500 14501 14502 14503 14504 14505 14506 14507 14508 14509 14510 14511 14512 14513 14514 14515 14516 14517 14518 14519 14520 14521 14522 14523 14524 14525 14526 14527 14528 14529 14530 14531 14532 14533 14534 14535 14536 14537 14538 14539 14540 14541 14542 14543 14544 14545 14546 14547 14548 14549 14550 14551 14552 14553 14554 14555 14556 14557 14558 14559 14560 14561 14562 14563 14564 14565 14566 14567 14568 14569 14570 14571 14572 14573 14574 14575 14576 14577 14578 14579 14580 14581 14582 14583 14584 14585 14586 14587 14588 14589 14590 14591 14592 14593 14594 14595 14596 14597 14598 14599 14600 14601 14602 14603 14604 14605 14606 14607 14608 14609 14610 14611 14612 14613 14614 14615 14616 14617 14618 14619 14620 14621 14622 14623 14624 14625 14626 14627 14628 14629 14630 14631 14632 14633 14634 14635 14636 14637 14638 14639 14640 14641 14642 14643 14644 14645 14646 14647 14648 14649 14650 14651 14652 14653 14654 14655 14656 14657 14658 14659 14660 14661 14662 14663 14664 14665 14666 14667 14668 14669 14670 14671 14672 14673 14674 14675 14676 14677 14678 14679 14680 14681 14682 14683 14684 14685 14686 14687 14688 14689 14690 14691 14692 14693 14694 14695 14696 14697 14698 14699 14700 14701 14702 14703 14704 14705 14706 14707 14708 14709 14710 14711 14712 14713 14714 14715 14716 14717 14718 14719 14720 14721 14722 14723 14724 14725 14726 14727 14728 14729 14730 14731 14732 14733 14734 14735 14736 14737 14738 14739 14740 14741 14742 14743 14744 14745 14746 14747 14748 14749 14750 14751 14752 14753 14754 14755 14756 14757 14758 14759 14760 14761 14762 14763 14764 14765 14766 14767 14768 14769 14770 14771 14772 14773 14774 14775 14776 14777 14778 14779 14780 14781 14782 14783 14784 14785 14786 14787 14788 14789 14790 14791 14792 14793 14794 14795 14796 14797 14798 14799 14800 14801 14802 14803 14804 14805 14806 14807 14808 14809 14810 14811 14812 14813 14814 14815 14816 14817 14818 14819 14820 14821 14822 14823 14824 14825 14826 14827 14828 14829 14830 14831 14832 14833 14834 14835 14836 14837 14838 14839 14840 14841 14842 14843 14844 14845 14846 14847 14848 14849 14850 14851 14852 14853 14854 14855 14856 14857 14858 14859 14860 14861 14862 14863 14864 14865 14866 14867 14868 14869 14870 14871 14872 14873 14874 14875 14876 14877 14878 14879 14880 14881 14882 14883 14884 14885 14886 14887 14888 14889 14890 14891 14892 14893 14894 14895 14896 14897 14898 14899 14900 14901 14902 14903 14904 14905 14906 14907 14908 14909 14910 14911 14912 14913 14914 14915 14916 14917 14918 14919 14920 14921 14922 14923 14924 14925 14926 14927 14928 14929 14930 14931 14932 14933 14934 14935 14936 14937 14938 14939 14940 14941 14942 14943 14944 14945 14946 14947 14948 14949 14950 14951 14952 14953 14954 14955 14956 14957 14958 14959 14960 14961 14962 14963 14964 14965 14966 14967 14968 14969 14970 14971 14972 14973 14974 14975 14976 14977 14978 14979 14980 14981 14982 14983 14984 14985 14986 14987 14988 14989 14990 14991 14992 14993 14994 14995 14996 14997 14998 14999 15000 15001 15002 15003 15004 15005 15006 15007 15008 15009 15010 15011 15012 15013 15014 15015 15016 15017 15018 15019 15020 15021 15022 15023 15024 15025 15026 15027 15028 15029 15030 15031 15032 15033 15034 15035 15036 15037 15038 15039 15040 15041 15042 15043 15044 15045 15046 15047 15048 15049 15050 15051 15052 15053 15054 15055 15056 15057 15058 15059 15060 15061 15062 15063 15064 15065 15066 15067 15068 15069 15070 15071 15072 15073 15074 15075 15076 15077 15078 15079 15080 15081 15082 15083 15084 15085 15086 15087 15088 15089 15090 15091 15092 15093 15094 15095 15096 15097 15098 15099 15100 15101 15102 15103 15104 15105 15106 15107 15108 15109 15110 15111 15112 15113 15114 15115 15116 15117 15118 15119 15120 15121 15122 15123 15124 15125 15126 15127 15128 15129 15130 15131 15132 15133 15134 15135 15136 15137 15138 15139 15140 15141 15142 15143 15144 15145 15146 15147 15148 15149 15150 15151 15152 15153 15154 15155 15156 15157 15158 15159 15160 15161 15162 15163 15164 15165 15166 15167 15168 15169 15170 15171 15172 15173 15174 15175 15176 15177 15178 15179 15180 15181 15182 15183 15184 15185 15186 15187 15188 15189 15190 15191 15192 15193 15194 15195 15196 15197 15198 15199 15200 15201 15202 15203 15204 15205 15206 15207 15208 15209 15210 15211 15212 15213 15214 15215 15216 15217 15218 15219 15220 15221 15222 15223 15224 15225 15226 15227 15228 15229 15230 15231 15232 15233 15234 15235 15236 15237 15238 15239 15240 15241 15242 15243 15244 15245 15246 15247 15248 15249 15250 15251 15252 15253 15254 15255 15256 15257 15258 15259 15260 15261 15262 15263 15264 15265 15266 15267 15268 15269 15270 15271 15272 15273 15274 15275 15276 15277 15278 15279 15280 15281 15282 15283 15284 15285 15286 15287 15288 15289 15290 15291 15292 15293 15294 15295 15296 15297 15298 15299 15300 15301 15302 15303 15304 15305 15306 15307 15308 15309 15310 15311 15312 15313 15314 15315 15316 15317 15318 15319 15320 15321 15322 15323 15324 15325 15326 15327 15328 15329 15330 15331 15332 15333 15334 15335 15336 15337 15338 15339 15340 15341 15342 15343 15344 15345 15346 15347 15348 15349 15350 15351 15352 15353 15354 15355 15356 15357 15358 15359 15360 15361 15362 15363 15364 15365 15366 15367 15368 15369 15370 15371 15372 15373 15374 15375 15376 15377 15378 15379 15380 15381 15382 15383 15384 15385 15386 15387 15388 15389 15390 15391 15392 15393 15394 15395 15396 15397 15398 15399 15400 15401 15402 15403 15404 15405 15406 15407 15408 15409 15410 15411 15412 15413 15414 15415 15416 15417 15418 15419 15420 15421 15422 15423 15424 15425 15426 15427 15428 15429 15430 15431 15432 15433 15434 15435 15436 15437 15438 15439 15440 15441 15442 15443 15444 15445 15446 15447 15448 15449 15450 15451 15452 15453 15454 15455 15456 15457 15458 15459 15460 15461 15462 15463 15464 15465 15466 15467 15468 15469 15470 15471 15472 15473 15474 15475 15476 15477 15478 15479 15480 15481 15482 15483 15484 15485 15486 15487 15488 15489 15490 15491 15492 15493 15494 15495 15496 15497 15498 15499 15500 15501 15502 15503 15504 15505 15506 15507 15508 15509 15510 15511 15512 15513 15514 15515 15516 15517 15518 15519 15520 15521 15522 15523 15524 15525 15526 15527 15528 15529 15530 15531 15532 15533 15534 15535 15536 15537 15538 15539 15540 15541 15542 15543 15544 15545 15546 15547 15548 15549 15550 15551 15552 15553 15554 15555 15556 15557 15558 15559 15560 15561 15562 15563 15564 15565 15566 15567 15568 15569 15570 15571 15572 15573 15574 15575 15576 15577 15578 15579 15580 15581 15582 15583 15584 15585 15586 15587 15588 15589 15590 15591 15592 15593 15594 15595 15596 15597 15598 15599 15600 15601 15602 15603 15604 15605 15606 15607 15608 15609 15610 15611 15612 15613 15614 15615 15616 15617 15618 15619 15620 15621 15622 15623 15624 15625 15626 15627 15628 15629 15630 15631 15632 15633 15634 15635 15636 15637 15638 15639 15640 15641 15642 15643 15644 15645 15646 15647 15648 15649 15650 15651 15652 15653 15654 15655 15656 15657 15658 15659 15660 15661 15662 15663 15664 15665 15666 15667 15668 15669 15670 15671 15672 15673 15674 15675 15676 15677 15678 15679 15680 15681 15682 15683 15684 15685 15686 15687 15688 15689 15690 15691 15692 15693 15694 15695 15696 15697 15698 15699 15700 15701 15702 15703 15704 15705 15706 15707 15708 15709 15710 15711 15712 15713 15714 15715 15716 15717 15718 15719 15720 15721 15722 15723 15724 15725 15726 15727 15728 15729 15730 15731 15732 15733 15734 15735 15736 15737 15738 15739 15740 15741 15742 15743 15744 15745 15746 15747 15748 15749 15750 15751 15752 15753 15754 15755 15756 15757 15758 15759 15760 15761 15762 15763 15764 15765 15766 15767 15768 15769 15770 15771 15772 15773 15774 15775 15776 15777 15778 15779 15780 15781 15782 15783 15784 15785 15786 15787 15788 15789 15790 15791 15792 15793 15794 15795 15796 15797 15798 15799 15800 15801 15802 15803 15804 15805 15806 15807 15808 15809 15810 15811 15812 15813 15814 15815 15816 15817 15818 15819 15820 15821 15822 15823 15824 15825 15826 15827 15828 15829 15830 15831 15832 15833 15834 15835 15836 15837 15838 15839 15840 15841 15842 15843 15844 15845 15846 15847 15848 15849 15850 15851 15852 15853 15854 15855 15856 15857 15858 15859 15860 15861 15862 15863 15864 15865 15866 15867 15868 15869 15870 15871 15872 15873 15874 15875 15876 15877 15878 15879 15880 15881 15882 15883 15884 15885 15886 15887 15888 15889 15890 15891 15892 15893 15894 15895 15896 15897 15898 15899 15900 15901 15902 15903 15904 15905 15906 15907 15908 15909 15910 15911 15912 15913 15914 15915 15916 15917 15918 15919 15920 15921 15922 15923 15924 15925 15926 15927 15928 15929 15930 15931 15932 15933 15934 15935 15936 15937 15938 15939 15940 15941 15942 15943 15944 15945 15946 15947 15948 15949 15950 15951 15952 15953 15954 15955 15956 15957 15958 15959 15960 15961 15962 15963 15964 15965 15966 15967 15968 15969 15970 15971 15972 15973 15974 15975 15976 15977 15978 15979 15980 15981 15982 15983 15984 15985 15986 15987 15988 15989 15990 15991 15992 15993 15994 15995 15996 15997 15998 15999 16000 16001 16002 16003 16004 16005 16006 16007 16008 16009 16010 16011 16012 16013 16014 16015 16016 16017 16018 16019 16020 16021 16022 16023 16024 16025 16026 16027 16028 16029 16030 16031 16032 16033 16034 16035 16036 16037 16038 16039 16040 16041 16042 16043 16044 16045 16046 16047 16048 16049 16050 16051 16052 16053 16054 16055 16056 16057 16058 16059 16060 16061 16062 16063 16064 16065 16066 16067 16068 16069 16070 16071 16072 16073 16074 16075 16076 16077 16078 16079 16080 16081 16082 16083 16084 16085 16086 16087 16088 16089 16090 16091 16092 16093 16094 16095 16096 16097 16098 16099 16100 16101 16102 16103 16104 16105 16106 16107 16108 16109 16110 16111 16112 16113 16114 16115 16116 16117 16118 16119 16120 16121 16122 16123 16124 16125 16126 16127 16128 16129 16130 16131 16132 16133 16134 16135 16136 16137 16138 16139 16140 16141 16142 16143 16144 16145 16146 16147 16148 16149 16150 16151 16152 16153 16154 16155 16156 16157 16158 16159 16160 16161 16162 16163 16164 16165 16166 16167 16168 16169 16170 16171 16172 16173 16174 16175 16176 16177 16178 16179 16180 16181 16182 16183 16184 16185 16186 16187 16188 16189 16190 16191 16192 16193 16194 16195 16196 16197 16198 16199 16200 16201 16202 16203 16204 16205 16206 16207 16208 16209 16210 16211 16212 16213 16214 16215 16216 16217 16218 16219 16220 16221 16222 16223 16224 16225 16226 16227 16228 16229 16230 16231 16232 16233 16234 16235 16236 16237 16238 16239 16240 16241 16242 16243 16244 16245 16246 16247 16248 16249 16250 16251 16252 16253 16254 16255 16256 16257 16258 16259 16260 16261 16262 16263 16264 16265 16266 16267 16268 16269 16270 16271 16272 16273 16274 16275 16276 16277 16278 16279 16280 16281 16282 16283 16284 16285 16286 16287 16288 16289 16290 16291 16292 16293 16294 16295 16296 16297 16298 16299 16300 16301 16302 16303 16304 16305 16306 16307 16308 16309 16310 16311 16312 16313 16314 16315 16316 16317 16318 16319 16320 16321 16322 16323 16324 16325 16326 16327 16328 16329 16330 16331 16332 16333 16334 16335 16336 16337 16338 16339 16340 16341 16342 16343 16344 16345 16346 16347 16348 16349 16350 16351 16352 16353 16354 16355 16356 16357 16358 16359 16360 16361 16362 16363 16364 16365 16366 16367 16368 16369 16370 16371 16372 16373 16374 16375 16376 16377 16378 16379 16380 16381 16382 16383 16384 16385 16386 16387 16388 16389 16390 16391 16392 16393 16394 16395 16396 16397 16398 16399 16400 16401 16402 16403 16404 16405 16406 16407 16408 16409 16410 16411 16412 16413 16414 16415 16416 16417 16418 16419 16420 16421 16422 16423 16424 16425 16426 16427 16428 16429 16430 16431 16432 16433 16434 16435 16436 16437 16438 16439 16440 16441 16442 16443 16444 16445 16446 16447 16448 16449 16450 16451 16452 16453 16454 16455 16456 16457 16458 16459 16460 16461 16462 16463 16464 16465 16466 16467 16468 16469 16470 16471 16472 16473 16474 16475 16476 16477 16478 16479 16480 16481 16482 16483 16484 16485 16486 16487 16488 16489 16490 16491 16492 16493 16494 16495 16496 16497 16498 16499 16500 16501 16502 16503 16504 16505 16506 16507 16508 16509 16510 16511 16512 16513 16514 16515 16516 16517 16518 16519 16520 16521 16522 16523 16524 16525 16526 16527 16528 16529 16530 16531 16532 16533 16534 16535 16536 16537 16538 16539 16540 16541 16542 16543 16544 16545 16546 16547 16548 16549 16550 16551 16552 16553 16554 16555 16556 16557 16558 16559 16560 16561 16562 16563 16564 16565 16566 16567 16568 16569 16570 16571 16572 16573 16574 16575 16576 16577 16578 16579 16580 16581 16582 16583 16584 16585 16586 16587 16588 16589 16590 16591 16592 16593 16594 16595 16596 16597 16598 16599 16600 16601 16602 16603 16604 16605 16606 16607 16608 16609 16610 16611 16612 16613 16614 16615 16616 16617 16618 16619 16620 16621 16622 16623 16624 16625 16626 16627 16628 16629 16630 16631 16632 16633 16634 16635 16636 16637 16638 16639 16640 16641 16642 16643 16644 16645 16646 16647 16648 16649 16650 16651 16652 16653 16654 16655 16656 16657 16658 16659 16660 16661 16662 16663 16664 16665 16666 16667 16668 16669 16670 16671 16672 16673 16674 16675 16676 16677 16678 16679 16680 16681 16682 16683 16684 16685 16686 16687 16688 16689 16690 16691 16692 16693 16694 16695 16696 16697 16698 16699 16700 16701 16702 16703 16704 16705 16706 16707 16708 16709 16710 16711 16712 16713 16714 16715 16716 16717 16718 16719 16720 16721 16722 16723 16724 16725 16726 16727 16728 16729 16730 16731 16732 16733 16734 16735 16736 16737 16738 16739 16740 16741 16742 16743 16744 16745 16746 16747 16748 16749 16750 16751 16752 16753 16754 16755 16756 16757 16758 16759 16760 16761 16762 16763 16764 16765 16766 16767 16768 16769 16770 16771 16772 16773 16774 16775 16776 16777 16778 16779 16780 16781 16782 16783 16784 16785 16786 16787 16788 16789 16790 16791 16792 16793 16794 16795 16796 16797 16798 16799 16800 16801 16802 16803 16804 16805 16806 16807 16808 16809 16810 16811 16812 16813 16814 16815 16816 16817 16818 16819 16820 16821 16822 16823 16824 16825 16826 16827 16828 16829 16830 16831 16832 16833 16834 16835 16836 16837 16838 16839 16840 16841 16842 16843 16844 16845 16846 16847 16848 16849 16850 16851 16852 16853 16854 16855 16856 16857 16858 16859 16860 16861 16862 16863 16864 16865 16866 16867 16868 16869 16870 16871 16872 16873 16874 16875 16876 16877 16878 16879 16880 16881 16882 16883 16884 16885 16886 16887 16888 16889 16890 16891 16892 16893 16894 16895 16896 16897 16898 16899 16900 16901 16902 16903 16904 16905 16906 16907 16908 16909 16910 16911 16912 16913 16914 16915 16916 16917 16918 16919 16920 16921 16922 16923 16924 16925 16926 16927 16928 16929 16930 16931 16932 16933 16934 16935 16936 16937 16938 16939 16940 16941 16942 16943 16944 16945 16946 16947 16948 16949 16950 16951 16952 16953 16954 16955 16956 16957 16958 16959 16960 16961 16962 16963 16964 16965 16966 16967 16968 16969 16970 16971 16972 16973 16974 16975 16976 16977 16978 16979 16980 16981 16982 16983 16984 16985 16986 16987 16988 16989 16990 16991 16992 16993 16994 16995 16996 16997 16998 16999 17000 17001 17002 17003 17004 17005 17006 17007 17008 17009 17010 17011 17012 17013 17014 17015 17016 17017 17018 17019 17020 17021 17022 17023 17024 17025 17026 17027 17028 17029 17030 17031 17032 17033 17034 17035 17036 17037 17038 17039 17040 17041 17042 17043 17044 17045 17046 17047 17048 17049 17050 17051 17052 17053 17054 17055 17056 17057 17058 17059 17060 17061 17062 17063 17064 17065 17066 17067 17068 17069 17070 17071 17072 17073 17074 17075 17076 17077 17078 17079 17080 17081 17082 17083 17084 17085 17086 17087 17088 17089 17090 17091 17092 17093 17094 17095 17096 17097 17098 17099 17100 17101 17102 17103 17104 17105 17106 17107 17108 17109 17110 17111 17112 17113 17114 17115 17116 17117 17118 17119 17120 17121 17122 17123 17124 17125 17126 17127 17128 17129 17130 17131 17132 17133 17134 17135 17136 17137 17138 17139 17140 17141 17142 17143 17144 17145 17146 17147 17148 17149 17150 17151 17152 17153 17154 17155 17156 17157 17158 17159 17160 17161 17162 17163 17164 17165 17166 17167 17168 17169 17170 17171 17172 17173 17174 17175 17176 17177 17178 17179 17180 17181 17182 17183 17184 17185 17186 17187 17188 17189 17190 17191 17192 17193 17194 17195 17196 17197 17198 17199 17200 17201 17202 17203 17204 17205 17206 17207 17208 17209 17210 17211 17212 17213 17214 17215 17216 17217 17218 17219 17220 17221 17222 17223 17224 17225 17226 17227 17228 17229 17230 17231 17232 17233 17234 17235 17236 17237 17238 17239 17240 17241 17242 17243 17244 17245 17246 17247 17248 17249 17250 17251 17252 17253 17254 17255 17256 17257 17258 17259 17260 17261 17262 17263 17264 17265 17266 17267 17268 17269 17270 17271 17272 17273 17274 17275 17276 17277 17278 17279 17280 17281 17282 17283 17284 17285 17286 17287 17288 17289 17290 17291 17292 17293 17294 17295 17296 17297 17298 17299 17300 17301 17302 17303 17304 17305 17306 17307 17308 17309 17310 17311 17312 17313 17314 17315 17316 17317 17318 17319 17320 17321 17322 17323 17324 17325 17326 17327 17328 17329 17330 17331 17332 17333 17334 17335 17336 17337 17338 17339 17340 17341 17342 17343 17344 17345 17346 17347 17348 17349 17350 17351 17352 17353 17354 17355 17356 17357 17358 17359 17360 17361 17362 17363 17364 17365 17366 17367 17368 17369 17370 17371 17372 17373 17374 17375 17376 17377 17378 17379 17380 17381 17382 17383 17384 17385 17386 17387 17388 17389 17390 17391 17392 17393 17394 17395 17396 17397 17398 17399 17400 17401 17402 17403 17404 17405 17406 17407 17408 17409 17410 17411 17412 17413 17414 17415 17416 17417 17418 17419 17420 17421 17422 17423 17424 17425 17426 17427 17428 17429 17430 17431 17432 17433 17434 17435 17436 17437 17438 17439 17440 17441 17442 17443 17444 17445 17446 17447 17448 17449 17450 17451 17452 17453 17454 17455 17456 17457 17458 17459 17460 17461 17462 17463 17464 17465 17466 17467 17468 17469 17470 17471 17472 17473 17474 17475 17476 17477 17478 17479 17480 17481 17482 17483 17484 17485 17486 17487 17488 17489 17490 17491 17492 17493 17494 17495 17496 17497 17498 17499 17500 17501 17502 17503 17504 17505 17506 17507 17508 17509 17510 17511 17512 17513 17514 17515 17516 17517 17518 17519 17520 17521 17522 17523 17524 17525 17526 17527 17528 17529 17530 17531 17532 17533 17534 17535 17536 17537 17538 17539 17540 17541 17542 17543 17544 17545 17546 17547 17548 17549 17550 17551 17552 17553 17554 17555 17556 17557 17558 17559 17560 17561 17562 17563 17564 17565 17566 17567 17568 17569 17570 17571 17572 17573 17574 17575 17576 17577 17578 17579 17580 17581 17582 17583 17584 17585 17586 17587 17588 17589 17590 17591 17592 17593 17594 17595 17596 17597 17598 17599 17600 17601 17602 17603 17604 17605 17606 17607 17608 17609 17610 17611 17612 17613 17614 17615 17616 17617 17618 17619 17620 17621 17622 17623 17624 17625 17626 17627 17628 17629 17630 17631 17632 17633 17634 17635 17636 17637 17638 17639 17640 17641 17642 17643 17644 17645 17646 17647 17648 17649 17650 17651 17652 17653 17654 17655 17656 17657 17658 17659 17660 17661 17662 17663 17664 17665 17666 17667 17668 17669 17670 17671 17672 17673 17674 17675 17676 17677 17678 17679 17680 17681 17682 17683 17684 17685 17686 17687 17688 17689 17690 17691 17692 17693 17694 17695 17696 17697 17698 17699 17700 17701 17702 17703 17704 17705 17706 17707 17708 17709 17710 17711 17712 17713 17714 17715 17716 17717 17718 17719 17720 17721 17722 17723 17724 17725 17726 17727 17728 17729 17730 17731 17732 17733 17734 17735 17736 17737 17738 17739 17740 17741 17742 17743 17744 17745 17746 17747 17748 17749 17750 17751 17752 17753 17754 17755 17756 17757 17758 17759 17760 17761 17762 17763 17764 17765 17766 17767 17768 17769 17770 17771 17772 17773 17774 17775 17776 17777 17778 17779 17780 17781 17782 17783 17784 17785 17786 17787 17788 17789 17790 17791 17792 17793 17794 17795 17796 17797 17798 17799 17800 17801 17802 17803 17804 17805 17806 17807 17808 17809 17810 17811 17812 17813 17814 17815 17816 17817 17818 17819 17820 17821 17822 17823 17824 17825 17826 17827 17828 17829 17830 17831 17832 17833 17834 17835 17836 17837 17838 17839 17840 17841 17842 17843 17844 17845 17846 17847 17848 17849 17850 17851 17852 17853 17854 17855 17856 17857 17858 17859 17860 17861 17862 17863 17864 17865 17866 17867 17868 17869 17870 17871 17872 17873 17874 17875 17876 17877 17878 17879 17880 17881 17882 17883 17884 17885 17886 17887 17888 17889 17890 17891 17892 17893 17894 17895 17896 17897 17898 17899 17900 17901 17902 17903 17904 17905 17906 17907 17908 17909 17910 17911 17912 17913 17914 17915 17916 17917 17918 17919 17920 17921 17922 17923 17924 17925 17926 17927 17928 17929 17930 17931 17932 17933 17934 17935 17936 17937 17938 17939 17940 17941 17942 17943 17944 17945 17946 17947 17948 17949 17950 17951 17952 17953 17954 17955 17956 17957 17958 17959 17960 17961 17962 17963 17964 17965 17966 17967 17968 17969 17970 17971 17972 17973 17974 17975 17976 17977 17978 17979 17980 17981 17982 17983 17984 17985 17986 17987 17988 17989 17990 17991 17992 17993 17994 17995 17996 17997 17998 17999 18000 18001 18002 18003 18004 18005 18006 18007 18008 18009 18010 18011 18012 18013 18014 18015 18016 18017 18018 18019 18020 18021 18022 18023 18024 18025 18026 18027 18028 18029 18030 18031 18032 18033 18034 18035 18036 18037 18038 18039 18040 18041 18042 18043 18044 18045 18046 18047 18048 18049 18050 18051 18052 18053 18054 18055 18056 18057 18058 18059 18060 18061 18062 18063 18064 18065 18066 18067 18068 18069 18070 18071 18072 18073 18074 18075 18076 18077 18078 18079 18080 18081 18082 18083 18084 18085 18086 18087 18088 18089 18090 18091 18092 18093 18094 18095 18096 18097 18098 18099 18100 18101 18102 18103 18104 18105 18106 18107 18108 18109 18110 18111 18112 18113 18114 18115 18116 18117 18118 18119 18120 18121 18122 18123 18124 18125 18126 18127 18128 18129 18130 18131 18132 18133 18134 18135 18136 18137 18138 18139 18140 18141 18142 18143 18144 18145 18146 18147 18148 18149 18150 18151 18152 18153 18154 18155 18156 18157 18158 18159 18160 18161 18162 18163 18164 18165 18166 18167 18168 18169 18170 18171 18172 18173 18174 18175 18176 18177 18178 18179 18180 18181 18182 18183 18184 18185 18186 18187 18188 18189 18190 18191 18192 18193 18194 18195 18196 18197 18198 18199 18200 18201 18202 18203 18204 18205 18206 18207 18208 18209 18210 18211 18212 18213 18214 18215 18216 18217 18218 18219 18220 18221 18222 18223 18224 18225 18226 18227 18228 18229 18230 18231 18232 18233 18234 18235 18236 18237 18238 18239 18240 18241 18242 18243 18244 18245 18246 18247 18248 18249 18250 18251 18252 18253 18254 18255 18256 18257 18258 18259 18260 18261 18262 18263 18264 18265 18266 18267 18268 18269 18270 18271 18272 18273 18274 18275 18276 18277 18278 18279 18280 18281 18282 18283 18284 18285 18286 18287 18288 18289 18290 18291 18292 18293 18294 18295 18296 18297 18298 18299 18300 18301 18302 18303 18304 18305 18306 18307 18308 18309 18310 18311 18312 18313 18314 18315 18316 18317 18318 18319 18320 18321 18322 18323 18324 18325 18326 18327 18328 18329 18330 18331 18332 18333 18334 18335 18336 18337 18338 18339 18340 18341 18342 18343 18344 18345 18346 18347 18348 18349 18350 18351 18352 18353 18354 18355 18356 18357 18358 18359 18360 18361 18362 18363 18364 18365 18366 18367 18368 18369 18370 18371 18372 18373 18374 18375 18376 18377 18378 18379 18380 18381 18382 18383 18384 18385 18386 18387 18388 18389 18390 18391 18392 18393 18394 18395 18396 18397 18398 18399 18400 18401 18402 18403 18404 18405 18406 18407 18408 18409 18410 18411 18412 18413 18414 18415 18416 18417 18418 18419 18420 18421 18422 18423 18424 18425 18426 18427 18428 18429 18430 18431 18432 18433 18434 18435 18436 18437 18438 18439 18440 18441 18442 18443 18444 18445 18446 18447 18448 18449 18450 18451 18452 18453 18454 18455 18456 18457 18458 18459 18460 18461 18462 18463 18464 18465 18466 18467 18468 18469 18470 18471 18472 18473 18474 18475 18476 18477 18478 18479 18480 18481 18482 18483 18484 18485 18486 18487 18488 18489 18490 18491 18492 18493 18494 18495 18496 18497 18498 18499 18500 18501 18502 18503 18504 18505 18506 18507 18508 18509 18510 18511 18512 18513 18514 18515 18516 18517 18518 18519 18520 18521 18522 18523 18524 18525 18526 18527 18528 18529 18530 18531 18532 18533 18534 18535 18536 18537 18538 18539 18540 18541 18542 18543 18544 18545 18546 18547 18548 18549 18550 18551 18552 18553 18554 18555 18556 18557 18558 18559 18560 18561 18562 18563 18564 18565 18566 18567 18568 18569 18570 18571 18572 18573 18574 18575 18576 18577 18578 18579 18580 18581 18582 18583 18584 18585 18586 18587 18588 18589 18590 18591 18592 18593 18594 18595 18596 18597 18598 18599 18600 18601 18602 18603 18604 18605 18606 18607 18608 18609 18610 18611 18612 18613 18614 18615 18616 18617 18618 18619 18620 18621 18622 18623 18624 18625 18626 18627 18628 18629 18630 18631 18632 18633 18634 18635 18636 18637 18638 18639 18640 18641 18642 18643 18644 18645 18646 18647 18648 18649 18650 18651 18652 18653 18654 18655 18656 18657 18658 18659 18660 18661 18662 18663 18664 18665 18666 18667 18668 18669 18670 18671 18672 18673 18674 18675 18676 18677 18678 18679 18680 18681 18682 18683 18684 18685 18686 18687 18688 18689 18690 18691 18692 18693 18694 18695 18696 18697 18698 18699 18700 18701 18702 18703 18704 18705 18706 18707 18708 18709 18710 18711 18712 18713 18714 18715 18716 18717 18718 18719 18720 18721 18722 18723 18724 18725 18726 18727 18728 18729 18730 18731 18732 18733 18734 18735 18736 18737 18738 18739 18740 18741 18742 18743 18744 18745 18746 18747 18748 18749 18750 18751 18752 18753 18754 18755 18756 18757 18758 18759 18760 18761 18762 18763 18764 18765 18766 18767 18768 18769 18770 18771 18772 18773 18774 18775 18776 18777 18778 18779 18780 18781 18782 18783 18784 18785 18786 18787 18788 18789 18790 18791 18792 18793 18794 18795 18796 18797 18798 18799 18800 18801 18802 18803 18804 18805 18806 18807 18808 18809 18810 18811 18812 18813 18814 18815 18816 18817 18818 18819 18820 18821 18822 18823 18824 18825 18826 18827 18828 18829 18830 18831 18832 18833 18834 18835 18836 18837 18838 18839 18840 18841 18842 18843 18844 18845 18846 18847 18848 18849 18850 18851 18852 18853 18854 18855 18856 18857 18858 18859 18860 18861 18862 18863 18864 18865 18866 18867 18868 18869 18870 18871 18872 18873 18874 18875 18876 18877 18878 18879 18880 18881 18882 18883 18884 18885 18886 18887 18888 18889 18890 18891 18892 18893 18894 18895 18896 18897 18898 18899 18900 18901 18902 18903 18904 18905 18906 18907 18908 18909 18910 18911 18912 18913 18914 18915 18916 18917 18918 18919 18920 18921 18922 18923 18924 18925 18926 18927 18928 18929 18930 18931 18932 18933 18934 18935 18936 18937 18938 18939 18940 18941 18942 18943 18944 18945 18946 18947 18948 18949 18950 18951 18952 18953 18954 18955 18956 18957 18958 18959 18960 18961 18962 18963 18964 18965 18966 18967 18968 18969 18970 18971 18972 18973 18974 18975 18976 18977 18978 18979 18980 18981 18982 18983 18984 18985 18986 18987 18988 18989 18990 18991 18992 18993 18994 18995 18996 18997 18998 18999 19000 19001 19002 19003 19004 19005 19006 19007 19008 19009 19010 19011 19012 19013 19014 19015 19016 19017 19018 19019 19020 19021 19022 19023 19024 19025 19026 19027 19028 19029 19030 19031 19032 19033 19034 19035 19036 19037 19038 19039 19040 19041 19042 19043 19044 19045 19046 19047 19048 19049 19050 19051 19052 19053 19054 19055 19056 19057 19058 19059 19060 19061 19062 19063 19064 19065 19066 19067 19068 19069 19070 19071 19072 19073 19074 19075 19076 19077 19078 19079 19080 19081 19082 19083 19084 19085 19086 19087 19088 19089 19090 19091 19092 19093 19094 19095 19096 19097 19098 19099 19100 19101 19102 19103 19104 19105 19106 19107 19108 19109 19110 19111 19112 19113 19114 19115 19116 19117 19118 19119 19120 19121 19122 19123 19124 19125 19126 19127 19128 19129 19130 19131 19132 19133 19134 19135 19136 19137 19138 19139 19140 19141 19142 19143 19144 19145 19146 19147 19148 19149 19150 19151 19152 19153 19154 19155 19156 19157 19158 19159 19160 19161 19162 19163 19164 19165 19166 19167 19168 19169 19170 19171 19172 19173 19174 19175 19176 19177 19178 19179 19180 19181 19182 19183 19184 19185 19186 19187 19188 19189 19190 19191 19192 19193 19194 19195 19196 19197 19198 19199 19200 19201 19202 19203 19204 19205 19206 19207 19208 19209 19210 19211 19212 19213 19214 19215 19216 19217 19218 19219 19220 19221 19222 19223 19224 19225 19226 19227 19228 19229 19230 19231 19232 19233 19234 19235 19236 19237 19238 19239 19240 19241 19242 19243 19244 19245 19246 19247 19248 19249 19250 19251 19252 19253 19254 19255 19256 19257 19258 19259 19260 19261 19262 19263 19264 19265 19266 19267 19268 19269 19270 19271 19272 19273 19274 19275 19276 19277 19278 19279 19280 19281 19282 19283 19284 19285 19286 19287 19288 19289 19290 19291 19292 19293 19294 19295 19296 19297 19298 19299 19300 19301 19302 19303 19304 19305 19306 19307 19308 19309 19310 19311 19312 19313 19314 19315 19316 19317 19318 19319 19320 19321 19322 19323 19324 19325 19326 19327 19328 19329 19330 19331 19332 19333 19334 19335 19336 19337 19338 19339 19340 19341 19342 19343 19344 19345 19346 19347 19348 19349 19350 19351 19352 19353 19354 19355 19356 19357 19358 19359 19360 19361 19362 19363 19364 19365 19366 19367 19368 19369 19370 19371 19372 19373 19374 19375 19376 19377 19378 19379 19380 19381 19382 19383 19384 19385 19386 19387 19388 19389 19390 19391 19392 19393 19394 19395 19396 19397 19398 19399 19400 19401 19402 19403 19404 19405 19406 19407 19408 19409 19410 19411 19412 19413 19414 19415 19416 19417 19418 19419 19420 19421 19422 19423 19424 19425 19426 19427 19428 19429 19430 19431 19432 19433 19434 19435 19436 19437 19438 19439 19440 19441 19442 19443 19444 19445 19446 19447 19448 19449 19450 19451 19452 19453 19454 19455 19456 19457 19458 19459 19460 19461 19462 19463 19464 19465 19466 19467 19468 19469 19470 19471 19472 19473 19474 19475 19476 19477 19478 19479 19480 19481 19482 19483 19484 19485 19486 19487 19488 19489 19490 19491 19492 19493 19494 19495 19496 19497 19498 19499 19500 19501 19502 19503 19504 19505 19506 19507 19508 19509 19510 19511 19512 19513 19514 19515 19516 19517 19518 19519 19520 19521 19522 19523 19524 19525 19526 19527 19528 19529 19530 19531 19532 19533 19534 19535 19536 19537 19538 19539 19540 19541 19542 19543 19544 19545 19546 19547 19548 19549 19550 19551 19552 19553 19554 19555 19556 19557 19558 19559 19560 19561 19562 19563 19564 19565 19566 19567 19568 19569 19570 19571 19572 19573 19574 19575 19576 19577 19578 19579 19580 19581 19582 19583 19584 19585 19586 19587 19588 19589 19590 19591 19592 19593 19594 19595 19596 19597 19598 19599 19600 19601 19602 19603 19604 19605 19606 19607 19608 19609 19610 19611 19612 19613 19614 19615 19616 19617 19618 19619 19620 19621 19622 19623 19624 19625 19626 19627 19628 19629 19630 19631 19632 19633 19634 19635 19636 19637 19638 19639 19640 19641 19642 19643 19644 19645 19646 19647 19648 19649 19650 19651 19652 19653 19654 19655 19656 19657 19658 19659 19660 19661 19662 19663 19664 19665 19666 19667 19668 19669 19670 19671 19672 19673 19674 19675 19676 19677 19678 19679 19680 19681 19682 19683 19684 19685 19686 19687 19688 19689 19690 19691 19692 19693 19694 19695 19696 19697 19698 19699 19700 19701 19702 19703 19704 19705 19706 19707 19708 19709 19710 19711 19712 19713 19714 19715 19716 19717 19718 19719 19720 19721 19722 19723 19724 19725 19726 19727 19728 19729 19730 19731 19732 19733 19734 19735 19736 19737 19738 19739 19740 19741 19742 19743 19744 19745 19746 19747 19748 19749 19750 19751 19752 19753 19754 19755 19756 19757 19758 19759 19760 19761 19762 19763 19764 19765 19766 19767 19768 19769 19770 19771 19772 19773 19774 19775 19776 19777 19778 19779 19780 19781 19782 19783 19784 19785 19786 19787 19788 19789 19790 19791 19792 19793 19794 19795 19796 19797 19798 19799 19800 19801 19802 19803 19804 19805 19806 19807 19808 19809 19810 19811 19812 19813 19814 19815 19816 19817 19818 19819 19820 19821 19822 19823 19824 19825 19826 19827 19828 19829 19830 19831 19832 19833 19834 19835 19836 19837 19838 19839 19840 19841 19842 19843 19844 19845 19846 19847 19848 19849 19850 19851 19852 19853 19854 19855 19856 19857 19858 19859 19860 19861 19862 19863 19864 19865 19866 19867 19868 19869 19870 19871 19872 19873 19874 19875 19876 19877 19878 19879 19880 19881 19882 19883 19884 19885 19886 19887 19888 19889 19890 19891 19892 19893 19894 19895 19896 19897 19898 19899 19900 19901 19902 19903 19904 19905 19906 19907 19908 19909 19910 19911 19912 19913 19914 19915 19916 19917 19918 19919 19920 19921 19922 19923 19924 19925 19926 19927 19928 19929 19930 19931 19932 19933 19934 19935 19936 19937 19938 19939 19940 19941 19942 19943 19944 19945 19946 19947 19948 19949 19950 19951 19952 19953 19954 19955 19956 19957 19958 19959 19960 19961 19962 19963 19964 19965 19966 19967 19968 19969 19970 19971 19972 19973 19974 19975 19976 19977 19978 19979 19980 19981 19982 19983 19984 19985 19986 19987 19988 19989 19990 19991 19992 19993 19994 19995 19996 19997 19998 19999 20000 20001 20002 20003 20004 20005 20006 20007 20008 20009 20010 20011 20012 20013 20014 20015 20016 20017 20018 20019 20020 20021 20022 20023 20024 20025 20026 20027 20028 20029 20030 20031 20032 20033 20034 20035 20036 20037 20038 20039 20040 20041 20042 20043 20044 20045 20046 20047 20048 20049 20050 20051 20052 20053 20054 20055 20056 20057 20058 20059 20060 20061 20062 20063 20064 20065 20066 20067 20068 20069 20070 20071 20072 20073 20074 20075 20076 20077 20078 20079 20080 20081 20082 20083 20084 20085 20086 20087 20088 20089 20090 20091 20092 20093 20094 20095 20096 20097 20098 20099 20100 20101 20102 20103 20104 20105 20106 20107 20108 20109 20110 20111 20112 20113 20114 20115 20116 20117 20118 20119 20120 20121 20122 20123 20124 20125 20126 20127 20128 20129 20130 20131 20132 20133 20134 20135 20136 20137 20138 20139 20140 20141 20142 20143 20144 20145 20146 20147 20148 20149 20150 20151 20152 20153 20154 20155 20156 20157 20158 20159 20160 20161 20162 20163 20164 20165 20166 20167 20168 20169 20170 20171 20172 20173 20174 20175 20176 20177 20178 20179 20180 20181 20182 20183 20184 20185 20186 20187 20188 20189 20190 20191 20192 20193 20194 20195 20196 20197 20198 20199 20200 20201 20202 20203 20204 20205 20206 20207 20208 20209 20210 20211 20212 20213 20214 20215 20216 20217 20218 20219 20220 20221 20222 20223 20224 20225 20226 20227 20228 20229 20230 20231 20232 20233 20234 20235 20236 20237 20238 20239 20240 20241 20242 20243 20244 20245 20246 20247 20248 20249 20250 20251 20252 20253 20254 20255 20256 20257 20258 20259 20260 20261 20262 20263 20264 20265 20266 20267 20268 20269 20270 20271 20272 20273 20274 20275 20276 20277 20278 20279 20280 20281 20282 20283 20284 20285 20286 20287 20288 20289 20290 20291 20292 20293 20294 20295 20296 20297 20298 20299 20300 20301 20302 20303 20304 20305 20306 20307 20308 20309 20310 20311 20312 20313 20314 20315 20316 20317 20318 20319 20320 20321 20322 20323 20324 20325 20326 20327 20328 20329 20330 20331 20332 20333 20334 20335 20336 20337 20338 20339 20340 20341 20342 20343 20344 20345 20346 20347 20348 20349 20350 20351 20352 20353 20354 20355 20356 20357 20358 20359 20360 20361 20362 20363 20364 20365 20366 20367 20368 20369 20370 20371 20372 20373 20374 20375 20376 20377 20378 20379 20380 20381 20382 20383 20384 20385 20386 20387 20388 20389 20390 20391 20392 20393 20394 20395 20396 20397 20398 20399 20400 20401 20402 20403 20404 20405 20406 20407 20408 20409 20410 20411 20412 20413 20414 20415 20416 20417 20418 20419 20420 20421 20422 20423 20424 20425 20426 20427 20428 20429 20430 20431 20432 20433 20434 20435 20436 20437 20438 20439 20440 20441 20442 20443 20444 20445 20446 20447 20448 20449 20450 20451 20452 20453 20454 20455 20456 20457 20458 20459 20460 20461 20462 20463 20464 20465 20466 20467 20468 20469 20470 20471 20472 20473 20474 20475 20476 20477 20478 20479 20480 20481 20482 20483 20484 20485 20486 20487 20488 20489 20490 20491 20492 20493 20494 20495 20496 20497 20498 20499 20500 20501 20502 20503 20504 20505 20506 20507 20508 20509 20510 20511 20512 20513 20514 20515 20516 20517 20518 20519 20520 20521 20522 20523 20524 20525 20526 20527 20528 20529 20530 20531 20532 20533 20534 20535 20536 20537 20538 20539 20540 20541 20542 20543 20544 20545 20546 20547 20548 20549 20550 20551 20552 20553 20554 20555 20556 20557 20558 20559 20560 20561 20562 20563 20564 20565 20566 20567 20568 20569 20570 20571 20572 20573 20574 20575 20576 20577 20578 20579 20580 20581 20582 20583 20584 20585 20586 20587 20588 20589 20590 20591 20592 20593 20594 20595 20596 20597 20598 20599 20600 20601 20602 20603 20604 20605 20606 20607 20608 20609 20610 20611 20612 20613 20614 20615 20616 20617 20618 20619 20620 20621 20622 20623 20624 20625 20626 20627 20628 20629 20630 20631 20632 20633 20634 20635 20636 20637 20638 20639 20640 20641 20642 20643 20644 20645 20646 20647 20648 20649 20650 20651 20652 20653 20654 20655 20656 20657 20658 20659 20660 20661 20662 20663 20664 20665 20666 20667 20668 20669 20670 20671 20672 20673 20674 20675 20676 20677 20678 20679 20680 20681 20682 20683 20684 20685 20686 20687 20688 20689 20690 20691 20692 20693 20694 20695 20696 20697 20698 20699 20700 20701 20702 20703 20704 20705 20706 20707 20708 20709 20710 20711 20712 20713 20714 20715 20716 20717 20718 20719 20720 20721 20722 20723 20724 20725 20726 20727 20728 20729 20730 20731 20732 20733 20734 20735 20736 20737 20738 20739 20740 20741 20742 20743 20744 20745 20746 20747 20748 20749 20750 20751 20752 20753 20754 20755 20756 20757 20758 20759 20760 20761 20762 20763 20764 20765 20766 20767 20768 20769 20770 20771 20772 20773 20774 20775 20776 20777 20778 20779 20780 20781 20782 20783 20784 20785 20786 20787 20788 20789 20790 20791 20792 20793 20794 20795 20796 20797 20798 20799 20800 20801 20802 20803 20804 20805 20806 20807 20808 20809 20810 20811 20812 20813 20814 20815 20816 20817 20818 20819 20820 20821 20822 20823 20824 20825 20826 20827 20828 20829 20830 20831 20832 20833 20834 20835 20836 20837 20838 20839 20840 20841 20842 20843 20844 20845 20846 20847 20848 20849 20850 20851 20852 20853 20854 20855 20856 20857 20858 20859 20860 20861 20862 20863 20864 20865 20866 20867 20868 20869 20870 20871 20872 20873 20874 20875 20876 20877 20878 20879 20880 20881 20882 20883 20884 20885 20886 20887 20888 20889 20890 20891 20892 20893 20894 20895 20896 20897 20898 20899 20900 20901 20902 20903 20904 20905 20906 20907 20908 20909 20910 20911 20912 20913 20914 20915 20916 20917 20918 20919 20920 20921 20922 20923 20924 20925 20926 20927 20928 20929 20930 20931 20932 20933 20934 20935 20936 20937 20938 20939 20940 20941 20942 20943 20944 20945 20946 20947 20948 20949 20950 20951 20952 20953 20954 20955 20956 20957 20958 20959 20960 20961 20962 20963 20964 20965 20966 20967 20968 20969 20970 20971 20972 20973 20974 20975 20976 20977 20978 20979 20980 20981 20982 20983 20984 20985 20986 20987 20988 20989 20990 20991 20992 20993 20994 20995 20996 20997 20998 20999 21000 21001 21002 21003 21004 21005 21006 21007 21008 21009 21010 21011 21012 21013 21014 21015 21016 21017 21018 21019 21020 21021 21022 21023 21024 21025 21026 21027 21028 21029 21030 21031 21032 21033 21034 21035 21036 21037 21038 21039 21040 21041 21042 21043 21044 21045 21046 21047 21048 21049 21050 21051 21052 21053 21054 21055 21056 21057 21058 21059 21060 21061 21062 21063 21064 21065 21066 21067 21068 21069 21070 21071 21072 21073 21074 21075 21076 21077 21078 21079 21080 21081 21082 21083 21084 21085 21086 21087 21088 21089 21090 21091 21092 21093 21094 21095 21096 21097 21098 21099 21100 21101 21102 21103 21104 21105 21106 21107 21108 21109 21110 21111 21112 21113 21114 21115 21116 21117 21118 21119 21120 21121 21122 21123 21124 21125 21126 21127 21128 21129 21130 21131 21132 21133 21134 21135 21136 21137 21138 21139 21140 21141 21142 21143 21144 21145 21146 21147 21148 21149 21150 21151 21152 21153 21154 21155 21156 21157 21158 21159 21160 21161 21162 21163 21164 21165 21166 21167 21168 21169 21170 21171 21172 21173 21174 21175 21176 21177 21178 21179 21180 21181 21182 21183 21184 21185 21186 21187 21188 21189 21190 21191 21192 21193 21194 21195 21196 21197 21198 21199 21200 21201 21202 21203 21204 21205 21206 21207 21208 21209 21210 21211 21212 21213 21214 21215 21216 21217 21218 21219 21220 21221 21222 21223 21224 21225 21226 21227 21228 21229 21230 21231 21232 21233 21234 21235 21236 21237 21238 21239 21240 21241 21242 21243 21244 21245 21246 21247 21248 21249 21250 21251 21252 21253 21254 21255 21256 21257 21258 21259 21260 21261 21262 21263 21264 21265 21266 21267 21268 21269 21270 21271 21272 21273 21274 21275 21276 21277 21278 21279 21280 21281 21282 21283 21284 21285 21286 21287 21288 21289 21290 21291 21292 21293 21294 21295 21296 21297 21298 21299 21300 21301 21302 21303 21304 21305 21306 21307 21308 21309 21310 21311 21312 21313 21314 21315 21316 21317 21318 21319 21320 21321 21322 21323 21324 21325 21326 21327 21328 21329 21330 21331 21332 21333 21334 21335 21336 21337 21338 21339 21340 21341 21342 21343 21344 21345 21346 21347 21348 21349 21350 21351 21352 21353 21354 21355 21356 21357 21358 21359 21360 21361 21362 21363 21364 21365 21366 21367 21368 21369 21370 21371 21372 21373 21374 21375 21376 21377 21378 21379 21380 21381 21382 21383 21384 21385 21386 21387 21388 21389 21390 21391 21392 21393 21394 21395 21396 21397 21398 21399 21400 21401 21402 21403 21404 21405 21406 21407 21408 21409 21410 21411 21412 21413 21414 21415 21416 21417 21418 21419 21420 21421 21422 21423 21424 21425 21426 21427 21428 21429 21430 21431 21432 21433 21434 21435 21436 21437 21438 21439 21440 21441 21442 21443 21444 21445 21446 21447 21448 21449 21450 21451 21452 21453 21454 21455 21456 21457 21458 21459 21460 21461 21462 21463 21464 21465 21466 21467 21468 21469 21470 21471 21472 21473 21474 21475 21476 21477 21478 21479 21480 21481 21482 21483 21484 21485 21486 21487 21488 21489 21490 21491 21492 21493 21494 21495 21496 21497 21498 21499 21500 21501 21502 21503 21504 21505 21506 21507 21508 21509 21510 21511 21512 21513 21514 21515 21516 21517 21518 21519 21520 21521 21522 21523 21524 21525 21526 21527 21528 21529 21530 21531 21532 21533 21534 21535 21536 21537 21538 21539 21540 21541 21542 21543 21544 21545 21546 21547 21548 21549 21550 21551 21552 21553 21554 21555 21556 21557 21558 21559 21560 21561 21562 21563 21564 21565 21566 21567 21568 21569 21570 21571 21572 21573 21574 21575 21576 21577 21578 21579 21580 21581 21582 21583 21584 21585 21586 21587 21588 21589 21590 21591 21592 21593 21594 21595 21596 21597 21598 21599 21600 21601 21602 21603 21604 21605 21606 21607 21608 21609 21610 21611 21612 21613 21614 21615 21616 21617 21618 21619 21620 21621 21622 21623 21624 21625 21626 21627 21628 21629 21630 21631 21632 21633 21634 21635 21636 21637 21638 21639 21640 21641 21642 21643 21644 21645 21646 21647 21648 21649 21650 21651 21652 21653 21654 21655 21656 21657 21658 21659 21660 21661 21662 21663 21664 21665 21666 21667 21668 21669 21670 21671 21672 21673 21674 21675 21676 21677 21678 21679 21680 21681 21682 21683 21684 21685 21686 21687 21688 21689 21690 21691 21692 21693 21694 21695 21696 21697 21698 21699 21700 21701 21702 21703 21704 21705 21706 21707 21708 21709 21710 21711 21712 21713 21714 21715 21716 21717 21718 21719 21720 21721 21722 21723 21724 21725 21726 21727 21728 21729 21730 21731 21732 21733 21734 21735 21736 21737 21738 21739 21740 21741 21742 21743 21744 21745 21746 21747 21748 21749 21750 21751 21752 21753 21754 21755 21756 21757 21758 21759 21760 21761 21762 21763 21764 21765 21766 21767 21768 21769 21770 21771 21772 21773 21774 21775 21776 21777 21778 21779 21780 21781 21782 21783 21784 21785 21786 21787 21788 21789 21790 21791 21792 21793 21794 21795 21796 21797 21798 21799 21800 21801 21802 21803 21804 21805 21806 21807 21808 21809 21810 21811 21812 21813 21814 21815 21816 21817 21818 21819 21820 21821 21822 21823 21824 21825 21826 21827 21828 21829 21830 21831 21832 21833 21834 21835 21836 21837 21838 21839 21840 21841 21842 21843 21844 21845 21846 21847 21848 21849 21850 21851 21852 21853 21854 21855 21856 21857 21858 21859 21860 21861 21862 21863 21864 21865 21866 21867 21868 21869 21870 21871 21872 21873 21874 21875 21876 21877 21878 21879 21880 21881 21882 21883 21884 21885 21886 21887 21888 21889 21890 21891 21892 21893 21894 21895 21896 21897 21898 21899 21900 21901 21902 21903 21904 21905 21906 21907 21908 21909 21910 21911 21912 21913 21914 21915 21916 21917 21918 21919 21920 21921 21922 21923 21924 21925 21926 21927 21928 21929 21930 21931 21932 21933 21934 21935 21936 21937 21938 21939 21940 21941 21942 21943 21944 21945 21946 21947 21948 21949 21950 21951 21952 21953 21954 21955 21956 21957 21958 21959 21960 21961 21962 21963 21964 21965 21966 21967 21968 21969 21970 21971 21972 21973 21974 21975 21976 21977 21978 21979 21980 21981 21982 21983 21984 21985 21986 21987 21988 21989 21990 21991 21992 21993 21994 21995 21996 21997 21998 21999 22000 22001 22002 22003 22004 22005 22006 22007 22008 22009 22010 22011 22012 22013 22014 22015 22016 22017 22018 22019 22020 22021 22022 22023 22024 22025 22026 22027 22028 22029 22030 22031 22032 22033 22034 22035 22036 22037 22038 22039 22040 22041 22042 22043 22044 22045 22046 22047 22048 22049 22050 22051 22052 22053 22054 22055 22056 22057 22058 22059 22060 22061 22062 22063 22064 22065 22066 22067 22068 22069 22070 22071 22072 22073 22074 22075 22076 22077 22078 22079 22080 22081 22082 22083 22084 22085 22086 22087 22088 22089 22090 22091 22092 22093 22094 22095 22096 22097 22098 22099 22100 22101 22102 22103 22104 22105 22106 22107 22108 22109 22110 22111 22112 22113 22114 22115 22116 22117 22118 22119 22120 22121 22122 22123 22124 22125 22126 22127 22128 22129 22130 22131 22132 22133 22134 22135 22136 22137 22138 22139 22140 22141 22142 22143 22144 22145 22146 22147 22148 22149 22150 22151 22152 22153 22154 22155 22156 22157 22158 22159 22160 22161 22162 22163 22164 22165 22166 22167 22168 22169 22170 22171 22172 22173 22174 22175 22176 22177 22178 22179 22180 22181 22182 22183 22184 22185 22186 22187 22188 22189 22190 22191 22192 22193 22194 22195 22196 22197 22198 22199 22200 22201 22202 22203 22204 22205 22206 22207 22208 22209 22210 22211 22212 22213 22214 22215 22216 22217 22218 22219 22220 22221 22222 22223 22224 22225 22226 22227 22228 22229 22230 22231 22232 22233 22234 22235 22236 22237 22238 22239 22240 22241 22242 22243 22244 22245 22246 22247 22248 22249 22250 22251 22252 22253 22254 22255 22256 22257 22258 22259 22260 22261 22262 22263 22264 22265 22266 22267 22268 22269 22270 22271 22272 22273 22274 22275 22276 22277 22278 22279 22280 22281 22282 22283 22284 22285 22286 22287 22288 22289 22290 22291 22292 22293 22294 22295 22296 22297 22298 22299 22300 22301 22302 22303 22304 22305 22306 22307 22308 22309 22310 22311 22312 22313 22314 22315 22316 22317 22318 22319 22320 22321 22322 22323 22324 22325 22326 22327 22328 22329 22330 22331 22332 22333 22334 22335 22336 22337 22338 22339 22340 22341 22342 22343 22344 22345 22346 22347 22348 22349 22350 22351 22352 22353 22354 22355 22356 22357 22358 22359 22360 22361 22362 22363 22364 22365 22366 22367 22368 22369 22370 22371 22372 22373 22374 22375 22376 22377 22378 22379 22380 22381 22382 22383 22384 22385 22386 22387 22388 22389 22390 22391 22392 22393 22394 22395 22396 22397 22398 22399 22400 22401 22402 22403 22404 22405 22406 22407 22408 22409 22410 22411 22412 22413 22414 22415 22416 22417 22418 22419 22420 22421 22422 22423 22424 22425 22426 22427 22428 22429 22430 22431 22432 22433 22434 22435 22436 22437 22438 22439 22440 22441 22442 22443 22444 22445 22446 22447 22448 22449 22450 22451 22452 22453 22454 22455 22456 22457 22458 22459 22460 22461 22462 22463 22464 22465 22466 22467 22468 22469 22470 22471 22472 22473 22474 22475 22476 22477 22478 22479 22480 22481 22482 22483 22484 22485 22486 22487 22488 22489 22490 22491 22492 22493 22494 22495 22496 22497 22498 22499 22500 22501 22502 22503 22504 22505 22506 22507 22508 22509 22510 22511 22512 22513 22514 22515 22516 22517 22518 22519 22520 22521 22522 22523 22524 22525 22526 22527 22528 22529 22530 22531 22532 22533 22534 22535 22536 22537 22538 22539 22540 22541 22542 22543 22544 22545 22546 22547 22548 22549 22550 22551 22552 22553 22554 22555 22556 22557 22558 22559 22560 22561 22562 22563 22564 22565 22566 22567 22568 22569 22570 22571 22572 22573 22574 22575 22576 22577 22578 22579 22580 22581 22582 22583 22584 22585 22586 22587 22588 22589 22590 22591 22592 22593 22594 22595 22596 22597 22598 22599 22600 22601 22602 22603 22604 22605 22606 22607 22608 22609 22610 22611 22612 22613 22614 22615 22616 22617 22618 22619 22620 22621 22622 22623 22624 22625 22626 22627 22628 22629 22630 22631 22632 22633 22634 22635 22636 22637 22638 22639 22640 22641 22642 22643 22644 22645 22646 22647 22648 22649 22650 22651 22652 22653 22654 22655 22656 22657 22658 22659 22660 22661 22662 22663 22664 22665 22666 22667 22668 22669 22670 22671 22672 22673 22674 22675 22676 22677 22678 22679 22680 22681 22682 22683 22684 22685 22686 22687 22688 22689 22690 22691 22692 22693 22694 22695 22696 22697 22698 22699 22700 22701 22702 22703 22704 22705 22706 22707 22708 22709 22710 22711 22712 22713 22714 22715 22716 22717 22718 22719 22720 22721 22722 22723 22724 22725 22726 22727 22728 22729 22730 22731 22732 22733 22734 22735 22736 22737 22738 22739 22740 22741 22742 22743 22744 22745 22746 22747 22748 22749 22750 22751 22752 22753 22754 22755 22756 22757 22758 22759 22760 22761 22762 22763 22764 22765 22766 22767 22768 22769 22770 22771 22772 22773 22774 22775 22776 22777 22778 22779 22780 22781 22782 22783 22784 22785 22786 22787 22788 22789 22790 22791 22792 22793 22794 22795 22796 22797 22798 22799 22800 22801 22802 22803 22804 22805 22806 22807 22808 22809 22810 22811 22812 22813 22814 22815 22816 22817 22818 22819 22820 22821 22822 22823 22824 22825 22826 22827 22828 22829 22830 22831 22832 22833 22834 22835 22836 22837 22838 22839 22840 22841 22842 22843 22844 22845 22846 22847 22848 22849 22850 22851 22852 22853 22854 22855 22856 22857 22858 22859 22860 22861 22862 22863 22864 22865 22866 22867 22868 22869 22870 22871 22872 22873 22874 22875 22876 22877 22878 22879 22880 22881 22882 22883 22884 22885 22886 22887 22888 22889 22890 22891 22892 22893 22894 22895 22896 22897 22898 22899 22900 22901 22902 22903 22904 22905 22906 22907 22908 22909 22910 22911 22912 22913 22914 22915 22916 22917 22918 22919 22920 22921 22922 22923 22924 22925 22926 22927 22928 22929 22930 22931 22932 22933 22934 22935 22936 22937 22938 22939 22940 22941 22942 22943 22944 22945 22946 22947 22948 22949 22950 22951 22952 22953 22954 22955 22956 22957 22958 22959 22960 22961 22962 22963 22964 22965 22966 22967 22968 22969 22970 22971 22972 22973 22974 22975 22976 22977 22978 22979 22980 22981 22982 22983 22984 22985 22986 22987 22988 22989 22990 22991 22992 22993 22994 22995 22996 22997 22998 22999 23000 23001 23002 23003 23004 23005 23006 23007 23008 23009 23010 23011 23012 23013 23014 23015 23016 23017 23018 23019 23020 23021 23022 23023 23024 23025 23026 23027 23028 23029 23030 23031 23032 23033 23034 23035 23036 23037 23038 23039 23040 23041 23042 23043 23044 23045 23046 23047 23048 23049 23050 23051 23052 23053 23054 23055 23056 23057 23058 23059 23060 23061 23062 23063 23064 23065 23066 23067 23068 23069 23070 23071 23072 23073 23074 23075 23076 23077 23078 23079 23080 23081 23082 23083 23084 23085 23086 23087 23088 23089 23090 23091 23092 23093 23094 23095 23096 23097 23098 23099 23100 23101 23102 23103 23104 23105 23106 23107 23108 23109 23110 23111 23112 23113 23114 23115 23116 23117 23118 23119 23120 23121 23122 23123 23124 23125 23126 23127 23128 23129 23130 23131 23132 23133 23134 23135 23136 23137 23138 23139 23140 23141 23142 23143 23144 23145 23146 23147 23148 23149 23150 23151 23152 23153 23154 23155 23156 23157 23158 23159 23160 23161 23162 23163 23164 23165 23166 23167 23168 23169 23170 23171 23172 23173 23174 23175 23176 23177 23178 23179 23180 23181 23182 23183 23184 23185 23186 23187 23188 23189 23190 23191 23192 23193 23194 23195 23196 23197 23198 23199 23200 23201 23202 23203 23204 23205 23206 23207 23208 23209 23210 23211 23212 23213 23214 23215 23216 23217 23218 23219 23220 23221 23222 23223 23224 23225 23226 23227 23228 23229 23230 23231 23232 23233 23234 23235 23236 23237 23238 23239 23240 23241 23242 23243 23244 23245 23246 23247 23248 23249 23250 23251 23252 23253 23254 23255 23256 23257 23258 23259 23260 23261 23262 23263 23264 23265 23266 23267 23268 23269 23270 23271 23272 23273 23274 23275 23276 23277 23278 23279 23280 23281 23282 23283 23284 23285 23286 23287 23288 23289 23290 23291 23292 23293 23294 23295 23296 23297 23298 23299 23300 23301 23302 23303 23304 23305 23306 23307 23308 23309 23310 23311 23312 23313 23314 23315 23316 23317 23318 23319 23320 23321 23322 23323 23324 23325 23326 23327 23328 23329 23330 23331 23332 23333 23334 23335 23336 23337 23338 23339 23340 23341 23342 23343 23344 23345 23346 23347 23348 23349 23350 23351 23352 23353 23354 23355 23356 23357 23358 23359 23360 23361 23362 23363 23364 23365 23366 23367 23368 23369 23370 23371 23372 23373 23374 23375 23376 23377 23378 23379 23380 23381 23382 23383 23384 23385 23386 23387 23388 23389 23390 23391 23392 23393 23394 23395 23396 23397 23398 23399 23400 23401 23402 23403 23404 23405 23406 23407 23408 23409 23410 23411 23412 23413 23414 23415 23416 23417 23418 23419 23420 23421 23422 23423 23424 23425 23426 23427 23428 23429 23430 23431 23432 23433 23434 23435 23436 23437 23438 23439 23440 23441 23442 23443 23444 23445 23446 23447 23448 23449 23450 23451 23452 23453 23454 23455 23456 23457 23458 23459 23460 23461 23462 23463 23464 23465 23466 23467 23468 23469 23470 23471 23472 23473 23474 23475 23476 23477 23478 23479 23480 23481 23482 23483 23484 23485 23486 23487 23488 23489 23490 23491 23492 23493 23494 23495 23496 23497 23498 23499 23500 23501 23502 23503 23504 23505 23506 23507 23508 23509 23510 23511 23512 23513 23514 23515 23516 23517 23518 23519 23520 23521 23522 23523 23524 23525 23526 23527 23528 23529 23530 23531 23532 23533 23534 23535 23536 23537 23538 23539 23540 23541 23542 23543 23544 23545 23546 23547 23548 23549 23550 23551 23552 23553 23554 23555 23556 23557 23558 23559 23560 23561 23562 23563 23564 23565 23566 23567 23568 23569 23570 23571 23572 23573 23574 23575 23576 23577 23578 23579 23580 23581 23582 23583 23584 23585 23586 23587 23588 23589 23590 23591 23592 23593 23594 23595 23596 23597 23598 23599 23600 23601 23602 23603 23604 23605 23606 23607 23608 23609 23610 23611 23612 23613 23614 23615 23616 23617 23618 23619 23620 23621 23622 23623 23624 23625 23626 23627 23628 23629 23630 23631 23632 23633 23634 23635 23636 23637 23638 23639 23640 23641 23642 23643 23644 23645 23646 23647 23648 23649 23650 23651 23652 23653 23654 23655 23656 23657 23658 23659 23660 23661 23662 23663 23664 23665 23666 23667 23668 23669 23670 23671 23672 23673 23674 23675 23676 23677 23678 23679 23680 23681 23682 23683 23684 23685 23686 23687 23688 23689 23690 23691 23692 23693 23694 23695 23696 23697 23698 23699 23700 23701 23702 23703 23704 23705 23706 23707 23708 23709 23710 23711 23712 23713 23714 23715 23716 23717 23718 23719 23720 23721 23722 23723 23724 23725 23726 23727 23728 23729 23730 23731 23732 23733 23734 23735 23736 23737 23738 23739 23740 23741 23742 23743 23744 23745 23746 23747 23748 23749 23750 23751 23752 23753 23754 23755 23756 23757 23758 23759 23760 23761 23762 23763 23764 23765 23766 23767 23768 23769 23770 23771 23772 23773 23774 23775 23776 23777 23778 23779 23780 23781 23782 23783 23784 23785 23786 23787 23788 23789 23790 23791 23792 23793 23794 23795 23796 23797 23798 23799 23800 23801 23802 23803 23804 23805 23806 23807 23808 23809 23810 23811 23812 23813 23814 23815 23816 23817 23818 23819 23820 23821 23822 23823 23824 23825 23826 23827 23828 23829 23830 23831 23832 23833 23834 23835 23836 23837 23838 23839 23840 23841 23842 23843 23844 23845 23846 23847 23848 23849 23850 23851 23852 23853 23854 23855 23856 23857 23858 23859 23860 23861 23862 23863 23864 23865 23866 23867 23868 23869 23870 23871 23872 23873 23874 23875 23876 23877 23878 23879 23880 23881 23882 23883 23884 23885 23886 23887 23888 23889 23890 23891 23892 23893 23894 23895 23896 23897 23898 23899 23900 23901 23902 23903 23904 23905 23906 23907 23908 23909 23910 23911 23912 23913 23914 23915 23916 23917 23918 23919 23920 23921 23922 23923 23924 23925 23926 23927 23928 23929 23930 23931 23932 23933 23934 23935 23936 23937 23938 23939 23940 23941 23942 23943 23944 23945 23946 23947 23948 23949 23950 23951 23952 23953 23954 23955 23956 23957 23958 23959 23960 23961 23962 23963 23964 23965 23966 23967 23968 23969 23970 23971 23972 23973 23974 23975 23976 23977 23978 23979 23980 23981 23982 23983 23984 23985 23986 23987 23988 23989 23990 23991 23992 23993 23994 23995 23996 23997 23998 23999 24000 24001 24002 24003 24004 24005 24006 24007 24008 24009 24010 24011 24012 24013 24014 24015 24016 24017 24018 24019 24020 24021 24022 24023 24024 24025 24026 24027 24028 24029 24030 24031 24032 24033 24034 24035 24036 24037 24038 24039 24040 24041 24042 24043 24044 24045 24046 24047 24048 24049 24050 24051 24052 24053 24054 24055 24056 24057 24058 24059 24060 24061 24062 24063 24064 24065 24066 24067 24068 24069 24070 24071 24072 24073 24074 24075 24076 24077 24078 24079 24080 24081 24082 24083 24084 24085 24086 24087 24088 24089 24090 24091 24092 24093 24094 24095 24096 24097 24098 24099 24100 24101 24102 24103 24104 24105 24106 24107 24108 24109 24110 24111 24112 24113 24114 24115 24116 24117 24118 24119 24120 24121 24122 24123 24124 24125 24126 24127 24128 24129 24130 24131 24132 24133 24134 24135 24136 24137 24138 24139 24140 24141 24142 24143 24144 24145 24146 24147 24148 24149 24150 24151 24152 24153 24154 24155 24156 24157 24158 24159 24160 24161 24162 24163 24164 24165 24166 24167 24168 24169 24170 24171 24172 24173 24174 24175 24176 24177 24178 24179 24180 24181 24182 24183 24184 24185 24186 24187 24188 24189 24190 24191 24192 24193 24194 24195 24196 24197 24198 24199 24200 24201 24202 24203 24204 24205 24206 24207 24208 24209 24210 24211 24212 24213 24214 24215 24216 24217 24218 24219 24220 24221 24222 24223 24224 24225 24226 24227 24228 24229 24230 24231 24232 24233 24234 24235 24236 24237 24238 24239 24240 24241 24242 24243 24244 24245 24246 24247 24248 24249 24250 24251 24252 24253 24254 24255 24256 24257 24258 24259 24260 24261 24262 24263 24264 24265 24266 24267 24268 24269 24270 24271 24272 24273 24274 24275 24276 24277 24278 24279 24280 24281 24282 24283 24284 24285 24286 24287 24288 24289 24290 24291 24292 24293 24294 24295 24296 24297 24298 24299 24300 24301 24302 24303 24304 24305 24306 24307 24308 24309 24310 24311 24312 24313 24314 24315 24316 24317 24318 24319 24320 24321 24322 24323 24324 24325 24326 24327 24328 24329 24330 24331 24332 24333 24334 24335 24336 24337 24338 24339 24340 24341 24342 24343 24344 24345 24346 24347 24348 24349 24350 24351 24352 24353 24354 24355 24356 24357 24358 24359 24360 24361 24362 24363 24364 24365 24366 24367 24368 24369 24370 24371 24372 24373 24374 24375 24376 24377 24378 24379 24380 24381 24382 24383 24384 24385 24386 24387 24388 24389 24390 24391 24392 24393 24394 24395 24396 24397 24398 24399 24400 24401 24402 24403 24404 24405 24406 24407 24408 24409 24410 24411 24412 24413 24414 24415 24416 24417 24418 24419 24420 24421 24422 24423 24424 24425 24426 24427 24428 24429 24430 24431 24432 24433 24434 24435 24436 24437 24438 24439 24440 24441 24442 24443 24444 24445 24446 24447 24448 24449 24450 24451 24452 24453 24454 24455 24456 24457 24458 24459 24460 24461 24462 24463 24464 24465 24466 24467 24468 24469 24470 24471 24472 24473 24474 24475 24476 24477 24478 24479 24480 24481 24482 24483 24484 24485 24486 24487 24488 24489 24490 24491 24492 24493 24494 24495 24496 24497 24498 24499 24500 24501 24502 24503 24504 24505 24506 24507 24508 24509 24510 24511 24512 24513 24514 24515 24516 24517 24518 24519 24520 24521 24522 24523 24524 24525 24526 24527 24528 24529 24530 24531 24532 24533 24534 24535 24536 24537 24538 24539 24540 24541 24542 24543 24544 24545 24546 24547 24548 24549 24550 24551 24552 24553 24554 24555 24556 24557 24558 24559 24560 24561 24562 24563 24564 24565 24566 24567 24568 24569 24570 24571 24572 24573 24574 24575 24576 24577 24578 24579 24580 24581 24582 24583 24584 24585 24586 24587 24588 24589 24590 24591 24592 24593 24594 24595 24596 24597 24598 24599 24600 24601 24602 24603 24604 24605 24606 24607 24608 24609 24610 24611 24612 24613 24614 24615 24616 24617 24618 24619 24620 24621 24622 24623 24624 24625 24626 24627 24628 24629 24630 24631 24632 24633 24634 24635 24636 24637 24638 24639 24640 24641 24642 24643 24644 24645 24646 24647 24648 24649 24650 24651 24652 24653 24654 24655 24656 24657 24658 24659 24660 24661 24662 24663 24664 24665 24666 24667 24668 24669 24670 24671 24672 24673 24674 24675 24676 24677 24678 24679 24680 24681 24682 24683 24684 24685 24686 24687 24688 24689 24690 24691 24692 24693 24694 24695 24696 24697 24698 24699 24700 24701 24702 24703 24704 24705 24706 24707 24708 24709 24710 24711 24712 24713 24714 24715 24716 24717 24718 24719 24720 24721 24722 24723 24724 24725 24726 24727 24728 24729 24730 24731 24732 24733 24734 24735 24736 24737 24738 24739 24740 24741 24742 24743 24744 24745 24746 24747 24748 24749 24750 24751 24752 24753 24754 24755 24756 24757 24758 24759 24760 24761 24762 24763 24764 24765 24766 24767 24768 24769 24770 24771 24772 24773 24774 24775 24776 24777 24778 24779 24780 24781 24782 24783 24784 24785 24786 24787 24788 24789 24790 24791 24792 24793 24794 24795 24796 24797 24798 24799 24800 24801 24802 24803 24804 24805 24806 24807 24808 24809 24810 24811 24812 24813 24814 24815 24816 24817 24818 24819 24820 24821 24822 24823 24824 24825 24826 24827 24828 24829 24830 24831 24832 24833 24834 24835 24836 24837 24838 24839 24840 24841 24842 24843 24844 24845 24846 24847 24848 24849 24850 24851 24852 24853 24854 24855 24856 24857 24858 24859 24860 24861 24862 24863 24864 24865 24866 24867 24868 24869 24870 24871 24872 24873 24874 24875 24876 24877 24878 24879 24880 24881 24882 24883 24884 24885 24886 24887 24888 24889 24890 24891 24892 24893 24894 24895 24896 24897 24898 24899 24900 24901 24902 24903 24904 24905 24906 24907 24908 24909 24910 24911 24912 24913 24914 24915 24916 24917 24918 24919 24920 24921 24922 24923 24924 24925 24926 24927 24928 24929 24930 24931 24932 24933 24934 24935 24936 24937 24938 24939 24940 24941 24942 24943 24944 24945 24946 24947 24948 24949 24950 24951 24952 24953 24954 24955 24956 24957 24958 24959 24960 24961 24962 24963 24964 24965 24966 24967 24968 24969 24970 24971 24972 24973 24974 24975 24976 24977 24978 24979 24980 24981 24982 24983 24984 24985 24986 24987 24988 24989 24990 24991 24992 24993 24994 24995 24996 24997 24998 24999 25000 25001 25002 25003 25004 25005 25006 25007 25008 25009 25010 25011 25012 25013 25014 25015 25016 25017 25018 25019 25020 25021 25022 25023 25024 25025 25026 25027 25028 25029 25030 25031 25032 25033 25034 25035 25036 25037 25038 25039 25040 25041 25042 25043 25044 25045 25046 25047 25048 25049 25050 25051 25052 25053 25054 25055 25056 25057 25058 25059 25060 25061 25062 25063 25064 25065 25066 25067 25068 25069 25070 25071 25072 25073 25074 25075 25076 25077 25078 25079 25080 25081 25082 25083 25084 25085 25086 25087 25088 25089 25090 25091 25092 25093 25094 25095 25096 25097 25098 25099 25100 25101 25102 25103 25104 25105 25106 25107 25108 25109 25110 25111 25112 25113 25114 25115 25116 25117 25118 25119 25120 25121 25122 25123 25124 25125 25126 25127 25128 25129 25130 25131 25132 25133 25134 25135 25136 25137 25138 25139 25140 25141 25142 25143 25144 25145 25146 25147 25148 25149 25150 25151 25152 25153 25154 25155 25156 25157 25158 25159 25160 25161 25162 25163 25164 25165 25166 25167 25168 25169 25170 25171 25172 25173 25174 25175 25176 25177 25178 25179 25180 25181 25182 25183 25184 25185 25186 25187 25188 25189 25190 25191 25192 25193 25194 25195 25196 25197 25198 25199 25200 25201 25202 25203 25204 25205 25206 25207 25208 25209 25210 25211 25212 25213 25214 25215 25216 25217 25218 25219 25220 25221 25222 25223 25224 25225 25226 25227 25228 25229 25230 25231 25232 25233 25234 25235 25236 25237 25238 25239 25240 25241 25242 25243 25244 25245 25246 25247 25248 25249 25250 25251 25252 25253 25254 25255 25256 25257 25258 25259 25260 25261 25262 25263 25264 25265 25266 25267 25268 25269 25270 25271 25272 25273 25274 25275 25276 25277 25278 25279 25280 25281 25282 25283 25284 25285 25286 25287 25288 25289 25290 25291 25292 25293 25294 25295 25296 25297 25298 25299 25300 25301 25302 25303 25304 25305 25306 25307 25308 25309 25310 25311 25312 25313 25314 25315 25316 25317 25318 25319 25320 25321 25322 25323 25324 25325 25326 25327 25328 25329 25330 25331 25332 25333 25334 25335 25336 25337 25338 25339 25340 25341 25342 25343 25344 25345 25346 25347 25348 25349 25350 25351 25352 25353 25354 25355 25356 25357 25358 25359 25360 25361 25362 25363 25364 25365 25366 25367 25368 25369 25370 25371 25372 25373 25374 25375 25376 25377 25378 25379 25380 25381 25382 25383 25384 25385 25386 25387 25388 25389 25390 25391 25392 25393 25394 25395 25396 25397 25398 25399 25400 25401 25402 25403 25404 25405 25406 25407 25408 25409 25410 25411 25412 25413 25414 25415 25416 25417 25418 25419 25420 25421 25422 25423 25424 25425 25426 25427 25428 25429 25430 25431 25432 25433 25434 25435 25436 25437 25438 25439 25440 25441 25442 25443 25444 25445 25446 25447 25448 25449 25450 25451 25452 25453 25454 25455 25456 25457 25458 25459 25460 25461 25462 25463 25464 25465 25466 25467 25468 25469 25470 25471 25472 25473 25474 25475 25476 25477 25478 25479 25480 25481 25482 25483 25484 25485 25486 25487 25488 25489 25490 25491 25492 25493 25494 25495 25496 25497 25498 25499 25500 25501 25502 25503 25504 25505 25506 25507 25508 25509 25510 25511 25512 25513 25514 25515 25516 25517 25518 25519 25520 25521 25522 25523 25524 25525 25526 25527 25528 25529 25530 25531 25532 25533 25534 25535 25536 25537 25538 25539 25540 25541 25542 25543 25544 25545 25546 25547 25548 25549 25550 25551 25552 25553 25554 25555 25556 25557 25558 25559 25560 25561 25562 25563 25564 25565 25566 25567 25568 25569 25570 25571 25572 25573 25574 25575 25576 25577 25578 25579 25580 25581 25582 25583 25584 25585 25586 25587 25588 25589 25590 25591 25592 25593 25594 25595 25596 25597 25598 25599 25600 25601 25602 25603 25604 25605 25606 25607 25608 25609 25610 25611 25612 25613 25614 25615 25616 25617 25618 25619 25620 25621 25622 25623 25624 25625 25626 25627 25628 25629 25630 25631 25632 25633 25634 25635 25636 25637 25638 25639 25640 25641 25642 25643 25644 25645 25646 25647 25648 25649 25650 25651 25652 25653 25654 25655 25656 25657 25658 25659 25660 25661 25662 25663 25664 25665 25666 25667 25668 25669 25670 25671 25672 25673 25674 25675 25676 25677 25678 25679 25680 25681 25682 25683 25684 25685 25686 25687 25688 25689 25690 25691 25692 25693 25694 25695 25696 25697 25698 25699 25700 25701 25702 25703 25704 25705 25706 25707 25708 25709 25710 25711 25712 25713 25714 25715 25716 25717 25718 25719 25720 25721 25722 25723 25724 25725 25726 25727 25728 25729 25730 25731 25732 25733 25734 25735 25736 25737 25738 25739 25740 25741 25742 25743 25744 25745 25746 25747 25748 25749 25750 25751 25752 25753 25754 25755 25756 25757 25758 25759 25760 25761 25762 25763 25764 25765 25766 25767 25768 25769 25770 25771 25772 25773 25774 25775 25776 25777 25778 25779 25780 25781 25782 25783 25784 25785 25786 25787 25788 25789 25790 25791 25792 25793 25794 25795 25796 25797 25798 25799 25800 25801 25802 25803 25804 25805 25806 25807 25808 25809 25810 25811 25812 25813 25814 25815 25816 25817 25818 25819 25820 25821 25822 25823 25824 25825 25826 25827 25828 25829 25830 25831 25832 25833 25834 25835 25836 25837 25838 25839 25840 25841 25842 25843 25844 25845 25846 25847 25848 25849 25850 25851 25852 25853 25854 25855 25856 25857 25858 25859 25860 25861 25862 25863 25864 25865 25866 25867 25868 25869 25870 25871 25872 25873 25874 25875 25876 25877 25878 25879 25880 25881 25882 25883 25884 25885 25886 25887 25888 25889 25890 25891 25892 25893 25894 25895 25896 25897 25898 25899 25900 25901 25902 25903 25904 25905 25906 25907 25908 25909 25910 25911 25912 25913 25914 25915 25916 25917 25918 25919 25920 25921 25922 25923 25924 25925 25926 25927 25928 25929 25930 25931 25932 25933 25934 25935 25936 25937 25938 25939 25940 25941 25942 25943 25944 25945 25946 25947 25948 25949 25950 25951 25952 25953 25954 25955 25956 25957 25958 25959 25960 25961 25962 25963 25964 25965 25966 25967 25968 25969 25970 25971 25972 25973 25974 25975 25976 25977 25978 25979 25980 25981 25982 25983 25984 25985 25986 25987 25988 25989 25990 25991 25992 25993 25994 25995 25996 25997 25998 25999 26000 26001 26002 26003 26004 26005 26006 26007 26008 26009 26010 26011 26012 26013 26014 26015 26016 26017 26018 26019 26020 26021 26022 26023 26024 26025 26026 26027 26028 26029 26030 26031 26032 26033 26034 26035 26036 26037 26038 26039 26040 26041 26042 26043 26044 26045 26046 26047 26048 26049 26050 26051 26052 26053 26054 26055 26056 26057 26058 26059 26060 26061 26062 26063 26064 26065 26066 26067 26068 26069 26070 26071 26072 26073 26074 26075 26076 26077 26078 26079 26080 26081 26082 26083 26084 26085 26086 26087 26088 26089 26090 26091 26092 26093 26094 26095 26096 26097 26098 26099 26100 26101 26102 26103 26104 26105 26106 26107 26108 26109 26110 26111 26112 26113 26114 26115 26116 26117 26118 26119 26120 26121 26122 26123 26124 26125 26126 26127 26128 26129 26130 26131 26132 26133 26134 26135 26136 26137 26138 26139 26140 26141 26142 26143 26144 26145 26146 26147 26148 26149 26150 26151 26152 26153 26154 26155 26156 26157 26158 26159 26160 26161 26162 26163 26164 26165 26166 26167 26168 26169 26170 26171 26172 26173 26174 26175 26176 26177 26178 26179 26180 26181 26182 26183 26184 26185 26186 26187 26188 26189 26190 26191 26192 26193 26194 26195 26196 26197 26198 26199 26200 26201 26202 26203 26204 26205 26206 26207 26208 26209 26210 26211 26212 26213 26214 26215 26216 26217 26218 26219 26220 26221 26222 26223 26224 26225 26226 26227 26228 26229 26230 26231 26232 26233 26234 26235 26236 26237 26238 26239 26240 26241 26242 26243 26244 26245 26246 26247 26248 26249 26250 26251 26252 26253 26254 26255 26256 26257 26258 26259 26260 26261 26262 26263 26264 26265 26266 26267 26268 26269 26270 26271 26272 26273 26274 26275 26276 26277 26278 26279 26280 26281 26282 26283 26284 26285 26286 26287 26288 26289 26290 26291 26292 26293 26294 26295 26296 26297 26298 26299 26300 26301 26302 26303 26304 26305 26306 26307 26308 26309 26310 26311 26312 26313 26314 26315 26316 26317 26318 26319 26320 26321 26322 26323 26324 26325 26326 26327 26328 26329 26330 26331 26332 26333 26334 26335 26336 26337 26338 26339 26340 26341 26342 26343 26344 26345 26346 26347 26348 26349 26350 26351 26352 26353 26354 26355 26356 26357 26358 26359 26360 26361 26362 26363 26364 26365 26366 26367 26368 26369 26370 26371 26372 26373 26374 26375 26376 26377 26378 26379 26380 26381 26382 26383 26384 26385 26386 26387 26388 26389 26390 26391 26392 26393 26394 26395 26396 26397 26398 26399 26400 26401 26402 26403 26404 26405 26406 26407 26408 26409 26410 26411 26412 26413 26414 26415 26416 26417 26418 26419 26420 26421 26422 26423 26424 26425 26426 26427 26428 26429 26430 26431 26432 26433 26434 26435 26436 26437 26438 26439 26440 26441 26442 26443 26444 26445 26446 26447 26448 26449 26450 26451 26452 26453 26454 26455 26456 26457 26458 26459 26460 26461 26462 26463 26464 26465 26466 26467 26468 26469 26470 26471 26472 26473 26474 26475 26476 26477 26478 26479 26480 26481 26482 26483 26484 26485 26486 26487 26488 26489 26490 26491 26492 26493 26494 26495 26496 26497 26498 26499 26500 26501 26502 26503 26504 26505 26506 26507 26508 26509 26510 26511 26512 26513 26514 26515 26516 26517 26518 26519 26520 26521 26522 26523 26524 26525 26526 26527 26528 26529 26530 26531 26532 26533 26534 26535 26536 26537 26538 26539 26540 26541 26542 26543 26544 26545 26546 26547 26548 26549 26550 26551 26552 26553 26554 26555 26556 26557 26558 26559 26560 26561 26562 26563 26564 26565 26566 26567 26568 26569 26570 26571 26572 26573 26574 26575 26576 26577 26578 26579 26580 26581 26582 26583 26584 26585 26586 26587 26588 26589 26590 26591 26592 26593 26594 26595 26596 26597 26598 26599 26600 26601 26602 26603 26604 26605 26606 26607 26608 26609 26610 26611 26612 26613 26614 26615 26616 26617 26618 26619 26620 26621 26622 26623 26624 26625 26626 26627 26628 26629 26630 26631 26632 26633 26634 26635 26636 26637 26638 26639 26640 26641 26642 26643 26644 26645 26646 26647 26648 26649 26650 26651 26652 26653 26654 26655 26656 26657 26658 26659 26660 26661 26662 26663 26664 26665 26666 26667 26668 26669 26670 26671 26672 26673 26674 26675 26676 26677 26678 26679 26680 26681 26682 26683 26684 26685 26686 26687 26688 26689 26690 26691 26692 26693 26694 26695 26696 26697 26698 26699 26700 26701 26702 26703 26704 26705 26706 26707 26708 26709 26710 26711 26712 26713 26714 26715 26716 26717 26718 26719 26720 26721 26722 26723 26724 26725 26726 26727 26728 26729 26730 26731 26732 26733 26734 26735 26736 26737 26738 26739 26740 26741 26742 26743 26744 26745 26746 26747 26748 26749 26750 26751 26752 26753 26754 26755 26756 26757 26758 26759 26760 26761 26762 26763 26764 26765 26766 26767 26768 26769 26770 26771 26772 26773 26774 26775 26776 26777 26778 26779 26780 26781 26782 26783 26784 26785 26786 26787 26788 26789 26790 26791 26792 26793 26794 26795 26796 26797 26798 26799 26800 26801 26802 26803 26804 26805 26806 26807 26808 26809 26810 26811 26812 26813 26814 26815 26816 26817 26818 26819 26820 26821 26822 26823 26824 26825 26826 26827 26828 26829 26830 26831 26832 26833 26834 26835 26836 26837 26838 26839 26840 26841 26842 26843 26844 26845 26846 26847 26848 26849 26850 26851 26852 26853 26854 26855 26856 26857 26858 26859 26860 26861 26862 26863 26864 26865 26866 26867 26868 26869 26870 26871 26872 26873 26874 26875 26876 26877 26878 26879 26880 26881 26882 26883 26884 26885 26886 26887 26888 26889 26890 26891 26892 26893 26894 26895 26896 26897 26898 26899 26900 26901 26902 26903 26904 26905 26906 26907 26908 26909 26910 26911 26912 26913 26914 26915 26916 26917 26918 26919 26920 26921 26922 26923 26924 26925 26926 26927 26928 26929 26930 26931 26932 26933 26934 26935 26936 26937 26938 26939 26940 26941 26942 26943 26944 26945 26946 26947 26948 26949 26950 26951 26952 26953 26954 26955 26956 26957 26958 26959 26960 26961 26962 26963 26964 26965 26966 26967 26968 26969 26970 26971 26972 26973 26974 26975 26976 26977 26978 26979 26980 26981 26982 26983 26984 26985 26986 26987 26988 26989 26990 26991 26992 26993 26994 26995 26996 26997 26998 26999 27000 27001 27002 27003 27004 27005 27006 27007 27008 27009 27010 27011 27012 27013 27014 27015 27016 27017 27018 27019 27020 27021 27022 27023 27024 27025 27026 27027 27028 27029 27030 27031 27032 27033 27034 27035 27036 27037 27038 27039 27040 27041 27042 27043 27044 27045 27046 27047 27048 27049 27050 27051 27052 27053 27054 27055 27056 27057 27058 27059 27060 27061 27062 27063 27064 27065 27066 27067 27068 27069 27070 27071 27072 27073 27074 27075 27076 27077 27078 27079 27080 27081 27082 27083 27084 27085 27086 27087 27088 27089 27090 27091 27092 27093 27094 27095 27096 27097 27098 27099 27100 27101 27102 27103 27104 27105 27106 27107 27108 27109 27110 27111 27112 27113 27114 27115 27116 27117 27118 27119 27120 27121 27122 27123 27124 27125 27126 27127 27128 27129 27130 27131 27132 27133 27134 27135 27136 27137 27138 27139 27140 27141 27142 27143 27144 27145 27146 27147 27148 27149 27150 27151 27152 27153 27154 27155 27156 27157 27158 27159 27160 27161 27162 27163 27164 27165 27166 27167 27168 27169 27170 27171 27172 27173 27174 27175 27176 27177 27178 27179 27180 27181 27182 27183 27184 27185 27186 27187 27188 27189 27190 27191 27192 27193 27194 27195 27196 27197 27198 27199 27200 27201 27202 27203 27204 27205 27206 27207 27208 27209 27210 27211 27212 27213 27214 27215 27216 27217 27218 27219 27220 27221 27222 27223 27224 27225 27226 27227 27228 27229 27230 27231 27232 27233 27234 27235 27236 27237 27238 27239 27240 27241 27242 27243 27244 27245 27246 27247 27248 27249 27250 27251 27252 27253 27254 27255 27256 27257 27258 27259 27260 27261 27262 27263 27264 27265 27266 27267 27268 27269 27270 27271 27272 27273 27274 27275 27276 27277 27278 27279 27280 27281 27282 27283 27284 27285 27286 27287 27288 27289 27290 27291 27292 27293 27294 27295 27296 27297 27298 27299 27300 27301 27302 27303 27304 27305 27306 27307 27308 27309 27310 27311 27312 27313 27314 27315 27316 27317 27318 27319 27320 27321 27322 27323 27324 27325 27326 27327 27328 27329 27330 27331 27332 27333 27334 27335 27336 27337 27338 27339 27340 27341 27342 27343 27344 27345 27346 27347 27348 27349 27350 27351 27352 27353 27354 27355 27356 27357 27358 27359 27360 27361 27362 27363 27364 27365 27366 27367 27368 27369 27370 27371 27372 27373 27374 27375 27376 27377 27378 27379 27380 27381 27382 27383 27384 27385 27386 27387 27388 27389 27390 27391 27392 27393 27394 27395 27396 27397 27398 27399 27400 27401 27402 27403 27404 27405 27406 27407 27408 27409 27410 27411 27412 27413 27414 27415 27416 27417 27418 27419 27420 27421 27422 27423 27424 27425 27426 27427 27428 27429 27430 27431 27432 27433 27434 27435 27436 27437 27438 27439 27440 27441 27442 27443 27444 27445 27446 27447 27448 27449 27450 27451 27452 27453 27454 27455 27456 27457 27458 27459 27460 27461 27462 27463 27464 27465 27466 27467 27468 27469 27470 27471 27472 27473 27474 27475 27476 27477 27478 27479 27480 27481 27482 27483 27484 27485 27486 27487 27488 27489 27490 27491 27492 27493 27494 27495 27496 27497 27498 27499 27500 27501 27502 27503 27504 27505 27506 27507 27508 27509 27510 27511 27512 27513 27514 27515 27516 27517 27518 27519 27520 27521 27522 27523 27524 27525 27526 27527 27528 27529 27530 27531 27532 27533 27534 27535 27536 27537 27538 27539 27540 27541 27542 27543 27544 27545 27546 27547 27548 27549 27550 27551 27552 27553 27554 27555 27556 27557 27558 27559 27560 27561 27562 27563 27564 27565 27566 27567 27568 27569 27570 27571 27572 27573 27574 27575 27576 27577 27578 27579 27580 27581 27582 27583 27584 27585 27586 27587 27588 27589 27590 27591 27592 27593 27594 27595 27596 27597 27598 27599 27600 27601 27602 27603 27604 27605 27606 27607 27608 27609 27610 27611 27612 27613 27614 27615 27616 27617 27618 27619 27620 27621 27622 27623 27624 27625 27626 27627 27628 27629 27630 27631 27632 27633 27634 27635 27636 27637 27638 27639 27640 27641 27642 27643 27644 27645 27646 27647 27648 27649 27650 27651 27652 27653 27654 27655 27656 27657 27658 27659 27660 27661 27662 27663 27664 27665 27666 27667 27668 27669 27670 27671 27672 27673 27674 27675 27676 27677 27678 27679 27680 27681 27682 27683 27684 27685 27686 27687 27688 27689 27690 27691 27692 27693 27694 27695 27696 27697 27698 27699 27700 27701 27702 27703 27704 27705 27706 27707 27708 27709 27710 27711 27712 27713 27714 27715 27716 27717 27718 27719 27720 27721 27722 27723 27724 27725 27726 27727 27728 27729 27730 27731 27732 27733 27734 27735 27736 27737 27738 27739 27740 27741 27742 27743 27744 27745 27746 27747 27748 27749 27750 27751 27752 27753 27754 27755 27756 27757 27758 27759 27760 27761 27762 27763 27764 27765 27766 27767 27768 27769 27770 27771 27772 27773 27774 27775 27776 27777 27778 27779 27780 27781 27782 27783 27784 27785 27786 27787 27788 27789 27790 27791 27792 27793 27794 27795 27796 27797 27798 27799 27800 27801 27802 27803 27804 27805 27806 27807 27808 27809 27810 27811 27812 27813 27814 27815 27816 27817 27818 27819 27820 27821 27822 27823 27824 27825 27826 27827 27828 27829 27830 27831 27832 27833 27834 27835 27836 27837 27838 27839 27840 27841 27842 27843 27844 27845 27846 27847 27848 27849 27850 27851 27852 27853 27854 27855 27856 27857 27858 27859 27860 27861 27862 27863 27864 27865 27866 27867 27868 27869 27870 27871 27872 27873 27874 27875 27876 27877 27878 27879 27880 27881 27882 27883 27884 27885 27886 27887 27888 27889 27890 27891 27892 27893 27894 27895 27896 27897 27898 27899 27900 27901 27902 27903 27904 27905 27906 27907 27908 27909 27910 27911 27912 27913 27914 27915 27916 27917 27918 27919 27920 27921 27922 27923 27924 27925 27926 27927 27928 27929 27930 27931 27932 27933 27934 27935 27936 27937 27938 27939 27940 27941 27942 27943 27944 27945 27946 27947 27948 27949 27950 27951 27952 27953 27954 27955 27956 27957 27958 27959 27960 27961 27962 27963 27964 27965 27966 27967 27968 27969 27970 27971 27972 27973 27974 27975 27976 27977 27978 27979 27980 27981 27982 27983 27984 27985 27986 27987 27988 27989 27990 27991 27992 27993 27994 27995 27996 27997 27998 27999 28000 28001 28002 28003 28004 28005 28006 28007 28008 28009 28010 28011 28012 28013 28014 28015 28016 28017 28018 28019 28020 28021 28022 28023 28024 28025 28026 28027 28028 28029 28030 28031 28032 28033 28034 28035 28036 28037 28038 28039 28040 28041 28042 28043 28044 28045 28046 28047 28048 28049 28050 28051 28052 28053 28054 28055 28056 28057 28058 28059 28060 28061 28062 28063 28064 28065 28066 28067 28068 28069 28070 28071 28072 28073 28074 28075 28076 28077 28078 28079 28080 28081 28082 28083 28084 28085 28086 28087 28088 28089 28090 28091 28092 28093 28094 28095 28096 28097 28098 28099 28100 28101 28102 28103 28104 28105 28106 28107 28108 28109 28110 28111 28112 28113 28114 28115 28116 28117 28118 28119 28120 28121 28122 28123 28124 28125 28126 28127 28128 28129 28130 28131 28132 28133 28134 28135 28136 28137 28138 28139 28140 28141 28142 28143 28144 28145 28146 28147 28148 28149 28150 28151 28152 28153 28154 28155 28156 28157 28158 28159 28160 28161 28162 28163 28164 28165 28166 28167 28168 28169 28170 28171 28172 28173 28174 28175 28176 28177 28178 28179 28180 28181 28182 28183 28184 28185 28186 28187 28188 28189 28190 28191 28192 28193 28194 28195 28196 28197 28198 28199 28200 28201 28202 28203 28204 28205 28206 28207 28208 28209 28210 28211 28212 28213 28214 28215 28216 28217 28218 28219 28220 28221 28222 28223 28224 28225 28226 28227 28228 28229 28230 28231 28232 28233 28234 28235 28236 28237 28238 28239 28240 28241 28242 28243 28244 28245 28246 28247 28248 28249 28250 28251 28252 28253 28254 28255 28256 28257 28258 28259 28260 28261 28262 28263 28264 28265 28266 28267 28268 28269 28270 28271 28272 28273 28274 28275 28276 28277 28278 28279 28280 28281 28282 28283 28284 28285 28286 28287 28288 28289 28290 28291 28292 28293 28294 28295 28296 28297 28298 28299 28300 28301 28302 28303 28304 28305 28306 28307 28308 28309 28310 28311 28312 28313 28314 28315 28316 28317 28318 28319 28320 28321 28322 28323 28324 28325 28326 28327 28328 28329 28330 28331 28332 28333 28334 28335 28336 28337 28338 28339 28340 28341 28342 28343 28344 28345 28346 28347 28348 28349 28350 28351 28352 28353 28354 28355 28356 28357 28358 28359 28360 28361 28362 28363 28364 28365 28366 28367 28368 28369 28370 28371 28372 28373 28374 28375 28376 28377 28378 28379 28380 28381 28382 28383 28384 28385 28386 28387 28388 28389 28390 28391 28392 28393 28394 28395 28396 28397 28398 28399 28400 28401 28402 28403 28404 28405 28406 28407 28408 28409 28410 28411 28412 28413 28414 28415 28416 28417 28418 28419 28420 28421 28422 28423 28424 28425 28426 28427 28428 28429 28430 28431 28432 28433 28434 28435 28436 28437 28438 28439 28440 28441 28442 28443 28444 28445 28446 28447 28448 28449 28450 28451 28452 28453 28454 28455 28456 28457 28458 28459 28460 28461 28462 28463 28464 28465 28466 28467 28468 28469 28470 28471 28472 28473 28474 28475 28476 28477 28478 28479 28480 28481 28482 28483 28484 28485 28486 28487 28488 28489 28490 28491 28492 28493 28494 28495 28496 28497 28498 28499 28500 28501 28502 28503 28504 28505 28506 28507 28508 28509 28510 28511 28512 28513 28514 28515 28516 28517 28518 28519 28520 28521 28522 28523 28524 28525 28526 28527 28528 28529 28530 28531 28532 28533 28534 28535 28536 28537 28538 28539 28540 28541 28542 28543 28544 28545 28546 28547 28548 28549 28550 28551 28552 28553 28554 28555 28556 28557 28558 28559 28560 28561 28562 28563 28564 28565 28566 28567 28568 28569 28570 28571 28572 28573 28574 28575 28576 28577 28578 28579 28580 28581 28582 28583 28584 28585 28586 28587 28588 28589 28590 28591 28592 28593 28594 28595 28596 28597 28598 28599 28600 28601 28602 28603 28604 28605 28606 28607 28608 28609 28610 28611 28612 28613 28614 28615 28616 28617 28618 28619 28620 28621 28622 28623 28624 28625 28626 28627 28628 28629 28630 28631 28632 28633 28634 28635 28636 28637 28638 28639 28640 28641 28642 28643 28644 28645 28646 28647 28648 28649 28650 28651 28652 28653 28654 28655 28656 28657 28658 28659 28660 28661 28662 28663 28664 28665 28666 28667 28668 28669 28670 28671 28672 28673 28674 28675 28676 28677 28678 28679 28680 28681 28682 28683 28684 28685 28686 28687 28688 28689 28690 28691 28692 28693 28694 28695 28696 28697 28698 28699 28700 28701 28702 28703 28704 28705 28706 28707 28708 28709 28710 28711 28712 28713 28714 28715 28716 28717 28718 28719 28720 28721 28722 28723 28724 28725 28726 28727 28728 28729 28730 28731 28732 28733 28734 28735 28736 28737 28738 28739 28740 28741 28742 28743 28744 28745 28746 28747 28748 28749 28750 28751 28752 28753 28754 28755 28756 28757 28758 28759 28760 28761 28762 28763 28764 28765 28766 28767 28768 28769 28770 28771 28772 28773 28774 28775 28776 28777 28778 28779 28780 28781 28782 28783 28784 28785 28786 28787 28788 28789 28790 28791 28792 28793 28794 28795 28796 28797 28798 28799 28800 28801 28802 28803 28804 28805 28806 28807 28808 28809 28810 28811 28812 28813 28814 28815 28816 28817 28818 28819 28820 28821 28822 28823 28824 28825 28826 28827 28828 28829 28830 28831 28832 28833 28834 28835 28836 28837 28838 28839 28840 28841 28842 28843 28844 28845 28846 28847 28848 28849 28850 28851 28852 28853 28854 28855 28856 28857 28858 28859 28860 28861 28862 28863 28864 28865 28866 28867 28868 28869 28870 28871 28872 28873 28874 28875 28876 28877 28878 28879 28880 28881 28882 28883 28884 28885 28886 28887 28888 28889 28890 28891 28892 28893 28894 28895 28896 28897 28898 28899 28900 28901 28902 28903 28904 28905 28906 28907 28908 28909 28910 28911 28912 28913 28914 28915 28916 28917 28918 28919 28920 28921 28922 28923 28924 28925 28926 28927 28928 28929 28930 28931 28932 28933 28934 28935 28936 28937 28938 28939 28940 28941 28942 28943 28944 28945 28946 28947 28948 28949 28950 28951 28952 28953 28954 28955 28956 28957 28958 28959 28960 28961 28962 28963 28964 28965 28966 28967 28968 28969 28970 28971 28972 28973 28974 28975 28976 28977 28978 28979 28980 28981 28982 28983 28984 28985 28986 28987 28988 28989 28990 28991 28992 28993 28994 28995 28996 28997 28998 28999 29000 29001 29002 29003 29004 29005 29006 29007 29008 29009 29010 29011 29012 29013 29014 29015 29016 29017 29018 29019 29020 29021 29022 29023 29024 29025 29026 29027 29028 29029 29030 29031 29032 29033 29034 29035 29036 29037 29038 29039 29040 29041 29042 29043 29044 29045 29046 29047 29048 29049 29050 29051 29052 29053 29054 29055 29056 29057 29058 29059 29060 29061 29062 29063 29064 29065 29066 29067 29068 29069 29070 29071 29072 29073 29074 29075 29076 29077 29078 29079 29080 29081 29082 29083 29084 29085 29086 29087 29088 29089 29090 29091 29092 29093 29094 29095 29096 29097 29098 29099 29100 29101 29102 29103 29104 29105 29106 29107 29108 29109 29110 29111 29112 29113 29114 29115 29116 29117 29118 29119 29120 29121 29122 29123 29124 29125 29126 29127 29128 29129 29130 29131 29132 29133 29134 29135 29136 29137 29138 29139 29140 29141 29142 29143 29144 29145 29146 29147 29148 29149 29150 29151 29152 29153 29154 29155 29156 29157 29158 29159 29160 29161 29162 29163 29164 29165 29166 29167 29168 29169 29170 29171 29172 29173 29174 29175 29176 29177 29178 29179 29180 29181 29182 29183 29184 29185 29186 29187 29188 29189 29190 29191 29192 29193 29194 29195 29196 29197 29198 29199 29200 29201 29202 29203 29204 29205 29206 29207 29208 29209 29210 29211 29212 29213 29214 29215 29216 29217 29218 29219 29220 29221 29222 29223 29224 29225 29226 29227 29228 29229 29230 29231 29232 29233 29234 29235 29236 29237 29238 29239 29240 29241 29242 29243 29244 29245 29246 29247 29248 29249 29250 29251 29252 29253 29254 29255 29256 29257 29258 29259 29260 29261 29262 29263 29264 29265 29266 29267 29268 29269 29270 29271 29272 29273 29274 29275 29276 29277 29278 29279 29280 29281 29282 29283 29284 29285 29286 29287 29288 29289 29290 29291 29292 29293 29294 29295 29296 29297 29298 29299 29300 29301 29302 29303 29304 29305 29306 29307 29308 29309 29310 29311 29312 29313 29314 29315 29316 29317 29318 29319 29320 29321 29322 29323 29324 29325 29326 29327 29328 29329 29330 29331 29332 29333 29334 29335 29336 29337 29338 29339 29340 29341 29342 29343 29344 29345 29346 29347 29348 29349 29350 29351 29352 29353 29354 29355 29356 29357 29358 29359 29360 29361 29362 29363 29364 29365 29366 29367 29368 29369 29370 29371 29372 29373 29374 29375 29376 29377 29378 29379 29380 29381 29382 29383 29384 29385 29386 29387 29388 29389 29390 29391 29392 29393 29394 29395 29396 29397 29398 29399 29400 29401 29402 29403 29404 29405 29406 29407 29408 29409 29410 29411 29412 29413 29414 29415 29416 29417 29418 29419 29420 29421 29422 29423 29424 29425 29426 29427 29428 29429 29430 29431 29432 29433 29434 29435 29436 29437 29438 29439 29440 29441 29442 29443 29444 29445 29446 29447 29448 29449 29450 29451 29452 29453 29454 29455 29456 29457 29458 29459 29460 29461 29462 29463 29464 29465 29466 29467 29468 29469 29470 29471 29472 29473 29474 29475 29476 29477 29478 29479 29480 29481 29482 29483 29484 29485 29486 29487 29488 29489 29490 29491 29492 29493 29494 29495 29496 29497 29498 29499 29500 29501 29502 29503 29504 29505 29506 29507 29508 29509 29510 29511 29512 29513 29514 29515 29516 29517 29518 29519 29520 29521 29522 29523 29524 29525 29526 29527 29528 29529 29530 29531 29532 29533 29534 29535 29536 29537 29538 29539 29540 29541 29542 29543 29544 29545 29546 29547 29548 29549 29550 29551 29552 29553 29554 29555 29556 29557 29558 29559 29560 29561 29562 29563 29564 29565 29566 29567 29568 29569 29570 29571 29572 29573 29574 29575 29576 29577 29578 29579 29580 29581 29582 29583 29584 29585 29586 29587 29588 29589 29590 29591 29592 29593 29594 29595 29596 29597 29598 29599 29600 29601 29602 29603 29604 29605 29606 29607 29608 29609 29610 29611 29612 29613 29614 29615 29616 29617 29618 29619 29620 29621 29622 29623 29624 29625 29626 29627 29628 29629 29630 29631 29632 29633 29634 29635 29636 29637 29638 29639 29640 29641 29642 29643 29644 29645 29646 29647 29648 29649 29650 29651 29652 29653 29654 29655 29656 29657 29658 29659 29660 29661 29662 29663 29664 29665 29666 29667 29668 29669 29670 29671 29672 29673 29674 29675 29676 29677 29678 29679 29680 29681 29682 29683 29684 29685 29686 29687 29688 29689 29690 29691 29692 29693 29694 29695 29696 29697 29698 29699 29700 29701 29702 29703 29704 29705 29706 29707 29708 29709 29710 29711 29712 29713 29714 29715 29716 29717 29718 29719 29720 29721 29722 29723 29724 29725 29726 29727 29728 29729 29730 29731 29732 29733 29734 29735 29736 29737 29738 29739 29740 29741 29742 29743 29744 29745 29746 29747 29748 29749 29750 29751 29752 29753 29754 29755 29756 29757 29758 29759 29760 29761 29762 29763 29764 29765 29766 29767 29768 29769 29770 29771 29772 29773 29774 29775 29776 29777 29778 29779 29780 29781 29782 29783 29784 29785 29786 29787 29788 29789 29790 29791 29792 29793 29794 29795 29796 29797 29798 29799 29800 29801 29802 29803 29804 29805 29806 29807 29808 29809 29810 29811 29812 29813 29814 29815 29816 29817 29818 29819 29820 29821 29822 29823 29824 29825 29826 29827 29828 29829 29830 29831 29832 29833 29834 29835 29836 29837 29838 29839 29840 29841 29842 29843 29844 29845 29846 29847 29848 29849 29850 29851 29852 29853 29854 29855 29856 29857 29858 29859 29860 29861 29862 29863 29864 29865 29866 29867 29868 29869 29870 29871 29872 29873 29874 29875 29876 29877 29878 29879 29880 29881 29882 29883 29884 29885 29886 29887 29888 29889 29890 29891 29892 29893 29894 29895 29896 29897 29898 29899 29900 29901 29902 29903 29904 29905 29906 29907 29908 29909 29910 29911 29912 29913 29914 29915 29916 29917 29918 29919 29920 29921 29922 29923 29924 29925 29926 29927 29928 29929 29930 29931 29932 29933 29934 29935 29936 29937 29938 29939 29940 29941 29942 29943 29944 29945 29946 29947 29948 29949 29950 29951 29952 29953 29954 29955 29956 29957 29958 29959 29960 29961 29962 29963 29964 29965 29966 29967 29968 29969 29970 29971 29972 29973 29974 29975 29976 29977 29978 29979 29980 29981 29982 29983 29984 29985 29986 29987 29988 29989 29990 29991 29992 29993 29994 29995 29996 29997 29998 29999 30000 30001 30002 30003 30004 30005 30006 30007 30008 30009 30010 30011 30012 30013 30014 30015 30016 30017 30018 30019 30020 30021 30022 30023 30024 30025 30026 30027 30028 30029 30030 30031 30032 30033 30034 30035 30036 30037 30038 30039 30040 30041 30042 30043 30044 
</DataArray>
<DataArray type="UInt32" Name="offsets" format="ascii">
3 6 9 12 15 18 21 24 27 30 33 36 39 42 45 48 51 54 57 60 63 66 69 72 75 78 80 83 86 89 92 94 96 99 102 104 106 109 112 115 117 120 122 125 128 131 134 137 140 142 145 147 150 153 156 159 162 165 167 170 173 176 178 181 184 187 190 193 196 199 202 205 208 211 214 217 220 222 225 228 230 233 236 239 242 245 248 251 254 257 260 263 266 269 272 275 278 281 284 287 289 292 295 298 300 303 305 307 309 312 314 317 320 323 326 329 331 334 336 339 342 345 348 351 354 357 360 363 365 368 371 374 377 380 383 386 389 391 394 397 400 402 405 408 411 414 417 420 423 425 428 431 433 435 437 440 443 446 449 451 454 457 460 463 466 469 472 475 477 479 482 485 488 491 493 496 498 500 503 506 509 512 515 518 520 523 526 529 532 535 537 540 543 545 548 551 554 557 560 563 566 569 572 574 577 580 583 586 589 592 595 598 601 604 607 610 613 616 619 622 625 628 631 634 637 640 643 646 649 651 654 657 660 663 665 668 671 674 677 680 683 686 689 692 695 698 701 704 707 710 713 716 719 722 725 728 730 733 736 738 741 744 747 750 753 756 759 762 765 767 770 773 776 779 782 785 788 791 794 797 800 803 806 809 812 815 818 821 824 827 830 833 835 838 841 844 847 849 852 855 858 861 864 866 869 872 875 878 881 884 887 890 892 895 897 900 903 906 909 912 915 918 921 924 927 930 933 936 939 942 945 948 951 954 957 960 963 966 969 972 975 978 981 984 986 989 992 995 998 1000 1002 1005 1008 1010 1013 1016 1019 1022 1025 1027 1029 1031 1033 1036 1039 1042 1045 1048 1051 1054 1057 1060 1063 1066 1069 1072 1075 1078 1080 1083 1086 1089 1092 1095 1098 1101 1104 1107 1110 1113 1116 1119 1122 1125 1128 1131 1134 1137 1140 1143 1146 1149 1151 1154 1157 1160 1163 1165 1167 1170 1173 1176 1178 1181 1184 1187 1190 1192 1195 1198 1201 1204 1207 1210 1213 1216 1219 1222 1224 1227 1230 1233 1236 1239 1241 1244 1247 1250 1253 1256 1259 1262 1265 1268 1271 1273 1276 1279 1282 1285 1287 1290 1293 1295 1298 1301 1303 1306 1309 1311 1314 1317 1320 1322 1325 1327 1330 1333 1336 1339 1342 1345 1348 1351 1354 1357 1360 1362 1365 1368 1371 1374 1377 1380 1383 1386 1389 1392 1395 1398 1401 1404 1407 1410 1413 1416 1419 1422 1425 1428 1430 1433 1436 1439 1442 1445 1448 1450 1453 1456 1459 1461 1464 1467 1469 1472 1474 1477 1479 1482 1485 1487 1490 1493 1496 1499 1502 1505 1508 1510 1513 1515 1518 1521 1524 1527 1530 1532 1535 1538 1540 1543 1545 1548 1551 1554 1557 1559 1562 1565 1568 1571 1574 1577 1580 1583 1586 1589 1592 1594 1597 1600 1603 1606 1609 1612 1614 1617 1620 1623 1625 1628 1631 1633 1636 1639 1642 1645 1648 1651 1654 1657 1660 1663 1666 1669 1672 1674 1677 1680 1683 1686 1689 1692 1695 1698 1700 1703 1706 1709 1712 1714 1717 1720 1723 1726 1729 1732 1735 1738 1740 1743 1746 1749 1751 1754 1757 1759 1762 1765 1767 1770 1773 1776 1779 1782 1785 1788 1791 1794 1797 1800 1803 1806 1809 1812 1815 1818 1820 1823 1826 1829 1832 1835 1838 1840 1843 1846 1849 1852 1855 1857 1860 1863 1866 1869 1872 1875 1878 1881 1884 1887 1889 1892 1895 1898 1901 1904 1907 1910 1913 1916 1919 1922 1924 1927 1930 1933 1936 1939 1942 1945 1948 1951 1954 1957 1960 1963 1966 1969 1972 1975 1978 1981 1983 1986 1989 1992 1995 1998 2001 2004 2007 2010 2013 2016 2019 2022 2025 2027 2030 2033 2036 2039 2041 2044 2047 2050 2053 2056 2058 2061 2064 2067 2070 2073 2075 2078 2081 2083 2086 2089 2092 2095 2098 2101 2103 2106 2109 2112 2115 2118 2121 2124 2126 2129 2132 2135 2138 2140 2143 2145 2148 2150 2152 2155 2157 2160 2163 2166 2168 2171 2174 2177 2180 2182 2185 2188 2191 2194 2197 2200 2202 2205 2208 2211 2214 2216 2219 2222 2224 2227 2230 2233 2235 2238 2241 2244 2246 2249 2252 2255 2258 2261 2264 2266 2269 2272 2275 2278 2281 2284 2287 2290 2293 2296 2299 2302 2304 2307 2310 2312 2315 2318 2321 2323 2326 2328 2331 2334 2337 2339 2342 2344 2347 2350 2353 2355 2358 2360 2363 2365 2367 2370 2373 2376 2379 2381 2384 2387 2390 2393 2396 2399 2402 2404 2407 2410 2413 2416 2419 2422 2425 2428 2431 2434 2436 2439 2442 2445 2448 2451 2454 2457 2460 2463 2466 2469 2471 2474 2477 2480 2483 2486 2489 2491 2494 2497 2500 2502 2505 2508 2511 2513 2516 2519 2522 2525 2527 2530 2533 2536 2539 2542 2545 2548 2551 2554 2557 2560 2563 2565 2568 2571 2574 2577 2580 2583 2586 2589 2591 2594 2597 2600 2603 2606 2609 2612 2615 2617 2620 2623 2625 2628 2631 2634 2637 2640 2643 2646 2648 2651 2654 2657 2659 2662 2665 2667 2670 2673 2676 2679 2682 2684 2687 2689 2692 2695 2698 2701 2704 2707 2710 2713 2716 2719 2722 2724 2727 2730 2733 2736 2738 2741 2744 2747 2750 2753 2756 2759 2762 2765 2768 2770 2773 2776 2779 2782 2785 2788 2791 2794 2797 2800 2803 2806 2809 2812 2815 2818 2821 2824 2826 2828 2831 2834 2837 2840 2843 2846 2849 2852 2854 2857 2860 2862 2865 2868 2871 2874 2877 2880 2883 2886 2888 2891 2894 2897 2900 2903 2906 2909 2912 2915 2918 2921 2924 2927 2930 2933 2936 2939 2942 2945 2948 2950 2953 2956 2959 2961 2964 2967 2970 2973 2976 2979 2982 2985 2988 2991 2993 2996 2999 3002 3005 3007 3010 3013 3016 3019 3022 3025 3028 3030 3033 3036 3039 3042 3044 3047 3049 3052 3055 3058 3060 3062 3065 3067 3069 3072 3075 3077 3080 3083 3086 3089 3092 3094 3097 3100 3103 3106 3109 3112 3115 3118 3121 3124 3127 3130 3133 3135 3138 3140 3143 3146 3148 3151 3154 3156 3159 3162 3165 3168 3171 3173 3176 3179 3182 3185 3188 3191 3194 3197 3200 3203 3206 3209 3212 3214 3217 3220 3223 3225 3228 3231 3234 3237 3240 3242 3245 3248 3251 3254 3257 3260 3263 3265 3268 3271 3274 3277 3280 3283 3286 3289 3292 3295 3298 3301 3304 3307 3310 3313 3316 3319 3322 3325 3328 3331 3334 3337 3340 3343 3346 3349 3352 3355 3358 3361 3364 3367 3370 3373 3376 3379 3382 3385 3388 3391 3394 3397 3400 3403 3406 3409 3412 3415 3418 3421 3424 3427 3430 3433 3436 3439 3442 3445 3448 3451 3454 3457 3460 3463 3466 3469 3472 3475 3478 3481 3484 3487 3490 3493 3496 3499 3502 3504 3507 3510 3513 3515 3517 3520 3523 3526 3529 3532 3535 3538 3541 3544 3547 3550 3553 3556 3559 3562 3565 3568 3571 3574 3577 3580 3583 3586 3589 3592 3595 3598 3601 3604 3607 3610 3613 3616 3619 3622 3625 3627 3630 3633 3635 3638 3641 3644 3647 3650 3653 3656 3659 3662 3665 3668 3671 3674 3677 3680 3683 3686 3689 3691 3694 3697 3700 3703 3706 3709 3712 3715 3717 3720 3723 3726 3729 3732 3735 3737 3740 3743 3746 3749 3752 3755 3758 3761 3764 3767 3770 3773 3776 3779 3781 3784 3787 3790 3793 3796 3799 3802 3805 3808 3811 3814 3817 3820 3823 3826 3829 3832 3835 3838 3841 3844 3847 3850 3853 3856 3859 3862 3864 3867 3870 3873 3876 3879 3882 3885 3888 3890 3893 3896 3899 3901 3904 3907 3910 3913 3916 3919 3922 3925 3928 3931 3934 3937 3940 3943 3946 3949 3952 3955 3958 3960 3963 3966 3969 3972 3974 3977 3980 3983 3986 3989 3992 3995 3997 4000 4003 4006 4008 4011 4014 4017 4020 4023 4026 4029 4032 4035 4038 4041 4044 4047 4050 4052 4055 4058 4060 4063 4065 4068 4070 4073 4075 4078 4080 4083 4086 4089 4092 4095 4098 4101 4103 4106 4109 4112 4115 4118 4121 4124 4126 4129 4132 4135 4138 4140 4143 4146 4149 4152 4154 4157 4160 4162 4165 4168 4171 4174 4177 4180 4183 4186 4188 4191 4194 4197 4200 4203 4206 4209 4211 4214 4217 4220 4222 4225 4228 4230 4233 4236 4239 4242 4245 4248 4251 4254 4257 4260 4263 4265 4267 4270 4272 4275 4278 4281 4284 4286 4289 4292 4295 4298 4300 4303 4306 4308 4311 4314 4316 4319 4321 4324 4326 4329 4332 4335 4337 4340 4343 4346 4349 4352 4355 4358 4360 4363 4366 4369 4372 4375 4378 4381 4384 4387 4390 4393 4396 4399 4402 4405 4408 4411 4414 4417 4420 4422 4424 4427 4430 4433 4436 4439 4441 4443 4446 4448 4451 4454 4457 4460 4462 4465 4467 4469 4472 4475 4478 4480 4483 4486 4489 4492 4494 4496 4499 4502 4505 4507 4510 4512 4515 4518 4521 4524 4526 4529 4532 4535 4538 4541 4544 4547 4550 4553 4556 4559 4562 4564 4567 4570 4572 4575 4578 4580 4583 4585 4588 4591 4594 4596 4599 4602 4605 4608 4611 4614 4616 4619 4621 4624 4627 4629 4632 4635 4637 4639 4642 4645 4647 4650 4652 4655 4658 4661 4663 4666 4669 4672 4675 4677 4680 4683 4686 4689 4692 4694 4696 4699 4702 4705 4708 4711 4713 4716 4719 4721 4724 4727 4730 4733 4735 4738 4741 4744 4747 4749 4751 4753 4756 4758 4761 4764 4767 4769 4772 4774 4777 4779 4782 4784 4787 4790 4792 4795 4798 4801 4804 4807 4810 4813 4816 4819 4822 4825 4828 4831 4834 4837 4840 4842 4844 4846 4849 4852 4855 4857 4860 4862 4864 4867 4870 4873 4876 4879 4882 4885 4888 4891 4894 4897 4899 4901 4904 4906 4909 4911 4914 4917 4920 4922 4925 4928 4931 4934 4937 4940 4943 4946 4948 4951 4954 4957 4959 4962 4965 4968 4971 4973 4976 4979 4982 4985 4988 4991 4994 4997 5000 5002 5005 5008 5011 5014 5017 5019 5022 5024 5027 5030 5033 5036 5039 5042 5045 5048 5051 5054 5057 5060 5062 5065 5068 5071 5074 5077 5080 5083 5086 5089 5092 5095 5098 5101 5104 5107 5110 5113 5116 5119 5122 5124 5127 5130 5132 5134 5137 5140 5143 5146 5149 5151 5154 5157 5160 5163 5166 5169 5172 5175 5178 5181 5184 5187 5190 5192 5195 5197 5200 5203 5206 5209 5212 5214 5216 5219 5221 5224 5227 5230 5233 5236 5239 5242 5245 5248 5251 5254 5256 5259 5262 5264 5267 5270 5273 5276 5279 5282 5284 5287 5290 5293 5296 5299 5302 5305 5308 5310 5312 5315 5318 5321 5324 5327 5330 5333 5335 5338 5341 5343 5346 5348 5351 5354 5357 5360 5362 5365 5368 5371 5374 5376 5378 5381 5384 5387 5390 5393 5396 5399 5402 5404 5406 5409 5412 5415 5418 5421 5424 5427 5430 5433 5436 5439 5442 5445 5448 5451 5454 5456 5459 5462 5465 5468 5471 5474 5477 5480 5483 5486 5489 5492 5495 5498 5501 5504 5507 5510 5513 5516 5519 5522 5525 5528 5531 5534 5537 5540 5543 5546 5549 5552 5555 5558 5561 5564 5567 5570 5573 5576 5579 5581 5584 5587 5590 5593 5596 5598 5601 5604 5607 5610 5613 5616 5619 5621 5624 5626 5628 5631 5633 5636 5639 5642 5645 5648 5651 5654 5657 5660 5662 5665 5668 5671 5673 5676 5679 5682 5684 5687 5690 5693 5696 5699 5702 5705 5708 5711 5714 5717 5720 5723 5726 5729 5732 5735 5738 5741 5744 5747 5750 5753 5756 5759 5762 5765 5768 5771 5774 5777 5780 5783 5786 5789 5792 5795 5797 5800 5803 5806 5809 5812 5815 5818 5821 5824 5827 5829 5832 5834 5837 5840 5842 5845 5848 5851 5853 5856 5859 5862 5865 5868 5871 5874 5877 5880 5882 5885 5888 5890 5893 5896 5899 5901 5904 5907 5909 5911 5913 5916 5919 5922 5925 5928 5930 5932 5935 5938 5941 5944 5946 5949 5952 5955 5958 5961 5964 5966 5969 5972 5975 5977 5980 5982 5985 5987 5990 5993 5996 5999 6002 6005 6007 6009 6012 6014 6016 6018 6021 6024 6027 6030 6033 6035 6038 6040 6043 6046 6049 6052 6054 6057 6060 6062 6065 6068 6071 6074 6076 6079 6082 6085 6088 6091 6094 6097 6099 6102 6104 6107 6110 6113 6116 6119 6122 6125 6128 6131 6134 6137 6140 6142 6145 6147 6150 6153 6155 6158 6161 6164 6167 6169 6171 6174 6177 6179 6182 6185 6188 6191 6194 6197 6200 6202 6205 6207 6209 6212 6215 6218 6220 6223 6225 6228 6231 6234 6236 6239 6241 6243 6246 6248 6250 6253 6256 6259 6262 6265 6268 6271 6274 6277 6280 6282 6285 6288 6291 6293 6296 6298 6301 6304 6307 6310 6313 6316 6319 6321 6324 6327 6330 6332 6335 6338 6341 6343 6346 6349 6352 6355 6358 6361 6364 6367 6370 6373 6375 6378 6381 6384 6387 6389 6392 6395 6398 6400 6403 6406 6409 6412 6415 6418 6421 6424 6427 6429 6432 6434 6437 6440 6443 6446 6449 6452 6455 6458 6461 6464 6467 6470 6473 6475 6478 6481 6484 6487 6490 6493 6496 6499 6502 6505 6508 6511 6514 6517 6520 6523 6526 6529 6532 6535 6538 6541 6544 6547 6550 6553 6555 6558 6561 6564 6567 6570 6572 6575 6578 6581 6584 6587 6590 6593 6596 6599 6602 6605 6608 6611 6614 6617 6619 6622 6625 6627 6629 6632 6635 6638 6641 6644 6646 6649 6652 6655 6658 6661 6664 6666 6669 6672 6675 6677 6679 6682 6685 6688 6691 6694 6697 6700 6703 6706 6709 6712 6714 6717 6720 6723 6726 6728 6730 6732 6735 6738 6740 6743 6745 6748 6751 6754 6757 6760 6762 6764 6767 6769 6772 6775 6778 6780 6782 6785 6788 6791 6793 6796 6799 6802 6805 6808 6811 6814 6817 6820 6823 6825 6828 6831 6834 6836 6839 6841 6843 6846 6849 6851 6854 6857 6860 6863 6865 6868 6871 6874 6877 6880 6883 6886 6889 6891 6894 6897 6900 6903 6906 6909 6912 6914 6917 6920 6923 6925 6928 6931 6934 6937 6940 6943 6946 6949 6952 6955 6957 6960 6963 6966 6968 6971 6974 6976 6979 6982 6985 6988 6991 6994 6997 6999 7002 7004 7007 7010 7013 7016 7019 7022 7025 7028 7031 7034 7036 7039 7042 7045 7047 7050 7053 7056 7058 7061 7064 7067 7070 7073 7076 7079 7082 7085 7087 7090 7093 7096 7099 7102 7105 7108 7111 7114 7117 7120 7123 7126 7129 7132 7134 7136 7139 7142 7145 7148 7150 7153 7155 7158 7160 7163 7166 7169 7171 7173 7175 7178 7181 7184 7187 7190 7193 7196 7199 7202 7205 7208 7211 7213 7216 7219 7222 7225 7227 7229 7232 7235 7238 7241 7244 7246 7248 7251 7254 7257 7260 7263 7265 7268 7271 7273 7276 7279 7282 7285 7288 7291 7294 7297 7300 7302 7305 7308 7311 7314 7317 7320 7323 7326 7329 7331 7334 7337 7340 7343 7346 7349 7351 7353 7356 7358 7361 7364 7366 7369 7372 7374 7376 7379 7382 7384 7386 7389 7392 7395 7397 7400 7402 7404 7407 7410 7413 7415 7418 7421 7424 7427 7430 7433 7435 7438 7440 7443 7446 7448 7450 7453 7456 7459 7462 7464 7467 7470 7473 7476 7478 7481 7484 7487 7490 7493 7496 7499 7502 7505 7507 7510 7513 7516 7519 7522 7525 7528 7531 7534 7537 7540 7543 7546 7549 7552 7555 7558 7561 7564 7567 7569 7572 7575 7578 7580 7583 7586 7589 7592 7595 7598 7601 7604 7606 7609 7612 7614 7617 7620 7622 7625 7628 7631 7634 7637 7640 7642 7645 7648 7651 7654 7657 7660 7663 7666 7669 7672 7675 7677 7680 7683 7686 7689 7692 7695 7697 7700 7703 7706 7708 7711 7714 7717 7720 7723 7726 7729 7732 7735 7738 7741 7744 7746 7749 7752 7754 7757 7760 7763 7766 7769 7771 7774 7777 7780 7783 7786 7789 7792 7795 7798 7801 7804 7807 7810 7813 7816 7819 7822 7825 7828 7831 7834 7836 7839 7842 7845 7848 7851 7854 7857 7860 7863 7866 7869 7872 7875 7878 7881 7883 7886 7889 7891 7894 7897 7900 7903 7906 7909 7912 7914 7917 7920 7923 7926 7928 7931 7934 7937 7940 7943 7946 7949 7952 7955 7957 7960 7963 7966 7969 7972 7975 7978 7981 7984 7987 7990 7993 7995 7998 8000 8003 8005 8008 8010 8013 8016 8019 8022 8025 8028 8031 8034 8036 8039 8042 8045 8048 8051 8054 8057 8060 8063 8066 8069 8072 8074 8077 8080 8083 8085 8088 8091 8093 8096 8099 8101 8104 8107 8109 8112 8115 8118 8121 8124 8127 8130 8133 8136 8139 8142 8145 8148 8151 8153 8156 8158 8161 8163 8166 8169 8172 8175 8177 8180 8183 8185 8188 8191 8194 8197 8200 8202 8205 8208 8210 8213 8216 8219 8222 8224 8227 8230 8233 8236 8238 8240 8243 8246 8249 8252 8255 8258 8261 8264 8266 8268 8271 8274 8277 8280 8282 8285 8288 8290 8293 8295 8298 8301 8304 8306 8309 8312 8315 8318 8320 8322 8325 8328 8331 8333 8336 8339 8342 8345 8348 8351 8354 8357 8360 8363 8366 8369 8372 8375 8377 8380 8383 8385 8388 8391 8393 8396 8399 8402 8405 8407 8410 8413 8416 8419 8421 8424 8427 8430 8433 8436 8439 8442 8445 8447 8450 8453 8456 8459 8462 8465 8467 8469 8472 8474 8477 8480 8483 8486 8489 8492 8495 8498 8501 8504 8507 8510 8512 8515 8518 8521 8524 8527 8530 8533 8536 8538 8541 8544 8547 8550 8553 8556 8558 8561 8564 8566 8569 8572 8575 8578 8581 8584 8587 8590 8592 8595 8598 8601 8604 8607 8610 8613 8616 8619 8622 8625 8628 8631 8634 8637 8640 8643 8645 8648 8651 8654 8657 8660 8663 8666 8669 8672 8675 8678 8681 8684 8687 8690 8692 8694 8697 8700 8703 8706 8709 8712 8715 8718 8721 8724 8727 8730 8733 8736 8739 8742 8745 8748 8751 8754 8757 8760 8763 8766 8769 8772 8775 8778 8781 8784 8787 8790 8793 8795 8798 8801 8803 8806 8808 8811 8814 8816 8819 8822 8825 8827 8829 8832 8835 8837 8839 8842 8845 8847 8850 8853 8855 8858 8860 8863 8866 8869 8872 8874 8877 8880 8882 8884 8887 8890 8892 8894 8897 8899 8902 8905 8907 8909 8912 8915 8917 8920 8923 8925 8928 8931 8933 8936 8938 8941 8944 8947 8950 8953 8955 8958 8960 8963 8966 8969 8971 8974 8977 8979 8982 8984 8986 8989 8992 8995 8997 8999 9002 9005 9007 9009 9012 9015 9017 9020 9022 9025 9028 9031 9033 9036 9038 9041 9044 9047 9049 9052 9055 9058 9061 9064 9067 9070 9072 9075 9077 9080 9083 9086 9089 9091 9094 9097 9099 9102 9105 9108 9111 9114 9117 9120 9123 9126 9128 9131 9134 9137 9140 9143 9146 9149 9152 9155 9158 9161 9163 9165 9168 9171 9174 9177 9180 9183 9186 9188 9191 9194 9197 9200 9203 9206 9209 9212 9215 9218 9221 9224 9227 9230 9233 9236 9239 9242 9245 9248 9251 9253 9256 9258 9261 9263 9266 9269 9272 9274 9277 9280 9283 9286 9289 9291 9293 9296 9299 9301 9304 9307 9310 9313 9316 9319 9322 9325 9328 9331 9333 9336 9339 9342 9345 9348 9350 9353 9356 9359 9362 9365 9368 9371 9374 9377 9380 9383 9386 9389 9392 9395 9398 9401 9404 9407 9410 9413 9416 9419 9422 9424 9426 9429 9432 9435 9437 9440 9443 9446 9449 9452 9455 9458 9461 9464 9467 9470 9472 9474 9477 9480 9483 9486 9488 9490 9493 9495 9498 9501 9504 9506 9509 9512 9515 9517 9519 9522 9525 9527 9529 9532 9535 9538 9541 9544 9547 9550 9553 9556 9559 9562 9565 9567 9570 9573 9576 9579 9582 9585 9588 9591 9594 9597 9600 9603 9606 9609 9611 9614 9616 9619 9622 9625 9627 9629 9632 9635 9638 9641 9644 9647 9650 9652 9655 9658 9661 9664 9666 9668 9671 9673 9676 9679 9681 9683 9685 9688 9691 9694 9696 9698 9701 9704 9707 9710 9713 9716 9719 9722 9725 9727 9730 9732 9734 9737 9739 9742 9745 9748 9751 9754 9756 9758 9761 9764 9767 9769 9772 9775 9778 9781 9783 9786 9789 9792 9795 9798 9801 9804 9807 9810 9813 9816 9819 9822 9825 9828 9831 9834 9836 9838 9841 9844 9847 9849 9852 9855 9858 9860 9863 9866 9869 9872 9875 9878 9881 9884 9887 9890 9893 9895 9898 9901 9904 9907 9910 9913 9916 9919 9922 9925 9928 9931 9934 9937 9940 9943 9946 9948 9951 9954 9957 9960 9963 9966 9969 9972 9975 9978 9981 9984 9987 9990 9993 9996 9999 10001 10004 10007 10010 10013 10016 10019 10022 10025 10028 10031 10034 10037 10040 10042 10045 10048 10050 10053 10056 10058 10061 10064 10067 10070 10073 10076 10079 10082 10085 10087 10090 10092 10095 10098 10101 10104 10107 10110 10113 10116 10118 10121 10124 10127 10130 10133 10136 10139 10142 10145 10147 10150 10153 10156 10159 10162 10165 10168 10171 10174 10177 10180 10183 10186 10189 10191 10194 10197 10200 10203 10206 10209 10212 10215 10217 10220 10223 10225 10228 10231 10234 10236 10239 10242 10245 10247 10250 10252 10254 10257 10260 10263 10265 10268 10270 10273 10276 10279 10282 10284 10287 10290 10293 10296 10299 10302 10305 10307 10309 10312 10315 10318 10321 10323 10325 10327 10330 10332 10335 10338 10341 10344 10347 10350 10353 10355 10358 10361 10364 10367 10369 10372 10375 10378 10381 10384 10387 10390 10393 10396 10399 10402 10405 10408 10411 10414 10417 10420 10423 10426 10429 10432 10435 10438 10441 10444 10447 10450 10453 10456 10459 10461 10464 10467 10470 10473 10476 10479 10482 10485 10488 10491 10494 10497 10500 10503 10505 10508 10511 10514 10517 10519 10522 10525 10528 10531 10534 10537 10540 10543 10546 10549 10552 10555 10558 10560 10563 10566 10568 10571 10574 10577 10580 10583 10586 10589 10592 10595 10598 10600 10603 10606 10609 10611 10614 10617 10619 10622 10625 10628 10630 10633 10636 10638 10641 10644 10647 10649 10652 10655 10657 10660 10663 10666 10669 10672 10675 10678 10681 10683 10686 10688 10691 10694 10697 10699 10702 10705 10708 10711 10714 10717 10720 10722 10725 10728 10730 10733 10736 10738 10741 10744 10747 10750 10753 10756 10759 10762 10765 10768 10771 10774 10777 10780 10783 10786 10789 10792 10795 10798 10801 10804 10806 10809 10812 10814 10817 10820 10823 10825 10828 10831 10834 10837 10840 10842 10845 10848 10851 10854 10857 10860 10863 10866 10869 10872 10875 10878 10881 10883 10886 10889 10892 10895 10898 10901 10904 10907 10910 10913 10915 10918 10921 10924 10927 10930 10933 10936 10939 10942 10945 10948 10951 10954 10957 10959 10962 10965 10968 10970 10973 10976 10979 10982 10985 10988 10991 10994 10997 11000 11003 11005 11008 11011 11014 11017 11020 11022 11025 11028 11031 11034 11036 11039 11042 11045 11047 11050 11053 11056 11059 11062 11065 11068 11071 11074 11077 11080 11083 11086 11089 11092 11095 11097 11100 11103 11106 11108 11111 11114 11117 11119 11122 11125 11128 11131 11134 11137 11140 11143 11146 11149 11152 11155 11158 11161 11164 11167 11170 11173 11176 11179 11181 11183 11186 11189 11192 11195 11198 11201 11203 11205 11208 11210 11213 11216 11219 11222 11225 11228 11231 11234 11237 11240 11242 11245 11248 11251 11253 11256 11259 11261 11264 11267 11270 11273 11276 11279 11282 11285 11287 11290 11293 11296 11299 11301 11304 11307 11310 11313 11316 11319 11322 11325 11328 11331 11334 11337 11339 11342 11345 11347 11350 11353 11356 11359 11362 11365 11368 11371 11374 11377 11380 11383 11386 11389 11392 11395 11398 11401 11404 11407 11410 11413 11416 11419 11421 11424 11427 11430 11433 11436 11439 11441 11444 11447 11450 11452 11455 11458 11461 11464 11467 11470 11473 11476 11479 11482 11485 11488 11491 11494 11497 11500 11503 11506 11509 11512 11515 11518 11521 11524 11526 11529 11531 11534 11537 11540 11543 11546 11549 11552 11555 11558 11561 11564 11567 11570 11573 11575 11578 11581 11584 11587 11590 11593 11595 11598 11601 11603 11605 11608 11611 11614 11617 11619 11622 11625 11628 11631 11634 11637 11640 11643 11646 11649 11652 11655 11658 11661 11664 11667 11670 11673 11676 11679 11682 11685 11688 11691 11694 11697 11700 11703 11706 11709 11712 11715 11718 11721 11724 11727 11730 11733 11736 11739 11742 11745 11748 11751 11754 11757 11759 11762 11765 11768 11770 11773 11776 11779 11782 11785 11788 11790 11793 11796 11799 11801 11804 11807 11810 11813 11816 11819 11822 11825 11828 11831 11834 11837 11840 11843 11845 11848 11851 11853 11856 11859 11861 11864 11867 11869 11872 11874 11877 11880 11883 11885 11888 11890 11893 11896 11898 11901 11904 11906 11909 11912 11915 11918 11921 11924 11927 11930 11933 11936 11938 11941 11944 11947 11950 11952 11955 11958 11961 11964 11967 11969 11972 11975 11977 11980 11982 11985 11988 11991 11994 11996 11999 12002 12005 12007 12010 12013 12016 12019 12021 12024 12027 12030 12033 12036 12039 12041 12044 12046 12049 12052 12055 12058 12061 12064 12066 12069 12072 12075 12078 12081 12084 12087 12090 12093 12096 12099 12102 12104 12107 12110 12112 12115 12118 12121 12124 12127 12130 12132 12135 12138 12141 12143 12146 12149 12152 12155 12157 12160 12163 12165 12168 12171 12174 12177 12179 12181 12184 12187 12189 12192 12194 12197 12200 12202 12205 12208 12211 12214 12217 12219 12222 12225 12228 12231 12234 12237 12240 12243 12246 12249 12252 12255 12258 12261 12264 12267 12270 12272 12275 12278 12281 12284 12287 12290 12293 12296 12299 12302 12305 12308 12311 12313 12316 12319 12322 12325 12328 12331 12333 12336 12339 12342 12345 12347 12349 12352 12355 12358 12361 12364 12367 12370 12373 12376 12379 12382 12385 12388 12391 12394 12397 12400 12403 12406 12409 12412 12415 12417 12420 12423 12426 12429 12432 12435 12438 12441 12444 12446 12449 12451 12454 12457 12460 12463 12466 12469 12472 12475 12478 12481 12484 12487 12490 12493 12496 12499 12502 12505 12508 12511 12514 12516 12519 12522 12525 12527 12530 12533 12536 12539 12542 12545 12548 12551 12554 12557 12560 12563 12566 12569 12572 12575 12578 12581 12584 12587 12590 12593 12595 12598 12601 12604 12606 12608 12611 12614 12617 12620 12623 12626 12629 12632 12635 12637 12640 12643 12646 12649 12652 12655 12658 12661 12664 12666 12669 12672 12674 12677 12680 12683 12685 12688 12690 12693 12696 12698 12701 12704 12706 12709 12711 12713 12716 12719 12722 12725 12728 12731 12734 12737 12740 12743 12746 12749 12752 12754 12757 12760 12763 12766 12769 12771 12774 12777 12780 12783 12786 12788 12791 12793 12796 12798 12801 12804 12806 12808 12811 12814 12817 12820 12823 12826 12829 12832 12835 12838 12841 12844 12847 12849 12852 12855 12858 12861 12864 12867 12869 12872 12875 12878 12881 12884 12887 12889 12892 12894 12897 12900 12903 12906 12909 12911 12914 12916 12918 12921 12924 12927 12930 12932 12935 12938 12940 12942 12945 12948 12951 12954 12956 12959 12961 12963 12966 12969 12971 12973 12976 12979 12982 12985 12988 12991 12994 12996 12999 13002 13004 13007 13009 13012 13015 13018 13020 13023 13026 13029 13032 13035 13037 13040 13042 13045 13048 13051 13053 13055 13058 13061 13064 13067 13069 13071 13074 13077 13080 13083 13086 13089 13092 13095 13097 13100 13103 13106 13109 13112 13115 13118 13121 13123 13125 13128 13131 13134 13137 13140 13143 13146 13149 13152 13155 13157 13160 13163 13166 13169 13172 13175 13177 13180 13183 13186 13189 13192 13195 13198 13201 13204 13207 13209 13212 13215 13217 13220 13223 13226 13229 13232 13235 13238 13241 13244 13247 13250 13253 13256 13259 13262 13264 13267 13270 13273 13276 13278 13281 13284 13286 13289 13292 13295 13298 13301 13304 13307 13310 13313 13315 13318 13320 13323 13326 13329 13332 13335 13338 13341 13344 13347 13350 13353 13356 13359 13362 13365 13368 13371 13374 13377 13379 13382 13385 13388 13391 13394 13397 13399 13402 13405 13408 13410 13413 13416 13419 13422 13425 13428 13430 13433 13436 13439 13442 13444 13447 13450 13453 13455 13458 13461 13463 13465 13468 13471 13474 13476 13479 13482 13485 13488 13491 13494 13497 13500 13503 13506 13508 13511 13514 13517 13520 13522 13525 13527 13529 13532 13535 13538 13541 13544 13547 13550 13553 13556 13558 13561 13564 13567 13570 13573 13576 13579 13581 13584 13586 13589 13592 13595 13598 13601 13604 13607 13609 13612 13615 13617 13620 13623 13626 13629 13632 13635 13638 13640 13643 13646 13649 13651 13654 13657 13660 13663 13666 13669 13672 13675 13678 13681 13684 13687 13690 13693 13695 13698 13701 13704 13707 13710 13713 13716 13718 13721 13724 13727 13730 13732 13734 13737 13739 13742 13744 13747 13750 13752 13755 13758 13761 13763 13766 13769 13772 13775 13778 13781 13784 13787 13789 13792 13794 13797 13799 13802 13805 13808 13811 13814 13816 13818 13821 13824 13827 13830 13833 13836 13838 13841 13843 13846 13849 13852 13855 13858 13861 13864 13867 13870 13873 13876 13879 13882 13885 13888 13891 13894 13897 13900 13903 13905 13908 13911 13914 13917 13920 13923 13925 13928 13931 13934 13937 13940 13943 13946 13949 13952 13955 13958 13961 13964 13967 13970 13973 13976 13979 13982 13984 13987 13990 13992 13995 13998 14001 14004 14007 14009 14012 14014 14017 14019 14022 14025 14028 14031 14034 14037 14040 14042 14045 14048 14051 14053 14055 14058 14061 14064 14066 14069 14071 14074 14077 14080 14083 14086 14089 14092 14095 14097 14099 14102 14105 14108 14110 14113 14116 14119 14121 14124 14126 14128 14130 14133 14136 14138 14141 14144 14146 14149 14152 14155 14157 14160 14163 14166 14169 14171 14174 14177 14180 14183 14186 14189 14192 14195 14198 14200 14203 14206 14209 14212 14215 14217 14220 14223 14226 14229 14232 14234 14237 14240 14243 14246 14249 14252 14255 14258 14261 14264 14267 14270 14273 14276 14279 14282 14285 14288 14291 14294 14297 14300 14303 14306 14309 14312 14315 14318 14321 14324 14327 14330 14333 14336 14339 14342 14345 14348 14351 14354 14357 14360 14362 14365 14368 14371 14374 14377 14380 14383 14386 14389 14392 14394 14397 14400 14403 14406 14408 14411 14414 14417 14420 14423 14426 14429 14432 14435 14438 14441 14444 14447 14450 14452 14455 14458 14461 14463 14466 14469 14472 14475 14478 14481 14484 14487 14490 14492 14495 14498 14501 14504 14507 14510 14512 14515 14518 14521 14524 14527 14530 14533 14536 14539 14542 14545 14547 14550 14553 14556 14559 14561 14564 14567 14570 14573 14576 14579 14582 14584 14587 14590 14593 14596 14599 14602 14605 14607 14610 14613 14616 14619 14621 14624 14627 14629 14632 14635 14638 14641 14644 14647 14650 14653 14656 14659 14662 14664 14667 14670 14673 14675 14678 14681 14684 14686 14688 14691 14694 14697 14699 14702 14705 14708 14711 14714 14717 14720 14722 14725 14728 14730 14732 14735 14738 14741 14744 14747 14749 14751 14754 14756 14759 14762 14765 14768 14771 14774 14777 14780 14783 14786 14789 14792 14795 14798 14801 14804 14806 14809 14812 14815 14818 14821 14824 14826 14828 14831 14834 14837 14840 14843 14846 14849 14851 14854 14856 14859 14862 14864 14867 14870 14873 14876 14879 14882 14885 14888 14891 14894 14896 14899 14902 14905 14908 14911 14913 14916 14919 14922 14925 14928 14931 14934 14937 14940 14943 14945 14948 14951 14954 14957 14960 14963 14966 14968 14971 14973 14976 14979 14982 14984 14987 14990 14992 14995 14998 15000 15003 15006 15008 15011 15013 15016 15018 15021 15024 15027 15029 15032 15035 15038 15041 15043 15046 15049 15052 15054 15056 15059 15062 15065 15068 15071 15074 15077 15080 15083 15085 15088 15091 15094 15097 15100 15103 15106 15109 15112 15115 15118 15121 15124 15127 15130 15133 15135 15138 15141 15144 15147 15149 15152 15155 15157 15160 15163 15166 15169 15172 15175 15178 15180 15183 15186 15189 15192 15195 15198 15201 15204 15207 15210 15213 15216 15219 15222 15225 15227 15230 15233 15236 15239 15242 15245 15248 15251 15253 15256 15259 15262 15265 15268 15271 15274 15277 15280 15283 15285 15288 15290 15293 15296 15299 15302 15304 15307 15310 15313 15316 15318 15320 15323 15326 15328 15331 15334 15337 15340 15343 15346 15349 15352 15355 15358 15361 15364 15367 15369 15372 15375 15378 15381 15384 15387 15390 15393 15396 15399 15402 15405 15408 15411 15414 15417 15419 15422 15425 15427 15429 15432 15435 15438 15441 15444 15447 15450 15453 15456 15459 15462 15465 15467 15470 15473 15476 15478 15480 15483 15486 15489 15492 15494 15497 15500 15502 15505 15507 15510 15513 15515 15517 15519 15522 15525 15528 15531 15534 15537 15540 15542 15545 15547 15550 15553 15556 15559 15561 15564 15567 15570 15573 15576 15579 15582 15585 15588 15591 15594 15597 15600 15603 15605 15608 15611 15613 15616 15619 15622 15624 15627 15629 15632 15634 15637 15639 15642 15645 15648 15651 15654 15657 15659 15662 15664 15667 15670 15673 15676 15679 15682 15685 15688 15691 15694 15696 15699 15702 15705 15707 15710 15713 15716 15719 15722 15724 15727 15730 15733 15736 15739 15742 15745 15748 15751 15754 15757 15760 15763 15766 15769 15772 15775 15778 15781 15784 15786 15789 15792 15795 15797 15800 15803 15805 15808 15811 15814 15817 15819 15821 15824 15827 15830 15833 15835 15838 15841 15844 15846 15849 15852 15855 15858 15861 15864 15867 15870 15873 15876 15879 15882 15885 15887 15890 15893 15896 15898 15901 15904 15906 15909 15912 15915 15918 15921 15924 15927 15930 15933 15936 15939 15942 15945 15948 15950 15953 15956 15959 15962 15965 15968 15971 15974 15977 15979 15981 15984 15987 15990 15993 15996 15999 16002 16005 16007 16009 16012 16015 16017 16020 16022 16025 16027 16030 16033 16036 16039 16042 16045 16048 16051 16054 16057 16060 16062 16065 16068 16071 16074 16077 16080 16083 16086 16089 16092 16094 16097 16099 16102 16105 16108 16111 16114 16117 16120 16123 16126 16129 16132 16135 16138 16141 16144 16147 16150 16153 16156 16159 16162 16165 16168 16171 16174 16176 16179 16182 16185 16188 16191 16194 16196 16199 16202 16204 16207 16210 16213 16216 16219 16222 16225 16228 16231 16234 16237 16240 16243 16246 16249 16251 16254 16257 16260 16263 16265 16268 16271 16274 16276 16279 16281 16284 16286 16289 16292 16295 16298 16301 16304 16307 16310 16312 16315 16318 16321 16324 16327 16330 16333 16335 16338 16341 16344 16347 16350 16353 16356 16359 16362 16365 16368 16370 16373 16375 16378 16381 16384 16387 16390 16393 16395 16398 16401 16404 16407 16410 16413 16416 16419 16422 16425 16428 16431 16434 16437 16440 16443 16446 16449 16451 16454 16457 16460 16463 16466 16469 16472 16475 16478 16481 16484 16487 16490 16493 16496 16499 16502 16504 16507 16510 16513 16516 16519 16522 16524 16527 16530 16533 16536 16539 16542 16544 16547 16550 16553 16556 16559 16562 16565 16567 16570 16573 16576 16578 16581 16584 16587 16590 16593 16596 16599 16602 16605 16608 16611 16614 16617 16620 16623 16626 16629 16632 16635 16638 16641 16644 16647 16650 16653 16656 16659 16662 16665 16668 16671 16674 16677 16680 16683 16686 16689 16692 16695 16698 16701 16704 16707 16710 16713 16716 16719 16722 16725 16728 16731 16734 16737 16740 16743 16746 16749 16752 16755 16758 16761 16763 16766 16769 16772 16774 16777 16779 16781 16784 16787 16790 16793 16796 16799 16802 16805 16808 16811 16814 16817 16820 16823 16826 16829 16832 16835 16838 16841 16843 16846 16848 16850 16853 16856 16859 16862 16865 16868 16871 16874 16877 16880 16883 16886 16889 16892 16895 16898 16901 16903 16905 16908 16911 16914 16917 16920 16922 16924 16927 16930 16932 16935 16938 16940 16943 16946 16949 16951 16954 16957 16960 16963 16966 16969 16972 16974 16977 16980 16983 16986 16989 16992 16995 16998 17001 17004 17007 17009 17012 17015 17018 17021 17023 17026 17029 17032 17035 17038 17041 17044 17047 17050 17053 17056 17059 17062 17065 17068 17071 17074 17077 17080 17083 17086 17089 17092 17095 17098 17101 17104 17107 17110 17113 17116 17119 17122 17125 17128 17131 17134 17137 17140 17143 17146 17149 17152 17155 17158 17161 17164 17167 17170 17173 17176 17179 17182 17185 17188 17191 17194 17197 17200 17203 17206 17209 17212 17215 17218 17221 17223 17226 17229 17232 17235 17238 17241 17243 17246 17249 17252 17255 17258 17261 17263 17266 17269 17272 17275 17277 17280 17283 17286 17289 17292 17295 17298 17301 17304 17307 17310 17313 17316 17319 17321 17324 17327 17330 17333 17336 17339 17342 17345 17348 17351 17354 17357 17360 17363 17366 17369 17372 17375 17378 17381 17384 17387 17390 17393 17395 17398 17401 17404 17407 17410 17413 17416 17419 17422 17425 17428 17430 17433 17435 17437 17440 17443 17446 17449 17452 17455 17458 17461 17464 17467 17470 17473 17476 17479 17482 17484 17487 17490 17493 17496 17499 17502 17505 17508 17511 17514 17516 17519 17522 17525 17528 17531 17534 17537 17540 17542 17545 17548 17551 17554 17557 17560 17563 17566 17569 17572 17575 17578 17581 17584 17587 17589 17592 17595 17597 17600 17603 17606 17609 17611 17614 17617 17620 17623 17626 17629 17632 17634 17637 17640 17643 17646 17649 17652 17654 17657 17660 17663 17665 17668 17671 17674 17677 17679 17681 17684 17687 17689 17692 17695 17698 17701 17704 17707 17710 17713 17716 17719 17721 17724 17727 17730 17733 17736 17738 17741 17744 17747 17750 17753 17756 17759 17762 17765 17768 17771 17774 17777 17780 17783 17786 17789 17792 17794 17797 17800 17803 17805 17807 17810 17813 17816 17818 17820 17823 17826 17829 17831 17834 17837 17840 17843 17846 17849 17852 17855 17858 17861 17864 17867 17870 17873 17876 17879 17882 17885 17888 17891 17894 17897 17900 17903 17906 17909 17912 17915 17918 17921 17924 17927 17930 17933 17936 17939 17942 17945 17948 17951 17954 17957 17960 17963 17966 17969 17972 17975 17978 17981 17984 17987 17990 17993 17996 17999 18002 18005 18008 18011 18014 18017 18020 18023 18026 18029 18031 18034 18037 18040 18043 18045 18048 18051 18053 18056 18059 18062 18065 18068 18071 18074 18077 18080 18083 18086 18089 18092 18095 18097 18100 18102 18105 18108 18111 18114 18117 18120 18123 18126 18129 18132 18135 18138 18141 18144 18147 18150 18153 18156 18159 18162 18165 18168 18171 18174 18177 18180 18183 18186 18189 18192 18194 18197 18200 18202 18205 18208 18211 18214 18217 18220 18223 18226 18228 18231 18234 18237 18240 18242 18245 18248 18251 18254 18257 18260 18263 18266 18269 18272 18275 18278 18281 18284 18287 18290 18293 18296 18299 18302 18305 18308 18311 18314 18317 18320 18323 18326 18329 18332 18335 18338 18341 18344 18347 18350 18353 18356 18359 18362 18365 18368 18371 18374 18377 18380 18383 18386 18389 18392 18395 18398 18401 18404 18407 18410 18413 18416 18419 18422 18425 18428 18431 18434 18437 18440 18443 18446 18449 18452 18455 18458 18461 18464 18467 18470 18473 18476 18479 18482 18485 18488 18491 18494 18497 18500 18503 18506 18509 18511 18514 18517 18520 18523 18525 18528 18531 18534 18537 18540 18543 18546 18548 18551 18554 18557 18560 18562 18565 18568 18571 18574 18577 18580 18583 18586 18589 18592 18595 18598 18601 18604 18607 18610 18613 18616 18619 18622 18625 18628 18631 18634 18637 18640 18643 18646 18649 18652 18655 18658 18661 18664 18667 18670 18673 18676 18679 18682 18684 18686 18689 18692 18695 18698 18701 18704 18707 18710 18713 18716 18719 18722 18725 18728 18731 18733 18736 18739 18742 18745 18748 18751 18754 18757 18760 18762 18765 18768 18771 18774 18777 18779 18782 18785 18788 18791 18794 18797 18800 18803 18806 18809 18812 18815 18818 18821 18824 18827 18830 18833 18836 18839 18842 18845 18848 18851 18854 18857 18860 18863 18866 18868 18870 18873 18876 18878 18880 18882 18885 18888 18891 18894 18897 18899 18901 18904 18906 18909 18912 18915 18918 18921 18924 18927 18930 18932 18935 18937 18940 18943 18946 18949 18952 18955 18958 18961 18964 18967 18970 18973 18976 18979 18982 18985 18988 18991 18994 18997 19000 19003 19006 19009 19012 19015 19018 19021 19023 19026 19029 19032 19035 19038 19040 19043 19046 19049 19052 19055 19058 19061 19064 19067 19070 19073 19076 19079 19081 19084 19087 19090 19093 19096 19099 19102 19104 19107 19110 19113 19116 19119 19122 19125 19127 19130 19133 19136 19139 19142 19145 19148 19151 19154 19157 19160 19163 19166 19169 19172 19175 19178 19181 19184 19187 19189 19192 19194 19197 19200 19203 19206 19208 19211 19214 19216 19219 19222 19225 19227 19230 19233 19236 19239 19242 19245 19248 19251 19253 19255 19258 19260 19263 19265 19268 19271 19273 19276 19279 19282 19284 19287 19290 19293 19296 19299 19302 19305 19308 19311 19313 19316 19319 19321 19324 19327 19330 19333 19336 19339 19342 19345 19347 19350 19353 19356 19358 19361 19364 19367 19370 19372 19375 19378 19381 19384 19387 19390 19393 19396 19399 19402 19405 19408 19410 19413 19416 19419 19421 19424 19427 19430 19433 19436 19439 19442 19445 19447 19450 19453 19456 19459 19461 19464 19467 19470 19473 19476 19478 19481 19484 19487 19490 19493 19495 19498 19501 19503 19506 19509 19512 19515 19518 19521 19523 19526 19529 19532 19535 19538 19541 19544 19547 19550 19553 19556 19559 19562 19565 19568 19571 19574 19577 19580 19583 19586 19589 19592 19595 19598 19601 19604 19606 19609 19612 19615 19618 19621 19623 19626 19629 19632 19635 19638 19641 19644 19646 19649 19652 19655 19658 19661 19664 19667 19670 19673 19676 19679 19682 19685 19688 19690 19693 19696 19699 19702 19704 19707 19710 19713 19716 19719 19722 19725 19728 19731 19734 19737 19740 19743 19746 19749 19752 19755 19758 19761 19764 19767 19770 19773 19776 19779 19782 19785 19788 19791 19794 19797 19799 19801 19804 19807 19810 19813 19816 19819 19821 19824 19827 19829 19832 19835 19838 19841 19844 19847 19850 19853 19856 19859 19862 19865 19867 19870 19873 19876 19879 19882 19885 19888 19891 19894 19897 19900 19902 19905 19908 19911 19913 19916 19919 19922 19924 19927 19930 19933 19935 19938 19941 19944 19946 19949 19952 19955 19958 19961 19964 19967 19969 19972 19975 19978 19981 19983 19986 19989 19992 19995 19998 20001 20004 20007 20010 20013 20016 20019 20022 20024 20027 20030 20033 20036 20039 20042 20045 20048 20051 20054 20056 20059 20062 20065 20068 20070 20073 20076 20079 20081 20084 20087 20090 20093 20096 20099 20102 20104 20106 20109 20111 20113 20116 20119 20122 20124 20127 20130 20133 20136 20139 20142 20145 20147 20150 20153 20155 20158 20161 20164 20167 20170 20173 20176 20179 20182 20185 20188 20190 20193 20196 20199 20201 20204 20207 20209 20212 20215 20217 20220 20223 20226 20229 20232 20235 20238 20241 20244 20247 20249 20252 20255 20258 20261 20264 20266 20268 20271 20274 20277 20280 20283 20286 20289 20292 20294 20297 20300 20303 20305 20308 20311 20314 20317 20320 20322 20325 20328 20331 20334 20337 20339 20342 20345 20348 20351 20353 20356 20359 20362 20365 20368 20370 20373 20376 20378 20381 20384 20387 20390 20392 20395 20398 20401 20404 20407 20410 20413 20416 20419 20422 20425 20428 20431 20434 20437 20440 20443 20446 20448 20451 20454 20456 20459 20462 20465 20468 20471 20474 20477 20479 20482 20485 20487 20490 20493 20495 20497 20500 20503 20506 20509 20512 20514 20517 20520 20523 20525 20528 20531 20534 20536 20538 20541 20543 20546 20549 20552 20555 20558 20561 20564 20567 20570 20573 20576 20579 20582 20584 20587 20590 20593 20595 20598 20601 20604 20607 20610 20613 20616 20619 20622 20625 20628 20631 20634 20637 20640 20643 20646 20649 20652 20655 20658 20661 20664 20667 20670 20673 20676 20679 20682 20685 20688 20691 20694 20697 20700 20703 20706 20708 20711 20714 20716 20719 20722 20725 20728 20731 20733 20736 20739 20741 20744 20747 20750 20752 20755 20758 20760 20763 20766 20769 20772 20775 20778 20781 20784 20787 20790 20793 20796 20799 20802 20805 20808 20811 20814 20817 20820 20823 20826 20828 20831 20833 20836 20839 20842 20845 20848 20851 20854 20857 20860 20863 20866 20869 20872 20875 20878 20880 20883 20886 20889 20892 20895 20898 20900 20902 20905 20907 20910 20913 20916 20919 20922 20925 20928 20931 20934 20936 20939 20942 20944 20947 20950 20953 20956 20959 20962 20965 20968 20971 20973 20976 20979 20982 20985 20988 20991 20993 20996 20999 21002 21004 21007 21009 21012 21014 21017 21020 21023 21026 21029 21031 21034 21037 21040 21043 21045 21048 21051 21054 21057 21060 21063 21066 21069 21072 21075 21077 21080 21083 21086 21089 21092 21095 21098 21101 21104 21106 21109 21112 21115 21118 21120 21123 21126 21128 21131 21134 21137 21139 21142 21145 21148 21151 21153 21156 21159 21162 21164 21167 21170 21173 21175 21178 21181 21184 21187 21189 21191 21194 21197 21199 21202 21205 21208 21211 21214 21217 21220 21223 21226 21228 21231 21233 21236 21239 21242 21245 21247 21250 21253 21256 21259 21261 21263 21266 21269 21271 21274 21276 21278 21281 21284 21286 21289 21292 21295 21298 21301 21304 21307 21310 21313 21316 21319 21322 21325 21328 21331 21334 21337 21340 21343 21346 21349 21352 21355 21358 21360 21363 21365 21368 21371 21374 21377 21380 21383 21385 21388 21390 21393 21396 21399 21402 21405 21408 21410 21413 21416 21419 21421 21424 21427 21430 21433 21436 21438 21441 21443 21446 21449 21452 21455 21458 21461 21463 21466 21468 21471 21474 21477 21480 21483 21486 21488 21491 21494 21496 21499 21501 21503 21506 21509 21511 21514 21516 21519 21522 21524 21527 21530 21533 21535 21538 21540 21543 21545 21548 21551 21554 21557 21560 21563 21566 21568 21571 21574 21577 21580 21583 21586 21589 21592 21594 21597 21600 21603 21605 21608 21611 21614 21617 21620 21622 21625 21627 21630 21633 21635 21637 21639 21642 21645 21647 21650 21653 21656 21658 21661 21664 21667 21670 21672 21675 21678 21681 21684 21687 21690 21693 21696 21699 21702 21705 21708 21710 21713 21716 21718 21721 21724 21726 21729 21731 21734 21736 21739 21742 21744 21747 21750 21753 21756 21759 21762 21765 21767 21770 21772 21775 21778 21781 21784 21787 21790 21793 21795 21798 21801 21804 21806 21809 21812 21815 21818 21820 21823 21826 21829 21832 21835 21838 21841 21844 21847 21850 21853 21856 21859 21862 21865 21868 21871 21874 21877 21880 21883 21886 21889 21892 21895 21898 21901 21904 21907 21910 21913 21916 21918 21921 21924 21927 21930 21933 21936 21939 21942 21945 21948 21951 21954 21957 21960 21963 21966 21969 21972 21974 21977 21980 21983 21986 21989 21992 21995 21998 22001 22004 22007 22010 22013 22016 22019 22022 22025 22028 22031 22034 22037 22040 22043 22046 22049 22052 22055 22058 22061 22064 22066 22069 22072 22075 22078 22081 22084 22086 22089 22092 22095 22098 22100 22103 22106 22109 22112 22115 22118 22121 22124 22127 22130 22133 22136 22138 22141 22143 22146 22149 22152 22155 22158 22161 22164 22167 22170 22173 22176 22179 22181 22184 22187 22190 22193 22196 22199 22202 22205 22208 22211 22214 22217 22220 22223 22226 22229 22232 22235 22238 22241 22244 22247 22250 22253 22256 22259 22262 22265 22268 22271 22274 22277 22280 22283 22286 22289 22292 22295 22298 22301 22304 22307 22310 22312 22315 22318 22321 22324 22327 22330 22333 22336 22339 22342 22344 22347 22350 22353 22356 22359 22362 22365 22368 22371 22374 22377 22380 22382 22385 22388 22391 22394 22397 22400 22403 22406 22409 22412 22415 22418 22421 22424 22427 22430 22433 22436 22439 22442 22445 22448 22451 22454 22457 22460 22463 22466 22468 22471 22474 22477 22480 22483 22485 22487 22490 22493 22495 22498 22501 22503 22506 22509 22512 22515 22518 22521 22524 22526 22529 22532 22535 22538 22541 22544 22547 22550 22553 22556 22559 22562 22565 22568 22570 22573 22576 22579 22582 22584 22587 22589 22592 22594 22596 22599 22602 22605 22607 22609 22612 22615 22618 22621 22624 22626 22629 22632 22635 22638 22641 22643 22646 22649 22652 22655 22658 22661 22664 22667 22669 22672 22675 22678 22681 22683 22686 22688 22691 22694 22696 22699 22702 22705 22708 22711 22713 22716 22719 22722 22725 22728 22731 22734 22737 22739 22742 22744 22747 22750 22753 22756 22759 22762 22764 22767 22770 22773 22776 22779 22782 22785 22788 22790 22793 22796 22799 22801 22804 22807 22809 22812 22815 22817 22820 22823 22826 22829 22832 22835 22838 22841 22844 22847 22850 22853 22856 22859 22862 22865 22868 22871 22874 22877 22880 22883 22886 22889 22892 22895 22897 22900 22903 22906 22909 22912 22915 22918 22921 22924 22927 22930 22933 22936 22939 22942 22945 22948 22951 22954 22957 22960 22963 22966 22969 22972 22975 22978 22981 22984 22987 22990 22993 22996 22999 23002 23005 23008 23011 23014 23017 23020 23023 23026 23029 23032 23035 23038 23041 23044 23047 23049 23052 23055 23058 23061 23064 23067 23070 23072 23075 23077 23080 23083 23086 23089 23092 23095 23098 23101 23104 23107 23110 23113 23116 23119 23122 23125 23128 23131 23134 23137 23140 23142 23145 23148 23151 23153 23156 23159 23162 23165 23168 23171 23174 23177 23180 23183 23186 23189 23192 23195 23198 23201 23203 23206 23209 23212 23215 23218 23221 23224 23227 23230 23233 23235 23238 23241 23243 23246 23249 23252 23255 23258 23261 23264 23267 23270 23273 23276 23279 23282 23285 23288 23291 23294 23297 23300 23303 23306 23309 23312 23315 23318 23321 23324 23326 23329 23332 23335 23338 23341 23344 23347 23349 23352 23355 23358 23361 23364 23367 23370 23373 23376 23379 23381 23384 23387 23390 23393 23395 23398 23401 23403 23406 23408 23411 23414 23417 23420 23423 23425 23428 23431 23434 23437 23440 23442 23445 23448 23451 23454 23457 23460 23463 23466 23469 23472 23475 23478 23481 23484 23486 23489 23492 23495 23498 23501 23504 23507 23510 23513 23516 23519 23522 23525 23527 23530 23533 23536 23539 23542 23545 23548 23551 23554 23557 23560 23563 23566 23569 23572 23575 23578 23581 23584 23587 23590 23593 23596 23599 23602 23605 23608 23611 23614 23617 23620 23623 23626 23629 23631 23634 23636 23639 23642 23645 23648 23651 23654 23657 23660 23662 23665 23668 23671 23674 23677 23680 23683 23685 23688 23691 23693 23696 23699 23702 23704 23707 23710 23713 23716 23719 23722 23724 23727 23730 23733 23736 23739 23742 23745 23748 23751 23754 23757 23760 23763 23766 23769 23772 23775 23778 23781 23784 23787 23790 23793 23796 23799 23802 23805 23808 23811 23814 23817 23820 23822 23824 23827 23830 23833 23836 23839 23842 23845 23848 23851 23854 23857 23860 23862 23865 23868 23871 23874 23877 23880 23883 23886 23889 23891 23894 23897 23900 23903 23906 23908 23911 23914 23917 23919 23922 23925 23928 23931 23934 23937 23940 23943 23946 23949 23952 23955 23958 23961 23964 23967 23970 23973 23975 23978 23981 23984 23987 23990 23993 23996 23998 24001 24004 24007 24009 24012 24015 24018 24021 24024 24027 24030 24033 24036 24039 24041 24044 24047 24050 24053 24056 24059 24062 24065 24068 24071 24074 24077 24080 24083 24085 24088 24090 24093 24096 24099 24102 24104 24107 24110 24113 24116 24119 24122 24125 24128 24131 24134 24137 24140 24143 24146 24149 24152 24155 24158 24160 24163 24166 24169 24172 24175 24178 24181 24184 24187 24190 24193 24196 24199 24202 24205 24208 24211 24214 24217 24220 24223 24226 24228 24231 24234 24237 24240 24243 24246 24249 24251 24254 24257 24260 24263 24266 24269 24271 24274 24277 24280 24283 24285 24288 24291 24294 24297 24300 24303 24306 24309 24312 24315 24318 24321 24324 24327 24330 24333 24336 24338 24340 24343 24346 24349 24352 24355 24358 24361 24364 24367 24370 24373 24376 24379 24382 24385 24388 24391 24394 24397 24400 24403 24406 24409 24412 24415 24418 24420 24423 24426 24429 24431 24434 24437 24440 24443 24445 24448 24450 24452 24455 24458 24461 24464 24467 24470 24473 24476 24479 24482 24484 24487 24490 24492 24494 24497 24500 24503 24505 24508 24511 24514 24517 24520 24523 24526 24529 24532 24534 24536 24538 24541 24544 24547 24550 24553 24555 24558 24561 24564 24567 24569 24572 24575 24578 24581 24584 24587 24590 24593 24596 24599 24602 24605 24608 24611 24614 24617 24620 24623 24626 24629 24632 24635 24638 24641 24644 24647 24650 24652 24655 24658 24661 24664 24667 24670 24672 24674 24677 24680 24683 24686 24689 24692 24695 24697 24700 24702 24705 24708 24711 24713 24716 24719 24721 24724 24726 24728 24731 24734 24736 24738 24741 24744 24746 24749 24751 24754 24757 24760 24763 24766 24768 24771 24774 24777 24780 24783 24785 24788 24791 24793 24796 24799 24802 24804 24806 24809 24811 24814 24817 24820 24822 24825 24827 24829 24832 24835 24838 24841 24844 24847 24850 24853 24856 24859 24861 24864 24867 24870 24872 24875 24878 24880 24883 24886 24889 24892 24895 24898 24901 24904 24907 24910 24913 24916 24919 24922 24925 24928 24930 24933 24936 24939 24942 24945 24947 24950 24953 24956 24959 24962 24965 24968 24971 24973 24976 24979 24982 24985 24988 24991 24993 24996 24998 25000 25003 25005 25007 25010 25013 25016 25018 25021 25023 25025 25028 25031 25034 25037 25040 25043 25046 25049 25051 25054 25057 25060 25062 25065 25068 25070 25073 25075 25078 25081 25083 25086 25089 25092 25095 25098 25100 25103 25106 25109 25112 25115 25118 25120 25123 25126 25129 25132 25135 25138 25141 25143 25145 25147 25149 25151 25154 25157 25160 25163 25166 25168 25171 25174 25176 25179 25182 25185 25187 25189 25192 25194 25197 25200 25203 25206 25209 25211 25213 25215 25217 25220 25223 25226 25228 25230 25233 25236 25239 25242 25245 25248 25251 25254 25256 25259 25262 25265 25268 25270 25273 25276 25279 25281 25284 25287 25290 25293 25296 25298 25301 25304 25307 25309 25312 25315 25318 25321 25324 25327 25330 25333 25336 25339 25342 25345 25348 25351 25354 25357 25360 25363 25365 25368 25370 25373 25376 25379 25382 25385 25388 25391 25393 25396 25398 25401 25404 25407 25410 25413 25415 25418 25421 25424 25427 25430 25433 25436 25439 25442 25445 25448 25451 25453 25456 25459 25462 25465 25468 25471 25474 25477 25480 25483 25486 25489 25492 25495 25497 25499 25502 25505 25508 25511 25514 25516 25518 25521 25524 25526 25529 25531 25534 25537 25540 25543 25545 25548 25551 25554 25557 25559 25562 25564 25566 25569 25571 25574 25577 25580 25582 25585 25588 25590 25593 25596 25599 25602 25605 25608 25611 25614 25617 25619 25622 25625 25628 25631 25633 25635 25638 25640 25643 25646 25649 25652 25655 25658 25661 25664 25667 25670 25673 25676 25678 25681 25684 25687 25690 25693 25696 25699 25702 25705 25708 25710 25713 25716 25719 25722 25724 25727 25730 25733 25735 25738 25741 25744 25747 25750 25753 25756 25759 25762 25765 25768 25771 25774 25777 25780 25782 25785 25788 25791 25794 25797 25800 25803 25806 25808 25811 25814 25817 25820 25823 25826 25828 25830 25833 25836 25839 25841 25844 25846 25849 25852 25855 25858 25861 25864 25867 25870 25872 25874 25877 25880 25883 25885 25888 25891 25894 25897 25900 25903 25906 25909 25912 25915 25918 25921 25924 25927 25930 25932 25934 25937 25940 25943 25946 25949 25952 25955 25957 25960 25963 25965 25968 25971 25973 25976 25979 25982 25985 25988 25991 25994 25997 26000 26003 26006 26009 26012 26015 26017 26020 26023 26026 26029 26031 26034 26037 26040 26043 26046 26049 26052 26055 26057 26060 26063 26066 26069 26072 26075 26078 26081 26083 26085 26087 26089 26092 26095 26097 26100 26103 26106 26108 26110 26113 26116 26118 26121 26123 26126 26129 26131 26133 26135 26138 26141 26143 26146 26149 26152 26154 26156 26159 26161 26164 26167 26170 26173 26175 26178 26181 26183 26185 26187 26190 26193 26196 26199 26201 26204 26206 26209 26212 26215 26218 26221 26224 26226 26229 26232 26235 26238 26241 26244 26246 26249 26252 26255 26258 26261 26264 26267 26270 26273 26275 26278 26281 26284 26287 26290 26293 26296 26299 26301 26303 26306 26309 26312 26315 26318 26321 26324 26327 26330 26333 26336 26338 26341 26344 26347 26350 26352 26355 26358 26361 26364 26367 26370 26373 26376 26379 26381 26384 26387 26390 26392 26395 26398 26401 26404 26407 26410 26413 26416 26419 26422 26425 26428 26431 26434 26437 26440 26443 26445 26448 26451 26454 26457 26460 26463 26466 26469 26472 26475 26477 26480 26483 26486 26489 26492 26495 26498 26501 26504 26507 26510 26512 26515 26518 26521 26524 26527 26530 26533 26536 26539 26542 26545 26548 26551 26554 26557 26559 26562 26565 26568 26571 26573 26576 26578 26581 26584 26587 26590 26593 26596 26599 26602 26605 26608 26611 26614 26617 26620 26622 26624 26627 26630 26633 26636 26639 26641 26644 26646 26649 26652 26655 26658 26660 26663 26666 26669 26672 26675 26678 26681 26684 26687 26690 26693 26696 26698 26701 26704 26707 26710 26713 26716 26719 26722 26725 26728 26731 26734 26737 26740 26743 26746 26749 26752 26754 26757 26760 26763 26766 26769 26771 26774 26777 26780 26783 26786 26789 26792 26795 26798 26801 26804 26807 26810 26813 26816 26819 26822 26825 26828 26831 26834 26837 26839 26842 26845 26848 26851 26854 26857 26860 26863 26866 26869 26872 26875 26878 26881 26884 26887 26890 26893 26895 26898 26901 26903 26906 26909 26912 26915 26918 26921 26923 26926 26929 26932 26934 26937 26940 26943 26945 26948 26951 26954 26957 26959 26962 26965 26967 26970 26973 26975 26978 26980 26983 26986 26989 26991 26994 26996 26999 27002 27004 27007 27009 27012 27015 27018 27021 27024 27027 27030 27033 27035 27038 27041 27043 27046 27049 27051 27054 27057 27060 27062 27064 27067 27070 27073 27076 27079 27082 27085 27088 27091 27093 27096 27099 27102 27105 27108 27111 27114 27117 27120 27123 27126 27129 27132 27135 27138 27141 27144 27147 27150 27153 27155 27158 27161 27164 27167 27170 27173 27176 27178 27181 27183 27186 27189 27192 27195 27197 27200 27203 27206 27209 27212 27215 27218 27221 27224 27227 27230 27233 27236 27239 27242 27245 27248 27251 27254 27257 27260 27263 27266 27268 27271 27274 27277 27280 27283 27285 27288 27291 27294 27297 27300 27302 27305 27308 27310 27313 27315 27318 27320 27323 27326 27329 27332 27335 27338 27341 27344 27347 27350 27353 27355 27358 27360 27362 27365 27368 27371 27374 27377 27379 27382 27384 27386 27388 27391 27394 27397 27400 27402 27405 27407 27410 27412 27414 27417 27420 27422 27424 27427 27429 27432 27434 27437 27440 27442 27445 27448 27451 27454 27457 27460 27463 27466 27469 27472 27475 27478 27481 27484 27486 27489 27492 27495 27498 27501 27503 27506 27508 27511 27513 27516 27518 27521 27524 27526 27529 27531 27534 27537 27540 27543 27546 27549 27552 27555 27557 27560 27563 27566 27569 27572 27575 27578 27580 27583 27586 27589 27592 27595 27598 27600 27603 27605 27608 27611 27613 27616 27619 27621 27624 27627 27630 27633 27636 27638 27641 27644 27646 27649 27652 27654 27657 27660 27663 27665 27668 27671 27674 27677 27680 27683 27686 27689 27691 27693 27696 27699 27702 27704 27707 27709 27712 27715 27718 27720 27723 27726 27729 27732 27734 27736 27738 27741 27744 27747 27749 27752 27754 27756 27759 27762 27765 27768 27770 27773 27776 27779 27781 27784 27787 27789 27791 27794 27797 27800 27803 27805 27808 27811 27814 27817 27819 27821 27824 27827 27830 27832 27834 27837 27840 27842 27845 27848 27851 27854 27857 27860 27862 27865 27868 27870 27873 27876 27879 27881 27884 27887 27889 27892 27895 27897 27900 27903 27906 27909 27912 27915 27918 27921 27924 27927 27930 27933 27936 27939 27942 27944 27947 27950 27952 27954 27957 27960 27963 27965 27968 27971 27974 27976 27979 27982 27984 27987 27990 27993 27996 27999 28002 28005 28008 28011 28013 28016 28019 28022 28024 28027 28030 28033 28036 28039 28042 28045 28048 28050 28052 28055 28058 28061 28063 28066 28069 28072 28075 28078 28081 28084 28087 28089 28092 28095 28098 28101 28104 28107 28110 28113 28115 28118 28121 28124 28126 28129 28132 28134 28137 28140 28143 28146 28149 28152 28155 28158 28161 28164 28167 28170 28173 28176 28178 28181 28184 28187 28190 28193 28196 28199 28202 28205 28208 28211 28214 28217 28219 28221 28224 28227 28230 28233 28236 28238 28241 28243 28245 28247 28250 28252 28255 28258 28261 28264 28267 28270 28272 28274 28277 28280 28283 28286 28288 28291 28293 28296 28299 28302 28305 28308 28310 28313 28316 28319 28322 28325 28328 28331 28334 28337 28339 28342 28345 28348 28351 28353 28356 28359 28361 28364 28367 28370 28373 28376 28379 28382 28385 28388 28391 28393 28396 28399 28402 28405 28408 28411 28414 28417 28419 28422 28425 28428 28430 28433 28435 28438 28441 28444 28447 28450 28453 28456 28459 28462 28465 28468 28470 28473 28475 28477 28480 28482 28485 28488 28491 28494 28496 28499 28502 28505 28508 28510 28513 28516 28519 28522 28525 28528 28531 28534 28537 28540 28543 28546 28549 28552 28555 28557 28560 28563 28566 28569 28572 28575 28578 28580 28583 28586 28588 28591 28594 28596 28599 28601 28604 28607 28610 28613 28615 28617 28620 28623 28626 28629 28632 28635 28638 28640 28643 28646 28649 28652 28655 28657 28660 28663 28666 28669 28672 28675 28678 28681 28684 28687 28690 28692 28695 28698 28701 28703 28706 28709 28712 28715 28718 28721 28723 28725 28728 28731 28734 28736 28739 28742 28745 28748 28751 28754 28757 28760 28763 28765 28768 28771 28773 28776 28779 28782 28785 28787 28790 28793 28796 28799 28801 28804 28806 28809 28811 28814 28816 28819 28822 28825 28828 28830 28833 28836 28838 28841 28844 28846 28849 28851 28854 28857 28860 28862 28864 28867 28869 28872 28874 28877 28880 28883 28886 28888 28891 28894 28897 28900 28903 28905 28908 28911 28914 28917 28920 28923 28926 28929 28932 28935 28938 28941 28944 28947 28950 28953 28956 28959 28962 28965 28968 28971 28974 28977 28980 28982 28985 28988 28991 28994 28997 29000 29003 29006 29008 29011 29014 29017 29020 29022 29025 29028 29030 29033 29036 29039 29042 29045 29048 29051 29054 29057 29060 29063 29066 29069 29072 29075 29078 29081 29083 29086 29088 29091 29093 29096 29099 29102 29105 29108 29111 29114 29117 29120 29123 29126 29129 29132 29135 29138 29140 29142 29145 29148 29151 29154 29157 29160 29163 29166 29169 29172 29175 29178 29181 29184 29187 29190 29193 29196 29199 29202 29205 29208 29211 29214 29217 29220 29223 29226 29229 29232 29235 29238 29241 29244 29247 29250 29253 29256 29259 29262 29265 29268 29271 29274 29277 29280 29282 29285 29288 29291 29294 29297 29300 29303 29306 29308 29311 29314 29317 29320 29323 29326 29329 29332 29335 29338 29340 29343 29346 29349 29351 29354 29357 29359 29362 29365 29368 29371 29374 29376 29379 29382 29385 29388 29391 29394 29397 29400 29403 29406 29409 29412 29415 29418 29421 29424 29427 29430 29433 29436 29439 29442 29445 29448 29451 29454 29457 29460 29463 29466 29469 29472 29475 29478 29481 29484 29487 29490 29493 29496 29499 29502 29505 29508 29511 29514 29517 29520 29523 29526 29529 29531 29534 29537 29540 29543 29546 29549 29552 29555 29558 29561 29564 29567 29570 29573 29576 29579 29582 29584 29587 29590 29593 29596 29599 29602 29605 29608 29611 29614 29617 29620 29623 29626 29629 29632 29635 29638 29641 29644 29647 29650 29653 29656 29659 29662 29665 29668 29671 29674 29677 29680 29683 29686 29689 29692 29695 29698 29701 29704 29707 29710 29713 29716 29719 29722 29725 29728 29731 29734 29737 29740 29743 29746 29749 29752 29755 29758 29761 29764 29767 29770 29773 29776 29779 29782 29785 29788 29791 29793 29796 29799 29802 29804 29807 29809 29812 29815 29817 29820 29823 29825 29828 29831 29834 29836 29839 29841 29843 29845 29848 29851 29854 29856 29859 29862 29865 29867 29870 29873 29876 29879 29882 29885 29887 29890 29893 29895 29897 29899 29902 29905 29907 29910 29912 29915 29918 29921 29924 29927 29930 29933 29936 29938 29941 29944 29947 29949 29951 29954 29957 29960 29963 29965 29968 29971 29974 29976 29979 29982 29985 29988 29990 29993 29996 29999 30002 30004 30007 30010 30013 30016 30019 30022 30025 30028 30031 30034 30037 30039 30042 30045 
</DataArray>
<DataArray type="UInt32" Name="types" format="ascii">
5 5 5 5 5 5 5 5 5 5 5 5 5 5 5 5 5 5 5 5 5 5 5 5 5 5 3 5 5 5 5 3 3 5 5 3 3 5 5 5 3 5 3 5 5 5 5 5 5 3 5 3 5 5 5 5 5 5 3 5 5 5 3 5 5 5 5 5 5 5 5 5 5 5 5 5 5 3 5 5 3 5 5 5 5 5 5 5 5 5 5 5 5 5 5 5 5 5 5 5 3 5 5 5 3 5 3 3 3 5 3 5 5 5 5 5 3 5 3 5 5 5 5 5 5 5 5 5 3 5 5 5 5 5 5 5 5 3 5 5 5 3 5 5 5 5 5 5 5 3 5 5 3 3 3 5 5 5 5 3 5 5 5 5 5 5 5 5 3 3 5 5 5 5 3 5 3 3 5 5 5 5 5 5 3 5 5 5 5 5 3 5 5 3 5 5 5 5 5 5 5 5 5 3 5 5 5 5 5 5 5 5 5 5 5 5 5 5 5 5 5 5 5 5 5 5 5 5 5 3 5 5 5 5 3 5 5 5 5 5 5 5 5 5 5 5 5 5 5 5 5 5 5 5 5 5 3 5 5 3 5 5 5 5 5 5 5 5 5 3 5 5 5 5 5 5 5 5 5 5 5 5 5 5 5 5 5 5 5 5 5 5 3 5 5 5 5 3 5 5 5 5 5 3 5 5 5 5 5 5 5 5 3 5 3 5 5 5 5 5 5 5 5 5 5 5 5 5 5 5 5 5 5 5 5 5 5 5 5 5 5 5 5 5 3 5 5 5 5 3 3 5 5 3 5 5 5 5 5 3 3 3 3 5 5 5 5 5 5 5 5 5 5 5 5 5 5 5 3 5 5 5 5 5 5 5 5 5 5 5 5 5 5 5 5 5 5 5 5 5 5 5 3 5 5 5 5 3 3 5 5 5 3 5 5 5 5 3 5 5 5 5 5 5 5 5 5 5 3 5 5 5 5 5 3 5 5 5 5 5 5 5 5 5 5 3 5 5 5 5 3 5 5 3 5 5 3 5 5 3 5 5 5 3 5 3 5 5 5 5 5 5 5 5 5 5 5 3 5 5 5 5 5 5 5 5 5 5 5 5 5 5 5 5 5 5 5 5 5 5 3 5 5 5 5 5 5 3 5 5 5 3 5 5 3 5 3 5 3 5 5 3 5 5 5 5 5 5 5 3 5 3 5 5 5 5 5 3 5 5 3 5 3 5 5 5 5 3 5 5 5 5 5 5 5 5 5 5 5 3 5 5 5 5 5 5 3 5 5 5 3 5 5 3 5 5 5 5 5 5 5 5 5 5 5 5 5 3 5 5 5 5 5 5 5 5 3 5 5 5 5 3 5 5 5 5 5 5 5 5 3 5 5 5 3 5 5 3 5 5 3 5 5 5 5 5 5 5 5 5 5 5 5 5 5 5 5 5 3 5 5 5 5 5 5 3 5 5 5 5 5 3 5 5 5 5 5 5 5 5 5 5 3 5 5 5 5 5 5 5 5 5 5 5 3 5 5 5 5 5 5 5 5 5 5 5 5 5 5 5 5 5 5 5 3 5 5 5 5 5 5 5 5 5 5 5 5 5 5 3 5 5 5 5 3 5 5 5 5 5 3 5 5 5 5 5 3 5 5 3 5 5 5 5 5 5 3 5 5 5 5 5 5 5 3 5 5 5 5 3 5 3 5 3 3 5 3 5 5 5 3 5 5 5 5 3 5 5 5 5 5 5 3 5 5 5 5 3 5 5 3 5 5 5 3 5 5 5 3 5 5 5 5 5 5 3 5 5 5 5 5 5 5 5 5 5 5 5 3 5 5 3 5 5 5 3 5 3 5 5 5 3 5 3 5 5 5 3 5 3 5 3 3 5 5 5 5 3 5 5 5 5 5 5 5 3 5 5 5 5 5 5 5 5 5 5 3 5 5 5 5 5 5 5 5 5 5 5 3 5 5 5 5 5 5 3 5 5 5 3 5 5 5 3 5 5 5 5 3 5 5 5 5 5 5 5 5 5 5 5 5 3 5 5 5 5 5 5 5 5 3 5 5 5 5 5 5 5 5 3 5 5 3 5 5 5 5 5 5 5 3 5 5 5 3 5 5 3 5 5 5 5 5 3 5 3 5 5 5 5 5 5 5 5 5 5 5 3 5 5 5 5 3 5 5 5 5 5 5 5 5 5 5 3 5 5 5 5 5 5 5 5 5 5 5 5 5 5 5 5 5 5 3 3 5 5 5 5 5 5 5 5 3 5 5 3 5 5 5 5 5 5 5 5 3 5 5 5 5 5 5 5 5 5 5 5 5 5 5 5 5 5 5 5 5 3 5 5 5 3 5 5 5 5 5 5 5 5 5 5 3 5 5 5 5 3 5 5 5 5 5 5 5 3 5 5 5 5 3 5 3 5 5 5 3 3 5 3 3 5 5 3 5 5 5 5 5 3 5 5 5 5 5 5 5 5 5 5 5 5 5 3 5 3 5 5 3 5 5 3 5 5 5 5 5 3 5 5 5 5 5 5 5 5 5 5 5 5 5 3 5 5 5 3 5 5 5 5 5 3 5 5 5 5 5 5 5 3 5 5 5 5 5 5 5 5 5 5 5 5 5 5 5 5 5 5 5 5 5 5 5 5 5 5 5 5 5 5 5 5 5 5 5 5 5 5 5 5 5 5 5 5 5 5 5 5 5 5 5 5 5 5 5 5 5 5 5 5 5 5 5 5 5 5 5 5 5 5 5 5 5 5 5 5 5 5 5 3 5 5 5 3 3 5 5 5 5 5 5 5 5 5 5 5 5 5 5 5 5 5 5 5 5 5 5 5 5 5 5 5 5 5 5 5 5 5 5 5 5 3 5 5 3 5 5 5 5 5 5 5 5 5 5 5 5 5 5 5 5 5 5 3 5 5 5 5 5 5 5 5 3 5 5 5 5 5 5 3 5 5 5 5 5 5 5 5 5 5 5 5 5 5 3 5 5 5 5 5 5 5 5 5 5 5 5 5 5 5 5 5 5 5 5 5 5 5 5 5 5 5 3 5 5 5 5 5 5 5 5 3 5 5 5 3 5 5 5 5 5 5 5 5 5 5 5 5 5 5 5 5 5 5 5 3 5 5 5 5 3 5 5 5 5 5 5 5 3 5 5 5 3 5 5 5 5 5 5 5 5 5 5 5 5 5 5 3 5 5 3 5 3 5 3 5 3 5 3 5 5 5 5 5 5 5 3 5 5 5 5 5 5 5 3 5 5 5 5 3 5 5 5 5 3 5 5 3 5 5 5 5 5 5 5 5 3 5 5 5 5 5 5 5 3 5 5 5 3 5 5 3 5 5 5 5 5 5 5 5 5 5 5 3 3 5 3 5 5 5 5 3 5 5 5 5 3 5 5 3 5 5 3 5 3 5 3 5 5 5 3 5 5 5 5 5 5 5 3 5 5 5 5 5 5 5 5 5 5 5 5 5 5 5 5 5 5 5 5 3 3 5 5 5 5 5 3 3 5 3 5 5 5 5 3 5 3 3 5 5 5 3 5 5 5 5 3 3 5 5 5 3 5 3 5 5 5 5 3 5 5 5 5 5 5 5 5 5 5 5 5 3 5 5 3 5 5 3 5 3 5 5 5 3 5 5 5 5 5 5 3 5 3 5 5 3 5 5 3 3 5 5 3 5 3 5 5 5 3 5 5 5 5 3 5 5 5 5 5 3 3 5 5 5 5 5 3 5 5 3 5 5 5 5 3 5 5 5 5 3 3 3 5 3 5 5 5 3 5 3 5 3 5 3 5 5 3 5 5 5 5 5 5 5 5 5 5 5 5 5 5 5 5 3 3 3 5 5 5 3 5 3 3 5 5 5 5 5 5 5 5 5 5 5 3 3 5 3 5 3 5 5 5 3 5 5 5 5 5 5 5 5 3 5 5 5 3 5 5 5 5 3 5 5 5 5 5 5 5 5 5 3 5 5 5 5 5 3 5 3 5 5 5 5 5 5 5 5 5 5 5 5 3 5 5 5 5 5 5 5 5 5 5 5 5 5 5 5 5 5 5 5 5 3 5 5 3 3 5 5 5 5 5 3 5 5 5 5 5 5 5 5 5 5 5 5 5 3 5 3 5 5 5 5 5 3 3 5 3 5 5 5 5 5 5 5 5 5 5 5 3 5 5 3 5 5 5 5 5 5 3 5 5 5 5 5 5 5 5 3 3 5 5 5 5 5 5 5 3 5 5 3 5 3 5 5 5 5 3 5 5 5 5 3 3 5 5 5 5 5 5 5 5 3 3 5 5 5 5 5 5 5 5 5 5 5 5 5 5 5 5 3 5 5 5 5 5 5 5 5 5 5 5 5 5 5 5 5 5 5 5 5 5 5 5 5 5 5 5 5 5 5 5 5 5 5 5 5 5 5 5 5 5 3 5 5 5 5 5 3 5 5 5 5 5 5 5 3 5 3 3 5 3 5 5 5 5 5 5 5 5 5 3 5 5 5 3 5 5 5 3 5 5 5 5 5 5 5 5 5 5 5 5 5 5 5 5 5 5 5 5 5 5 5 5 5 5 5 5 5 5 5 5 5 5 5 5 5 3 5 5 5 5 5 5 5 5 5 5 3 5 3 5 5 3 5 5 5 3 5 5 5 5 5 5 5 5 5 3 5 5 3 5 5 5 3 5 5 3 3 3 5 5 5 5 5 3 3 5 5 5 5 3 5 5 5 5 5 5 3 5 5 5 3 5 3 5 3 5 5 5 5 5 5 3 3 5 3 3 3 5 5 5 5 5 3 5 3 5 5 5 5 3 5 5 3 5 5 5 5 3 5 5 5 5 5 5 5 3 5 3 5 5 5 5 5 5 5 5 5 5 5 5 3 5 3 5 5 3 5 5 5 5 3 3 5 5 3 5 5 5 5 5 5 5 3 5 3 3 5 5 5 3 5 3 5 5 5 3 5 3 3 5 3 3 5 5 5 5 5 5 5 5 5 5 3 5 5 5 3 5 3 5 5 5 5 5 5 5 3 5 5 5 3 5 5 5 3 5 5 5 5 5 5 5 5 5 5 3 5 5 5 5 3 5 5 5 3 5 5 5 5 5 5 5 5 5 3 5 3 5 5 5 5 5 5 5 5 5 5 5 5 5 3 5 5 5 5 5 5 5 5 5 5 5 5 5 5 5 5 5 5 5 5 5 5 5 5 5 5 3 5 5 5 5 5 3 5 5 5 5 5 5 5 5 5 5 5 5 5 5 5 3 5 5 3 3 5 5 5 5 5 3 5 5 5 5 5 5 3 5 5 5 3 3 5 5 5 5 5 5 5 5 5 5 5 3 5 5 5 5 3 3 3 5 5 3 5 3 5 5 5 5 5 3 3 5 3 5 5 5 3 3 5 5 5 3 5 5 5 5 5 5 5 5 5 5 3 5 5 5 3 5 3 3 5 5 3 5 5 5 5 3 5 5 5 5 5 5 5 5 3 5 5 5 5 5 5 5 3 5 5 5 3 5 5 5 5 5 5 5 5 5 5 3 5 5 5 3 5 5 3 5 5 5 5 5 5 5 3 5 3 5 5 5 5 5 5 5 5 5 5 3 5 5 5 3 5 5 5 3 5 5 5 5 5 5 5 5 5 3 5 5 5 5 5 5 5 5 5 5 5 5 5 5 5 3 3 5 5 5 5 3 5 3 5 3 5 5 5 3 3 3 5 5 5 5 5 5 5 5 5 5 5 5 3 5 5 5 5 3 3 5 5 5 5 5 3 3 5 5 5 5 5 3 5 5 3 5 5 5 5 5 5 5 5 5 3 5 5 5 5 5 5 5 5 5 3 5 5 5 5 5 5 3 3 5 3 5 5 3 5 5 3 3 5 5 3 3 5 5 5 3 5 3 3 5 5 5 3 5 5 5 5 5 5 3 5 3 5 5 3 3 5 5 5 5 3 5 5 5 5 3 5 5 5 5 5 5 5 5 5 3 5 5 5 5 5 5 5 5 5 5 5 5 5 5 5 5 5 5 5 5 3 5 5 5 3 5 5 5 5 5 5 5 5 3 5 5 3 5 5 3 5 5 5 5 5 5 3 5 5 5 5 5 5 5 5 5 5 5 3 5 5 5 5 5 5 3 5 5 5 3 5 5 5 5 5 5 5 5 5 5 5 5 3 5 5 3 5 5 5 5 5 3 5 5 5 5 5 5 5 5 5 5 5 5 5 5 5 5 5 5 5 5 5 3 5 5 5 5 5 5 5 5 5 5 5 5 5 5 5 3 5 5 3 5 5 5 5 5 5 5 3 5 5 5 5 3 5 5 5 5 5 5 5 5 5 3 5 5 5 5 5 5 5 5 5 5 5 5 3 5 3 5 3 5 3 5 5 5 5 5 5 5 5 3 5 5 5 5 5 5 5 5 5 5 5 5 3 5 5 5 3 5 5 3 5 5 3 5 5 3 5 5 5 5 5 5 5 5 5 5 5 5 5 5 3 5 3 5 3 5 5 5 5 3 5 5 3 5 5 5 5 5 3 5 5 3 5 5 5 5 3 5 5 5 5 3 3 5 5 5 5 5 5 5 5 3 3 5 5 5 5 3 5 5 3 5 3 5 5 5 3 5 5 5 5 3 3 5 5 5 3 5 5 5 5 5 5 5 5 5 5 5 5 5 5 3 5 5 3 5 5 3 5 5 5 5 3 5 5 5 5 3 5 5 5 5 5 5 5 5 3 5 5 5 5 5 5 3 3 5 3 5 5 5 5 5 5 5 5 5 5 5 5 3 5 5 5 5 5 5 5 5 3 5 5 5 5 5 5 3 5 5 3 5 5 5 5 5 5 5 5 3 5 5 5 5 5 5 5 5 5 5 5 5 5 5 5 5 5 3 5 5 5 5 5 5 5 5 5 5 5 5 5 5 5 3 3 5 5 5 5 5 5 5 5 5 5 5 5 5 5 5 5 5 5 5 5 5 5 5 5 5 5 5 5 5 5 5 5 5 3 5 5 3 5 3 5 5 3 5 5 5 3 3 5 5 3 3 5 5 3 5 5 3 5 3 5 5 5 5 3 5 5 3 3 5 5 3 3 5 3 5 5 3 3 5 5 3 5 5 3 5 5 3 5 3 5 5 5 5 5 3 5 3 5 5 5 3 5 5 3 5 3 3 5 5 5 3 3 5 5 3 3 5 5 3 5 3 5 5 5 3 5 3 5 5 5 3 5 5 5 5 5 5 5 3 5 3 5 5 5 5 3 5 5 3 5 5 5 5 5 5 5 5 5 3 5 5 5 5 5 5 5 5 5 5 5 3 3 5 5 5 5 5 5 5 3 5 5 5 5 5 5 5 5 5 5 5 5 5 5 5 5 5 5 5 5 5 3 5 3 5 3 5 5 5 3 5 5 5 5 5 3 3 5 5 3 5 5 5 5 5 5 5 5 5 5 3 5 5 5 5 5 3 5 5 5 5 5 5 5 5 5 5 5 5 5 5 5 5 5 5 5 5 5 5 5 5 3 3 5 5 5 3 5 5 5 5 5 5 5 5 5 5 5 3 3 5 5 5 5 3 3 5 3 5 5 5 3 5 5 5 3 3 5 5 3 3 5 5 5 5 5 5 5 5 5 5 5 5 3 5 5 5 5 5 5 5 5 5 5 5 5 5 5 3 5 3 5 5 5 3 3 5 5 5 5 5 5 5 3 5 5 5 5 3 3 5 3 5 5 3 3 3 5 5 5 3 3 5 5 5 5 5 5 5 5 5 3 5 3 3 5 3 5 5 5 5 5 3 3 5 5 5 3 5 5 5 5 3 5 5 5 5 5 5 5 5 5 5 5 5 5 5 5 5 5 3 3 5 5 5 3 5 5 5 3 5 5 5 5 5 5 5 5 5 5 5 3 5 5 5 5 5 5 5 5 5 5 5 5 5 5 5 5 5 3 5 5 5 5 5 5 5 5 5 5 5 5 5 5 5 5 5 3 5 5 5 5 5 5 5 5 5 5 5 5 5 3 5 5 3 5 5 3 5 5 5 5 5 5 5 5 5 3 5 3 5 5 5 5 5 5 5 5 3 5 5 5 5 5 5 5 5 5 3 5 5 5 5 5 5 5 5 5 5 5 5 5 5 3 5 5 5 5 5 5 5 5 3 5 5 3 5 5 5 3 5 5 5 3 5 3 3 5 5 5 3 5 3 5 5 5 5 3 5 5 5 5 5 5 5 3 3 5 5 5 5 3 3 3 5 3 5 5 5 5 5 5 5 3 5 5 5 5 3 5 5 5 5 5 5 5 5 5 5 5 5 5 5 5 5 5 5 5 5 5 5 5 5 5 5 5 5 5 5 3 5 5 5 5 5 5 5 5 5 5 5 5 5 5 3 5 5 5 5 3 5 5 5 5 5 5 5 5 5 5 5 5 5 3 5 5 3 5 5 5 5 5 5 5 5 5 5 3 5 5 5 3 5 5 3 5 5 5 3 5 5 3 5 5 5 3 5 5 3 5 5 5 5 5 5 5 5 3 5 3 5 5 5 3 5 5 5 5 5 5 5 3 5 5 3 5 5 3 5 5 5 5 5 5 5 5 5 5 5 5 5 5 5 5 5 5 5 5 5 5 3 5 5 3 5 5 5 3 5 5 5 5 5 3 5 5 5 5 5 5 5 5 5 5 5 5 5 3 5 5 5 5 5 5 5 5 5 5 3 5 5 5 5 5 5 5 5 5 5 5 5 5 5 3 5 5 5 3 5 5 5 5 5 5 5 5 5 5 5 3 5 5 5 5 5 3 5 5 5 5 3 5 5 5 3 5 5 5 5 5 5 5 5 5 5 5 5 5 5 5 5 3 5 5 5 3 5 5 5 3 5 5 5 5 5 5 5 5 5 5 5 5 5 5 5 5 5 5 5 5 3 3 5 5 5 5 5 5 3 3 5 3 5 5 5 5 5 5 5 5 5 5 3 5 5 5 3 5 5 3 5 5 5 5 5 5 5 5 3 5 5 5 5 3 5 5 5 5 5 5 5 5 5 5 5 5 3 5 5 3 5 5 5 5 5 5 5 5 5 5 5 5 5 5 5 5 5 5 5 5 5 5 5 5 3 5 5 5 5 5 5 3 5 5 5 3 5 5 5 5 5 5 5 5 5 5 5 5 5 5 5 5 5 5 5 5 5 5 5 5 3 5 3 5 5 5 5 5 5 5 5 5 5 5 5 5 5 3 5 5 5 5 5 5 3 5 5 3 3 5 5 5 5 3 5 5 5 5 5 5 5 5 5 5 5 5 5 5 5 5 5 5 5 5 5 5 5 5 5 5 5 5 5 5 5 5 5 5 5 5 5 5 5 5 5 5 5 5 5 5 3 5 5 5 3 5 5 5 5 5 5 3 5 5 5 3 5 5 5 5 5 5 5 5 5 5 5 5 5 5 3 5 5 3 5 5 3 5 5 3 5 3 5 5 5 3 5 3 5 5 3 5 5 3 5 5 5 5 5 5 5 5 5 5 3 5 5 5 5 3 5 5 5 5 5 3 5 5 3 5 3 5 5 5 5 3 5 5 5 3 5 5 5 5 3 5 5 5 5 5 5 3 5 3 5 5 5 5 5 5 3 5 5 5 5 5 5 5 5 5 5 5 5 3 5 5 3 5 5 5 5 5 5 3 5 5 5 3 5 5 5 5 3 5 5 3 5 5 5 5 3 3 5 5 3 5 3 5 5 3 5 5 5 5 5 3 5 5 5 5 5 5 5 5 5 5 5 5 5 5 5 5 5 3 5 5 5 5 5 5 5 5 5 5 5 5 5 3 5 5 5 5 5 5 3 5 5 5 5 3 3 5 5 5 5 5 5 5 5 5 5 5 5 5 5 5 5 5 5 5 5 5 5 3 5 5 5 5 5 5 5 5 5 3 5 3 5 5 5 5 5 5 5 5 5 5 5 5 5 5 5 5 5 5 5 5 5 3 5 5 5 3 5 5 5 5 5 5 5 5 5 5 5 5 5 5 5 5 5 5 5 5 5 5 3 5 5 5 3 3 5 5 5 5 5 5 5 5 5 3 5 5 5 5 5 5 5 5 5 3 5 5 3 5 5 5 3 5 3 5 5 3 5 5 3 5 3 3 5 5 5 5 5 5 5 5 5 5 5 5 5 3 5 5 5 5 5 3 5 5 5 5 5 3 5 3 5 3 5 5 3 3 5 5 5 5 5 5 5 5 5 5 5 5 5 3 5 5 5 5 5 5 3 5 5 5 5 5 5 3 5 3 5 5 5 5 5 3 5 3 3 5 5 5 5 3 5 5 3 3 5 5 5 5 3 5 3 3 5 5 3 3 5 5 5 5 5 5 5 3 5 5 3 5 3 5 5 5 3 5 5 5 5 5 3 5 3 5 5 5 3 3 5 5 5 5 3 3 5 5 5 5 5 5 5 5 3 5 5 5 5 5 5 5 5 3 3 5 5 5 5 5 5 5 5 5 5 3 5 5 5 5 5 5 3 5 5 5 5 5 5 5 5 5 5 3 5 5 3 5 5 5 5 5 5 5 5 5 5 5 5 5 5 5 3 5 5 5 5 3 5 5 3 5 5 5 5 5 5 5 5 5 3 5 3 5 5 5 5 5 5 5 5 5 5 5 5 5 5 5 5 5 5 5 3 5 5 5 5 5 5 3 5 5 5 3 5 5 5 5 5 5 3 5 5 5 5 3 5 5 5 3 5 5 3 3 5 5 5 3 5 5 5 5 5 5 5 5 5 5 3 5 5 5 5 3 5 3 3 5 5 5 5 5 5 5 5 5 3 5 5 5 5 5 5 5 3 5 3 5 5 5 5 5 5 5 3 5 5 3 5 5 5 5 5 5 5 3 5 5 5 3 5 5 5 5 5 5 5 5 5 5 5 5 5 5 3 5 5 5 5 5 5 5 3 5 5 5 5 3 3 5 3 5 3 5 5 3 5 5 5 3 5 5 5 5 5 5 5 5 3 5 3 5 3 5 5 5 5 5 3 3 5 5 5 5 5 5 3 5 3 5 5 5 5 5 5 5 5 5 5 5 5 5 5 5 5 5 5 5 5 3 5 5 5 5 5 5 3 5 5 5 5 5 5 5 5 5 5 5 5 5 5 5 5 5 5 5 3 5 5 3 5 5 5 5 5 3 5 3 5 3 5 5 5 5 5 5 5 3 5 5 5 3 3 5 5 5 3 5 3 5 5 5 5 5 5 5 5 3 3 5 5 5 3 5 5 5 3 5 3 3 3 5 5 3 5 5 3 5 5 5 3 5 5 5 5 3 5 5 5 5 5 5 5 5 5 3 5 5 5 5 5 3 5 5 5 5 5 3 5 5 5 5 5 5 5 5 5 5 5 5 5 5 5 5 5 5 5 5 5 5 5 5 5 5 5 5 5 5 5 5 5 5 5 5 5 5 5 5 5 5 3 5 5 5 5 5 5 5 5 5 5 3 5 5 5 5 3 5 5 5 5 5 5 5 5 5 5 5 5 5 5 3 5 5 5 3 5 5 5 5 5 5 5 5 5 3 5 5 5 5 5 5 3 5 5 5 5 5 5 5 5 5 5 5 3 5 5 5 5 3 5 5 5 5 5 5 5 3 5 5 5 5 5 5 5 3 5 5 5 5 3 5 5 3 5 5 5 5 5 5 5 5 5 5 5 3 5 5 5 3 5 5 5 3 3 5 5 5 3 5 5 5 5 5 5 5 3 5 5 3 3 5 5 5 5 5 3 3 5 3 5 5 5 5 5 5 5 5 5 5 5 5 5 5 5 5 3 5 5 5 5 5 5 3 3 5 5 5 5 5 5 5 3 5 3 5 5 3 5 5 5 5 5 5 5 5 5 5 3 5 5 5 5 5 3 5 5 5 5 5 5 5 5 5 5 3 5 5 5 5 5 5 5 3 5 3 5 5 5 3 5 5 3 5 5 3 5 5 3 5 3 5 3 5 5 5 3 5 5 5 5 3 5 5 5 3 3 5 5 5 5 5 5 5 5 5 3 5 5 5 5 5 5 5 5 5 5 5 5 5 5 5 5 3 5 5 5 5 3 5 5 3 5 5 5 5 5 5 5 3 5 5 5 5 5 5 5 5 5 5 5 5 5 5 5 3 5 5 5 5 5 5 5 5 3 5 5 5 5 5 5 5 5 5 5 3 5 3 5 5 5 5 3 5 5 5 5 3 3 5 5 3 5 5 5 5 5 5 5 5 5 5 5 5 5 3 5 5 5 5 5 5 5 5 5 5 5 5 5 5 5 5 3 5 5 3 3 5 5 5 5 5 5 5 5 5 5 5 5 3 5 5 5 3 3 5 5 5 5 3 5 5 3 5 3 5 5 3 3 3 5 5 5 5 5 5 5 3 5 3 5 5 5 5 3 5 5 5 5 5 5 5 5 5 5 5 5 5 5 3 5 5 3 5 5 5 3 5 3 5 3 5 3 5 5 5 5 5 5 3 5 3 5 5 5 5 5 5 5 5 5 5 3 5 5 5 3 5 5 5 5 5 3 5 5 5 5 5 5 5 5 5 5 5 5 5 5 5 5 5 5 5 5 3 5 5 5 3 5 5 3 5 5 5 5 3 3 5 5 5 5 3 5 5 5 3 5 5 5 5 5 5 5 5 5 5 5 5 5 3 5 5 5 3 5 5 3 5 5 5 5 5 5 5 5 5 5 5 5 5 5 3 5 5 5 5 5 5 5 5 5 3 3 5 5 5 5 5 5 5 5 3 3 5 5 3 5 3 5 3 5 5 5 5 5 5 5 5 5 5 5 3 5 5 5 5 5 5 5 5 5 5 3 5 3 5 5 5 5 5 5 5 5 5 5 5 5 5 5 5 5 5 5 5 5 5 5 5 5 5 3 5 5 5 5 5 5 3 5 5 3 5 5 5 5 5 5 5 5 5 5 5 5 5 5 5 3 5 5 5 5 3 5 5 5 3 5 3 5 3 5 5 5 5 5 5 5 5 3 5 5 5 5 5 5 5 3 5 5 5 5 5 5 5 5 5 5 5 3 5 3 5 5 5 5 5 5 3 5 5 5 5 5 5 5 5 5 5 5 5 5 5 5 5 5 5 3 5 5 5 5 5 5 5 5 5 5 5 5 5 5 5 5 5 3 5 5 5 5 5 5 3 5 5 5 5 5 5 3 5 5 5 5 5 5 5 3 5 5 5 3 5 5 5 5 5 5 5 5 5 5 5 5 5 5 5 5 5 5 5 5 5 5 5 5 5 5 5 5 5 5 5 5 5 5 5 5 5 5 5 5 5 5 5 5 5 5 5 5 5 5 5 5 5 5 5 5 5 5 5 5 5 3 5 5 5 3 5 3 3 5 5 5 5 5 5 5 5 5 5 5 5 5 5 5 5 5 5 5 5 3 5 3 3 5 5 5 5 5 5 5 5 5 5 5 5 5 5 5 5 5 3 3 5 5 5 5 5 3 3 5 5 3 5 5 3 5 5 5 3 5 5 5 5 5 5 5 3 5 5 5 5 5 5 5 5 5 5 5 3 5 5 5 5 3 5 5 5 5 5 5 5 5 5 5 5 5 5 5 5 5 5 5 5 5 5 5 5 5 5 5 5 5 5 5 5 5 5 5 5 5 5 5 5 5 5 5 5 5 5 5 5 5 5 5 5 5 5 5 5 5 5 5 5 5 5 5 5 5 5 5 3 5 5 5 5 5 5 3 5 5 5 5 5 5 3 5 5 5 5 3 5 5 5 5 5 5 5 5 5 5 5 5 5 5 3 5 5 5 5 5 5 5 5 5 5 5 5 5 5 5 5 5 5 5 5 5 5 5 5 3 5 5 5 5 5 5 5 5 5 5 5 3 5 3 3 5 5 5 5 5 5 5 5 5 5 5 5 5 5 5 3 5 5 5 5 5 5 5 5 5 5 3 5 5 5 5 5 5 5 5 3 5 5 5 5 5 5 5 5 5 5 5 5 5 5 5 3 5 5 3 5 5 5 5 3 5 5 5 5 5 5 5 3 5 5 5 5 5 5 3 5 5 5 3 5 5 5 5 3 3 5 5 3 5 5 5 5 5 5 5 5 5 5 3 5 5 5 5 5 3 5 5 5 5 5 5 5 5 5 5 5 5 5 5 5 5 5 5 3 5 5 5 3 3 5 5 5 3 3 5 5 5 3 5 5 5 5 5 5 5 5 5 5 5 5 5 5 5 5 5 5 5 5 5 5 5 5 5 5 5 5 5 5 5 5 5 5 5 5 5 5 5 5 5 5 5 5 5 5 5 5 5 5 5 5 5 5 5 5 5 5 5 5 5 5 5 5 5 5 3 5 5 5 5 3 5 5 3 5 5 5 5 5 5 5 5 5 5 5 5 5 5 3 5 3 5 5 5 5 5 5 5 5 5 5 5 5 5 5 5 5 5 5 5 5 5 5 5 5 5 5 5 5 5 5 3 5 5 3 5 5 5 5 5 5 5 5 3 5 5 5 5 3 5 5 5 5 5 5 5 5 5 5 5 5 5 5 5 5 5 5 5 5 5 5 5 5 5 5 5 5 5 5 5 5 5 5 5 5 5 5 5 5 5 5 5 5 5 5 5 5 5 5 5 5 5 5 5 5 5 5 5 5 5 5 5 5 5 5 5 5 5 5 5 5 5 5 5 5 5 5 5 5 5 5 5 5 5 5 5 5 5 3 5 5 5 5 3 5 5 5 5 5 5 5 3 5 5 5 5 3 5 5 5 5 5 5 5 5 5 5 5 5 5 5 5 5 5 5 5 5 5 5 5 5 5 5 5 5 5 5 5 5 5 5 5 5 5 5 5 5 3 3 5 5 5 5 5 5 5 5 5 5 5 5 5 5 5 3 5 5 5 5 5 5 5 5 5 3 5 5 5 5 5 3 5 5 5 5 5 5 5 5 5 5 5 5 5 5 5 5 5 5 5 5 5 5 5 5 5 5 5 5 5 3 3 5 5 3 3 3 5 5 5 5 5 3 3 5 3 5 5 5 5 5 5 5 5 3 5 3 5 5 5 5 5 5 5 5 5 5 5 5 5 5 5 5 5 5 5 5 5 5 5 5 5 5 5 5 3 5 5 5 5 5 3 5 5 5 5 5 5 5 5 5 5 5 5 5 3 5 5 5 5 5 5 5 3 5 5 5 5 5 5 5 3 5 5 5 5 5 5 5 5 5 5 5 5 5 5 5 5 5 5 5 5 3 5 3 5 5 5 5 3 5 5 3 5 5 5 3 5 5 5 5 5 5 5 5 3 3 5 3 5 3 5 5 3 5 5 5 3 5 5 5 5 5 5 5 5 5 3 5 5 3 5 5 5 5 5 5 5 5 3 5 5 5 3 5 5 5 5 3 5 5 5 5 5 5 5 5 5 5 5 5 3 5 5 5 3 5 5 5 5 5 5 5 5 3 5 5 5 5 3 5 5 5 5 5 3 5 5 5 5 5 3 5 5 3 5 5 5 5 5 5 3 5 5 5 5 5 5 5 5 5 5 5 5 5 5 5 5 5 5 5 5 5 5 5 5 5 5 5 3 5 5 5 5 5 3 5 5 5 5 5 5 5 3 5 5 5 5 5 5 5 5 5 5 5 5 5 5 3 5 5 5 5 3 5 5 5 5 5 5 5 5 5 5 5 5 5 5 5 5 5 5 5 5 5 5 5 5 5 5 5 5 5 5 5 3 3 5 5 5 5 5 5 3 5 5 3 5 5 5 5 5 5 5 5 5 5 5 5 3 5 5 5 5 5 5 5 5 5 5 5 3 5 5 5 3 5 5 5 3 5 5 5 3 5 5 5 3 5 5 5 5 5 5 5 3 5 5 5 5 3 5 5 5 5 5 5 5 5 5 5 5 5 5 3 5 5 5 5 5 5 5 5 5 5 3 5 5 5 5 3 5 5 5 3 5 5 5 5 5 5 5 3 3 5 3 3 5 5 5 3 5 5 5 5 5 5 5 3 5 5 3 5 5 5 5 5 5 5 5 5 5 5 3 5 5 5 3 5 5 3 5 5 3 5 5 5 5 5 5 5 5 5 5 3 5 5 5 5 5 3 3 5 5 5 5 5 5 5 5 3 5 5 5 3 5 5 5 5 5 3 5 5 5 5 5 3 5 5 5 5 3 5 5 5 5 5 3 5 5 3 5 5 5 5 3 5 5 5 5 5 5 5 5 5 5 5 5 5 5 5 5 5 5 3 5 5 3 5 5 5 5 5 5 5 3 5 5 3 5 5 3 3 5 5 5 5 5 3 5 5 5 3 5 5 5 3 3 5 3 5 5 5 5 5 5 5 5 5 5 5 5 5 3 5 5 5 3 5 5 5 5 5 5 5 5 5 5 5 5 5 5 5 5 5 5 5 5 5 5 5 5 5 5 5 5 5 5 5 5 5 5 5 5 5 3 5 5 3 5 5 5 5 5 3 5 5 3 5 5 5 3 5 5 3 5 5 5 5 5 5 5 5 5 5 5 5 5 5 5 5 5 5 5 5 5 5 3 5 3 5 5 5 5 5 5 5 5 5 5 5 5 5 5 5 3 5 5 5 5 5 5 3 3 5 3 5 5 5 5 5 5 5 5 5 3 5 5 3 5 5 5 5 5 5 5 5 5 3 5 5 5 5 5 5 3 5 5 5 3 5 3 5 3 5 5 5 5 5 3 5 5 5 5 3 5 5 5 5 5 5 5 5 5 5 3 5 5 5 5 5 5 5 5 5 3 5 5 5 5 3 5 5 3 5 5 5 3 5 5 5 5 3 5 5 5 3 5 5 5 3 5 5 5 5 3 3 5 5 3 5 5 5 5 5 5 5 5 5 3 5 3 5 5 5 5 3 5 5 5 5 3 3 5 5 3 5 3 3 5 5 3 5 5 5 5 5 5 5 5 5 5 5 5 5 5 5 5 5 5 5 5 5 5 5 5 3 5 3 5 5 5 5 5 5 3 5 3 5 5 5 5 5 5 3 5 5 5 3 5 5 5 5 5 3 5 3 5 5 5 5 5 5 3 5 3 5 5 5 5 5 5 3 5 5 3 5 3 3 5 5 3 5 3 5 5 3 5 5 5 3 5 3 5 3 5 5 5 5 5 5 5 3 5 5 5 5 5 5 5 5 3 5 5 5 3 5 5 5 5 5 3 5 3 5 5 3 3 3 5 5 3 5 5 5 3 5 5 5 5 3 5 5 5 5 5 5 5 5 5 5 5 5 3 5 5 3 5 5 3 5 3 5 3 5 5 3 5 5 5 5 5 5 5 3 5 3 5 5 5 5 5 5 5 3 5 5 5 3 5 5 5 5 3 5 5 5 5 5 5 5 5 5 5 5 5 5 5 5 5 5 5 5 5 5 5 5 5 5 5 5 5 5 5 5 5 3 5 5 5 5 5 5 5 5 5 5 5 5 5 5 5 5 5 5 3 5 5 5 5 5 5 5 5 5 5 5 5 5 5 5 5 5 5 5 5 5 5 5 5 5 5 5 5 5 5 3 5 5 5 5 5 5 3 5 5 5 5 3 5 5 5 5 5 5 5 5 5 5 5 5 3 5 3 5 5 5 5 5 5 5 5 5 5 5 5 3 5 5 5 5 5 5 5 5 5 5 5 5 5 5 5 5 5 5 5 5 5 5 5 5 5 5 5 5 5 5 5 5 5 5 5 5 5 5 5 5 5 5 5 3 5 5 5 5 5 5 5 5 5 5 3 5 5 5 5 5 5 5 5 5 5 5 5 3 5 5 5 5 5 5 5 5 5 5 5 5 5 5 5 5 5 5 5 5 5 5 5 5 5 5 5 5 3 5 5 5 5 5 3 3 5 5 3 5 5 3 5 5 5 5 5 5 5 3 5 5 5 5 5 5 5 5 5 5 5 5 5 5 3 5 5 5 5 3 5 3 5 3 3 5 5 5 3 3 5 5 5 5 5 3 5 5 5 5 5 3 5 5 5 5 5 5 5 5 3 5 5 5 5 3 5 3 5 5 3 5 5 5 5 5 3 5 5 5 5 5 5 5 5 3 5 3 5 5 5 5 5 5 3 5 5 5 5 5 5 5 5 3 5 5 5 3 5 5 3 5 5 3 5 5 5 5 5 5 5 5 5 5 5 5 5 5 5 5 5 5 5 5 5 5 5 5 5 5 3 5 5 5 5 5 5 5 5 5 5 5 5 5 5 5 5 5 5 5 5 5 5 5 5 5 5 5 5 5 5 5 5 5 5 5 5 5 5 5 5 5 5 5 5 5 5 5 5 5 5 3 5 5 5 5 5 5 5 3 5 3 5 5 5 5 5 5 5 5 5 5 5 5 5 5 5 5 5 5 5 5 5 3 5 5 5 3 5 5 5 5 5 5 5 5 5 5 5 5 5 5 5 5 3 5 5 5 5 5 5 5 5 5 5 3 5 5 3 5 5 5 5 5 5 5 5 5 5 5 5 5 5 5 5 5 5 5 5 5 5 5 5 5 5 5 3 5 5 5 5 5 5 5 3 5 5 5 5 5 5 5 5 5 5 3 5 5 5 5 3 5 5 3 5 3 5 5 5 5 5 3 5 5 5 5 5 3 5 5 5 5 5 5 5 5 5 5 5 5 5 5 3 5 5 5 5 5 5 5 5 5 5 5 5 5 3 5 5 5 5 5 5 5 5 5 5 5 5 5 5 5 5 5 5 5 5 5 5 5 5 5 5 5 5 5 5 5 5 5 5 3 5 3 5 5 5 5 5 5 5 5 3 5 5 5 5 5 5 5 3 5 5 3 5 5 5 3 5 5 5 5 5 5 3 5 5 5 5 5 5 5 5 5 5 5 5 5 5 5 5 5 5 5 5 5 5 5 5 5 5 5 5 5 5 5 5 3 3 5 5 5 5 5 5 5 5 5 5 5 5 3 5 5 5 5 5 5 5 5 5 3 5 5 5 5 5 3 5 5 5 3 5 5 5 5 5 5 5 5 5 5 5 5 5 5 5 5 5 5 3 5 5 5 5 5 5 5 3 5 5 5 3 5 5 5 5 5 5 5 5 5 5 3 5 5 5 5 5 5 5 5 5 5 5 5 5 5 3 5 3 5 5 5 5 3 5 5 5 5 5 5 5 5 5 5 5 5 5 5 5 5 5 5 3 5 5 5 5 5 5 5 5 5 5 5 5 5 5 5 5 5 5 5 5 5 5 3 5 5 5 5 5 5 5 3 5 5 5 5 5 5 3 5 5 5 5 3 5 5 5 5 5 5 5 5 5 5 5 5 5 5 5 5 5 3 3 5 5 5 5 5 5 5 5 5 5 5 5 5 5 5 5 5 5 5 5 5 5 5 5 5 5 3 5 5 5 3 5 5 5 5 3 5 3 3 5 5 5 5 5 5 5 5 5 5 3 5 5 3 3 5 5 5 3 5 5 5 5 5 5 5 5 5 3 3 3 5 5 5 5 5 3 5 5 5 5 3 5 5 5 5 5 5 5 5 5 5 5 5 5 5 5 5 5 5 5 5 5 5 5 5 5 5 5 3 5 5 5 5 5 5 3 3 5 5 5 5 5 5 5 3 5 3 5 5 5 3 5 5 3 5 3 3 5 5 3 3 5 5 3 5 3 5 5 5 5 5 3 5 5 5 5 5 3 5 5 3 5 5 5 3 3 5 3 5 5 5 3 5 3 3 5 5 5 5 5 5 5 5 5 5 3 5 5 5 3 5 5 3 5 5 5 5 5 5 5 5 5 5 5 5 5 5 5 5 3 5 5 5 5 5 3 5 5 5 5 5 5 5 5 3 5 5 5 5 5 5 3 5 3 3 5 3 3 5 5 5 3 5 3 3 5 5 5 5 5 5 5 5 3 5 5 5 3 5 5 3 5 3 5 5 3 5 5 5 5 5 3 5 5 5 5 5 5 3 5 5 5 5 5 5 5 3 3 3 3 3 5 5 5 5 5 3 5 5 3 5 5 5 3 3 5 3 5 5 5 5 5 3 3 3 3 5 5 5 3 3 5 5 5 5 5 5 5 5 3 5 5 5 5 3 5 5 5 3 5 5 5 5 5 3 5 5 5 3 5 5 5 5 5 5 5 5 5 5 5 5 5 5 5 5 5 5 3 5 3 5 5 5 5 5 5 5 3 5 3 5 5 5 5 5 3 5 5 5 5 5 5 5 5 5 5 5 5 3 5 5 5 5 5 5 5 5 5 5 5 5 5 5 3 3 5 5 5 5 5 3 3 5 5 3 5 3 5 5 5 5 3 5 5 5 5 3 5 3 3 5 3 5 5 5 3 5 5 3 5 5 5 5 5 5 5 5 5 3 5 5 5 5 3 3 5 3 5 5 5 5 5 5 5 5 5 5 5 5 3 5 5 5 5 5 5 5 5 5 5 3 5 5 5 5 3 5 5 5 3 5 5 5 5 5 5 5 5 5 5 5 5 5 5 5 3 5 5 5 5 5 5 5 5 3 5 5 5 5 5 5 3 3 5 5 5 3 5 3 5 5 5 5 5 5 5 5 3 3 5 5 5 3 5 5 5 5 5 5 5 5 5 5 5 5 5 5 5 3 3 5 5 5 5 5 5 5 3 5 5 3 5 5 3 5 5 5 5 5 5 5 5 5 5 5 5 5 5 3 5 5 5 5 3 5 5 5 5 5 5 5 5 3 5 5 5 5 5 5 5 5 3 3 3 3 5 5 3 5 5 5 3 3 5 5 3 5 3 5 5 3 3 3 5 5 3 5 5 5 3 3 5 3 5 5 5 5 3 5 5 3 3 3 5 5 5 5 3 5 3 5 5 5 5 5 5 3 5 5 5 5 5 5 3 5 5 5 5 5 5 5 5 5 3 5 5 5 5 5 5 5 5 3 3 5 5 5 5 5 5 5 5 5 5 5 3 5 5 5 5 3 5 5 5 5 5 5 5 5 5 3 5 5 5 3 5 5 5 5 5 5 5 5 5 5 5 5 5 5 5 5 5 3 5 5 5 5 5 5 5 5 5 5 3 5 5 5 5 5 5 5 5 5 5 5 3 5 5 5 5 5 5 5 5 5 5 5 5 5 5 5 3 5 5 5 5 3 5 3 5 5 5 5 5 5 5 5 5 5 5 5 5 5 3 3 5 5 5 5 5 3 5 3 5 5 5 5 3 5 5 5 5 5 5 5 5 5 5 5 5 3 5 5 5 5 5 5 5 5 5 5 5 5 5 5 5 5 5 5 3 5 5 5 5 5 3 5 5 5 5 5 5 5 5 5 5 5 5 5 5 5 5 5 5 5 5 5 5 3 5 5 5 5 5 5 5 5 5 5 5 5 5 5 5 5 5 5 3 5 5 3 5 5 5 5 5 5 3 5 5 5 3 5 5 5 3 5 5 5 5 3 5 5 3 5 5 3 5 3 5 5 5 3 5 3 5 5 3 5 3 5 5 5 5 5 5 5 5 3 5 5 3 5 5 3 5 5 5 3 3 5 5 5 5 5 5 5 5 5 3 5 5 5 5 5 5 5 5 5 5 5 5 5 5 5 5 5 5 5 5 3 5 5 5 5 5 5 5 3 5 3 5 5 5 5 3 5 5 5 5 5 5 5 5 5 5 5 5 5 5 5 5 5 5 5 5 5 5 5 3 5 5 5 5 5 3 5 5 5 5 5 3 5 5 3 5 3 5 3 5 5 5 5 5 5 5 5 5 5 5 3 5 3 3 5 5 5 5 5 3 5 3 3 3 5 5 5 5 3 5 3 5 3 3 5 5 3 3 5 3 5 3 5 5 3 5 5 5 5 5 5 5 5 5 5 5 5 5 5 3 5 5 5 5 5 3 5 3 5 3 5 3 5 5 3 5 3 5 5 5 5 5 5 5 5 3 5 5 5 5 5 5 5 3 5 5 5 5 5 5 3 5 3 5 5 3 5 5 3 5 5 5 5 5 3 5 5 3 5 5 3 5 5 5 3 5 5 5 5 5 5 5 5 3 3 5 5 5 3 5 3 5 5 5 3 5 5 5 5 3 3 3 5 5 5 3 5 3 3 5 5 5 5 3 5 5 5 3 5 5 3 3 5 5 5 5 3 5 5 5 5 3 3 5 5 5 3 3 5 5 3 5 5 5 5 5 5 3 5 5 3 5 5 5 3 5 5 3 5 5 3 5 5 5 5 5 5 5 5 5 5 5 5 5 5 5 3 5 5 3 3 5 5 5 3 5 5 5 3 5 5 3 5 5 5 5 5 5 5 5 5 3 5 5 5 3 5 5 5 5 5 5 5 5 3 3 5 5 5 3 5 5 5 5 5 5 5 5 3 5 5 5 5 5 5 5 5 3 5 5 5 3 5 5 3 5 5 5 5 5 5 5 5 5 5 5 5 5 5 3 5 5 5 5 5 5 5 5 5 5 5 5 5 3 3 5 5 5 5 5 3 5 3 3 3 5 3 5 5 5 5 5 5 3 3 5 5 5 5 3 5 3 5 5 5 5 5 3 5 5 5 5 5 5 5 5 5 3 5 5 5 5 3 5 5 3 5 5 5 5 5 5 5 5 5 5 3 5 5 5 5 5 5 5 5 3 5 5 5 3 5 3 5 5 5 5 5 5 5 5 5 5 5 3 5 3 3 5 3 5 5 5 5 3 5 5 5 5 3 5 5 5 5 5 5 5 5 5 5 5 5 5 5 5 3 5 5 5 5 5 5 5 3 5 5 3 5 5 3 5 3 5 5 5 5 3 3 5 5 5 5 5 5 5 3 5 5 5 5 5 3 5 5 5 5 5 5 5 5 5 5 5 3 5 5 5 3 5 5 5 5 5 5 3 3 5 5 5 3 5 5 5 5 5 5 5 5 5 3 5 5 3 5 5 5 5 3 5 5 5 5 3 5 3 5 3 5 3 5 5 5 5 3 5 5 3 5 5 3 5 3 5 5 5 3 3 5 3 5 3 5 5 5 5 3 5 5 5 5 5 3 5 5 5 5 5 5 5 5 5 5 5 5 5 5 5 5 5 5 5 5 5 5 5 5 5 3 5 5 5 5 5 5 5 5 3 5 5 5 5 3 5 5 3 5 5 5 5 5 5 5 5 5 5 5 5 5 5 5 5 5 3 5 3 5 3 5 5 5 5 5 5 5 5 5 5 5 5 5 5 5 3 3 5 5 5 5 5 5 5 5 5 5 5 5 5 5 5 5 5 5 5 5 5 5 5 5 5 5 5 5 5 5 5 5 5 5 5 5 5 5 5 5 5 5 5 5 5 5 3 5 5 5 5 5 5 5 5 3 5 5 5 5 5 5 5 5 5 5 3 5 5 5 3 5 5 3 5 5 5 5 5 3 5 5 5 5 5 5 5 5 5 5 5 5 5 5 5 5 5 5 5 5 5 5 5 5 5 5 5 5 5 5 5 5 5 5 5 5 5 5 5 5 5 5 5 5 5 5 5 5 5 5 5 3 5 5 5 5 5 5 5 5 5 5 5 5 5 5 5 5 5 3 5 5 5 5 5 5 5 5 5 5 5 5 5 5 5 5 5 5 5 5 5 5 5 5 5 5 5 5 5 5 5 5 5 5 5 5 5 5 5 5 5 5 5 5 5 5 5 5 5 5 5 5 5 5 5 5 5 5 5 5 5 5 5 5 5 5 5 5 5 3 5 5 5 3 5 3 5 5 3 5 5 3 5 5 5 3 5 3 3 3 5 5 5 3 5 5 5 3 5 5 5 5 5 5 3 5 5 3 3 3 5 5 3 5 3 5 5 5 5 5 5 5 5 3 5 5 5 3 3 5 5 5 5 3 5 5 5 3 5 5 5 5 3 5 5 5 5 3 5 5 5 5 5 5 5 5 5 5 5 3 5 5 
</DataArray>
</Cells>
<PointData Scalars="" Vectors="displacement," Tensors="">
<DataArray type="Float64" Name="displacement" NumberOfComponents="3" format="ascii">
-0.034997736897863875 -0.034997206577927223 0 -0.032994576614229693 -0.03403620039598345 0 -0.03499683305425879 -0.030199204994107786 0 -0.034997736897863875 -0.034997206577927223 0 -0.032994576614229693 -0.03403620039598345 0 -0.028872089583742454 -0.034996472936950636 0 -0.032994576614229693 -0.03403620039598345 0 -0.032573141704533404 -0.034144720792877614 0 -0.033844885395208996 -0.031771209137173087 0 -0.032994576614229693 -0.03403620039598345 0 -0.03499683305425879 -0.030199204994107786 0 -0.033844885395208996 -0.031771209137173087 0 -0.028872089583742454 -0.034996472936950636 0 -0.024234426220144233 -0.034998966888982234 0 -0.027369696039608055 -0.035417625178527701 0 -0.032994576614229693 -0.03403620039598345 0 -0.028872089583742454 -0.034996472936950636 0 -0.029780783281087641 -0.035033146267686437 0 -0.028872089583742454 -0.034996472936950636 0 -0.029780783281087641 -0.035033146267686437 0 -0.027369696039608055 -0.035417625178527701 0 -0.030829812828905456 -0.035145701902952395 0 -0.028777125706924069 -0.036465300630305945 0 -0.027369696039608055 -0.035417625178527701 0 -0.029780783281087641 -0.035033146267686437 0 -0.030829812828905456 -0.035145701902952395 0 -0.027369696039608055 -0.035417625178527701 0 -0.030829812828905456 -0.035145701902952395 0 -0.030520822797267366 -0.035811205435603517 0 -0.028777125706924069 -0.036465300630305945 0 -0.030829812828905456 -0.035145701902952395 0 -0.030520822797267366 -0.035811205435603517 0 -0.032276518034422344 -0.035041586835356062 0 -0.032994576614229693 -0.03403620039598345 0 -0.029780783281087641 -0.035033146267686437 0 -0.032573141704533404 -0.034144720792877614 0 -0.029780783281087641 -0.035033146267686437 0 -0.030829812828905456 -0.035145701902952395 0 -0.032573141704533404 -0.034144720792877614 0 -0.030829812828905456 -0.035145701902952395 0 -0.032573141704533404 -0.034144720792877614 0 -0.032747196113347136 -0.03426782357947851 0 -0.030829812828905456 -0.035145701902952395 0 -0.032747196113347136 -0.03426782357947851 0 -0.032276518034422344 -0.035041586835356062 0 -0.032573141704533404 -0.034144720792877614 0 -0.033636120925551245 -0.032400784911599464 0 -0.033844885395208996 -0.031771209137173087 0 -0.032573141704533404 -0.034144720792877614 0 -0.033636120925551245 -0.032400784911599464 0 -0.032747196113347136 -0.03426782357947851 0 -0.032633489358106393 -0.034569935193668036 0 -0.03369814823129845 -0.032838636648675291 0 -0.034801234669955966 -0.032243885713903284 0 -0.033636120925551245 -0.032400784911599464 0 -0.032747196113347136 -0.03426782357947851 0 -0.03369814823129845 -0.032838636648675291 0 -0.032747196113347136 -0.03426782357947851 0 -0.032633489358106393 -0.034569935193668036 0 -0.032276518034422344 -0.035041586835356062 0 -0.032747196113347136 -0.03426782357947851 0 -0.032633489358106393 -0.034569935193668036 0 -0.03369814823129845 -0.032838636648675291 0 -0.03369814823129845 -0.032838636648675291 0 -0.034801234669955966 -0.032243885713903284 0 -0.035116289205093278 -0.030093761343605779 0 -0.033636120925551245 -0.032400784911599464 0 -0.03369814823129845 -0.032838636648675291 0 -0.035116289205093278 -0.030093761343605779 0 -0.033636120925551245 -0.032400784911599464 0 -0.035116289205093278 -0.030093761343605779 0 -0.034450848103705821 -0.029914980410815948 0 -0.02844380071987597 -0.038171861429593147 0 -0.03065849840725127 -0.038462628705239803 0 -0.029574696293406717 -0.039470187617623928 0 -0.030520822797267366 -0.035811205435603517 0 -0.028777125706924069 -0.036465300630305945 0 -0.030601191548922574 -0.037044042387585838 0 -0.029077541266018435 -0.037040185545787835 0 -0.031866731500804185 -0.034977795911741737 0 -0.028777125706924069 -0.036465300630305945 0 -0.02844380071987597 -0.038171861429593147 0 -0.03065849840725127 -0.038462628705239803 0 -0.028777125706924069 -0.036465300630305945 0 -0.02844380071987597 -0.038171861429593147 0 -0.026874908229010751 -0.037434385876618431 0 -0.02844380071987597 -0.038171861429593147 0 -0.029574696293406717 -0.039470187617623928 0 -0.027021311687507828 -0.03898629495801597 0 -0.032633489358106393 -0.034569935193668036 0 -0.033351193376401696 -0.034160473167302509 0 -0.032820758179279985 -0.033459541772536058 0 -0.032820275006110101 -0.035115188732018507 0 -0.034252576731390254 -0.030312778246149755 0 -0.031866731500804185 -0.034977795911741737 0 -0.030796685006595666 -0.033117956068555804 0 -0.030520822797267366 -0.035811205435603517 0 -0.030601191548922574 -0.037044042387585838 0 -0.032276518034422344 -0.035041586835356062 0 -0.032633489358106393 -0.034569935193668036 0 -0.033351193376401696 -0.034160473167302509 0 -0.032276518034422344 -0.035041586835356062 0 -0.031866731500804185 -0.034977795911741737 0 -0.032126023720498623 -0.035185385946803927 0 -0.031866731500804185 -0.034977795911741737 0 -0.034252576731390254 -0.030312778246149755 0 -0.03318906041042094 -0.028044025785584556 0 -0.034263836203976855 -0.027914097672325024 0 -0.034649383152146676 -0.026879947473933508 0 -0.033831746483147289 -0.029242010468840646 0 -0.034263836203976855 -0.027914097672325024 0 -0.034623311307137576 -0.028424721286730389 0 -0.033831746483147289 -0.029242010468840646 0 -0.03318906041042094 -0.028044025785584556 0 -0.034263836203976855 -0.027914097672325024 0 -0.030796685006595666 -0.033117956068555804 0 -0.027912113159670009 -0.033303160317252951 0 -0.029098486278805898 -0.03152804358449874 0 -0.030241265603027548 -0.03039893233628534 0 -0.032162339243975525 -0.03055761586058478 0 -0.030796685006595666 -0.033117956068555804 0 -0.033060640660368464 -0.029265235998575695 0 -0.034263836203976855 -0.027914097672325024 0 -0.034623311307137576 -0.028424721286730389 0 -0.035298453189686517 -0.027533969641584773 0 -0.034263836203976855 -0.027914097672325024 0 -0.035298453189686517 -0.027533969641584773 0 -0.034649383152146676 -0.026879947473933508 0 -0.035075296607266458 -0.026134157759201106 0 -0.034649383152146676 -0.026879947473933508 0 -0.033895084957751197 -0.026251645640290325 0 -0.035075296607266458 -0.026134157759201106 0 -0.035365575059481312 -0.026577913687933215 0 -0.034649383152146676 -0.026879947473933508 0 -0.035075296607266458 -0.026134157759201106 0 -0.035365575059481312 -0.026577913687933215 0 -0.03559485811617883 -0.026073871707546183 0 -0.035298453189686517 -0.027533969641584773 0 -0.035365575059481312 -0.026577913687933215 0 -0.034649383152146676 -0.026879947473933508 0 -0.034252576731390254 -0.030312778246149755 0 -0.035310042568548063 -0.026482143029542687 0 -0.03318906041042094 -0.028044025785584556 0 -0.034649383152146676 -0.026879947473933508 0 -0.033895084957751197 -0.026251645640290325 0 -0.035310042568548063 -0.026482143029542687 0 -0.035673206898264122 -0.026090813609581324 0 -0.036532230050510511 -0.027496542913434768 0 -0.036623289374172821 -0.026674402472847338 0 -0.036096359221518909 -0.02700768418995763 0 -0.033895084957751197 -0.026251645640290325 0 -0.034824295839513672 -0.025122674417404327 0 -0.035021529638558029 -0.025287941796968055 0 -0.035075296607266458 -0.026134157759201106 0 -0.033895084957751197 -0.026251645640290325 0 -0.035021529638558029 -0.025287941796968055 0 -0.035021529638558029 -0.025287941796968055 0 -0.035606913745157509 -0.025496540755219399 0 -0.03501791085742182 -0.024791781932659102 0 -0.035075296607266458 -0.026134157759201106 0 -0.035021529638558029 -0.025287941796968055 0 -0.035606913745157509 -0.025496540755219399 0 -0.035116289205093278 -0.030093761343605779 0 -0.035559908597016701 -0.027472292690634711 0 -0.034450848103705821 -0.029914980410815948 0 -0.034252576731390254 -0.030312778246149755 0 -0.03566390722972701 -0.0287786264228026 0 -0.036405688222316511 -0.028158430046476963 0 -0.036532230050510511 -0.027496542913434768 0 -0.035971789969657261 -0.02756303854959568 0 -0.035971789969657261 -0.02756303854959568 0 -0.036096359221518909 -0.02700768418995763 0 -0.035559908597016701 -0.027472292690634711 0 -0.036532230050510511 -0.027496542913434768 0 -0.035971789969657261 -0.02756303854959568 0 -0.036096359221518909 -0.02700768418995763 0 -0.03566390722972701 -0.0287786264228026 0 -0.035327713629004873 -0.027509668351675117 0 -0.035559908597016701 -0.027472292690634711 0 -0.034450848103705821 -0.029914980410815948 0 -0.035010453654466825 -0.027369857812565762 0 -0.034450848103705821 -0.029914980410815948 0 -0.035010453654466825 -0.027369857812565762 0 -0.034599319865068187 -0.028966482532828443 0 -0.035010453654466825 -0.027369857812565762 0 -0.034599319865068187 -0.028966482532828443 0 -0.03496710255035141 -0.026764170322690121 0 -0.034998408983906194 -0.026586876776762157 0 -0.034599319865068187 -0.028966482532828443 0 -0.03496710255035141 -0.026764170322690121 0 -0.034998408983906194 -0.026586876776762157 0 -0.034599319865068187 -0.028966482532828443 0 -0.03499683305425879 -0.030199204994107786 0 -0.034599319865068187 -0.028966482532828443 0 -0.03499683305425879 -0.030199204994107786 0 -0.033844885395208996 -0.031771209137173087 0 -0.033636120925551245 -0.032400784911599464 0 -0.034450848103705821 -0.029914980410815948 0 -0.033844885395208996 -0.031771209137173087 0 -0.034450848103705821 -0.029914980410815948 0 -0.034599319865068187 -0.028966482532828443 0 -0.033844885395208996 -0.031771209137173087 0 -0.020737205329948157 -0.034999338081462904 0 -0.016102597269312183 -0.034999887812005304 0 -0.017154046862702402 -0.036017070181566017 0 -0.019010547411023197 -0.037826232245570558 0 -0.018426236446485632 -0.038809363324273656 0 -0.017472320191094699 -0.038100483113795602 0 -0.019010547411023197 -0.037826232245570558 0 -0.017922269760074511 -0.036807524026789468 0 -0.017472320191094699 -0.038100483113795602 0 -0.019010547411023197 -0.037826232245570558 0 -0.019901935780324977 -0.03865389007981291 0 -0.018426236446485632 -0.038809363324273656 0 -0.019010547411023197 -0.037826232245570558 0 -0.01921358623265788 -0.036536621731590835 0 -0.020937585800815655 -0.036920045674664927 0 -0.019010547411023197 -0.037826232245570558 0 -0.018167189950573114 -0.036946803600228922 0 -0.01921358623265788 -0.036536621731590835 0 -0.018915417855524693 -0.037774825107350612 0 -0.018058386268024394 -0.036897848853524109 0 -0.01921358623265788 -0.036536621731590835 0 -0.020737205329948157 -0.034999338081462904 0 -0.017154046862702402 -0.036017070181566017 0 -0.018167189950573114 -0.036946803600228922 0 -0.01921358623265788 -0.036536621731590835 0 -0.017154046862702402 -0.036017070181566017 0 -0.018058386268024394 -0.036897848853524109 0 -0.017052605976003103 -0.035944408838493126 0 -0.01921358623265788 -0.036536621731590835 0 -0.020737205329948157 -0.034999338081462904 0 -0.020937585800815655 -0.036920045674664927 0 -0.020737205329948157 -0.034999338081462904 0 -0.020937585800815655 -0.036920045674664927 0 -0.022671805438376658 -0.035958021755298053 0 -0.020937585800815655 -0.036920045674664927 0 -0.021360371177626302 -0.038594458819848063 0 -0.019901935780324977 -0.03865389007981291 0 -0.019010547411023197 -0.037826232245570558 0 -0.020937585800815655 -0.036920045674664927 0 -0.019901935780324977 -0.03865389007981291 0 -0.020937585800815655 -0.036920045674664927 0 -0.023179875196686652 -0.037468212860386131 0 -0.021360371177626302 -0.038594458819848063 0 -0.023179875196686652 -0.037468212860386131 0 -0.025371537661183011 -0.036978136228566938 0 -0.025057108650344936 -0.039311682025357841 0 -0.023179875196686652 -0.037468212860386131 0 -0.02449767346281732 -0.035960087174398865 0 -0.025371537661183011 -0.036978136228566938 0 -0.023179875196686652 -0.037468212860386131 0 -0.022671805438376658 -0.035958021755298053 0 -0.02449767346281732 -0.035960087174398865 0 -0.020937585800815655 -0.036920045674664927 0 -0.023179875196686652 -0.037468212860386131 0 -0.022671805438376658 -0.035958021755298053 0 -0.020737205329948157 -0.034999338081462904 0 -0.022671805438376658 -0.035958021755298053 0 -0.024234426220144233 -0.034998966888982234 0 -0.022671805438376658 -0.035958021755298053 0 -0.02449767346281732 -0.035960087174398865 0 -0.024234426220144233 -0.034998966888982234 0 -0.02449767346281732 -0.035960087174398865 0 -0.024234426220144233 -0.034998966888982234 0 -0.027369696039608055 -0.035417625178527701 0 -0.02449767346281732 -0.035960087174398865 0 -0.027369696039608055 -0.035417625178527701 0 -0.025371537661183011 -0.036978136228566938 0 -0.028777125706924069 -0.036465300630305945 0 -0.027369696039608055 -0.035417625178527701 0 -0.026874908229010751 -0.037434385876618431 0 -0.027369696039608055 -0.035417625178527701 0 -0.025371537661183011 -0.036978136228566938 0 -0.026874908229010751 -0.037434385876618431 0 -0.026874908229010751 -0.037434385876618431 0 -0.027021311687507828 -0.03898629495801597 0 -0.025057108650344936 -0.039311682025357841 0 -0.02844380071987597 -0.038171861429593147 0 -0.026874908229010751 -0.037434385876618431 0 -0.027021311687507828 -0.03898629495801597 0 -0.025371537661183011 -0.036978136228566938 0 -0.026874908229010751 -0.037434385876618431 0 -0.025057108650344936 -0.039311682025357841 0 -0.025057108650344936 -0.039311682025357841 0 -0.026801707018791036 -0.040038145945622688 0 -0.024186544217228163 -0.040739744809326593 0 -0.027912113159670009 -0.033303160317252951 0 -0.02570511827634531 -0.032447398641304394 0 -0.029574696293406717 -0.039470187617623928 0 -0.027021311687507828 -0.03898629495801597 0 -0.026823379164725901 -0.040330117388172673 0 -0.030241265603027548 -0.03039893233628534 0 -0.032162339243975525 -0.03055761586058478 0 -0.032526582257209523 -0.028131360094540526 0 -0.027021311687507828 -0.03898629495801597 0 -0.025057108650344936 -0.039311682025357841 0 -0.026801707018791036 -0.040038145945622688 0 -0.026837441332427141 -0.040237079407593641 0 -0.027912113159670009 -0.033303160317252951 0 -0.035298453189686517 -0.027533969641584773 0 -0.035365575059481312 -0.026577913687933215 0 -0.036125951876346075 -0.026321255200779246 0 -0.033060640660368464 -0.029265235998575695 0 -0.033015914705060739 -0.025152211085997307 0 -0.027912113159670009 -0.033303160317252951 0 -0.033015914705060739 -0.025152211085997307 0 -0.033015914705060739 -0.025152211085997307 0 -0.032269588156347805 -0.024653607006917926 0 -0.035365575059481312 -0.026577913687933215 0 -0.036125951876346075 -0.026321255200779246 0 -0.03559485811617883 -0.026073871707546183 0 -0.033015914705060739 -0.025152211085997307 0 -0.035648026145034109 -0.023356254586259888 0 -0.036125951876346075 -0.026321255200779246 0 -0.03559485811617883 -0.026073871707546183 0 -0.035606913745157509 -0.025496540755219399 0 -0.035075296607266458 -0.026134157759201106 0 -0.03559485811617883 -0.026073871707546183 0 -0.035606913745157509 -0.025496540755219399 0 -0.034470369144740345 -0.022830485862070201 0 -0.034542477574644216 -0.02276718100389992 0 -0.03465211300172763 -0.022160324553918746 0 -0.036125951876346075 -0.026321255200779246 0 -0.035606913745157509 -0.025496540755219399 0 -0.036147086652767856 -0.024839935774562463 0 -0.034542477574644216 -0.02276718100389992 0 -0.03481594100695088 -0.0224901403033591 0 -0.03465211300172763 -0.022160324553918746 0 -0.031285187925070644 -0.023801650430778729 0 -0.031338925723837389 -0.023863227133113969 0 -0.03490499993212412 -0.022381131171769205 0 -0.03481594100695088 -0.0224901403033591 0 -0.03465211300172763 -0.022160324553918746 0 -0.032269588156347805 -0.024653607006917926 0 -0.031338925723837389 -0.023863227133113969 0 -0.028099208942319018 -0.024383011436662015 0 -0.028053731716843194 -0.024717858324421572 0 -0.027374585605827579 -0.024462960622676583 0 -0.028053731716843194 -0.024717858324421572 0 -0.027996682329373804 -0.024764351061237332 0 -0.027374585605827579 -0.024462960622676583 0 -0.027996682329373804 -0.024764351061237332 0 -0.02775826844221967 -0.024986560741268489 0 -0.027374585605827579 -0.024462960622676583 0 -0.02775826844221967 -0.024986560741268489 0 -0.027374585605827579 -0.024462960622676583 0 -0.027117068731573428 -0.024956975543859939 0 -0.027652787512811861 -0.025085736908335935 0 -0.02775826844221967 -0.024986560741268489 0 -0.027117068731573428 -0.024956975543859939 0 -0.027652787512811861 -0.025085736908335935 0 -0.027117068731573428 -0.024956975543859939 0 -0.027172799190593767 -0.025610128247911378 0 -0.027117068731573428 -0.024956975543859939 0 -0.026356405599647942 -0.024530262652569957 0 -0.026290015496508695 -0.025357550210872531 0 -0.027374585605827579 -0.024462960622676583 0 -0.027117068731573428 -0.024956975543859939 0 -0.026356405599647942 -0.024530262652569957 0 -0.024186544217228163 -0.040739744809326593 0 -0.022746054191145015 -0.039520686482422795 0 -0.021980319479201663 -0.041266768931417959 0 -0.02570511827634531 -0.032447398641304394 0 -0.024178997234280054 -0.03291909071631214 0 -0.025057108650344936 -0.039311682025357841 0 -0.024186544217228163 -0.040739744809326593 0 -0.022746054191145015 -0.039520686482422795 0 -0.023179875196686652 -0.037468212860386131 0 -0.025057108650344936 -0.039311682025357841 0 -0.022746054191145015 -0.039520686482422795 0 -0.023179875196686652 -0.037468212860386131 0 -0.022746054191145015 -0.039520686482422795 0 -0.021360371177626302 -0.038594458819848063 0 -0.022746054191145015 -0.039520686482422795 0 -0.021360371177626302 -0.038594458819848063 0 -0.020769297131717164 -0.039956701181300111 0 -0.021360371177626302 -0.038594458819848063 0 -0.019901935780324977 -0.03865389007981291 0 -0.020769297131717164 -0.039956701181300111 0 -0.019901935780324977 -0.03865389007981291 0 -0.020769297131717164 -0.039956701181300111 0 -0.018959689986137538 -0.039882189807380744 0 -0.022746054191145015 -0.039520686482422795 0 -0.020769297131717164 -0.039956701181300111 0 -0.021980319479201663 -0.041266768931417959 0 -0.026356405599647942 -0.024530262652569957 0 -0.024974385189074862 -0.024694609404098629 0 -0.026290015496508695 -0.025357550210872531 0 -0.024178997234280054 -0.03291909071631214 0 -0.022458594853320298 -0.033194871140659631 0 -0.020769297131717164 -0.039956701181300111 0 -0.021980319479201663 -0.041266768931417959 0 -0.019987521791485965 -0.041700801268065392 0 -0.020769297131717164 -0.039956701181300111 0 -0.019987521791485965 -0.041700801268065392 0 -0.018959689986137538 -0.039882189807380744 0 -0.019987521791485965 -0.041700801268065392 0 -0.017814859129951902 -0.040719688724031471 0 -0.018959689986137538 -0.039882189807380744 0 -0.022458594853320298 -0.033194871140659631 0 -0.020767063627527178 -0.033613703436252043 0 -0.019987521791485965 -0.041700801268065392 0 -0.018146237818651354 -0.042098633897043033 0 -0.017814859129951902 -0.040719688724031471 0 -0.017814859129951902 -0.040719688724031471 0 -0.018959689986137538 -0.039882189807380744 0 -0.016950427808938025 -0.039473692879231574 0 -0.019901935780324977 -0.03865389007981291 0 -0.018959689986137538 -0.039882189807380744 0 -0.018426236446485632 -0.038809363324273656 0 -0.018426236446485632 -0.038809363324273656 0 -0.016950427808938025 -0.039473692879231574 0 -0.017472320191094699 -0.038100483113795602 0 -0.018959689986137538 -0.039882189807380744 0 -0.018426236446485632 -0.038809363324273656 0 -0.016950427808938025 -0.039473692879231574 0 -0.021540327786118266 -0.020831358041496984 0 -0.021817390475551288 -0.020962385097943473 0 -0.021339860091151942 -0.021140423839944095 0 -0.021817390475551288 -0.020962385097943473 0 -0.022122255402966695 -0.020721098528409969 0 -0.022322859884948382 -0.020857322578376133 0 -0.030204408413908822 -0.021517027806578853 0 -0.027669813653155167 -0.019774862548329563 0 -0.021540327786118266 -0.020831358041496984 0 -0.021817390475551288 -0.020962385097943473 0 -0.022122255402966695 -0.020721098528409969 0 -0.021817390475551288 -0.020962385097943473 0 -0.022322859884948382 -0.020857322578376133 0 -0.021724367984379857 -0.021219587443842898 0 -0.019136944502714432 -0.021436727736533372 0 -0.022500860746494832 -0.022803405830082588 0 -0.022500860746494832 -0.022803405830082588 0 -0.030204408413908822 -0.021517027806578853 0 -0.022500860746494832 -0.022803405830082588 0 -0.020642550603521648 -0.025207299599770118 0 -0.024739896635652726 -0.027509284318995478 0 -0.023695570638990002 -0.02695614579411168 0 -0.02515149622041089 -0.026846219973451668 0 -0.017935588756514985 -0.022272785853998313 0 -0.017617392787687702 -0.0229394969822505 0 -0.018469526039422122 -0.02286773908670383 0 -0.017935588756514985 -0.022272785853998313 0 -0.016985514982059184 -0.022346268186899935 0 -0.017617392787687702 -0.0229394969822505 0 -0.023695570638990002 -0.02695614579411168 0 -0.023941133667608826 -0.025915085118455514 0 -0.02253533031894768 -0.026374682239617697 0 -0.020642550603521648 -0.025207299599770118 0 -0.020191478260132033 -0.024225634694462896 0 -0.02322395584113908 -0.02504049779372311 0 -0.023941133667608826 -0.025915085118455514 0 -0.02253533031894768 -0.026374682239617697 0 -0.024974385189074862 -0.024694609404098629 0 -0.023941133667608826 -0.025915085118455514 0 -0.025078893924023262 -0.026048008670526882 0 -0.024974385189074862 -0.024694609404098629 0 -0.02322395584113908 -0.02504049779372311 0 -0.023941133667608826 -0.025915085118455514 0 -0.023695570638990002 -0.02695614579411168 0 -0.025078893924023262 -0.026048008670526882 0 -0.02515149622041089 -0.026846219973451668 0 -0.023695570638990002 -0.02695614579411168 0 -0.023941133667608826 -0.025915085118455514 0 -0.025078893924023262 -0.026048008670526882 0 -0.025078893924023262 -0.026048008670526882 0 -0.026493770989402327 -0.026389155087351467 0 -0.02515149622041089 -0.026846219973451668 0 -0.024974385189074862 -0.024694609404098629 0 -0.025078893924023262 -0.026048008670526882 0 -0.026290015496508695 -0.025357550210872531 0 -0.025078893924023262 -0.026048008670526882 0 -0.026290015496508695 -0.025357550210872531 0 -0.026493770989402327 -0.026389155087351467 0 -0.030614672547461957 -0.02436480742510581 0 -0.030923507314416652 -0.023290616470836245 0 -0.036684599486669918 -0.0217289777173875 0 -0.030923507314416652 -0.023290616470836245 0 -0.035198529213517578 -0.021754977379236873 0 -0.035251684094287847 -0.021730586424467804 0 -0.03473365992910131 -0.021941693141066167 0 -0.026493770989402327 -0.026389155087351467 0 -0.02515149622041089 -0.026846219973451668 0 -0.025537612753633407 -0.027383598649795567 0 -0.024739896635652726 -0.027509284318995478 0 -0.02515149622041089 -0.026846219973451668 0 -0.025537612753633407 -0.027383598649795567 0 -0.035667225927194741 -0.021708231828105488 0 -0.035775610131817487 -0.021592427816165244 0 -0.035506146745835188 -0.021240482173408959 0 -0.030204408413908822 -0.021517027806578853 0 -0.035589292218567138 -0.020202688805017792 0 -0.025440932884031004 -0.022351516587295069 0 -0.030313052806357505 -0.022331801419098969 0 -0.028031046291239016 -0.024417346020649384 0 -0.022500860746494832 -0.022803405830082588 0 -0.030923507314416652 -0.023290616470836245 0 -0.030923507314416652 -0.023290616470836245 0 -0.030204408413908822 -0.021517027806578853 0 -0.035251684094287847 -0.021730586424467804 0 -0.035241179855003753 -0.021331549389328193 0 -0.035506146745835188 -0.021240482173408959 0 -0.035251684094287847 -0.021730586424467804 0 -0.035667225927194741 -0.021708231828105488 0 -0.035506146745835188 -0.021240482173408959 0 -0.035251684094287847 -0.021730586424467804 0 -0.035241179855003753 -0.021331549389328193 0 -0.035168015988368807 -0.021615836854272041 0 -0.035241179855003753 -0.021331549389328193 0 -0.035168015988368807 -0.021615836854272041 0 -0.035131149081943092 -0.021412300248366715 0 -0.035168015988368807 -0.021615836854272041 0 -0.035068891563119653 -0.021799368773269066 0 -0.034880551589323176 -0.021732919937490606 0 -0.035198529213517578 -0.021754977379236873 0 -0.035251684094287847 -0.021730586424467804 0 -0.035168015988368807 -0.021615836854272041 0 -0.030614672547461957 -0.02436480742510581 0 -0.03119952702127142 -0.023750571708530926 0 -0.035198529213517578 -0.021754977379236873 0 -0.035132357874676251 -0.022003319020923999 0 -0.035068891563119653 -0.021799368773269066 0 -0.035198529213517578 -0.021754977379236873 0 -0.035168015988368807 -0.021615836854272041 0 -0.035068891563119653 -0.021799368773269066 0 -0.027117068731573428 -0.024956975543859939 0 -0.026290015496508695 -0.025357550210872531 0 -0.027172799190593767 -0.025610128247911378 0 -0.026290015496508695 -0.025357550210872531 0 -0.026493770989402327 -0.026389155087351467 0 -0.027172799190593767 -0.025610128247911378 0 -0.035132357874676251 -0.022003319020923999 0 -0.035068891563119653 -0.021799368773269066 0 -0.034933781111543612 -0.021992765392609224 0 -0.031285187925070644 -0.023801650430778729 0 -0.03119952702127142 -0.023750571708530926 0 -0.03490499993212412 -0.022381131171769205 0 -0.035132357874676251 -0.022003319020923999 0 -0.034933781111543612 -0.021992765392609224 0 -0.035068891563119653 -0.021799368773269066 0 -0.034880551589323176 -0.021732919937490606 0 -0.034933781111543612 -0.021992765392609224 0 -0.035342777942935846 -0.02236623892412962 0 -0.035648026145034109 -0.023356254586259888 0 -0.034880551589323176 -0.021732919937490606 0 -0.034933781111543612 -0.021992765392609224 0 -0.03465211300172763 -0.022160324553918746 0 -0.03490499993212412 -0.022381131171769205 0 -0.034933781111543612 -0.021992765392609224 0 -0.03465211300172763 -0.022160324553918746 0 -0.036147086652767856 -0.024839935774562463 0 -0.035534904708368752 -0.023850667305481733 0 -0.03501791085742182 -0.024791781932659102 0 -0.035606913745157509 -0.025496540755219399 0 -0.036147086652767856 -0.024839935774562463 0 -0.03501791085742182 -0.024791781932659102 0 -0.035534904708368752 -0.023850667305481733 0 -0.034917943784913703 -0.022974511669046967 0 -0.03501791085742182 -0.024791781932659102 0 -0.03594454886218338 -0.022827535680002002 0 -0.035534904708368752 -0.023850667305481733 0 -0.034917943784913703 -0.022974511669046967 0 -0.03594454886218338 -0.022827535680002002 0 -0.036147086652767856 -0.024839935774562463 0 -0.035534904708368752 -0.023850667305481733 0 -0.03594454886218338 -0.022827535680002002 0 -0.034917943784913703 -0.022974511669046967 0 -0.034984736871937018 -0.021967572135493958 0 -0.035168015988368807 -0.021615836854272041 0 -0.034880551589323176 -0.021732919937490606 0 -0.035131149081943092 -0.021412300248366715 0 -0.035342777942935846 -0.02236623892412962 0 -0.035206845148827777 -0.021516922928102953 0 -0.03594454886218338 -0.022827535680002002 0 -0.034984736871937018 -0.021967572135493958 0 -0.035131149081943092 -0.021412300248366715 0 -0.035131149081943092 -0.021412300248366715 0 -0.034354835895728277 -0.021332041981588636 0 -0.034402890646210674 -0.020769216646379245 0 -0.034984736871937018 -0.021967572135493958 0 -0.035131149081943092 -0.021412300248366715 0 -0.034354835895728277 -0.021332041981588636 0 -0.035131149081943092 -0.021412300248366715 0 -0.0346266063570193 -0.020554411844861467 0 -0.034402890646210674 -0.020769216646379245 0 -0.035131149081943092 -0.021412300248366715 0 -0.0346266063570193 -0.020554411844861467 0 -0.035077282147339975 -0.020887488678041577 0 -0.0346266063570193 -0.020554411844861467 0 -0.034436102329856673 -0.019947507361721541 0 -0.035001977786033221 -0.020032739192379866 0 -0.0346266063570193 -0.020554411844861467 0 -0.035001977786033221 -0.020032739192379866 0 -0.035077282147339975 -0.020887488678041577 0 -0.0346266063570193 -0.020554411844861467 0 -0.034402890646210674 -0.020769216646379245 0 -0.034140290994606429 -0.020337159425815973 0 -0.0346266063570193 -0.020554411844861467 0 -0.034140290994606429 -0.020337159425815973 0 -0.034204510555142113 -0.020076831406772758 0 -0.034436102329856673 -0.019947507361721541 0 -0.034204510555142113 -0.020076831406772758 0 -0.033974325723003053 -0.019696167694899139 0 -0.0346266063570193 -0.020554411844861467 0 -0.034436102329856673 -0.019947507361721541 0 -0.034204510555142113 -0.020076831406772758 0 -0.034436102329856673 -0.019947507361721541 0 -0.033974325723003053 -0.019696167694899139 0 -0.034165916600146555 -0.019544423091199203 0 -0.034436102329856673 -0.019947507361721541 0 -0.034656768227158317 -0.019730333173349424 0 -0.034165916600146555 -0.019544423091199203 0 -0.034656768227158317 -0.019730333173349424 0 -0.03460628286658373 -0.019399573596092266 0 -0.034840246949966777 -0.01949209174432796 0 -0.034656768227158317 -0.019730333173349424 0 -0.034165916600146555 -0.019544423091199203 0 -0.03460628286658373 -0.019399573596092266 0 -0.034436102329856673 -0.019947507361721541 0 -0.034656768227158317 -0.019730333173349424 0 -0.035001977786033221 -0.020032739192379866 0 -0.034656768227158317 -0.019730333173349424 0 -0.035001977786033221 -0.020032739192379866 0 -0.034871649957674118 -0.019727913041221453 0 -0.035001977786033221 -0.020032739192379866 0 -0.034871649957674118 -0.019727913041221453 0 -0.034819988343065433 -0.019768344003911902 0 -0.034871649957674118 -0.019727913041221453 0 -0.034895631977252831 -0.019630110185809329 0 -0.034819988343065433 -0.019768344003911902 0 -0.034871649957674118 -0.019727913041221453 0 -0.034895631977252831 -0.019630110185809329 0 -0.034903529546525869 -0.019486390885096894 0 -0.034656768227158317 -0.019730333173349424 0 -0.034871649957674118 -0.019727913041221453 0 -0.034840246949966777 -0.01949209174432796 0 -0.034871649957674118 -0.019727913041221453 0 -0.034840246949966777 -0.01949209174432796 0 -0.034903529546525869 -0.019486390885096894 0 -0.034895631977252831 -0.019630110185809329 0 -0.034819988343065433 -0.019768344003911902 0 -0.034603563942456977 -0.0200019258055581 0 -0.035001977786033221 -0.020032739192379866 0 -0.034819988343065433 -0.019768344003911902 0 -0.034630375597668385 -0.019649346854243445 0 -0.035001977786033221 -0.020032739192379866 0 -0.034783919262625043 -0.019426581960335917 0 -0.034630375597668385 -0.019649346854243445 0 -0.035025168017445367 -0.020042047985809944 0 -0.034949748811073086 -0.020038151592826903 0 -0.035001977786033221 -0.020032739192379866 0 -0.035424727569191607 -0.020795391376765268 0 -0.035077282147339975 -0.020887488678041577 0 -0.035241179855003753 -0.021331549389328193 0 -0.035131149081943092 -0.021412300248366715 0 -0.035077282147339975 -0.020887488678041577 0 -0.035241179855003753 -0.021331549389328193 0 -0.035424727569191607 -0.020795391376765268 0 -0.035506146745835188 -0.021240482173408959 0 -0.035241179855003753 -0.021331549389328193 0 -0.035424727569191607 -0.020795391376765268 0 -0.035077282147339975 -0.020887488678041577 0 -0.034949748811073086 -0.020038151592826903 0 -0.035589292218567138 -0.020202688805017792 0 -0.034376916202651112 -0.018981737684265202 0 -0.033995164780056 -0.01921387706990281 0 -0.034410357129953661 -0.019384614736283588 0 -0.034783919262625043 -0.019426581960335917 0 -0.034376916202651112 -0.018981737684265202 0 -0.034410357129953661 -0.019384614736283588 0 -0.033865456545376128 -0.018648581775543776 0 -0.034376916202651112 -0.018981737684265202 0 -0.033995164780056 -0.01921387706990281 0 -0.033995164780056 -0.01921387706990281 0 -0.034216564737396829 -0.019610498762886303 0 -0.033837959861875697 -0.019569767076775362 0 -0.033995164780056 -0.01921387706990281 0 -0.034410357129953661 -0.019384614736283588 0 -0.034216564737396829 -0.019610498762886303 0 -0.034783919262625043 -0.019426581960335917 0 -0.034410357129953661 -0.019384614736283588 0 -0.034630375597668385 -0.019649346854243445 0 -0.034410357129953661 -0.019384614736283588 0 -0.034630375597668385 -0.019649346854243445 0 -0.034216564737396829 -0.019610498762886303 0 -0.034517567451431697 -0.019795096900707645 0 -0.034630375597668385 -0.019649346854243445 0 -0.034216564737396829 -0.019610498762886303 0 -0.034819988343065433 -0.019768344003911902 0 -0.034517567451431697 -0.019795096900707645 0 -0.034630375597668385 -0.019649346854243445 0 -0.034819988343065433 -0.019768344003911902 0 -0.034517567451431697 -0.019795096900707645 0 -0.034603563942456977 -0.0200019258055581 0 -0.034517567451431697 -0.019795096900707645 0 -0.034225821018800326 -0.019905060664649039 0 -0.034603563942456977 -0.0200019258055581 0 -0.034225821018800326 -0.019905060664649039 0 -0.033749989544146118 -0.020217395260618432 0 -0.034603563942456977 -0.0200019258055581 0 -0.034225821018800326 -0.019905060664649039 0 -0.034216564737396829 -0.019610498762886303 0 -0.033805690694126547 -0.019837090769911886 0 -0.034517567451431697 -0.019795096900707645 0 -0.034225821018800326 -0.019905060664649039 0 -0.034216564737396829 -0.019610498762886303 0 -0.034216564737396829 -0.019610498762886303 0 -0.033837959861875697 -0.019569767076775362 0 -0.033805690694126547 -0.019837090769911886 0 -0.033837959861875697 -0.019569767076775362 0 -0.033805690694126547 -0.019837090769911886 0 -0.033345162596750341 -0.019670747692185925 0 -0.033805690694126547 -0.019837090769911886 0 -0.033458635762031792 -0.019962841358499517 0 -0.033345162596750341 -0.019670747692185925 0 -0.026349757922789104 -0.017524330790638837 0 -0.026212683411306496 -0.018010513195188628 0 -0.02619205607410699 -0.017780276728992572 0 -0.034225821018800326 -0.019905060664649039 0 -0.033805690694126547 -0.019837090769911886 0 -0.033749989544146118 -0.020217395260618432 0 -0.033805690694126547 -0.019837090769911886 0 -0.033458635762031792 -0.019962841358499517 0 -0.033749989544146118 -0.020217395260618432 0 -0.033458635762031792 -0.019962841358499517 0 -0.033749989544146118 -0.020217395260618432 0 -0.032938548563141157 -0.020130621054996169 0 -0.030851829780612162 -0.01899737597746308 0 -0.026276250600330692 -0.018368015382668523 0 -0.033458635762031792 -0.019962841358499517 0 -0.033345162596750341 -0.019670747692185925 0 -0.032938548563141157 -0.020130621054996169 0 -0.033345162596750341 -0.019670747692185925 0 -0.032741869177219676 -0.019486217691216324 0 -0.032938548563141157 -0.020130621054996169 0 -0.027669813653155167 -0.019774862548329563 0 -0.024605411565948223 -0.020624453469072119 0 -0.033345162596750341 -0.019670747692185925 0 -0.033331428522103454 -0.019067680836283206 0 -0.032741869177219676 -0.019486217691216324 0 -0.033995164780056 -0.01921387706990281 0 -0.033837959861875697 -0.019569767076775362 0 -0.033331428522103454 -0.019067680836283206 0 -0.033837959861875697 -0.019569767076775362 0 -0.033345162596750341 -0.019670747692185925 0 -0.033331428522103454 -0.019067680836283206 0 -0.033865456545376128 -0.018648581775543776 0 -0.033995164780056 -0.01921387706990281 0 -0.033331428522103454 -0.019067680836283206 0 -0.021817390475551288 -0.020962385097943473 0 -0.021724367984379857 -0.021219587443842898 0 -0.021339860091151942 -0.021140423839944095 0 -0.035616481704097952 -0.024733853211851824 0 -0.035920021038533222 -0.024838718825937172 0 -0.035718920932917689 -0.025729702286149528 0 -0.035920021038533222 -0.024838718825937172 0 -0.036095197329237771 -0.02444645402077443 0 -0.035734430903515711 -0.02435905411850596 0 -0.035616481704097952 -0.024733853211851824 0 -0.035920021038533222 -0.024838718825937172 0 -0.035774591090212221 -0.023667908822024058 0 -0.035920021038533222 -0.024838718825937172 0 -0.035433084044100456 -0.024564502364428233 0 -0.035734430903515711 -0.02435905411850596 0 -0.035871965801170941 -0.024670276412069234 0 -0.035576448636690558 -0.024259071248190739 0 -0.035616481704097952 -0.024733853211851824 0 -0.035774591090212221 -0.023667908822024058 0 -0.035379011331331166 -0.023541153263283043 0 -0.035774591090212221 -0.023667908822024058 0 -0.035379011331331166 -0.023541153263283043 0 -0.035395441491342015 -0.022544031749662741 0 -0.035379011331331166 -0.023541153263283043 0 -0.034999455258005879 -0.021841555725601286 0 -0.035395441491342015 -0.022544031749662741 0 -0.035379011331331166 -0.023541153263283043 0 -0.034999147616262119 -0.023875464209687492 0 -0.034999455258005879 -0.021841555725601286 0 -0.035379011331331166 -0.023541153263283043 0 -0.034999147616262119 -0.023875464209687492 0 -0.03517249324906755 -0.025208450298089852 0 -0.035616481704097952 -0.024733853211851824 0 -0.035379011331331166 -0.023541153263283043 0 -0.03517249324906755 -0.025208450298089852 0 -0.034998408983906194 -0.026586876776762157 0 -0.034999147616262119 -0.023875464209687492 0 -0.03517249324906755 -0.025208450298089852 0 -0.034998408983906194 -0.026586876776762157 0 -0.03517249324906755 -0.025208450298089852 0 -0.03496710255035141 -0.026764170322690121 0 -0.03517249324906755 -0.025208450298089852 0 -0.03496710255035141 -0.026764170322690121 0 -0.035277364124135499 -0.025833275309019448 0 -0.035010453654466825 -0.027369857812565762 0 -0.035277364124135499 -0.025833275309019448 0 -0.035718920932917689 -0.025729702286149528 0 -0.035010453654466825 -0.027369857812565762 0 -0.03496710255035141 -0.026764170322690121 0 -0.035277364124135499 -0.025833275309019448 0 -0.035616481704097952 -0.024733853211851824 0 -0.03517249324906755 -0.025208450298089852 0 -0.035277364124135499 -0.025833275309019448 0 -0.035616481704097952 -0.024733853211851824 0 -0.035277364124135499 -0.025833275309019448 0 -0.035718920932917689 -0.025729702286149528 0 -0.035559908597016701 -0.027472292690634711 0 -0.035010453654466825 -0.027369857812565762 0 -0.035718920932917689 -0.025729702286149528 0 -0.036096359221518909 -0.02700768418995763 0 -0.035559908597016701 -0.027472292690634711 0 -0.036062997069991075 -0.02624648593029337 0 -0.035559908597016701 -0.027472292690634711 0 -0.035718920932917689 -0.025729702286149528 0 -0.036062997069991075 -0.02624648593029337 0 -0.036096359221518909 -0.02700768418995763 0 -0.036249426415222052 -0.026183361884337671 0 -0.036062997069991075 -0.02624648593029337 0 -0.036249426415222052 -0.026183361884337671 0 -0.036062997069991075 -0.02624648593029337 0 -0.036272929487075695 -0.025833818672425912 0 -0.036062997069991075 -0.02624648593029337 0 -0.036272929487075695 -0.025833818672425912 0 -0.036083196800879819 -0.025505595443696832 0 -0.035718920932917689 -0.025729702286149528 0 -0.036062997069991075 -0.02624648593029337 0 -0.036083196800879819 -0.025505595443696832 0 -0.034824295839513672 -0.025122674417404327 0 -0.035021529638558029 -0.025287941796968055 0 -0.03501791085742182 -0.024791781932659102 0 -0.034824295839513672 -0.025122674417404327 0 -0.03501791085742182 -0.024791781932659102 0 -0.035990721375405869 -0.025552026047583748 0 -0.035673206898264122 -0.026090813609581324 0 -0.035915381176035981 -0.025673399849009234 0 -0.036623289374172821 -0.026674402472847338 0 -0.036249426415222052 -0.026183361884337671 0 -0.035990721375405869 -0.025552026047583748 0 -0.036623289374172821 -0.026674402472847338 0 -0.036096359221518909 -0.02700768418995763 0 -0.036249426415222052 -0.026183361884337671 0 -0.036249426415222052 -0.026183361884337671 0 -0.036272929487075695 -0.025833818672425912 0 -0.035990721375405869 -0.025552026047583748 0 -0.036272929487075695 -0.025833818672425912 0 -0.036169271522917948 -0.025874341548483313 0 -0.035990721375405869 -0.025552026047583748 0 -0.035040583580829364 -0.024759449428218415 0 -0.034970203574048717 -0.02430914442846863 0 -0.034917943784913703 -0.022974511669046967 0 -0.03501791085742182 -0.024791781932659102 0 -0.03372181913600561 -0.02277868833258789 0 -0.03501791085742182 -0.024791781932659102 0 -0.036169271522917948 -0.025874341548483313 0 -0.035990721375405869 -0.025552026047583748 0 -0.034917943784913703 -0.022974511669046967 0 -0.03372181913600561 -0.02277868833258789 0 -0.034217407029215031 -0.022047426568535703 0 -0.034984736871937018 -0.021967572135493958 0 -0.034217407029215031 -0.022047426568535703 0 -0.034354835895728277 -0.021332041981588636 0 -0.034917943784913703 -0.022974511669046967 0 -0.034984736871937018 -0.021967572135493958 0 -0.034217407029215031 -0.022047426568535703 0 -0.034970203574048717 -0.02430914442846863 0 -0.034872944355021425 -0.023306000467763349 0 -0.036272929487075695 -0.025833818672425912 0 -0.036169271522917948 -0.025874341548483313 0 -0.036358604143353915 -0.025137136025053363 0 -0.03372181913600561 -0.02277868833258789 0 -0.034217407029215031 -0.022047426568535703 0 -0.033432005957844117 -0.021503008218275266 0 -0.034354835895728277 -0.021332041981588636 0 -0.033432005957844117 -0.021503008218275266 0 -0.033878198639076484 -0.020660085302194032 0 -0.034217407029215031 -0.022047426568535703 0 -0.034354835895728277 -0.021332041981588636 0 -0.033432005957844117 -0.021503008218275266 0 -0.035920021038533222 -0.024838718825937172 0 -0.035718920932917689 -0.025729702286149528 0 -0.036083196800879819 -0.025505595443696832 0 -0.035920021038533222 -0.024838718825937172 0 -0.036083196800879819 -0.025505595443696832 0 -0.036358604143353915 -0.025137136025053363 0 -0.036272929487075695 -0.025833818672425912 0 -0.036083196800879819 -0.025505595443696832 0 -0.036358604143353915 -0.025137136025053363 0 -0.033432005957844117 -0.021503008218275266 0 -0.033405655319148506 -0.020664544953325988 0 -0.033878198639076484 -0.020660085302194032 0 -0.034872944355021425 -0.023306000467763349 0 -0.034756342428756255 -0.022782163013429179 0 -0.035920021038533222 -0.024838718825937172 0 -0.036358604143353915 -0.025137136025053363 0 -0.036095197329237771 -0.02444645402077443 0 -0.034756342428756255 -0.022782163013429179 0 -0.034878249519415053 -0.020665438066203121 0 -0.033405655319148506 -0.020664544953325988 0 -0.033736682906117206 -0.020112909490810651 0 -0.033878198639076484 -0.020660085302194032 0 -0.033736682906117206 -0.020112909490810651 0 -0.033894554058336107 -0.020206756740734997 0 -0.033824307027764365 -0.019985795281768786 0 -0.033405655319148506 -0.020664544953325988 0 -0.033736682906117206 -0.020112909490810651 0 -0.033716028151247149 -0.01974728237054435 0 -0.033405655319148506 -0.020664544953325988 0 -0.033716028151247149 -0.01974728237054435 0 -0.03325151323913323 -0.019945561199055131 0 -0.034402890646210674 -0.020769216646379245 0 -0.033878198639076484 -0.020660085302194032 0 -0.034140290994606429 -0.020337159425815973 0 -0.034354835895728277 -0.021332041981588636 0 -0.034402890646210674 -0.020769216646379245 0 -0.033878198639076484 -0.020660085302194032 0 -0.033894554058336107 -0.020206756740734997 0 -0.034140290994606429 -0.020337159425815973 0 -0.033940410502975596 -0.019957485049347242 0 -0.033736682906117206 -0.020112909490810651 0 -0.033878198639076484 -0.020660085302194032 0 -0.033894554058336107 -0.020206756740734997 0 -0.033878198639076484 -0.020660085302194032 0 -0.033894554058336107 -0.020206756740734997 0 -0.034140290994606429 -0.020337159425815973 0 -0.034204510555142113 -0.020076831406772758 0 -0.033940410502975596 -0.019957485049347242 0 -0.033974325723003053 -0.019696167694899139 0 -0.034140290994606429 -0.020337159425815973 0 -0.034204510555142113 -0.020076831406772758 0 -0.033940410502975596 -0.019957485049347242 0 -0.033894554058336107 -0.020206756740734997 0 -0.033940410502975596 -0.019957485049347242 0 -0.033824307027764365 -0.019985795281768786 0 -0.033940410502975596 -0.019957485049347242 0 -0.033824307027764365 -0.019985795281768786 0 -0.033833321859955717 -0.019824192997759997 0 -0.033940410502975596 -0.019957485049347242 0 -0.033884319541949481 -0.01974901038372898 0 -0.033833321859955717 -0.019824192997759997 0 -0.033884319541949481 -0.01974901038372898 0 -0.033833321859955717 -0.019824192997759997 0 -0.03386095681341187 -0.01974028884805373 0 -0.033940410502975596 -0.019957485049347242 0 -0.033884319541949481 -0.01974901038372898 0 -0.033974325723003053 -0.019696167694899139 0 -0.033884319541949481 -0.01974901038372898 0 -0.033974325723003053 -0.019696167694899139 0 -0.033824640320701968 -0.01954125610844103 0 -0.033736682906117206 -0.020112909490810651 0 -0.033716028151247149 -0.01974728237054435 0 -0.033800152463867868 -0.019822074797055635 0 -0.033800152463867868 -0.019822074797055635 0 -0.034049385542909212 -0.019892382778423076 0 -0.034231209440289172 -0.019814122530690731 0 -0.033716028151247149 -0.01974728237054435 0 -0.033800152463867868 -0.019822074797055635 0 -0.034231209440289172 -0.019814122530690731 0 -0.033736682906117206 -0.020112909490810651 0 -0.033800152463867868 -0.019822074797055635 0 -0.033824307027764365 -0.019985795281768786 0 -0.033800152463867868 -0.019822074797055635 0 -0.033824307027764365 -0.019985795281768786 0 -0.033833321859955717 -0.019824192997759997 0 -0.033800152463867868 -0.019822074797055635 0 -0.033833321859955717 -0.019824192997759997 0 -0.033911580518213788 -0.0198348388859182 0 -0.033833321859955717 -0.019824192997759997 0 -0.03386095681341187 -0.01974028884805373 0 -0.033911580518213788 -0.0198348388859182 0 -0.033800152463867868 -0.019822074797055635 0 -0.033911580518213788 -0.0198348388859182 0 -0.034049385542909212 -0.019892382778423076 0 -0.033911580518213788 -0.0198348388859182 0 -0.034049385542909212 -0.019892382778423076 0 -0.034079183798790158 -0.019943202789851192 0 -0.034049385542909212 -0.019892382778423076 0 -0.034282963476051087 -0.019990706730107589 0 -0.034079183798790158 -0.019943202789851192 0 -0.034049385542909212 -0.019892382778423076 0 -0.034282963476051087 -0.019990706730107589 0 -0.034231209440289172 -0.019814122530690731 0 -0.034282963476051087 -0.019990706730107589 0 -0.03484288625204842 -0.020108972317977494 0 -0.034231209440289172 -0.019814122530690731 0 -0.036045213955181614 -0.018777788147548699 0 -0.03581187287751815 -0.019305263304226716 0 -0.03484288625204842 -0.020108972317977494 0 -0.035042347322140177 -0.019507826895601845 0 -0.035819686114215168 -0.019336220615352423 0 -0.03484288625204842 -0.020108972317977494 0 -0.035042347322140177 -0.019507826895601845 0 -0.034231209440289172 -0.019814122530690731 0 -0.033716028151247149 -0.01974728237054435 0 -0.034231209440289172 -0.019814122530690731 0 -0.034335221327253584 -0.019262643145594022 0 -0.035042347322140177 -0.019507826895601845 0 -0.034231209440289172 -0.019814122530690731 0 -0.034335221327253584 -0.019262643145594022 0 -0.033686329761621656 -0.019946034541372042 0 -0.034878249519415053 -0.020665438066203121 0 -0.034783583799095685 -0.019284599430247285 0 -0.034878249519415053 -0.020665438066203121 0 -0.035042347322140177 -0.019507826895601845 0 -0.035152881384564245 -0.019527977659275983 0 -0.035362012272819224 -0.019554801605585773 0 -0.035042347322140177 -0.019507826895601845 0 -0.035362012272819224 -0.019554801605585773 0 -0.035613208204960334 -0.019644099128907716 0 -0.034878249519415053 -0.020665438066203121 0 -0.035337896555473376 -0.021888036054089652 0 -0.035433084044100456 -0.024564502364428233 0 -0.03535013578547385 -0.024099594273855416 0 -0.034961319722837114 -0.024253470987373852 0 -0.035433084044100456 -0.024564502364428233 0 -0.03535013578547385 -0.024099594273855416 0 -0.035734430903515711 -0.02435905411850596 0 -0.035739090670768144 -0.023929986926356436 0 -0.03535013578547385 -0.024099594273855416 0 -0.035734430903515711 -0.02435905411850596 0 -0.036095197329237771 -0.02444645402077443 0 -0.035739090670768144 -0.023929986926356436 0 -0.035734430903515711 -0.02435905411850596 0 -0.034999988880694791 -0.021838415603377192 0 -0.036358122494385435 -0.02125330570462999 0 -0.034999995493168484 -0.020410708432291834 0 -0.035444179007079205 -0.022126574399208478 0 -0.034999936646399568 -0.020409855283504509 0 -0.035000583860025726 -0.021838383155507641 0 -0.035444179007079205 -0.022126574399208478 0 -0.035337896555473376 -0.021888036054089652 0 -0.035444179007079205 -0.022126574399208478 0 -0.035576448636690558 -0.024259071248190739 0 -0.035444179007079205 -0.022126574399208478 0 -0.035362012272819224 -0.019554801605585773 0 -0.035512448131605187 -0.019923501183027457 0 -0.035613208204960334 -0.019644099128907716 0 -0.035613208204960334 -0.019644099128907716 0 -0.035000199717265076 -0.020408728344373274 0 -0.035430816337715325 -0.019527771336890987 0 -0.035512448131605187 -0.019923501183027457 0 -0.035613208204960334 -0.019644099128907716 0 -0.035000199717265076 -0.020408728344373274 0 -0.035000199717265076 -0.020408728344373274 0 -0.035430816337715325 -0.019527771336890987 0 -0.034999334831365643 -0.018356523772410024 0 -0.035430816337715325 -0.019527771336890987 0 -0.035819686114215168 -0.019336220615352423 0 -0.034999334831365643 -0.018356523772410024 0 -0.035042347322140177 -0.019507826895601845 0 -0.035613208204960334 -0.019644099128907716 0 -0.035819686114215168 -0.019336220615352423 0 -0.035613208204960334 -0.019644099128907716 0 -0.035430816337715325 -0.019527771336890987 0 -0.035819686114215168 -0.019336220615352423 0 -0.037246537883944553 -0.017539628165103308 0 -0.035819686114215168 -0.019336220615352423 0 -0.035878453208618932 -0.017571564366400578 0 -0.035819686114215168 -0.019336220615352423 0 -0.035878453208618932 -0.017571564366400578 0 -0.034999334831365643 -0.018356523772410024 0 -0.035878453208618932 -0.017571564366400578 0 -0.034999334831365643 -0.018356523772410024 0 -0.034999817143233546 -0.016300539795779043 0 -0.035878453208618932 -0.017571564366400578 0 -0.036343838612906909 -0.016107106473422138 0 -0.034999817143233546 -0.016300539795779043 0 -0.037246537883944553 -0.017539628165103308 0 -0.035878453208618932 -0.017571564366400578 0 -0.036343838612906909 -0.016107106473422138 0 -0.036343838612906909 -0.016107106473422138 0 -0.034999817143233546 -0.016300539795779043 0 -0.036311281967018091 -0.014267994934254921 0 -0.034282963476051087 -0.019990706730107589 0 -0.03484288625204842 -0.020108972317977494 0 -0.034145810328936287 -0.020028175811764134 0 -0.034282963476051087 -0.019990706730107589 0 -0.034145810328936287 -0.020028175811764134 0 -0.034079183798790158 -0.019943202789851192 0 -0.036045213955181614 -0.018777788147548699 0 -0.03595369687986856 -0.01815201872369767 0 -0.037246537883944553 -0.017539628165103308 0 -0.037184466329988369 -0.015944435483382768 0 -0.037956034602450353 -0.016035064830062888 0 -0.037246537883944553 -0.017539628165103308 0 -0.036343838612906909 -0.016107106473422138 0 -0.037184466329988369 -0.015944435483382768 0 -0.036343838612906909 -0.016107106473422138 0 -0.037184466329988369 -0.015944435483382768 0 -0.037183133764986089 -0.014767172807352992 0 -0.037184466329988369 -0.015944435483382768 0 -0.037643243606120341 -0.015313682656565041 0 -0.037183133764986089 -0.014767172807352992 0 -0.037184466329988369 -0.015944435483382768 0 -0.037643243606120341 -0.015313682656565041 0 -0.037956034602450353 -0.016035064830062888 0 -0.037643243606120341 -0.015313682656565041 0 -0.037956034602450353 -0.016035064830062888 0 -0.038155280326994084 -0.015241219854936995 0 -0.037664326230906972 -0.014670250042119477 0 -0.037439484020627245 -0.013952682043474189 0 -0.03784205946934701 -0.014242705305428153 0 -0.037643243606120341 -0.015313682656565041 0 -0.037664326230906972 -0.014670250042119477 0 -0.038155280326994084 -0.015241219854936995 0 -0.037643243606120341 -0.015313682656565041 0 -0.037664326230906972 -0.014670250042119477 0 -0.037183133764986089 -0.014767172807352992 0 -0.037664326230906972 -0.014670250042119477 0 -0.037183133764986089 -0.014767172807352992 0 -0.037439484020627245 -0.013952682043474189 0 -0.037183133764986089 -0.014767172807352992 0 -0.036311281967018091 -0.014267994934254921 0 -0.037274269508952691 -0.013393701650173225 0 -0.037183133764986089 -0.014767172807352992 0 -0.037439484020627245 -0.013952682043474189 0 -0.037274269508952691 -0.013393701650173225 0 -0.037439484020627245 -0.013952682043474189 0 -0.037274269508952691 -0.013393701650173225 0 -0.037265349994328657 -0.013271640014563007 0 -0.037439484020627245 -0.013952682043474189 0 -0.037265349994328657 -0.013271640014563007 0 -0.03784205946934701 -0.014242705305428153 0 -0.034999817143233546 -0.016300539795779043 0 -0.034999826351797395 -0.014246104753381051 0 -0.036311281967018091 -0.014267994934254921 0 -0.036343838612906909 -0.016107106473422138 0 -0.037183133764986089 -0.014767172807352992 0 -0.036311281967018091 -0.014267994934254921 0 -0.036311281967018091 -0.014267994934254921 0 -0.03642079514615687 -0.01239924554444639 0 -0.037274269508952691 -0.013393701650173225 0 -0.034999826351797395 -0.014246104753381051 0 -0.036311281967018091 -0.014267994934254921 0 -0.03499992103776408 -0.012191260991802167 0 -0.036311281967018091 -0.014267994934254921 0 -0.03499992103776408 -0.012191260991802167 0 -0.03642079514615687 -0.01239924554444639 0 -0.03499992103776408 -0.012191260991802167 0 -0.035820404680960434 -0.011219389238409729 0 -0.034999909672539367 -0.010136241728334133 0 -0.03499992103776408 -0.012191260991802167 0 -0.035820404680960434 -0.011219389238409729 0 -0.03642079514615687 -0.01239924554444639 0 -0.035820404680960434 -0.011219389238409729 0 -0.03642079514615687 -0.01239924554444639 0 -0.037371960278687187 -0.011376132813848415 0 -0.03642079514615687 -0.01239924554444639 0 -0.037274269508952691 -0.013393701650173225 0 -0.037371960278687187 -0.011376132813848415 0 -0.037287406977649637 -0.013358320560622536 0 -0.037625532288322404 -0.012687284941813197 0 -0.037274269508952691 -0.013393701650173225 0 -0.037209317614316249 -0.013827794230037554 0 -0.037595694354575229 -0.014015987332876741 0 -0.037274269508952691 -0.013393701650173225 0 -0.037209317614316249 -0.013827794230037554 0 -0.037265349994328657 -0.013271640014563007 0 -0.037209317614316249 -0.013827794230037554 0 -0.037173970291606621 -0.014466387585317349 0 -0.036283063858437506 -0.014391851868555161 0 -0.037209317614316249 -0.013827794230037554 0 -0.037595694354575229 -0.014015987332876741 0 -0.037173970291606621 -0.014466387585317349 0 -0.035443517573682089 -0.014139170690762261 0 -0.035979075459935547 -0.012261090923179323 0 -0.037625532288322404 -0.012687284941813197 0 -0.035979075459935547 -0.012261090923179323 0 -0.037595694354575229 -0.014015987332876741 0 -0.037173970291606621 -0.014466387585317349 0 -0.037637720319277611 -0.014679796661201198 0 -0.033692348147982262 -0.013391725127143522 0 -0.03368900584335232 -0.01325899984230613 0 -0.033794465284852894 -0.013313115969778312 0 -0.033692348147982262 -0.013391725127143522 0 -0.03368900584335232 -0.01325899984230613 0 -0.033609746577823001 -0.013291760959524668 0 -0.035979075459935547 -0.012261090923179323 0 -0.035822610440207639 -0.0089251004294101724 0 -0.03727128051488799 -0.0095502575600094099 0 -0.036072741217993629 -0.010006590364384107 0 -0.035838370911984496 -0.008678859087828875 0 -0.035088124110806043 -0.0093448599836999779 0 -0.034999909672539367 -0.010136241728334133 0 -0.035000023159428684 -0.0080812406279851465 0 -0.035088124110806043 -0.0093448599836999779 0 -0.034999909672539367 -0.010136241728334133 0 -0.036072741217993629 -0.010006590364384107 0 -0.035088124110806043 -0.0093448599836999779 0 -0.036072741217993629 -0.010006590364384107 0 -0.035838370911984496 -0.008678859087828875 0 -0.035250766076892918 -0.009218342188278621 0 -0.035822610440207639 -0.0089251004294101724 0 -0.035820404680960434 -0.011219389238409729 0 -0.034999909672539367 -0.010136241728334133 0 -0.036072741217993629 -0.010006590364384107 0 -0.037371960278687187 -0.011376132813848415 0 -0.03727128051488799 -0.0095502575600094099 0 -0.036072741217993629 -0.010006590364384107 0 -0.035820404680960434 -0.011219389238409729 0 -0.037371960278687187 -0.011376132813848415 0 -0.036072741217993629 -0.010006590364384107 0 -0.033872954673331797 -0.013383758192134335 0 -0.033991669321312576 -0.013510387903788786 0 -0.033860358917225858 -0.013634796083243129 0 -0.033872954673331797 -0.013383758192134335 0 -0.033860358917225858 -0.013634796083243129 0 -0.033833162594955377 -0.013329954542924195 0 -0.033855119186762338 -0.013231980334118943 0 -0.033872954673331797 -0.013383758192134335 0 -0.033833162594955377 -0.013329954542924195 0 -0.033855119186762338 -0.013231980334118943 0 -0.033872954673331797 -0.013383758192134335 0 -0.033800766465521111 -0.013236678948058007 0 -0.033872954673331797 -0.013383758192134335 0 -0.033794465284852894 -0.013313115969778312 0 -0.033800766465521111 -0.013236678948058007 0 -0.033794465284852894 -0.013313115969778312 0 -0.033753078948267054 -0.013227333974666081 0 -0.033800766465521111 -0.013236678948058007 0 -0.03368900584335232 -0.01325899984230613 0 -0.033794465284852894 -0.013313115969778312 0 -0.033753078948267054 -0.013227333974666081 0 -0.035443517573682089 -0.014139170690762261 0 -0.035004943486949644 -0.013895263394824657 0 -0.033692348147982262 -0.013391725127143522 0 -0.033794465284852894 -0.013313115969778312 0 -0.033828748411371234 -0.013536737863368698 0 -0.033872954673331797 -0.013383758192134335 0 -0.033794465284852894 -0.013313115969778312 0 -0.033991669321312576 -0.013510387903788786 0 -0.033794465284852894 -0.013313115969778312 0 -0.033991669321312576 -0.013510387903788786 0 -0.033828748411371234 -0.013536737863368698 0 -0.036283063858437506 -0.014391851868555161 0 -0.036044513583157439 -0.013612443624272792 0 -0.034337627063295122 -0.013602097527756259 0 -0.033991669321312576 -0.013510387903788786 0 -0.033828748411371234 -0.013536737863368698 0 -0.034337627063295122 -0.013602097527756259 0 -0.035004943486949644 -0.013895263394824657 0 -0.034378395241909922 -0.013620732670209326 0 -0.037209317614316249 -0.013827794230037554 0 -0.036283063858437506 -0.014391851868555161 0 -0.036044513583157439 -0.013612443624272792 0 -0.036044513583157439 -0.013612443624272792 0 -0.037265349994328657 -0.013271640014563007 0 -0.035064871505068658 -0.012843530591608861 0 -0.037209317614316249 -0.013827794230037554 0 -0.036044513583157439 -0.013612443624272792 0 -0.037265349994328657 -0.013271640014563007 0 -0.036044513583157439 -0.013612443624272792 0 -0.035064871505068658 -0.012843530591608861 0 -0.034337627063295122 -0.013602097527756259 0 -0.035064871505068658 -0.012843530591608861 0 -0.033886888586329454 -0.012991270106400731 0 -0.034337627063295122 -0.013602097527756259 0 -0.033886888586329454 -0.012991270106400731 0 -0.033860358917225858 -0.013634796083243129 0 -0.034337627063295122 -0.013602097527756259 0 -0.033991669321312576 -0.013510387903788786 0 -0.033860358917225858 -0.013634796083243129 0 -0.034337627063295122 -0.013602097527756259 0 -0.033886888586329454 -0.012991270106400731 0 -0.033860358917225858 -0.013634796083243129 0 -0.033399543430152188 -0.01359669604924691 0 -0.033860358917225858 -0.013634796083243129 0 -0.033399543430152188 -0.01359669604924691 0 -0.033833162594955377 -0.013329954542924195 0 -0.031613482304499459 -0.015085479721004142 0 -0.033399543430152188 -0.01359669604924691 0 -0.033517047886725597 -0.015618639379363126 0 -0.032548134971919426 -0.013882036160034148 0 -0.033399358820807239 -0.013638291962529296 0 -0.031613482304499459 -0.015085479721004142 0 -0.032259135324715887 -0.016409170736947001 0 -0.033517047886725597 -0.015618639379363126 0 -0.032259135324715887 -0.016409170736947001 0 -0.033517047886725597 -0.015618639379363126 0 -0.03355098323999943 -0.017505282566567013 0 -0.035064871505068658 -0.012843530591608861 0 -0.033886888586329454 -0.012991270106400731 0 -0.035155931288708121 -0.011513075014000455 0 -0.031613482304499459 -0.015085479721004142 0 -0.032259135324715887 -0.016409170736947001 0 -0.030092208178608703 -0.016535341993219078 0 -0.032548134971919426 -0.013882036160034148 0 -0.034497824365363416 -0.015510701199143932 0 -0.032259135324715887 -0.016409170736947001 0 -0.031676065948970808 -0.017827382789887752 0 -0.030092208178608703 -0.016535341993219078 0 -0.033819248268769628 -0.019712591623981538 0 -0.033953836705069705 -0.019821193924094763 0 -0.033950322663902292 -0.019777268905492335 0 -0.032496965926159888 -0.019001301292772232 0 -0.034497824365363416 -0.015510701199143932 0 -0.032259135324715887 -0.016409170736947001 0 -0.031676065948970808 -0.017827382789887752 0 -0.03355098323999943 -0.017505282566567013 0 -0.037265349994328657 -0.013271640014563007 0 -0.03784205946934701 -0.014242705305428153 0 -0.039029694277770449 -0.014199998296376975 0 -0.038070019718865714 -0.012540467664852931 0 -0.034497824365363416 -0.015510701199143932 0 -0.037265349994328657 -0.013271640014563007 0 -0.035064871505068658 -0.012843530591608861 0 -0.035155931288708121 -0.011513075014000455 0 -0.033953836705069705 -0.019821193924094763 0 -0.033950322663902292 -0.019777268905492335 0 -0.034001486326406441 -0.019806006266995663 0 -0.034497824365363416 -0.015510701199143932 0 -0.036715772576328201 -0.016832390011255083 0 -0.03784205946934701 -0.014242705305428153 0 -0.038348944638110505 -0.014891535421115069 0 -0.038155280326994084 -0.015241219854936995 0 -0.03784205946934701 -0.014242705305428153 0 -0.039029694277770449 -0.014199998296376975 0 -0.038348944638110505 -0.014891535421115069 0 -0.037664326230906972 -0.014670250042119477 0 -0.03784205946934701 -0.014242705305428153 0 -0.038155280326994084 -0.015241219854936995 0 -0.036715772576328201 -0.016832390011255083 0 -0.038418184857530575 -0.015052226125871496 0 -0.034145810328936287 -0.020028175811764134 0 -0.034001486326406441 -0.019806006266995663 0 -0.033983427283738529 -0.019822437724781008 0 -0.03595369687986856 -0.01815201872369767 0 -0.036715772576328201 -0.016832390011255083 0 -0.034145810328936287 -0.020028175811764134 0 -0.033983427283738529 -0.019822437724781008 0 -0.033995748382408875 -0.019863654666722675 0 -0.037956034602450353 -0.016035064830062888 0 -0.038334053782617075 -0.014806778462838122 0 -0.038155280326994084 -0.015241219854936995 0 -0.033983427283738529 -0.019822437724781008 0 -0.033910277001223024 -0.019738726068598122 0 -0.033995748382408875 -0.019863654666722675 0 -0.033950322663902292 -0.019777268905492335 0 -0.034001486326406441 -0.019806006266995663 0 -0.033983427283738529 -0.019822437724781008 0 -0.033950322663902292 -0.019777268905492335 0 -0.033983427283738529 -0.019822437724781008 0 -0.033911353699709879 -0.019724545039348448 0 -0.033983427283738529 -0.019822437724781008 0 -0.033911353699709879 -0.019724545039348448 0 -0.033910277001223024 -0.019738726068598122 0 -0.03386095681341187 -0.01974028884805373 0 -0.033911580518213788 -0.0198348388859182 0 -0.033910277001223024 -0.019738726068598122 0 -0.033911580518213788 -0.0198348388859182 0 -0.033910277001223024 -0.019738726068598122 0 -0.033995748382408875 -0.019863654666722675 0 -0.034145810328936287 -0.020028175811764134 0 -0.033995748382408875 -0.019863654666722675 0 -0.034079183798790158 -0.019943202789851192 0 -0.033911580518213788 -0.0198348388859182 0 -0.033995748382408875 -0.019863654666722675 0 -0.034079183798790158 -0.019943202789851192 0 -0.031676065948970808 -0.017827382789887752 0 -0.033621512389118868 -0.019168200206682671 0 -0.03355098323999943 -0.017505282566567013 0 -0.032496965926159888 -0.019001301292772232 0 -0.033622830154561953 -0.019139391793898421 0 -0.033819248268769628 -0.019712591623981538 0 -0.033824640320701968 -0.01954125610844103 0 -0.033621512389118868 -0.019168200206682671 0 -0.033819248268769628 -0.019712591623981538 0 -0.033911353699709879 -0.019724545039348448 0 -0.033824640320701968 -0.01954125610844103 0 -0.033911353699709879 -0.019724545039348448 0 -0.033910277001223024 -0.019738726068598122 0 -0.033824640320701968 -0.01954125610844103 0 -0.033819248268769628 -0.019712591623981538 0 -0.033950322663902292 -0.019777268905492335 0 -0.033911353699709879 -0.019724545039348448 0 -0.03386095681341187 -0.01974028884805373 0 -0.033910277001223024 -0.019738726068598122 0 -0.033824640320701968 -0.01954125610844103 0 -0.033884319541949481 -0.01974901038372898 0 -0.03386095681341187 -0.01974028884805373 0 -0.033824640320701968 -0.01954125610844103 0 -0.033974325723003053 -0.019696167694899139 0 -0.033824640320701968 -0.01954125610844103 0 -0.033621512389118868 -0.019168200206682671 0 -0.033974325723003053 -0.019696167694899139 0 -0.034165916600146555 -0.019544423091199203 0 -0.033621512389118868 -0.019168200206682671 0 -0.034165916600146555 -0.019544423091199203 0 -0.033621512389118868 -0.019168200206682671 0 -0.034498052665330008 -0.018864362613613479 0 -0.033621512389118868 -0.019168200206682671 0 -0.034498052665330008 -0.018864362613613479 0 -0.03355098323999943 -0.017505282566567013 0 -0.034498052665330008 -0.018864362613613479 0 -0.035103766270361846 -0.018490634131603567 0 -0.034658135605204962 -0.017441905835959809 0 -0.034498052665330008 -0.018864362613613479 0 -0.03487866781965495 -0.019244900212539093 0 -0.035103766270361846 -0.018490634131603567 0 -0.034498052665330008 -0.018864362613613479 0 -0.03460628286658373 -0.019399573596092266 0 -0.03487866781965495 -0.019244900212539093 0 -0.034165916600146555 -0.019544423091199203 0 -0.034498052665330008 -0.018864362613613479 0 -0.03460628286658373 -0.019399573596092266 0 -0.03460628286658373 -0.019399573596092266 0 -0.034840246949966777 -0.01949209174432796 0 -0.03487866781965495 -0.019244900212539093 0 -0.034840246949966777 -0.01949209174432796 0 -0.034977656752889628 -0.019383726818122272 0 -0.03487866781965495 -0.019244900212539093 0 -0.034840246949966777 -0.01949209174432796 0 -0.034903529546525869 -0.019486390885096894 0 -0.034977656752889628 -0.019383726818122272 0 -0.034895631977252831 -0.019630110185809329 0 -0.034903529546525869 -0.019486390885096894 0 -0.034900256734890896 -0.019255435104253843 0 -0.034903529546525869 -0.019486390885096894 0 -0.034900256734890896 -0.019255435104253843 0 -0.034977656752889628 -0.019383726818122272 0 -0.034977656752889628 -0.019383726818122272 0 -0.035110677362436962 -0.019428852265516747 0 -0.03487866781965495 -0.019244900212539093 0 -0.034900256734890896 -0.019255435104253843 0 -0.034977656752889628 -0.019383726818122272 0 -0.035110677362436962 -0.019428852265516747 0 -0.035110677362436962 -0.019428852265516747 0 -0.03487866781965495 -0.019244900212539093 0 -0.035103766270361846 -0.018490634131603567 0 -0.034782052217907505 -0.019252479944696147 0 -0.03237838652178484 -0.018948013466991483 0 -0.034900256734890896 -0.019255435104253843 0 -0.032845682408473374 -0.020727619218317232 0 -0.030543618838267301 -0.017925777310111222 0 -0.034895631977252831 -0.019630110185809329 0 -0.034900256734890896 -0.019255435104253843 0 -0.034603563942456977 -0.0200019258055581 0 -0.034900256734890896 -0.019255435104253843 0 -0.035110677362436962 -0.019428852265516747 0 -0.032845682408473374 -0.020727619218317232 0 -0.035110677362436962 -0.019428852265516747 0 -0.032845682408473374 -0.020727619218317232 0 -0.034445777149722002 -0.022616375113978748 0 -0.032845682408473374 -0.020727619218317232 0 -0.034445777149722002 -0.022616375113978748 0 -0.031512366501663294 -0.023506836631603412 0 -0.035110677362436962 -0.019428852265516747 0 -0.035103766270361846 -0.018490634131603567 0 -0.035782256312022545 -0.018050032749949894 0 -0.035153074476176369 -0.019164179093563251 0 -0.035176387716015438 -0.021048237361960306 0 -0.035103766270361846 -0.018490634131603567 0 -0.035395726558055375 -0.017390265007836529 0 -0.035782256312022545 -0.018050032749949894 0 -0.035103766270361846 -0.018490634131603567 0 -0.035395726558055375 -0.017390265007836529 0 -0.034658135605204962 -0.017441905835959809 0 -0.035395726558055375 -0.017390265007836529 0 -0.035782256312022545 -0.018050032749949894 0 -0.0359093029431828 -0.016834297000592014 0 -0.035176387716015438 -0.021048237361960306 0 -0.033037004551408365 -0.017578420363540667 0 -0.034445777149722002 -0.022616375113978748 0 -0.033415290030129705 -0.0252336060908365 0 -0.033891866680707573 -0.025697472911208056 0 -0.034445777149722002 -0.022616375113978748 0 -0.033415290030129705 -0.0252336060908365 0 -0.031512366501663294 -0.023506836631603412 0 -0.030492155377664913 -0.018053991056145188 0 -0.02823433450743278 -0.020283493709806057 0 -0.032107481723894271 -0.012873183103048809 0 -0.031955564426372068 -0.01295694785347434 0 -0.031951278213884535 -0.013207032578137285 0 -0.030492155377664913 -0.018053991056145188 0 -0.033037004551408365 -0.017578420363540667 0 -0.032073618553457861 -0.012832417426056428 0 -0.032107481723894271 -0.012873183103048809 0 -0.031955564426372068 -0.01295694785347434 0 -0.033037004551408365 -0.017578420363540667 0 -0.034699558301862388 -0.015238874606742576 0 -0.032073618553457861 -0.012832417426056428 0 -0.031955564426372068 -0.01295694785347434 0 -0.031772415991261301 -0.012936264448155987 0 -0.035395726558055375 -0.017390265007836529 0 -0.0359093029431828 -0.016834297000592014 0 -0.035566400174178142 -0.016531931912121576 0 -0.034699558301862388 -0.015238874606742576 0 -0.035111339198616816 -0.017520325242820212 0 -0.035395726558055375 -0.017390265007836529 0 -0.035566400174178142 -0.016531931912121576 0 -0.034658135605204962 -0.017441905835959809 0 -0.034666577751802062 -0.01549050400113567 0 -0.033517047886725597 -0.015618639379363126 0 -0.034658135605204962 -0.017441905835959809 0 -0.036447504827376548 -0.01524527881189177 0 -0.034666577751802062 -0.01549050400113567 0 -0.034658135605204962 -0.017441905835959809 0 -0.033517047886725597 -0.015618639379363126 0 -0.03355098323999943 -0.017505282566567013 0 -0.034658135605204962 -0.017441905835959809 0 -0.034498052665330008 -0.018864362613613479 0 -0.03355098323999943 -0.017505282566567013 0 -0.034658135605204962 -0.017441905835959809 0 -0.026404839542191832 -0.017640257657235519 0 -0.025919843465732281 -0.017306322424281043 0 -0.026112132067368825 -0.016607453259289754 0 -0.02409429163712663 -0.013304872170960233 0 -0.024657332611991482 -0.014345647222875636 0 -0.023403365457731876 -0.013671931485811157 0 -0.024979147131133465 -0.014698161484266017 0 -0.025417741423295774 -0.015700583992474895 0 -0.026404839542191832 -0.017640257657235519 0 -0.026212683411306496 -0.018010513195188628 0 -0.02619205607410699 -0.017780276728992572 0 -0.024979147131133465 -0.014698161484266017 0 -0.026276250600330692 -0.018368015382668523 0 -0.026349757922789104 -0.017524330790638837 0 -0.026212683411306496 -0.018010513195188628 0 -0.028213421967985097 -0.018626648932706508 0 -0.026404839542191832 -0.017640257657235519 0 -0.026212683411306496 -0.018010513195188628 0 -0.025919843465732281 -0.017306322424281043 0 -0.026212683411306496 -0.018010513195188628 0 -0.025919843465732281 -0.017306322424281043 0 -0.025312150403214682 -0.017395312202670005 0 -0.025919843465732281 -0.017306322424281043 0 -0.025312150403214682 -0.017395312202670005 0 -0.02537489695871906 -0.016626581744693295 0 -0.026349757922789104 -0.017524330790638837 0 -0.028213421967985097 -0.018626648932706508 0 -0.030543618838267301 -0.017925777310111222 0 -0.030851829780612162 -0.01899737597746308 0 -0.03237838652178484 -0.018948013466991483 0 -0.02878029523531957 -0.021020696677626068 0 -0.028213421967985097 -0.018626648932706508 0 -0.030543618838267301 -0.017925777310111222 0 -0.026212683411306496 -0.018010513195188628 0 -0.02878029523531957 -0.021020696677626068 0 -0.028213421967985097 -0.018626648932706508 0 -0.026252697143515781 -0.018144827929467547 0 -0.027051117600253034 -0.019135479696170854 0 -0.032845682408473374 -0.020727619218317232 0 -0.02878029523531957 -0.021020696677626068 0 -0.030543618838267301 -0.017925777310111222 0 -0.027051117600253034 -0.019135479696170854 0 -0.02823433450743278 -0.020283493709806057 0 -0.032845682408473374 -0.020727619218317232 0 -0.02878029523531957 -0.021020696677626068 0 -0.031512366501663294 -0.023506836631603412 0 -0.024549020353207482 -0.016408053397140094 0 -0.024850075507053433 -0.01677162208862552 0 -0.024951191879730883 -0.01641315365584858 0 -0.024850075507053433 -0.01677162208862552 0 -0.025117836562909484 -0.016428989357982583 0 -0.02537489695871906 -0.016626581744693295 0 -0.024850075507053433 -0.01677162208862552 0 -0.024951191879730883 -0.01641315365584858 0 -0.025117836562909484 -0.016428989357982583 0 -0.030492155377664913 -0.018053991056145188 0 -0.027827844793163092 -0.013886966646381007 0 -0.024549020353207482 -0.016408053397140094 0 -0.024951191879730883 -0.01641315365584858 0 -0.025278328348205897 -0.01606292003256064 0 -0.032073618553457861 -0.012832417426056428 0 -0.031243434223374351 -0.012593539710412365 0 -0.031772415991261301 -0.012936264448155987 0 -0.024951191879730883 -0.01641315365584858 0 -0.025117836562909484 -0.016428989357982583 0 -0.025278328348205897 -0.01606292003256064 0 -0.025117836562909484 -0.016428989357982583 0 -0.025292388176126696 -0.016267683701872929 0 -0.02537489695871906 -0.016626581744693295 0 -0.025117836562909484 -0.016428989357982583 0 -0.025292388176126696 -0.016267683701872929 0 -0.025278328348205897 -0.01606292003256064 0 -0.025322560061139105 -0.016074343481164075 0 -0.025292388176126696 -0.016267683701872929 0 -0.025453533035132106 -0.016238232092890853 0 -0.025322560061139105 -0.016074343481164075 0 -0.025292388176126696 -0.016267683701872929 0 -0.025278328348205897 -0.01606292003256064 0 -0.025292388176126696 -0.016267683701872929 0 -0.02537489695871906 -0.016626581744693295 0 -0.025453533035132106 -0.016238232092890853 0 -0.025312150403214682 -0.017395312202670005 0 -0.024850075507053433 -0.01677162208862552 0 -0.02537489695871906 -0.016626581744693295 0 -0.025919843465732281 -0.017306322424281043 0 -0.02537489695871906 -0.016626581744693295 0 -0.026112132067368825 -0.016607453259289754 0 -0.02537489695871906 -0.016626581744693295 0 -0.025453533035132106 -0.016238232092890853 0 -0.026112132067368825 -0.016607453259289754 0 -0.025417741423295774 -0.015700583992474895 0 -0.025266406341616088 -0.015713082588375078 0 -0.025453533035132106 -0.016238232092890853 0 -0.026112132067368825 -0.016607453259289754 0 -0.025237251161980796 -0.015781924456006513 0 -0.025322560061139105 -0.016074343481164075 0 -0.025453533035132106 -0.016238232092890853 0 -0.025237251161980796 -0.015781924456006513 0 -0.024459749395855577 -0.015125503703297384 0 -0.024657332611991482 -0.014345647222875636 0 -0.025237251161980796 -0.015781924456006513 0 -0.024459749395855577 -0.015125503703297384 0 -0.024657332611991482 -0.014345647222875636 0 -0.023631031504026151 -0.01444467641269079 0 -0.025615546092878711 -0.01598047194204744 0 -0.024757386090385004 -0.01755414748956716 0 -0.023671108994474874 -0.01597014588095811 0 -0.025615546092878711 -0.01598047194204744 0 -0.026766567692615702 -0.014042027050317853 0 -0.023671108994474874 -0.01597014588095811 0 -0.026042976329263601 -0.014996708027104186 0 -0.023791895407144509 -0.015867462363441196 0 -0.024459749395855577 -0.015125503703297384 0 -0.025150933023863377 -0.015762853017002046 0 -0.023671108994474874 -0.01597014588095811 0 -0.024459749395855577 -0.015125503703297384 0 -0.025150933023863377 -0.015762853017002046 0 -0.025237251161980796 -0.015781924456006513 0 -0.025150933023863377 -0.015762853017002046 0 -0.025237251161980796 -0.015781924456006513 0 -0.025278328348205897 -0.01606292003256064 0 -0.026042976329263601 -0.014996708027104186 0 -0.027827844793163092 -0.013886966646381007 0 -0.026766567692615702 -0.014042027050317853 0 -0.027695148221629638 -0.016155177758840962 0 -0.03141558553677478 -0.013439273782444376 0 -0.025615546092878711 -0.01598047194204744 0 -0.026766567692615702 -0.014042027050317853 0 -0.027695148221629638 -0.016155177758840962 0 -0.029922862958007237 -0.014589870273859282 0 -0.031364038228574996 -0.013489225069376413 0 -0.032136088645078269 -0.013155478537288066 0 -0.031795583786700658 -0.013241213592630202 0 -0.03141558553677478 -0.013439273782444376 0 -0.031795583786700658 -0.013241213592630202 0 -0.03141558553677478 -0.013439273782444376 0 -0.031612426180295097 -0.013299110147615976 0 -0.031795583786700658 -0.013241213592630202 0 -0.031612426180295097 -0.013299110147615976 0 -0.031650177721487663 -0.013234317009577438 0 -0.025322560061139105 -0.016074343481164075 0 -0.025237251161980796 -0.015781924456006513 0 -0.025278328348205897 -0.01606292003256064 0 -0.026766567692615702 -0.014042027050317853 0 -0.031243434223374351 -0.012593539710412365 0 -0.03141558553677478 -0.013439273782444376 0 -0.031243434223374351 -0.012593539710412365 0 -0.03141558553677478 -0.013439273782444376 0 -0.031550304815317461 -0.013058448652365377 0 -0.03141558553677478 -0.013439273782444376 0 -0.031619485092697588 -0.013253517007033096 0 -0.031612426180295097 -0.013299110147615976 0 -0.031619485092697588 -0.013253517007033096 0 -0.031744183894729813 -0.013237923645002255 0 -0.031612426180295097 -0.013299110147615976 0 -0.031243434223374351 -0.012593539710412365 0 -0.031550304815317461 -0.013058448652365377 0 -0.031772415991261301 -0.012936264448155987 0 -0.03141558553677478 -0.013439273782444376 0 -0.031619485092697588 -0.013253517007033096 0 -0.031550304815317461 -0.013058448652365377 0 -0.031619485092697588 -0.013253517007033096 0 -0.031550304815317461 -0.013058448652365377 0 -0.031772415991261301 -0.012936264448155987 0 -0.031619485092697588 -0.013253517007033096 0 -0.031772415991261301 -0.012936264448155987 0 -0.031744183894729813 -0.013237923645002255 0 -0.031772415991261301 -0.012936264448155987 0 -0.031744183894729813 -0.013237923645002255 0 -0.03186929756402565 -0.013085366700497094 0 -0.03229872432298745 -0.013021914059201908 0 -0.033433688214283788 -0.013035679633464055 0 -0.031744183894729813 -0.013237923645002255 0 -0.031650177721487663 -0.013234317009577438 0 -0.031951278213884535 -0.013207032578137285 0 -0.031744183894729813 -0.013237923645002255 0 -0.031612426180295097 -0.013299110147615976 0 -0.031650177721487663 -0.013234317009577438 0 -0.03312899572566546 -0.01285568781876863 0 -0.033155685016372151 -0.013099353557675882 0 -0.033663662683352739 -0.0130514291746563 0 -0.033155685016372151 -0.013099353557675882 0 -0.033222152230846833 -0.013255799473213386 0 -0.032633962159829361 -0.013248586792073525 0 -0.033155685016372151 -0.013099353557675882 0 -0.0323450364578673 -0.012985077871550324 0 -0.032633962159829361 -0.013248586792073525 0 -0.03312899572566546 -0.01285568781876863 0 -0.033155685016372151 -0.013099353557675882 0 -0.0323450364578673 -0.012985077871550324 0 -0.032136088645078269 -0.013155478537288066 0 -0.031795583786700658 -0.013241213592630202 0 -0.0323450364578673 -0.012985077871550324 0 -0.031795583786700658 -0.013241213592630202 0 -0.031650177721487663 -0.013234317009577438 0 -0.0323450364578673 -0.012985077871550324 0 -0.03229872432298745 -0.013021914059201908 0 -0.032347805345792367 -0.013031705907332788 0 -0.032136088645078269 -0.013155478537288066 0 -0.0323450364578673 -0.012985077871550324 0 -0.032174199274993293 -0.013009877685988569 0 -0.0323450364578673 -0.012985077871550324 0 -0.032174199274993293 -0.013009877685988569 0 -0.032174190164589715 -0.013079943472744692 0 -0.0323450364578673 -0.012985077871550324 0 -0.032174190164589715 -0.013079943472744692 0 -0.032633962159829361 -0.013248586792073525 0 -0.032174199274993293 -0.013009877685988569 0 -0.032032676651346827 -0.012911092998122514 0 -0.032174190164589715 -0.013079943472744692 0 -0.029922862958007237 -0.014589870273859282 0 -0.028466079973463756 -0.015215957172625668 0 -0.032136088645078269 -0.013155478537288066 0 -0.032174199274993293 -0.013009877685988569 0 -0.032032676651346827 -0.012911092998122514 0 -0.025615546092878711 -0.01598047194204744 0 -0.027695148221629638 -0.016155177758840962 0 -0.024757386090385004 -0.01755414748956716 0 -0.034433552550639776 -0.013631182479164405 0 -0.03404047597587035 -0.013295190650112077 0 -0.033973226317882604 -0.013339182906477693 0 -0.033399543430152188 -0.01359669604924691 0 -0.034433552550639776 -0.013631182479164405 0 -0.033973226317882604 -0.013339182906477693 0 -0.033399543430152188 -0.01359669604924691 0 -0.033517047886725597 -0.015618639379363126 0 -0.034433552550639776 -0.013631182479164405 0 -0.034666577751802062 -0.01549050400113567 0 -0.033517047886725597 -0.015618639379363126 0 -0.034433552550639776 -0.013631182479164405 0 -0.036447504827376548 -0.01524527881189177 0 -0.034666577751802062 -0.01549050400113567 0 -0.034433552550639776 -0.013631182479164405 0 -0.034045202721894152 -0.013001788784479497 0 -0.034433552550639776 -0.013631182479164405 0 -0.034085421536542634 -0.013324823185849145 0 -0.034699558301862388 -0.015238874606742576 0 -0.034550926639446748 -0.013375431504681311 0 -0.034045202721894152 -0.013001788784479497 0 -0.034085421536542634 -0.013324823185849145 0 -0.033925549406103393 -0.01323850575716533 0 -0.034085421536542634 -0.013324823185849145 0 -0.033925549406103393 -0.01323850575716533 0 -0.03404047597587035 -0.013295190650112077 0 -0.033707087748589472 -0.016396062103237886 0 -0.032695880325874151 -0.015391658716674425 0 -0.034064524356085334 -0.013895023347212078 0 -0.033037004551408365 -0.017578420363540667 0 -0.033433688214283788 -0.013035679633464055 0 -0.031955564426372068 -0.01295694785347434 0 -0.031772415991261301 -0.012936264448155987 0 -0.03186929756402565 -0.013085366700497094 0 -0.031955564426372068 -0.01295694785347434 0 -0.03186929756402565 -0.013085366700497094 0 -0.031951278213884535 -0.013207032578137285 0 -0.034699558301862388 -0.015238874606742576 0 -0.033433688214283788 -0.013035679633464055 0 -0.031744183894729813 -0.013237923645002255 0 -0.03186929756402565 -0.013085366700497094 0 -0.031951278213884535 -0.013207032578137285 0 -0.03312899572566546 -0.01285568781876863 0 -0.033764683537941209 -0.012311184304726438 0 -0.033663662683352739 -0.0130514291746563 0 -0.033433688214283788 -0.013035679633464055 0 -0.033776521822693875 -0.012941043840472618 0 -0.033925549406103393 -0.01323850575716533 0 -0.03404047597587035 -0.013295190650112077 0 -0.033663662683352739 -0.0130514291746563 0 -0.034433552550639776 -0.013631182479164405 0 -0.034085421536542634 -0.013324823185849145 0 -0.03404047597587035 -0.013295190650112077 0 -0.03404047597587035 -0.013295190650112077 0 -0.033670414774596882 -0.013150176819178157 0 -0.033904934159844267 -0.01321057815171519 0 -0.033155685016372151 -0.013099353557675882 0 -0.033663662683352739 -0.0130514291746563 0 -0.033670414774596882 -0.013150176819178157 0 -0.03404047597587035 -0.013295190650112077 0 -0.033663662683352739 -0.0130514291746563 0 -0.033670414774596882 -0.013150176819178157 0 -0.033670414774596882 -0.013150176819178157 0 -0.033703559004185098 -0.013226514639828433 0 -0.033222152230846833 -0.013255799473213386 0 -0.033155685016372151 -0.013099353557675882 0 -0.033670414774596882 -0.013150176819178157 0 -0.033222152230846833 -0.013255799473213386 0 -0.033670414774596882 -0.013150176819178157 0 -0.033904934159844267 -0.01321057815171519 0 -0.033703559004185098 -0.013226514639828433 0 -0.033904934159844267 -0.01321057815171519 0 -0.033939905232040615 -0.013112902610625195 0 -0.033703559004185098 -0.013226514639828433 0 -0.033904934159844267 -0.01321057815171519 0 -0.033973226317882604 -0.013339182906477693 0 -0.033833162594955377 -0.013329954542924195 0 -0.03404047597587035 -0.013295190650112077 0 -0.033904934159844267 -0.01321057815171519 0 -0.033973226317882604 -0.013339182906477693 0 -0.033399543430152188 -0.01359669604924691 0 -0.033973226317882604 -0.013339182906477693 0 -0.033833162594955377 -0.013329954542924195 0 -0.033904934159844267 -0.01321057815171519 0 -0.033833162594955377 -0.013329954542924195 0 -0.033939905232040615 -0.013112902610625195 0 -0.033855119186762338 -0.013231980334118943 0 -0.033833162594955377 -0.013329954542924195 0 -0.033939905232040615 -0.013112902610625195 0 -0.033855119186762338 -0.013231980334118943 0 -0.033939905232040615 -0.013112902610625195 0 -0.033948617958604266 -0.012987488817101281 0 -0.033939905232040615 -0.013112902610625195 0 -0.033803018933555543 -0.012752723225181639 0 -0.034077579225182425 -0.012762260568178644 0 -0.033939905232040615 -0.013112902610625195 0 -0.033948617958604266 -0.012987488817101281 0 -0.034077579225182425 -0.012762260568178644 0 -0.033902368155518725 -0.013117609375657547 0 -0.03370717716598523 -0.013128480821271047 0 -0.033939905232040615 -0.013112902610625195 0 -0.033703559004185098 -0.013226514639828433 0 -0.033655425719546009 -0.013490838021106741 0 -0.033703559004185098 -0.013226514639828433 0 -0.033222152230846833 -0.013255799473213386 0 -0.033265201464055684 -0.013440037724488048 0 -0.033265201464055684 -0.013440037724488048 0 -0.033100727188811088 -0.01368586977510252 0 -0.032839351797987373 -0.013473439736512518 0 -0.033265201464055684 -0.013440037724488048 0 -0.033655425719546009 -0.013490838021106741 0 -0.033100727188811088 -0.01368586977510252 0 -0.033703559004185098 -0.013226514639828433 0 -0.033265201464055684 -0.013440037724488048 0 -0.033655425719546009 -0.013490838021106741 0 -0.033803018933555543 -0.012752723225181639 0 -0.03333010172915099 -0.012736063344178259 0 -0.033645120188057015 -0.012878911343836308 0 -0.03370717716598523 -0.013128480821271047 0 -0.033217791769026575 -0.013208655431920563 0 -0.03333010172915099 -0.012736063344178259 0 -0.033645120188057015 -0.012878911343836308 0 -0.033321445524074254 -0.013103678450235872 0 -0.03333010172915099 -0.012736063344178259 0 -0.033044273220709373 -0.013041826995210021 0 -0.033321445524074254 -0.013103678450235872 0 -0.033645120188057015 -0.012878911343836308 0 -0.033832965814159344 -0.013033068085841431 0 -0.033321445524074254 -0.013103678450235872 0 -0.033645120188057015 -0.012878911343836308 0 -0.034077579225182425 -0.012762260568178644 0 -0.033832965814159344 -0.013033068085841431 0 -0.034122709878449772 -0.012243894169789762 0 -0.034077579225182425 -0.012762260568178644 0 -0.034665879026500965 -0.012192150598864386 0 -0.034081004348044723 -0.012774307790079454 0 -0.034313641822079556 -0.01253888841799607 0 -0.033803018933555543 -0.012752723225181639 0 -0.033645120188057015 -0.012878911343836308 0 -0.034077579225182425 -0.012762260568178644 0 -0.032378765847502849 -0.013444006612546612 0 -0.032067057302858887 -0.013612039820426842 0 -0.031964718415032761 -0.013278151485005657 0 -0.032174190164589715 -0.013079943472744692 0 -0.032378765847502849 -0.013444006612546612 0 -0.031964718415032761 -0.013278151485005657 0 -0.032174190164589715 -0.013079943472744692 0 -0.032378765847502849 -0.013444006612546612 0 -0.032633962159829361 -0.013248586792073525 0 -0.032378765847502849 -0.013444006612546612 0 -0.032633962159829361 -0.013248586792073525 0 -0.032839351797987373 -0.013473439736512518 0 -0.033222152230846833 -0.013255799473213386 0 -0.032633962159829361 -0.013248586792073525 0 -0.032839351797987373 -0.013473439736512518 0 -0.033222152230846833 -0.013255799473213386 0 -0.033265201464055684 -0.013440037724488048 0 -0.032839351797987373 -0.013473439736512518 0 -0.033100727188811088 -0.01368586977510252 0 -0.032839351797987373 -0.013473439736512518 0 -0.032568506136359081 -0.01366280319242748 0 -0.032378765847502849 -0.013444006612546612 0 -0.032839351797987373 -0.013473439736512518 0 -0.032568506136359081 -0.01366280319242748 0 -0.03333010172915099 -0.012736063344178259 0 -0.032848821344557029 -0.012881329143927011 0 -0.033044273220709373 -0.013041826995210021 0 -0.033217791769026575 -0.013208655431920563 0 -0.032720298603551905 -0.01326118346130563 0 -0.032378765847502849 -0.013444006612546612 0 -0.032568506136359081 -0.01366280319242748 0 -0.03229799678354469 -0.013508417830714117 0 -0.032568506136359081 -0.01366280319242748 0 -0.03229799678354469 -0.013508417830714117 0 -0.03234661961106082 -0.013266229831701575 0 -0.03229799678354469 -0.013508417830714117 0 -0.032193948956395699 -0.013306969402000669 0 -0.032067057302858887 -0.013612039820426842 0 -0.032378765847502849 -0.013444006612546612 0 -0.03229799678354469 -0.013508417830714117 0 -0.032067057302858887 -0.013612039820426842 0 -0.032208927703267665 -0.013213580769979204 0 -0.032193948956395699 -0.013306969402000669 0 -0.03218262139430926 -0.013109921366254235 0 -0.032208927703267665 -0.013213580769979204 0 -0.032193948956395699 -0.013306969402000669 0 -0.03234661961106082 -0.013266229831701575 0 -0.03229799678354469 -0.013508417830714117 0 -0.032193948956395699 -0.013306969402000669 0 -0.03234661961106082 -0.013266229831701575 0 -0.032208927703267665 -0.013213580769979204 0 -0.03234661961106082 -0.013266229831701575 0 -0.032490348784437302 -0.013268510917251144 0 -0.032701368970729186 -0.013230144081546033 0 -0.032987525970168075 -0.013274731451996404 0 -0.03275106051769016 -0.013343584951545364 0 -0.03234661961106082 -0.013266229831701575 0 -0.032490348784437302 -0.013268510917251144 0 -0.032701368970729186 -0.013230144081546033 0 -0.032490348784437302 -0.013268510917251144 0 -0.032701368970729186 -0.013230144081546033 0 -0.03275106051769016 -0.013343584951545364 0 -0.032720298603551905 -0.01326118346130563 0 -0.032400222662435051 -0.01327451033959841 0 -0.032848821344557029 -0.012881329143927011 0 -0.03234661961106082 -0.013266229831701575 0 -0.032701368970729186 -0.013230144081546033 0 -0.032701368970729186 -0.013230144081546033 0 -0.033044273220709373 -0.013041826995210021 0 -0.032987525970168075 -0.013274731451996404 0 -0.033044273220709373 -0.013041826995210021 0 -0.032987525970168075 -0.013274731451996404 0 -0.033321445524074254 -0.013103678450235872 0 -0.032848821344557029 -0.012881329143927011 0 -0.032701368970729186 -0.013230144081546033 0 -0.033044273220709373 -0.013041826995210021 0 -0.032987525970168075 -0.013274731451996404 0 -0.032950512746601657 -0.013353680110990696 0 -0.03275106051769016 -0.013343584951545364 0 -0.032987525970168075 -0.013274731451996404 0 -0.033066505433848849 -0.013382888997265452 0 -0.032950512746601657 -0.013353680110990696 0 -0.032987525970168075 -0.013274731451996404 0 -0.033066505433848849 -0.013382888997265452 0 -0.033155207782860047 -0.013298408815160553 0 -0.033066505433848849 -0.013382888997265452 0 -0.032950512746601657 -0.013353680110990696 0 -0.033008486345840769 -0.013407149737251387 0 -0.032950512746601657 -0.013353680110990696 0 -0.033008486345840769 -0.013407149737251387 0 -0.03275106051769016 -0.013343584951545364 0 -0.033066505433848849 -0.013382888997265452 0 -0.033008486345840769 -0.013407149737251387 0 -0.033070195116315475 -0.013419456550186941 0 -0.033070195116315475 -0.013419456550186941 0 -0.033081741289479494 -0.013403098671609831 0 -0.033067343507040207 -0.013417486720148024 0 -0.033008486345840769 -0.013407149737251387 0 -0.033070195116315475 -0.013419456550186941 0 -0.033081741289479494 -0.013403098671609831 0 -0.033008486345840769 -0.013407149737251387 0 -0.033081741289479494 -0.013403098671609831 0 -0.033072102220503767 -0.013385466988592377 0 -0.033072102220503767 -0.013385466988592377 0 -0.032850349872655039 -0.013438346722731869 0 -0.033076740151443199 -0.013430296570188542 0 -0.033081741289479494 -0.013403098671609831 0 -0.033149810545245052 -0.013357426593331808 0 -0.033067343507040207 -0.013417486720148024 0 -0.033081741289479494 -0.013403098671609831 0 -0.033149810545245052 -0.013357426593331808 0 -0.033072102220503767 -0.013385466988592377 0 -0.033161100581185037 -0.013326328594016995 0 -0.033149810545245052 -0.013357426593331808 0 -0.033072102220503767 -0.013385466988592377 0 -0.033161100581185037 -0.013326328594016995 0 -0.033149810545245052 -0.013357426593331808 0 -0.033285657133035405 -0.013166722071709918 0 -0.033008486345840769 -0.013407149737251387 0 -0.033072102220503767 -0.013385466988592377 0 -0.032850349872655039 -0.013438346722731869 0 -0.033049307067418376 -0.014003543681629167 0 -0.033171596276667027 -0.01167974406532424 0 -0.032850349872655039 -0.013438346722731869 0 -0.032698816534176098 -0.013604384675640244 0 -0.032917879026966371 -0.013710002448690979 0 -0.032698816534176098 -0.013604384675640244 0 -0.032631260557231277 -0.013416867023254451 0 -0.032481726032411624 -0.013498073107507278 0 -0.032850349872655039 -0.013438346722731869 0 -0.032698816534176098 -0.013604384675640244 0 -0.032631260557231277 -0.013416867023254451 0 -0.032490348784437302 -0.013268510917251144 0 -0.03275106051769016 -0.013343584951545364 0 -0.032459525344996645 -0.013382991258573887 0 -0.032631260557231277 -0.013416867023254451 0 -0.03275106051769016 -0.013343584951545364 0 -0.032459525344996645 -0.013382991258573887 0 -0.032850349872655039 -0.013438346722731869 0 -0.032631260557231277 -0.013416867023254451 0 -0.03275106051769016 -0.013343584951545364 0 -0.033008486345840769 -0.013407149737251387 0 -0.032850349872655039 -0.013438346722731869 0 -0.03275106051769016 -0.013343584951545364 0 -0.032208927703267665 -0.013213580769979204 0 -0.032459525344996645 -0.013382991258573887 0 -0.032455081660333611 -0.013499966019821825 0 -0.032208927703267665 -0.013213580769979204 0 -0.032490348784437302 -0.013268510917251144 0 -0.032459525344996645 -0.013382991258573887 0 -0.032631260557231277 -0.013416867023254451 0 -0.032459525344996645 -0.013382991258573887 0 -0.032481726032411624 -0.013498073107507278 0 -0.032481726032411624 -0.013498073107507278 0 -0.032455081660333611 -0.013499966019821825 0 -0.032463992256335159 -0.013379660098434687 0 -0.032459525344996645 -0.013382991258573887 0 -0.032481726032411624 -0.013498073107507278 0 -0.032455081660333611 -0.013499966019821825 0 -0.03185077155551292 -0.01270937812488469 0 -0.032059122406975102 -0.012749640307585427 0 -0.031900662130795072 -0.012499578575691946 0 -0.03185077155551292 -0.01270937812488469 0 -0.032059122406975102 -0.012749640307585427 0 -0.032098263896506794 -0.012960013080197362 0 -0.032151217418927687 -0.012762584638501301 0 -0.032400697077155885 -0.014075296731195126 0 -0.032208927703267665 -0.013213580769979204 0 -0.032098263896506794 -0.012960013080197362 0 -0.03218262139430926 -0.013109921366254235 0 -0.032208927703267665 -0.013213580769979204 0 -0.03185077155551292 -0.01270937812488469 0 -0.032098263896506794 -0.012960013080197362 0 -0.034681200829294545 -0.011683598213793084 0 -0.034901515903789843 -0.011307002446077305 0 -0.034483352858188841 -0.011385329939930057 0 -0.034681200829294545 -0.011683598213793084 0 -0.03505987131633815 -0.01163127044939275 0 -0.034901515903789843 -0.011307002446077305 0 -0.03443605284536258 -0.011598139476603713 0 -0.034510935284206581 -0.011556590961756505 0 -0.034353010280941142 -0.011745016356109186 0 -0.034716332684601489 -0.011193843967163997 0 -0.034260603235954361 -0.011397012827992065 0 -0.034681200829294545 -0.011683598213793084 0 -0.034353010280941142 -0.011745016356109186 0 -0.034483352858188841 -0.011385329939930057 0 -0.034681200829294545 -0.011683598213793084 0 -0.034353010280941142 -0.011745016356109186 0 -0.034665879026500965 -0.012192150598864386 0 -0.034122709878449772 -0.012243894169789762 0 -0.034353010280941142 -0.011745016356109186 0 -0.034665879026500965 -0.012192150598864386 0 -0.034681200829294545 -0.011683598213793084 0 -0.034665879026500965 -0.012192150598864386 0 -0.03505987131633815 -0.01163127044939275 0 -0.034313641822079556 -0.01253888841799607 0 -0.033884052298461802 -0.012653817714893897 0 -0.033832965814159344 -0.013033068085841431 0 -0.033321445524074254 -0.013103678450235872 0 -0.033529058188573893 -0.013289350331003525 0 -0.032987525970168075 -0.013274731451996404 0 -0.033321445524074254 -0.013103678450235872 0 -0.033155207782860047 -0.013298408815160553 0 -0.033321445524074254 -0.013103678450235872 0 -0.033283998551457299 -0.013349109024980498 0 -0.033155207782860047 -0.013298408815160553 0 -0.033283998551457299 -0.013349109024980498 0 -0.033155207782860047 -0.013298408815160553 0 -0.033179640400315506 -0.013403895969961874 0 -0.033321445524074254 -0.013103678450235872 0 -0.033283998551457299 -0.013349109024980498 0 -0.033529058188573893 -0.013289350331003525 0 -0.033884052298461802 -0.012653817714893897 0 -0.037069114349591856 -0.011839195602489494 0 -0.03505987131633815 -0.01163127044939275 0 -0.035427350344362576 -0.011045365626382963 0 -0.034901515903789843 -0.011307002446077305 0 -0.033283998551457299 -0.013349109024980498 0 -0.033529058188573893 -0.013289350331003525 0 -0.033187505752065347 -0.013472573740053562 0 -0.037069114349591856 -0.011839195602489494 0 -0.036373362326567474 -0.0095144480732651006 0 -0.033066505433848849 -0.013382888997265452 0 -0.033155207782860047 -0.013298408815160553 0 -0.033179640400315506 -0.013403895969961874 0 -0.033283998551457299 -0.013349109024980498 0 -0.033187505752065347 -0.013472573740053562 0 -0.033179640400315506 -0.013403895969961874 0 -0.033187505752065347 -0.013472573740053562 0 -0.033179640400315506 -0.013403895969961874 0 -0.033111589891106935 -0.013426781832559905 0 -0.033066505433848849 -0.013382888997265452 0 -0.033070195116315475 -0.013419456550186941 0 -0.033111589891106935 -0.013426781832559905 0 -0.033066505433848849 -0.013382888997265452 0 -0.033179640400315506 -0.013403895969961874 0 -0.033111589891106935 -0.013426781832559905 0 -0.041763576614137578 -0.011057455057868653 0 -0.041143893292606044 -0.0079417863491994707 0 -0.043779336579083464 -0.0076472203051444207 0 -0.037069114349591856 -0.011839195602489494 0 -0.038624041025521888 -0.0105945700925712 0 -0.033187505752065347 -0.013472573740053562 0 -0.033067343507040207 -0.013417486720148024 0 -0.032826571894805902 -0.01320745200626809 0 -0.033070195116315475 -0.013419456550186941 0 -0.033111589891106935 -0.013426781832559905 0 -0.033067343507040207 -0.013417486720148024 0 -0.033187505752065347 -0.013472573740053562 0 -0.033111589891106935 -0.013426781832559905 0 -0.033067343507040207 -0.013417486720148024 0 -0.033149810545245052 -0.013357426593331808 0 -0.033067343507040207 -0.013417486720148024 0 -0.032826571894805902 -0.01320745200626809 0 -0.041763576614137578 -0.011057455057868653 0 -0.039394858224636467 -0.0088650203851102765 0 -0.036533034179290727 -0.010684941893197391 0 -0.041763576614137578 -0.011057455057868653 0 -0.039394858224636467 -0.0088650203851102765 0 -0.041143893292606044 -0.0079417863491994707 0 -0.039394858224636467 -0.0088650203851102765 0 -0.036533034179290727 -0.010684941893197391 0 -0.037592123889949355 -0.0079603646326332697 0 -0.036373362326567474 -0.0095144480732651006 0 -0.038962472076513995 -0.0052851636647750482 0 -0.035427350344362576 -0.011045365626382963 0 -0.034640837218195435 -0.010984804135986395 0 -0.034901515903789843 -0.011307002446077305 0 -0.034640837218195435 -0.010984804135986395 0 -0.034901515903789843 -0.011307002446077305 0 -0.034483352858188841 -0.011385329939930057 0 -0.034596139442210141 -0.010624596407889229 0 -0.034556131983042845 -0.010501875376131748 0 -0.033845799267649898 -0.011331408559540367 0 -0.034716332684601489 -0.011193843967163997 0 -0.034596139442210141 -0.010624596407889229 0 -0.034260603235954361 -0.011397012827992065 0 -0.036373362326567474 -0.0095144480732651006 0 -0.034510935284206581 -0.011556590961756505 0 -0.035015622160527511 -0.010519958723883994 0 -0.034716332684601489 -0.011193843967163997 0 -0.034596139442210141 -0.010624596407889229 0 -0.038370002209088726 -0.005705908397622206 0 -0.038361782751108083 -0.0042541230998250391 0 -0.037869497461465035 -0.0063639415806927601 0 -0.037414311209083222 -0.0063282933292237173 0 -0.038142382145283947 -0.0056588041681830828 0 -0.038361782751108083 -0.0042541230998250391 0 -0.038962472076513995 -0.0052851636647750482 0 -0.036373362326567474 -0.0095144480732651006 0 -0.038361782751108083 -0.0042541230998250391 0 -0.035015622160527511 -0.010519958723883994 0 -0.034596139442210141 -0.010624596407889229 0 -0.034551425702887696 -0.01048526936139722 0 -0.038361782751108083 -0.0042541230998250391 0 -0.039460714428633512 -0.00036482390624468272 0 -0.040133218306259787 0.00012250004854136022 0 -0.039001737310171175 0.00027745458581870713 0 -0.039605445011778401 0.00079760904521530265 0 -0.039001737310171175 0.00027745458581870713 0 -0.039605445011778401 0.00079760904521530265 0 -0.038504059974327591 0.00093121899126051783 0 -0.039219889161946443 -0.0017945858709040479 0 -0.039401748397765897 -0.0024293367032635618 0 -0.038815381401064379 -0.0022164664203248715 0 -0.038361782751108083 -0.0042541230998250391 0 -0.036341198516326612 -0.0072642760705212894 0 -0.039943696123411275 -0.0019060164933829321 0 -0.039219889161946443 -0.0017945858709040479 0 -0.039401748397765897 -0.0024293367032635618 0 -0.034596139442210141 -0.010624596407889229 0 -0.033845799267649898 -0.011331408559540367 0 -0.034260603235954361 -0.011397012827992065 0 -0.034353010280941142 -0.011745016356109186 0 -0.034260603235954361 -0.011397012827992065 0 -0.033905917758205104 -0.011881107469889027 0 -0.033845799267649898 -0.011331408559540367 0 -0.034260603235954361 -0.011397012827992065 0 -0.033905917758205104 -0.011881107469889027 0 -0.036341198516326612 -0.0072642760705212894 0 -0.036233888993958456 -0.0074223707791750675 0 -0.033845799267649898 -0.011331408559540367 0 -0.033905917758205104 -0.011881107469889027 0 -0.033501375073716644 -0.011919295885236009 0 -0.039401748397765897 -0.0024293367032635618 0 -0.038831677120253545 -0.0030910612744862449 0 -0.038815381401064379 -0.0022164664203248715 0 -0.033905917758205104 -0.011881107469889027 0 -0.033501375073716644 -0.011919295885236009 0 -0.033751275299222221 -0.012528099306295948 0 -0.034122709878449772 -0.012243894169789762 0 -0.034353010280941142 -0.011745016356109186 0 -0.033905917758205104 -0.011881107469889027 0 -0.038831677120253545 -0.0030910612744862449 0 -0.037667270575974562 -0.0028857718821398448 0 -0.038150909636056503 -0.003872371043066336 0 -0.038831677120253545 -0.0030910612744862449 0 -0.03815472741958293 -0.0022083849071211515 0 -0.037667270575974562 -0.0028857718821398448 0 -0.036233888993958456 -0.0074223707791750675 0 -0.035699617778437338 -0.0081073883305810106 0 -0.038831677120253545 -0.0030910612744862449 0 -0.03815472741958293 -0.0022083849071211515 0 -0.038815381401064379 -0.0022164664203248715 0 -0.03815472741958293 -0.0022083849071211515 0 -0.038391759297315919 -0.0015971432683728026 0 -0.037460617295405334 -0.0013526466103505449 0 -0.03815472741958293 -0.0022083849071211515 0 -0.038815381401064379 -0.0022164664203248715 0 -0.038391759297315919 -0.0015971432683728026 0 -0.039219889161946443 -0.0017945858709040479 0 -0.038815381401064379 -0.0022164664203248715 0 -0.038391759297315919 -0.0015971432683728026 0 -0.039460714428633512 -0.00036482390624468272 0 -0.038124826576513782 -0.00061888464964373355 0 -0.03801519109010712 0.00045562285601179919 0 -0.038504059974327591 0.00093121899126051783 0 -0.037736524073709241 0.00097733881011290635 0 -0.039001737310171175 0.00027745458581870713 0 -0.03801519109010712 0.00045562285601179919 0 -0.038504059974327591 0.00093121899126051783 0 -0.038124826576513782 -0.00061888464964373355 0 -0.037361864793568296 -0.00044795715494269552 0 -0.03801519109010712 0.00045562285601179919 0 -0.037262350725793439 0.00046428032170045433 0 -0.037736524073709241 0.00097733881011290635 0 -0.037460617295405334 -0.0013526466103505449 0 -0.037127734635817124 -0.0020718081531520957 0 -0.036484460578735375 -0.0010063642572448121 0 -0.037262350725793439 0.00046428032170045433 0 -0.036413251250520653 0.00015143794275384112 0 -0.036901431211180911 0.0010014780906883371 0 -0.037361864793568296 -0.00044795715494269552 0 -0.036374328250717507 -0.00042427112276311016 0 -0.037127734635817124 -0.0020718081531520957 0 -0.036484460578735375 -0.0010063642572448121 0 -0.03645659200180696 -0.0018757867006890558 0 -0.03815472741958293 -0.0022083849071211515 0 -0.037460617295405334 -0.0013526466103505449 0 -0.037127734635817124 -0.0020718081531520957 0 -0.035000044635644545 -0.0003989774495653054 0 -0.036413251250520653 0.00015143794275384112 0 -0.036090259934396761 0.0010009452536225796 0 -0.035000104630888554 -0.00040000247660514771 0 -0.036374328250717507 -0.00042427112276311016 0 -0.035000012763082358 -0.00040065512253009331 0 -0.036484460578735375 -0.0010063642572448121 0 -0.035799240586165688 -0.0015171710631651939 0 -0.03645659200180696 -0.0018757867006890558 0 -0.035799240586165688 -0.0015171710631651939 0 -0.03593077949399702 -0.002793350884721059 0 -0.036484460578735375 -0.0010063642572448121 0 -0.03645659200180696 -0.0018757867006890558 0 -0.035799240586165688 -0.0015171710631651939 0 -0.035799240586165688 -0.0015171710631651939 0 -0.034999904205110066 -0.0021134039238614412 0 -0.03593077949399702 -0.002793350884721059 0 -0.035000012763082358 -0.00040065512253009331 0 -0.035799240586165688 -0.0015171710631651939 0 -0.034999904205110066 -0.0021134039238614412 0 -0.034999904205110066 -0.0021134039238614412 0 -0.03593077949399702 -0.002793350884721059 0 -0.034999941081320839 -0.0038267674069752634 0 -0.036474054849527253 -0.0019168150583171401 0 -0.036577507549102807 -0.0035047191876450817 0 -0.03645659200180696 -0.0018757867006890558 0 -0.03593077949399702 -0.002793350884721059 0 -0.036839275815237521 -0.0036069354535856551 0 -0.03593077949399702 -0.002793350884721059 0 -0.036839275815237521 -0.0036069354535856551 0 -0.035982867671132207 -0.0046647689018940496 0 -0.03593077949399702 -0.002793350884721059 0 -0.034999941081320839 -0.0038267674069752634 0 -0.035982867671132207 -0.0046647689018940496 0 -0.03815472741958293 -0.0022083849071211515 0 -0.037127734635817124 -0.0020718081531520957 0 -0.037667270575974562 -0.0028857718821398448 0 -0.037127734635817124 -0.0020718081531520957 0 -0.036361224222843137 -0.0031120338970614088 0 -0.037667270575974562 -0.0028857718821398448 0 -0.037127734635817124 -0.0020718081531520957 0 -0.03645659200180696 -0.0018757867006890558 0 -0.036361224222843137 -0.0031120338970614088 0 -0.036361224222843137 -0.0031120338970614088 0 -0.037667270575974562 -0.0028857718821398448 0 -0.037182477712749296 -0.0037889276593303881 0 -0.037667270575974562 -0.0028857718821398448 0 -0.037182477712749296 -0.0037889276593303881 0 -0.038150909636056503 -0.003872371043066336 0 -0.037182477712749296 -0.0037889276593303881 0 -0.037342607885733188 -0.0047880037348529414 0 -0.038150909636056503 -0.003872371043066336 0 -0.037182477712749296 -0.0037889276593303881 0 -0.037342607885733188 -0.0047880037348529414 0 -0.036317383279436954 -0.004371935123474717 0 -0.036361224222843137 -0.0031120338970614088 0 -0.037182477712749296 -0.0037889276593303881 0 -0.036317383279436954 -0.004371935123474717 0 -0.037342607885733188 -0.0047880037348529414 0 -0.036317383279436954 -0.004371935123474717 0 -0.036361375842649028 -0.0057609972821947289 0 -0.035127171458287323 -0.0086749955782354417 0 -0.035699617778437338 -0.0081073883305810106 0 -0.034999941081320839 -0.0038267674069752634 0 -0.035982867671132207 -0.0046647689018940496 0 -0.034999966264201418 -0.0055401994394274007 0 -0.035982867671132207 -0.0046647689018940496 0 -0.03575294776446504 -0.006151957764054577 0 -0.034999966264201418 -0.0055401994394274007 0 -0.036577507549102807 -0.0035047191876450817 0 -0.036839236361611211 -0.0043183887505852097 0 -0.035982867671132207 -0.0046647689018940496 0 -0.037035688830106203 -0.0055021779504060174 0 -0.03575294776446504 -0.006151957764054577 0 -0.036839275815237521 -0.0036069354535856551 0 -0.035982867671132207 -0.0046647689018940496 0 -0.037035688830106203 -0.0055021779504060174 0 -0.037035688830106203 -0.0055021779504060174 0 -0.03575294776446504 -0.006151957764054577 0 -0.036076644033248409 -0.0073088002511547106 0 -0.036839236361611211 -0.0043183887505852097 0 -0.035291925759718797 -0.0094291407492568327 0 -0.03575294776446504 -0.006151957764054577 0 -0.034999966264201418 -0.0055401994394274007 0 -0.034999975783258641 -0.0072535604686069623 0 -0.035000126196595066 -0.0072536367851049879 0 -0.036305821467864728 -0.0074146051062354305 0 -0.034999949895341609 -0.0072537954281358761 0 -0.036036022122443542 -0.00737001288193907 0 -0.035000025372294317 -0.008081067338663192 0 -0.03575294776446504 -0.006151957764054577 0 -0.034999975783258641 -0.0072535604686069623 0 -0.036076644033248409 -0.0073088002511547106 0 -0.037035688830106203 -0.0055021779504060174 0 -0.036076644033248409 -0.0073088002511547106 0 -0.037167018948993651 -0.0073800860233568357 0 -0.036305821467864728 -0.0074146051062354305 0 -0.035291925759718797 -0.0094291407492568327 0 -0.036072933794936438 -0.010898480550459088 0 -0.035132273230987096 -0.010332025917905907 0 -0.035973789319417165 -0.0095591894894402236 0 -0.035822610440207639 -0.0089251004294101724 0 -0.035291925759718797 -0.0094291407492568327 0 -0.036036022122443542 -0.00737001288193907 0 -0.035831192386759289 -0.0085634670492082433 0 -0.037039539233860226 -0.0074458932496277892 0 -0.036036022122443542 -0.00737001288193907 0 -0.035831192386759289 -0.0085634670492082433 0 -0.035000025372294317 -0.008081067338663192 0 -0.035088124110806043 -0.0093448599836999779 0 -0.03589322971042809 -0.0086095288053074891 0 -0.035000023159428684 -0.0080812406279851465 0 -0.035822610440207639 -0.0089251004294101724 0 -0.035000183632616907 -0.0080813961225802405 0 -0.033108278411032442 -0.012587229053170206 0 -0.033147732309438453 -0.012765508158103397 0 -0.033264597236641102 -0.01266570085130171 0 -0.033027387516000095 -0.013327146411390276 0 -0.035291925759718797 -0.0094291407492568327 0 -0.033108278411032442 -0.012587229053170206 0 -0.033147732309438453 -0.012765508158103397 0 -0.033032257119641383 -0.012689398119055124 0 -0.035127171458287323 -0.0086749955782354417 0 -0.035291925759718797 -0.0094291407492568327 0 -0.035979075459935547 -0.012261090923179323 0 -0.035291925759718797 -0.0094291407492568327 0 -0.03368900584335232 -0.01325899984230613 0 -0.033609746577823001 -0.013291760959524668 0 -0.033609284008538971 -0.013125263983706668 0 -0.03368900584335232 -0.01325899984230613 0 -0.033709176030380185 -0.013164913479498693 0 -0.033753078948267054 -0.013227333974666081 0 -0.03368900584335232 -0.01325899984230613 0 -0.033709176030380185 -0.013164913479498693 0 -0.033609284008538971 -0.013125263983706668 0 -0.033709176030380185 -0.013164913479498693 0 -0.033753078948267054 -0.013227333974666081 0 -0.033779252803542645 -0.013185058682595095 0 -0.033027387516000095 -0.013327146411390276 0 -0.033693745427634487 -0.013009568454268971 0 -0.033147732309438453 -0.012765508158103397 0 -0.033403815630796231 -0.012916924789442777 0 -0.033264597236641102 -0.01266570085130171 0 -0.033403815630796231 -0.012916924789442777 0 -0.033264597236641102 -0.01266570085130171 0 -0.033487190325644317 -0.012696131332715199 0 -0.033403815630796231 -0.012916924789442777 0 -0.03378587321261655 -0.013074902161042228 0 -0.033487190325644317 -0.012696131332715199 0 -0.033779252803542645 -0.013185058682595095 0 -0.033800766465521111 -0.013236678948058007 0 -0.03378587321261655 -0.013074902161042228 0 -0.033753078948267054 -0.013227333974666081 0 -0.033779252803542645 -0.013185058682595095 0 -0.033800766465521111 -0.013236678948058007 0 -0.033855119186762338 -0.013231980334118943 0 -0.033800766465521111 -0.013236678948058007 0 -0.03378587321261655 -0.013074902161042228 0 -0.033948617958604266 -0.012987488817101281 0 -0.03378587321261655 -0.013074902161042228 0 -0.033751275299222221 -0.012528099306295948 0 -0.033693745427634487 -0.013009568454268971 0 -0.033750401928113516 -0.013080453438716435 0 -0.033855119186762338 -0.013231980334118943 0 -0.033948617958604266 -0.012987488817101281 0 -0.03378587321261655 -0.013074902161042228 0 -0.03378587321261655 -0.013074902161042228 0 -0.033751275299222221 -0.012528099306295948 0 -0.033487190325644317 -0.012696131332715199 0 -0.033948617958604266 -0.012987488817101281 0 -0.034077579225182425 -0.012762260568178644 0 -0.033751275299222221 -0.012528099306295948 0 -0.034122709878449772 -0.012243894169789762 0 -0.033905917758205104 -0.011881107469889027 0 -0.033751275299222221 -0.012528099306295948 0 -0.034122709878449772 -0.012243894169789762 0 -0.034077579225182425 -0.012762260568178644 0 -0.033751275299222221 -0.012528099306295948 0 -0.033751275299222221 -0.012528099306295948 0 -0.033247504541847446 -0.012312571368537631 0 -0.033487190325644317 -0.012696131332715199 0 -0.033501375073716644 -0.011919295885236009 0 -0.033751275299222221 -0.012528099306295948 0 -0.033247504541847446 -0.012312571368537631 0 -0.033247504541847446 -0.012312571368537631 0 -0.033264597236641102 -0.01266570085130171 0 -0.033487190325644317 -0.012696131332715199 0 -0.033108278411032442 -0.012587229053170206 0 -0.033247504541847446 -0.012312571368537631 0 -0.033264597236641102 -0.01266570085130171 0 -0.0067410864231040963 -0.003678391157288729 0 -0.0065823786944146081 -0.0038931011871528422 0 -0.0066666131116852887 -0.0039292511396368983 0 -0.0064892072572544377 -0.0034117397964645696 0 -0.0064680372870927405 -0.0036478201875368276 0 -0.0063084618114626883 -0.0032498422983772797 0 -0.0062598997660774551 -0.0031607012668051909 0 -0.0062591783407694454 -0.0033901258356097996 0 -0.0063084618114626883 -0.0032498422983772797 0 -0.0062591783407694454 -0.0033901258356097996 0 -0.0063795828096596839 -0.0034372669317808756 0 -0.0063084618114626883 -0.0032498422983772797 0 -0.0063302577719053779 -0.003157894044605826 0 -0.0063944064394296637 -0.0032557377590978591 0 -0.0063302577719053779 -0.003157894044605826 0 -0.0062598997660774551 -0.0031607012668051909 0 -0.0063075671354091041 -0.0030188093804730497 0 -0.0063084618114626883 -0.0032498422983772797 0 -0.0063302577719053779 -0.003157894044605826 0 -0.0062598997660774551 -0.0031607012668051909 0 -0.0067410864231040963 -0.003678391157288729 0 -0.0064092527621849122 -0.0034656985628057613 0 -0.0063178861702169369 -0.0029669546012043098 0 -0.0067410864231040963 -0.003678391157288729 0 -0.0064092527621849122 -0.0034656985628057613 0 -0.0065823786944146081 -0.0038931011871528422 0 -0.0064092527621849122 -0.0034656985628057613 0 -0.0062415269945118486 -0.0035414763509099174 0 -0.0065823786944146081 -0.0038931011871528422 0 -0.0064092527621849122 -0.0034656985628057613 0 -0.0062415269945118486 -0.0035414763509099174 0 -0.0061690792048252393 -0.0031915522714487622 0 -0.0062415269945118486 -0.0035414763509099174 0 -0.0065823786944146081 -0.0038931011871528422 0 -0.006155133286409111 -0.0038938933340846847 0 -0.0065823786944146081 -0.0038931011871528422 0 -0.0064624790254350674 -0.0041992379706262449 0 -0.006155133286409111 -0.0038938933340846847 0 -0.0068776995151266168 -0.004336185014717611 0 -0.0065095175766220741 -0.0041963487258174607 0 -0.0065823786944146081 -0.0038931011871528422 0 -0.0066721622212503242 -0.0039587198236555928 0 -0.0064624790254350674 -0.0041992379706262449 0 -0.007287711316650093 -0.0047515284478034259 0 -0.0064624790254350674 -0.0041992379706262449 0 -0.0065717127959711331 -0.0050050825702864518 0 -0.0064624790254350674 -0.0041992379706262449 0 -0.0065717127959711331 -0.0050050825702864518 0 -0.0060503006569639761 -0.0044678385544528847 0 -0.0065717127959711331 -0.0050050825702864518 0 -0.0060110064409166402 -0.0054405823715956963 0 -0.0064990813681240637 -0.0057521994877917076 0 -0.007287711316650093 -0.0047515284478034259 0 -0.0075387928094348402 -0.0053200873384816024 0 -0.0071701698074704955 -0.005505642369818143 0 -0.007287711316650093 -0.0047515284478034259 0 -0.0065717127959711331 -0.0050050825702864518 0 -0.0071701698074704955 -0.005505642369818143 0 -0.0068776995151266168 -0.004336185014717611 0 -0.0075654168487818228 -0.0043691289523849815 0 -0.007287711316650093 -0.0047515284478034259 0 -0.0075387928094348402 -0.0053200873384816024 0 -0.0079132806864562772 -0.0051887204330612205 0 -0.0065823786944146081 -0.0038931011871528422 0 -0.0066721622212503242 -0.0039587198236555928 0 -0.0066666131116852887 -0.0039292511396368983 0 -0.0066721622212503242 -0.0039587198236555928 0 -0.0066666131116852887 -0.0039292511396368983 0 -0.0065403298257468911 -0.0036820245133173568 0 -0.0064680372870927405 -0.0036478201875368276 0 -0.0064129724857199255 -0.0036523067530206126 0 -0.0066666131116852887 -0.0039292511396368983 0 -0.0065403298257468911 -0.0036820245133173568 0 -0.0064076130997570025 -0.003653165206938497 0 -0.0062591783407694454 -0.0033901258356097996 0 -0.0064076130997570025 -0.003653165206938497 0 -0.0063795828096596839 -0.0034372669317808756 0 -0.0065403298257468911 -0.0036820245133173568 0 -0.0064076130997570025 -0.003653165206938497 0 -0.006363155875292425 -0.0036040987259210191 0 -0.0075654168487818228 -0.0043691289523849815 0 -0.0052923855951456942 -0.005905365648931649 0 -0.0064076130997570025 -0.003653165206938497 0 -0.006389022819425689 -0.0036120409104927068 0 -0.006363155875292425 -0.0036040987259210191 0 -0.0064076130997570025 -0.003653165206938497 0 -0.0064135365741918079 -0.0035613022920895458 0 -0.006389022819425689 -0.0036120409104927068 0 -0.0064135365741918079 -0.0035613022920895458 0 -0.006389022819425689 -0.0036120409104927068 0 -0.0063821165724852191 -0.0036280444863277714 0 -0.006389022819425689 -0.0036120409104927068 0 -0.006363155875292425 -0.0036040987259210191 0 -0.0063821165724852191 -0.0036280444863277714 0 -0.0026340092362300937 -0.0040658892759956947 0 -0.0029059123997176727 -0.005652421096400807 0 0.0011120474766220195 -0.0049004574831769277 0 0.00087007478210121764 -0.005638303246779261 0 0.0016055887198731745 -0.0058545429927579764 0 -0.0064135365741918079 -0.0035613022920895458 0 -0.0064641133778384693 -0.0035030111304792497 0 -0.0063821165724852191 -0.0036280444863277714 0 0.0011120474766220195 -0.0049004574831769277 0 0.0016055887198731745 -0.0058545429927579764 0 0.0017164947079648413 -0.0058964014904184757 0 -0.0064135365741918079 -0.0035613022920895458 0 -0.0064641133778384693 -0.0035030111304792497 0 -0.0064250182721351705 -0.0033948626135630773 0 -0.0064076130997570025 -0.003653165206938497 0 -0.0064135365741918079 -0.0035613022920895458 0 -0.0063795828096596839 -0.0034372669317808756 0 -0.0064135365741918079 -0.0035613022920895458 0 -0.0063795828096596839 -0.0034372669317808756 0 -0.0064250182721351705 -0.0033948626135630773 0 -0.00010540684700360933 -0.0053564965637208006 0 -0.00010548388327219184 -0.0060376146394964776 0 -0.0003661780674050834 -0.005933818545088951 0 -0.00010540684700360933 -0.0053564965637208006 0 0.00039986027599032503 -0.0053988949936071172 0 -0.00010548388327219184 -0.0060376146394964776 0 -0.00010540684700360933 -0.0053564965637208006 0 0.00039986027599032503 -0.0053988949936071172 0 0.00018280641529382546 -0.0048772695336653992 0 0.0011120474766220195 -0.0049004574831769277 0 0.00039986027599032503 -0.0053988949936071172 0 0.00087007478210121764 -0.005638303246779261 0 0.00039986027599032503 -0.0053988949936071172 0 0.00087007478210121764 -0.005638303246779261 0 0.00034037304920117584 -0.0061408104515530727 0 0.0011120474766220195 -0.0049004574831769277 0 0.00039986027599032503 -0.0053988949936071172 0 0.00051438330622669308 -0.0047385562882798675 0 -0.0026340092362300937 -0.0040658892759956947 0 -0.0029174856236951711 -0.0037687805421623426 0 0.0011120474766220195 -0.0049004574831769277 0 0.00051438330622669308 -0.0047385562882798675 0 0.00063015651745116654 -0.00416038220427533 0 0.00039986027599032503 -0.0053988949936071172 0 0.00051438330622669308 -0.0047385562882798675 0 0.00018280641529382546 -0.0048772695336653992 0 0.00051438330622669308 -0.0047385562882798675 0 0.00025243400062282336 -0.0044198070034064145 0 0.00018280641529382546 -0.0048772695336653992 0 0.00025243400062282336 -0.0044198070034064145 0 0.00018280641529382546 -0.0048772695336653992 0 -0.00011237338320924586 -0.0043925764456732054 0 0.00051438330622669308 -0.0047385562882798675 0 0.00025243400062282336 -0.0044198070034064145 0 0.00063015651745116654 -0.00416038220427533 0 0.00025243400062282336 -0.0044198070034064145 0 0.00063015651745116654 -0.00416038220427533 0 0.00015307571205199161 -0.0040885172646809038 0 -0.0064804672226266794 -0.0033280478618954862 0 -0.0064309508491815076 -0.0032056489433972715 0 -0.0064679252178122017 -0.0032253443015418082 0 0.00063015651745116654 -0.00416038220427533 0 0.00050933704609284634 -0.0037078648233910194 0 0.00015307571205199161 -0.0040885172646809038 0 -0.0029174856236951711 -0.0037687805421623426 0 -0.0029649818348569256 -0.0034685054412666111 0 -0.0064804672226266794 -0.0033280478618954862 0 -0.0063944064394296637 -0.0032557377590978591 0 -0.0064309508491815076 -0.0032056489433972715 0 -0.0064804672226266794 -0.0033280478618954862 0 -0.0064250182721351705 -0.0033948626135630773 0 -0.0063944064394296637 -0.0032557377590978591 0 -0.0063084618114626883 -0.0032498422983772797 0 -0.0063795828096596839 -0.0034372669317808756 0 -0.0063944064394296637 -0.0032557377590978591 0 -0.0063795828096596839 -0.0034372669317808756 0 -0.0064250182721351705 -0.0033948626135630773 0 -0.0063944064394296637 -0.0032557377590978591 0 -0.0064641133778384693 -0.0035030111304792497 0 -0.0064804672226266794 -0.0033280478618954862 0 -0.0064250182721351705 -0.0033948626135630773 0 -0.0063302577719053779 -0.003157894044605826 0 -0.0063944064394296637 -0.0032557377590978591 0 -0.0063844994858298556 -0.0031745419666560051 0 -0.0063944064394296637 -0.0032557377590978591 0 -0.0063844994858298556 -0.0031745419666560051 0 -0.0064309508491815076 -0.0032056489433972715 0 -0.0063844994858298556 -0.0031745419666560051 0 -0.0064309508491815076 -0.0032056489433972715 0 -0.006400603522314096 -0.0031362721715089605 0 -0.0064871660042240238 -0.0025269545592813652 0 -0.0063806652549065887 -0.0027989918921212959 0 -0.0063844994858298556 -0.0031745419666560051 0 -0.006400603522314096 -0.0031362721715089605 0 -0.006339971468955226 -0.0031359726048943836 0 -0.00657352950279755 -0.0019139142304402603 0 -0.006454358333747333 -0.0019084626671286415 0 -0.0064739919685052588 -0.0024365091915214973 0 -0.0029649818348569256 -0.0034685054412666111 0 -0.0030667194701770231 -0.0030414875698682874 0 -0.0064679252178122017 -0.0032253443015418082 0 -0.0064461035744770761 -0.0031620482335630988 0 -0.0064621306528072631 -0.003163349393543566 0 -0.0064309508491815076 -0.0032056489433972715 0 -0.0064679252178122017 -0.0032253443015418082 0 -0.0064461035744770761 -0.0031620482335630988 0 -0.0064309508491815076 -0.0032056489433972715 0 -0.006400603522314096 -0.0031362721715089605 0 -0.0064461035744770761 -0.0031620482335630988 0 -0.006400603522314096 -0.0031362721715089605 0 -0.0064461035744770761 -0.0031620482335630988 0 -0.0064373309757833133 -0.0031217630055916617 0 -0.0064461035744770761 -0.0031620482335630988 0 -0.0064621306528072631 -0.003163349393543566 0 -0.0064556444787589795 -0.0031277260080324852 0 -0.0064461035744770761 -0.0031620482335630988 0 -0.0064373309757833133 -0.0031217630055916617 0 -0.0064556444787589795 -0.0031277260080324852 0 -0.0064373309757833133 -0.0031217630055916617 0 -0.0064556444787589795 -0.0031277260080324852 0 -0.0064619793258558142 -0.0030799157654903858 0 -0.0064871660042240238 -0.0025269545592813652 0 -0.0065783427651745123 -0.0022518396973072513 0 -0.0068785323789162089 -0.0013335070561628507 0 -0.0065989254363328876 -0.001402450157664517 0 -0.0066829496965284362 -0.00070462408257871269 0 -0.0068785323789162089 -0.0013335070561628507 0 -0.007164381936815868 -0.00052446136070428561 0 -0.0066829496965284362 -0.00070462408257871269 0 -0.0068785323789162089 -0.0013335070561628507 0 -0.007164381936815868 -0.00052446136070428561 0 -0.0078355850599851513 -0.00052423147985979242 0 -0.0065783427651745123 -0.0022518396973072513 0 -0.0074699566777233564 -0.0017544107661252189 0 -0.00657352950279755 -0.0019139142304402603 0 -0.0068785323789162089 -0.0013335070561628507 0 -0.0065989254363328876 -0.001402450157664517 0 -0.00657352950279755 -0.0019139142304402603 0 -0.006454358333747333 -0.0019084626671286415 0 -0.0065989254363328876 -0.001402450157664517 0 -0.0059070247356763578 -0.0003481514082830964 0 -0.0065534021530711207 3.1356432891459809e-05 0 -0.0065989254363328876 -0.001402450157664517 0 -0.0064614838200684832 -0.0014846466572927153 0 -0.0066829496965284362 -0.00070462408257871269 0 -0.006454358333747333 -0.0019084626671286415 0 -0.0065989254363328876 -0.001402450157664517 0 -0.0064614838200684832 -0.0014846466572927153 0 -0.006454358333747333 -0.0019084626671286415 0 -0.0064614838200684832 -0.0014846466572927153 0 -0.0063582403049642581 -0.002005228430064804 0 -0.0051392295222746414 0.001119573427576481 0 -0.0053187511081440059 0.00086922775166106464 0 -0.0050991974388299227 0.00096171514610153075 0 -0.00525809563237996 0.00073513049813760838 0 -0.0051392295222746414 0.001119573427576481 0 -0.0050991974388299227 0.00096171514610153075 0 -0.0059070247356763578 -0.0003481514082830964 0 -0.0057840125174547776 -0.00043931620344359615 0 -0.0051392295222746414 0.001119573427576481 0 -0.0057948974031321833 0.00094839829103500429 0 -0.0053187511081440059 0.00086922775166106464 0 -0.0057840125174547776 -0.00043931620344359615 0 -0.0064244397459189504 -0.00035275161135854625 0 -0.0051392295222746414 0.001119573427576481 0 -0.0057948974031321833 0.00094839829103500429 0 -0.0064240891562818148 0.0016295403047641474 0 -0.0063582403049642581 -0.002005228430064804 0 -0.0063156387354685057 -0.0023134561536870876 0 -0.0062413311730793687 -0.0023852288417513545 0 -0.0063582403049642581 -0.002005228430064804 0 -0.0063156387354685057 -0.0023134561536870876 0 -0.0063900961401575779 -0.0021927473665753808 0 -0.0063156387354685057 -0.0023134561536870876 0 -0.0063900961401575779 -0.0021927473665753808 0 -0.0063304455152421958 -0.0024872103639515539 0 -0.0063156387354685057 -0.0023134561536870876 0 -0.0063304455152421958 -0.0024872103639515539 0 -0.0062708415421645087 -0.002516210053708781 0 -0.006454358333747333 -0.0019084626671286415 0 -0.0063900961401575779 -0.0021927473665753808 0 -0.0064739919685052588 -0.0024365091915214973 0 -0.006454358333747333 -0.0019084626671286415 0 -0.0063582403049642581 -0.002005228430064804 0 -0.0063900961401575779 -0.0021927473665753808 0 -0.0064739919685052588 -0.0024365091915214973 0 -0.0063304455152421958 -0.0024872103639515539 0 -0.006321005146611141 -0.0027343267339809412 0 -0.0063900961401575779 -0.0021927473665753808 0 -0.0064739919685052588 -0.0024365091915214973 0 -0.0063304455152421958 -0.0024872103639515539 0 -0.0063302577719053779 -0.003157894044605826 0 -0.006339971468955226 -0.0031359726048943836 0 -0.0063075671354091041 -0.0030188093804730497 0 -0.0064739919685052588 -0.0024365091915214973 0 -0.006321005146611141 -0.0027343267339809412 0 -0.0063075671354091041 -0.0030188093804730497 0 -0.0063806652549065887 -0.0027989918921212959 0 -0.0062823938957475072 -0.0030010384946967668 0 -0.0063302577719053779 -0.003157894044605826 0 -0.0063844994858298556 -0.0031745419666560051 0 -0.006339971468955226 -0.0031359726048943836 0 -0.0064092527621849122 -0.0034656985628057613 0 -0.0061690792048252393 -0.0031915522714487622 0 -0.0063178861702169369 -0.0029669546012043098 0 -0.0061690792048252393 -0.0031915522714487622 0 -0.0063178861702169369 -0.0029669546012043098 0 -0.0061712194899117686 -0.0029023405823829194 0 -0.0061690792048252393 -0.0031915522714487622 0 -0.0061712194899117686 -0.0029023405823829194 0 -0.0060078390907420042 -0.003044515118477796 0 -0.0064892072572544377 -0.0034117397964645696 0 -0.0063248153371959406 -0.0030071624864600188 0 -0.0062598997660774551 -0.0031607012668051909 0 -0.0063075671354091041 -0.0030188093804730497 0 -0.0063178861702169369 -0.0029669546012043098 0 -0.006321005146611141 -0.0027343267339809412 0 -0.0063075671354091041 -0.0030188093804730497 0 -0.0063178861702169369 -0.0029669546012043098 0 -0.0063178861702169369 -0.0029669546012043098 0 -0.0062674567000640391 -0.0027316239624808588 0 -0.0061712194899117686 -0.0029023405823829194 0 -0.006321005146611141 -0.0027343267339809412 0 -0.0063178861702169369 -0.0029669546012043098 0 -0.0062674567000640391 -0.0027316239624808588 0 -0.0063304455152421958 -0.0024872103639515539 0 -0.006321005146611141 -0.0027343267339809412 0 -0.0062674567000640391 -0.0027316239624808588 0 -0.0063304455152421958 -0.0024872103639515539 0 -0.0062674567000640391 -0.0027316239624808588 0 -0.0062708415421645087 -0.002516210053708781 0 -0.0062674567000640391 -0.0027316239624808588 0 -0.0061815320417831473 -0.0026790193944150062 0 -0.0062708415421645087 -0.002516210053708781 0 -0.0062674567000640391 -0.0027316239624808588 0 -0.0061815320417831473 -0.0026790193944150062 0 -0.0061712194899117686 -0.0029023405823829194 0 -0.0061712194899117686 -0.0029023405823829194 0 -0.0060078390907420042 -0.003044515118477796 0 -0.00605497157879498 -0.0028422131727781274 0 -0.0061815320417831473 -0.0026790193944150062 0 -0.0061712194899117686 -0.0029023405823829194 0 -0.00605497157879498 -0.0028422131727781274 0 -0.0064244397459189504 -0.00035275161135854625 0 -0.0069499311847662391 -0.00055006226743023077 0 -0.0061815320417831473 -0.0026790193944150062 0 -0.0061242516544895353 -0.002652981800593431 0 -0.00605497157879498 -0.0028422131727781274 0 -0.0061242516544895353 -0.002652981800593431 0 -0.0062413311730793687 -0.0023852288417513545 0 -0.006019275590454203 -0.0027014938429081371 0 -0.0061242516544895353 -0.002652981800593431 0 -0.006019275590454203 -0.0027014938429081371 0 -0.00605497157879498 -0.0028422131727781274 0 -0.0064240891562818148 0.0016295403047641474 0 -0.0076868191767719106 0.0010232385792611274 0 -0.0084735901806307669 0.0019812241024995719 0 -0.0061815320417831473 -0.0026790193944150062 0 -0.0061242516544895353 -0.002652981800593431 0 -0.0062413311730793687 -0.0023852288417513545 0 -0.0061815320417831473 -0.0026790193944150062 0 -0.0062708415421645087 -0.002516210053708781 0 -0.0062413311730793687 -0.0023852288417513545 0 -0.0063156387354685057 -0.0023134561536870876 0 -0.0062708415421645087 -0.002516210053708781 0 -0.0062413311730793687 -0.0023852288417513545 0 -0.0057948974031321833 0.00094839829103500429 0 -0.0064240891562818148 0.0016295403047641474 0 -0.0069891856275075184 0.000364204885381163 0 -0.0064240891562818148 0.0016295403047641474 0 -0.0076868191767719106 0.0010232385792611274 0 -0.0069891856275075184 0.000364204885381163 0 -0.0076868191767719106 0.0010232385792611274 0 -0.0081935971247737421 0.00066894337026827944 0 -0.0085662289797008972 0.0013429834442422529 0 -0.0076868191767719106 0.0010232385792611274 0 -0.0077589184473436787 8.180724729133392e-05 0 -0.0069891856275075184 0.000364204885381163 0 -0.0076868191767719106 0.0010232385792611274 0 -0.0081935971247737421 0.00066894337026827944 0 -0.0077589184473436787 8.180724729133392e-05 0 -0.0085662289797008972 0.0013429834442422529 0 -0.0097570278033518084 0.0010197207974172941 0 -0.0090886315265751479 7.9246401873060539e-05 0 -0.0081935971247737421 0.00066894337026827944 0 -0.0085662289797008972 0.0013429834442422529 0 -0.0090886315265751479 7.9246401873060539e-05 0 -0.0076868191767719106 0.0010232385792611274 0 -0.0085662289797008972 0.0013429834442422529 0 -0.0084735901806307669 0.0019812241024995719 0 -0.006019275590454203 -0.0027014938429081371 0 -0.0058885554893114951 -0.0030720212290167551 0 -0.0059450038284024533 -0.0029398351615674114 0 -0.0085662289797008972 0.0013429834442422529 0 -0.0084735901806307669 0.0019812241024995719 0 -0.010191670043045676 0.0023177655469073508 0 -0.006019275590454203 -0.0027014938429081371 0 -0.00605497157879498 -0.0028422131727781274 0 -0.0059450038284024533 -0.0029398351615674114 0 -0.0069499311847662391 -0.00055006226743023077 0 -0.0093053651009280553 0.00093680705441955383 0 -0.0091780106026452066 0.0019001005865050861 0 -0.0093053651009280553 0.00093680705441955383 0 -0.0085662289797008972 0.0013429834442422529 0 -0.010633449334756137 0.0023918151077020455 0 -0.0097570278033518084 0.0010197207974172941 0 -0.0097570278033518084 0.0010197207974172941 0 -0.010754138948998383 0.00028757006734423762 0 -0.0090886315265751479 7.9246401873060539e-05 0 -0.010633449334756137 0.0023918151077020455 0 -0.0097570278033518084 0.0010197207974172941 0 -0.010754138948998383 0.00028757006734423762 0 -0.010754138948998383 0.00028757006734423762 0 -0.012165103637727786 0.0013117370196250281 0 -0.012403948596261248 2.7773696675004449e-06 0 -0.010633449334756137 0.0023918151077020455 0 -0.010754138948998383 0.00028757006734423762 0 -0.012165103637727786 0.0013117370196250281 0 -0.012165103637727786 0.0013117370196250281 0 -0.013549709317669077 0.0006292957670853284 0 -0.012403948596261248 2.7773696675004449e-06 0 -0.012165103637727786 0.0013117370196250281 0 -0.012496142714980727 0.0026515332778647045 0 -0.013432702419002634 0.0019666777368246031 0 -0.012165103637727786 0.0013117370196250281 0 -0.013549709317669077 0.0006292957670853284 0 -0.013432702419002634 0.0019666777368246031 0 -0.0093053651009280553 0.00093680705441955383 0 -0.012907132629298011 0.0029337096492887691 0 -0.010633449334756137 0.0023918151077020455 0 -0.012165103637727786 0.0013117370196250281 0 -0.012496142714980727 0.0026515332778647045 0 -0.0058885554893114951 -0.0030720212290167551 0 -0.0061791484821162859 -0.0032256141356753025 0 -0.0059655741757615177 -0.0031525612506038414 0 -0.0093053651009280553 0.00093680705441955383 0 -0.0075622424944433884 0.00050539265380024334 0 -0.0058885554893114951 -0.0030720212290167551 0 -0.0061791484821162859 -0.0032256141356753025 0 -0.0063590506539185528 -0.0033157114765885727 0 -0.010503664614016165 0.0022256662203601605 0 -0.012496142714980727 0.0026515332778647045 0 -0.012634195667169067 0.0034044246513845982 0 -0.012496142714980727 0.0026515332778647045 0 -0.012634195667169067 0.0034044246513845982 0 -0.013465358714409717 0.0030072331094914201 0 -0.012496142714980727 0.0026515332778647045 0 -0.013432702419002634 0.0019666777368246031 0 -0.013465358714409717 0.0030072331094914201 0 -0.0061791484821162859 -0.0032256141356753025 0 -0.0063590506539185528 -0.0033157114765885727 0 -0.0063822238091244066 -0.0033325687871294065 0 -0.0063822238091244066 -0.0033325687871294065 0 -0.0062556516750081927 -0.0031560916656948493 0 -0.0063732073547717255 -0.0029344687604619681 0 -0.0063590506539185528 -0.0033157114765885727 0 -0.0063822238091244066 -0.0033325687871294065 0 -0.0065888881688110053 -0.0036116389154898288 0 -0.0063822238091244066 -0.0033325687871294065 0 -0.0065781796986142003 -0.0035830976454120189 0 -0.0067555739307329611 -0.0037198696909623219 0 -0.0064422557667540604 -0.0036635280052082979 0 -0.0061965183083200264 -0.002547226400054667 0 -0.0061791484821162859 -0.0032256141356753025 0 -0.0062556516750081927 -0.0031560916656948493 0 -0.0061170676734703623 -0.0031027054694755855 0 -0.0061791484821162859 -0.0032256141356753025 0 -0.0063822238091244066 -0.0033325687871294065 0 -0.0062556516750081927 -0.0031560916656948493 0 -0.0062556516750081927 -0.0031560916656948493 0 -0.0061170676734703623 -0.0031027054694755855 0 -0.0063732073547717255 -0.0029344687604619681 0 -0.0059655741757615177 -0.0031525612506038414 0 -0.0061170676734703623 -0.0031027054694755855 0 -0.0057429153112163924 -0.0031539351684367737 0 -0.0061791484821162859 -0.0032256141356753025 0 -0.0059655741757615177 -0.0031525612506038414 0 -0.0061170676734703623 -0.0031027054694755855 0 -0.0057429153112163924 -0.0031539351684367737 0 -0.0058661101939439337 -0.0030692875472786538 0 -0.0059795760839679839 -0.0033244156245393563 0 -0.0059655741757615177 -0.0031525612506038414 0 -0.0057429153112163924 -0.0031539351684367737 0 -0.0058661101939439337 -0.0030692875472786538 0 -0.0061690792048252393 -0.0031915522714487622 0 -0.0060078390907420042 -0.003044515118477796 0 -0.0059795760839679839 -0.0033244156245393563 0 -0.0060078390907420042 -0.003044515118477796 0 -0.0058661101939439337 -0.0030692875472786538 0 -0.0059795760839679839 -0.0033244156245393563 0 -0.0060078390907420042 -0.003044515118477796 0 -0.0059450038284024533 -0.0029398351615674114 0 -0.0058661101939439337 -0.0030692875472786538 0 -0.0060078390907420042 -0.003044515118477796 0 -0.00605497157879498 -0.0028422131727781274 0 -0.0059450038284024533 -0.0029398351615674114 0 -0.0058885554893114951 -0.0030720212290167551 0 -0.0059450038284024533 -0.0029398351615674114 0 -0.0058661101939439337 -0.0030692875472786538 0 -0.0058885554893114951 -0.0030720212290167551 0 -0.0059655741757615177 -0.0031525612506038414 0 -0.0058661101939439337 -0.0030692875472786538 0 -0.032162174544821294 -0.01290039112672363 0 -0.032269554229742523 -0.012967310136476215 0 -0.03218262139430926 -0.013109921366254235 0 -0.032162174544821294 -0.01290039112672363 0 -0.032218610767048933 -0.012702222942292658 0 -0.032269554229742523 -0.012967310136476215 0 -0.032098263896506794 -0.012960013080197362 0 -0.032162174544821294 -0.01290039112672363 0 -0.03218262139430926 -0.013109921366254235 0 -0.032059122406975102 -0.012749640307585427 0 -0.032098263896506794 -0.012960013080197362 0 -0.032162174544821294 -0.01290039112672363 0 -0.032059122406975102 -0.012749640307585427 0 -0.032162174544821294 -0.01290039112672363 0 -0.032218610767048933 -0.012702222942292658 0 -0.032059122406975102 -0.012749640307585427 0 -0.032218610767048933 -0.012702222942292658 0 -0.031900662130795072 -0.012499578575691946 0 -0.032218610767048933 -0.012702222942292658 0 -0.032349802750524369 -0.012752477971139585 0 -0.032272644659081799 -0.012445558379662011 0 -0.024274031206446084 -0.0060191969495838613 0 -0.024395684894115512 -0.0064637300663704187 0 -0.032218610767048933 -0.012702222942292658 0 -0.032269554229742523 -0.012967310136476215 0 -0.032349802750524369 -0.012752477971139585 0 -0.032269554229742523 -0.012967310136476215 0 -0.032349802750524369 -0.012752477971139585 0 -0.032359611052489488 -0.012990436846113389 0 -0.016139007617132287 0.00096653040303645811 0 -0.014707957754487093 0.0015073000345152154 0 -0.015359346090505566 0.0027117907898646116 0 -0.024274031206446084 -0.0060191969495838613 0 -0.024002535685150459 -0.0047067321911355275 0 -0.015029867102782594 0.00020696468182281334 0 -0.016139007617132287 0.00096653040303645811 0 -0.016941177517395028 -0.00091618847144978391 0 -0.015029867102782594 0.00020696468182281334 0 -0.016139007617132287 0.00096653040303645811 0 -0.014707957754487093 0.0015073000345152154 0 -0.015029867102782594 0.00020696468182281334 0 -0.013549709317669077 0.0006292957670853284 0 -0.014707957754487093 0.0015073000345152154 0 -0.013549709317669077 0.0006292957670853284 0 -0.014707957754487093 0.0015073000345152154 0 -0.013432702419002634 0.0019666777368246031 0 -0.014707957754487093 0.0015073000345152154 0 -0.013432702419002634 0.0019666777368246031 0 -0.014240428672422201 0.0026877455911257153 0 -0.014707957754487093 0.0015073000345152154 0 -0.014240428672422201 0.0026877455911257153 0 -0.015359346090505566 0.0027117907898646116 0 -0.014240428672422201 0.0026877455911257153 0 -0.014670053543881543 0.0043914354160971671 0 -0.015359346090505566 0.0027117907898646116 0 -0.013465358714409717 0.0030072331094914201 0 -0.014240428672422201 0.0026877455911257153 0 -0.014670053543881543 0.0043914354160971671 0 -0.012634195667169067 0.0034044246513845982 0 -0.013465358714409717 0.0030072331094914201 0 -0.014670053543881543 0.0043914354160971671 0 -0.013432702419002634 0.0019666777368246031 0 -0.013465358714409717 0.0030072331094914201 0 -0.014240428672422201 0.0026877455911257153 0 -0.0075622424944433884 0.00050539265380024334 0 -0.020994743326868182 -0.0071013753551703047 0 -0.0063822238091244066 -0.0033325687871294065 0 -0.0065888881688110053 -0.0036116389154898288 0 -0.0065781796986142003 -0.0035830976454120189 0 -0.0065888881688110053 -0.0036116389154898288 0 -0.0065781796986142003 -0.0035830976454120189 0 -0.0065599890404061095 -0.0038905354089176229 0 -0.032355560755895386 -0.013150482047583838 0 -0.032311471739656941 -0.013168113030197146 0 -0.032302824091849161 -0.013342228879618745 0 -0.032355560755895386 -0.013150482047583838 0 -0.032359611052489488 -0.012990436846113389 0 -0.032311471739656941 -0.013168113030197146 0 -0.020994743326868182 -0.0071013753551703047 0 -0.024002535685150459 -0.0047067321911355275 0 -0.032269554229742523 -0.012967310136476215 0 -0.032311471739656941 -0.013168113030197146 0 -0.032239872762560101 -0.013175568208316918 0 -0.032269554229742523 -0.012967310136476215 0 -0.032359611052489488 -0.012990436846113389 0 -0.032311471739656941 -0.013168113030197146 0 -0.032311471739656941 -0.013168113030197146 0 -0.032239872762560101 -0.013175568208316918 0 -0.032302824091849161 -0.013342228879618745 0 -0.032193948956395699 -0.013306969402000669 0 -0.032239872762560101 -0.013175568208316918 0 -0.032302824091849161 -0.013342228879618745 0 -0.032269554229742523 -0.012967310136476215 0 -0.032239872762560101 -0.013175568208316918 0 -0.03218262139430926 -0.013109921366254235 0 -0.032193948956395699 -0.013306969402000669 0 -0.032239872762560101 -0.013175568208316918 0 -0.03218262139430926 -0.013109921366254235 0 -0.032193948956395699 -0.013306969402000669 0 -0.032067057302858887 -0.013612039820426842 0 -0.032302824091849161 -0.013342228879618745 0 -0.031433111960234773 -0.013635510917793005 0 -0.033477768049842073 -0.014314770508265556 0 -0.031185298349126846 -0.014284338128464831 0 -0.030619928626755742 -0.013700983880452586 0 -0.031388349521625281 -0.013407967266150331 0 -0.032067057302858887 -0.013612039820426842 0 -0.031185298349126846 -0.014284338128464831 0 -0.031388349521625281 -0.013407967266150331 0 -0.031185298349126846 -0.014284338128464831 0 -0.030619928626755742 -0.013700983880452586 0 -0.029997502842488404 -0.014171337771275458 0 -0.030220346815319057 -0.014760372959376409 0 -0.031185298349126846 -0.014284338128464831 0 -0.029997502842488404 -0.014171337771275458 0 -0.020994743326868182 -0.0071013753551703047 0 -0.033477768049842073 -0.014314770508265556 0 -0.0065599890404061095 -0.0038905354089176229 0 -0.0067555739307329611 -0.0037198696909623219 0 -0.0068475283672511317 -0.0043649300238643909 0 -0.020994743326868182 -0.0071013753551703047 0 -0.018334642869708814 -0.0091768075229332648 0 -0.0065781796986142003 -0.0035830976454120189 0 -0.0065599890404061095 -0.0038905354089176229 0 -0.0067555739307329611 -0.0037198696909623219 0 -0.0065599890404061095 -0.0038905354089176229 0 -0.0068073984630097339 -0.0044109981440940294 0 -0.0068475283672511317 -0.0043649300238643909 0 -0.030619928626755742 -0.013700983880452586 0 -0.029997502842488404 -0.014171337771275458 0 -0.029721750681388114 -0.013601629609662382 0 -0.018334642869708814 -0.0091768075229332648 0 -0.01617468996106065 -0.0099847367855875873 0 -0.015425989497315848 -0.012280232775418018 0 -0.01617468996106065 -0.0099847367855875873 0 -0.013104868176601191 -0.010458859753028404 0 -0.012580915517340712 -0.0091266555929411068 0 -0.013475023844890121 -0.0083627023549691093 0 -0.01617468996106065 -0.0099847367855875873 0 -0.012308028434599294 -0.0079925147056051481 0 -0.015425989497315848 -0.012280232775418018 0 -0.022536650679138601 -0.020622931235769665 0 -0.021225480315750906 -0.018830080534538919 0 -0.021253473558962531 -0.018884376576934966 0 -0.022016843147346098 -0.018479222663962475 0 -0.021225480315750906 -0.018830080534538919 0 -0.021262371299633646 -0.018035983065582427 0 -0.022016843147346098 -0.018479222663962475 0 -0.01617468996106065 -0.0099847367855875873 0 -0.027821286909594005 -0.01643214854257434 0 -0.030619928626755742 -0.013700983880452586 0 -0.029721750681388114 -0.013601629609662382 0 -0.030724128261919812 -0.013091953626357856 0 -0.022016843147346098 -0.018479222663962475 0 -0.023118933200471887 -0.018068356416958184 0 -0.021957230727226877 -0.017853761875935469 0 -0.021262371299633646 -0.018035983065582427 0 -0.022016843147346098 -0.018479222663962475 0 -0.021957230727226877 -0.017853761875935469 0 -0.030619928626755742 -0.013700983880452586 0 -0.030724128261919812 -0.013091953626357856 0 -0.031388349521625281 -0.013407967266150331 0 -0.032174190164589715 -0.013079943472744692 0 -0.031964718415032761 -0.013278151485005657 0 -0.031567041377548608 -0.012887269456744246 0 -0.027821286909594005 -0.01643214854257434 0 -0.027111074683485337 -0.015436962680652333 0 -0.030724128261919812 -0.013091953626357856 0 -0.031388349521625281 -0.013407967266150331 0 -0.031567041377548608 -0.012887269456744246 0 -0.031388349521625281 -0.013407967266150331 0 -0.031964718415032761 -0.013278151485005657 0 -0.031567041377548608 -0.012887269456744246 0 -0.032067057302858887 -0.013612039820426842 0 -0.031388349521625281 -0.013407967266150331 0 -0.031964718415032761 -0.013278151485005657 0 -0.0057991384061502954 -0.0038998481418024713 0 -0.0053659724417211233 -0.0039832864295610299 0 -0.0055924447384533872 -0.0047455063515685712 0 -0.0064624790254350674 -0.0041992379706262449 0 -0.006155133286409111 -0.0038938933340846847 0 -0.0060503006569639761 -0.0044678385544528847 0 -0.0057991384061502954 -0.0038998481418024713 0 -0.006155133286409111 -0.0038938933340846847 0 -0.0060503006569639761 -0.0044678385544528847 0 -0.0062415269945118486 -0.0035414763509099174 0 -0.006155133286409111 -0.0038938933340846847 0 -0.0059795760839679839 -0.0033244156245393563 0 -0.0057991384061502954 -0.0038998481418024713 0 -0.006155133286409111 -0.0038938933340846847 0 -0.0059795760839679839 -0.0033244156245393563 0 -0.0062415269945118486 -0.0035414763509099174 0 -0.0061690792048252393 -0.0031915522714487622 0 -0.0059795760839679839 -0.0033244156245393563 0 -0.0057429153112163924 -0.0031539351684367737 0 -0.0057991384061502954 -0.0038998481418024713 0 -0.0059795760839679839 -0.0033244156245393563 0 -0.0057429153112163924 -0.0031539351684367737 0 -0.0057991384061502954 -0.0038998481418024713 0 -0.0053659724417211233 -0.0039832864295610299 0 -0.0057429153112163924 -0.0031539351684367737 0 -0.0049978848899933917 -0.0036730440980474108 0 -0.0053659724417211233 -0.0039832864295610299 0 -0.0061170676734703623 -0.0031027054694755855 0 -0.0057429153112163924 -0.0031539351684367737 0 -0.0061581926369308057 -0.0028093418337243885 0 -0.0059170113841844835 -0.0030984936526774827 0 -0.0048498663457060519 -0.0031293185857442338 0 -0.0061170676734703623 -0.0031027054694755855 0 -0.0061581926369308057 -0.0028093418337243885 0 -0.0063732073547717255 -0.0029344687604619681 0 -0.0061965183083200264 -0.002547226400054667 0 -0.012308028434599294 -0.0079925147056051481 0 -0.0061581926369308057 -0.0028093418337243885 0 -0.0063732073547717255 -0.0029344687604619681 0 -0.0064748860540198962 -0.0026573204200694054 0 -0.0049978848899933917 -0.0036730440980474108 0 -0.0048628863708642467 -0.0041586598621237095 0 -0.0044668841031193082 -0.0042346542527784067 0 -0.0048498663457060519 -0.0031293185857442338 0 -0.012308028434599294 -0.0079925147056051481 0 -0.0044486449615489454 -0.0043658972192813115 0 -0.0048628863708642467 -0.0041586598621237095 0 -0.0050422342174369457 -0.0045591127961383711 0 -0.0044486449615489454 -0.0043658972192813115 0 -0.0048628863708642467 -0.0041586598621237095 0 -0.0044668841031193082 -0.0042346542527784067 0 -0.015425989497315848 -0.012280232775418018 0 -0.012308028434599294 -0.0079925147056051481 0 -0.0049978848899933917 -0.0036730440980474108 0 -0.0048628863708642467 -0.0041586598621237095 0 -0.0053659724417211233 -0.0039832864295610299 0 -0.0048628863708642467 -0.0041586598621237095 0 -0.0053659724417211233 -0.0039832864295610299 0 -0.0050422342174369457 -0.0045591127961383711 0 -0.0050422342174369457 -0.0045591127961383711 0 -0.005235304927137239 -0.0053992492139194864 0 -0.0055924447384533872 -0.0047455063515685712 0 -0.0053659724417211233 -0.0039832864295610299 0 -0.0050422342174369457 -0.0045591127961383711 0 -0.0055924447384533872 -0.0047455063515685712 0 -0.020913791071499245 -0.018649423734736083 0 -0.021262371299633646 -0.018035983065582427 0 -0.02069899638166697 -0.018104604254369581 0 -0.015425989497315848 -0.012280232775418018 0 -0.0123250475944551 -0.011383943883375084 0 -0.0044486449615489454 -0.0043658972192813115 0 -0.0050422342174369457 -0.0045591127961383711 0 -0.004718797282901881 -0.0051902240029215278 0 -0.021262371299633646 -0.018035983065582427 0 -0.02069899638166697 -0.018104604254369581 0 -0.02083544402211408 -0.017654118171669567 0 -0.0050422342174369457 -0.0045591127961383711 0 -0.004718797282901881 -0.0051902240029215278 0 -0.005235304927137239 -0.0053992492139194864 0 -0.005235304927137239 -0.0053992492139194864 0 -0.0055924447384533872 -0.0047455063515685712 0 -0.0060110064409166402 -0.0054405823715956963 0 -0.0057991384061502954 -0.0038998481418024713 0 -0.0055924447384533872 -0.0047455063515685712 0 -0.0060503006569639761 -0.0044678385544528847 0 -0.0055924447384533872 -0.0047455063515685712 0 -0.0060503006569639761 -0.0044678385544528847 0 -0.0060110064409166402 -0.0054405823715956963 0 -0.0065717127959711331 -0.0050050825702864518 0 -0.0060503006569639761 -0.0044678385544528847 0 -0.0060110064409166402 -0.0054405823715956963 0 -0.0060110064409166402 -0.0054405823715956963 0 -0.0057942316010777539 -0.0066614062249370654 0 -0.0064990813681240637 -0.0057521994877917076 0 -0.0060110064409166402 -0.0054405823715956963 0 -0.0055164849847209362 -0.0060738340507364508 0 -0.0057942316010777539 -0.0066614062249370654 0 -0.0055164849847209362 -0.0060738340507364508 0 -0.0054450880291659872 -0.0066849695635570576 0 -0.0057942316010777539 -0.0066614062249370654 0 -0.005235304927137239 -0.0053992492139194864 0 -0.0060110064409166402 -0.0054405823715956963 0 -0.0055164849847209362 -0.0060738340507364508 0 -0.005235304927137239 -0.0053992492139194864 0 -0.0055164849847209362 -0.0060738340507364508 0 -0.0050263677316193861 -0.0060252984480222626 0 -0.004718797282901881 -0.0051902240029215278 0 -0.005235304927137239 -0.0053992492139194864 0 -0.0050263677316193861 -0.0060252984480222626 0 -0.0123250475944551 -0.011383943883375084 0 -0.012645778468906813 -0.011660712582278203 0 -0.020134115692855985 -0.017193888067897265 0 -0.02083544402211408 -0.017654118171669567 0 -0.021243084007410731 -0.017248911448881032 0 -0.02069899638166697 -0.018104604254369581 0 -0.020134115692855985 -0.017193888067897265 0 -0.02083544402211408 -0.017654118171669567 0 -0.020134115692855985 -0.017193888067897265 0 -0.020660835840165953 -0.016452165449867145 0 -0.021243084007410731 -0.017248911448881032 0 -0.012645778468906813 -0.011660712582278203 0 -0.012502461394453875 -0.011379928041281098 0 -0.020134115692855985 -0.017193888067897265 0 -0.019615699560448303 -0.016143263986768797 0 -0.020660835840165953 -0.016452165449867145 0 -0.0055164849847209362 -0.0060738340507364508 0 -0.0050263677316193861 -0.0060252984480222626 0 -0.0054450880291659872 -0.0066849695635570576 0 -0.019615699560448303 -0.016143263986768797 0 -0.020660835840165953 -0.016452165449867145 0 -0.020724012332058343 -0.015543898090968702 0 -0.019615699560448303 -0.016143263986768797 0 -0.01913329417287454 -0.015101065966079918 0 -0.020021816360604287 -0.014801928300271439 0 -0.019615699560448303 -0.016143263986768797 0 -0.020724012332058343 -0.015543898090968702 0 -0.020021816360604287 -0.014801928300271439 0 -0.012502461394453875 -0.011379928041281098 0 -0.012483628592530589 -0.010882715164843241 0 -0.0054450880291659872 -0.0066849695635570576 0 -0.005639193875886169 -0.0067242363052683763 0 -0.0056739572715742122 -0.0066651650878950773 0 -0.005639193875886169 -0.0067242363052683763 0 -0.0056739572715742122 -0.0066651650878950773 0 -0.0056182684701107516 -0.0066256062434218096 0 -0.0056739572715742122 -0.0066651650878950773 0 -0.0057942316010777539 -0.0066614062249370654 0 -0.0053520799369238346 -0.0067600682946902376 0 -0.0054450880291659872 -0.0066849695635570576 0 -0.0056739572715742122 -0.0066651650878950773 0 -0.0057942316010777539 -0.0066614062249370654 0 -0.032032676651346827 -0.012911092998122514 0 -0.032174190164589715 -0.013079943472744692 0 -0.031567041377548608 -0.012887269456744246 0 -0.024757386090385004 -0.01755414748956716 0 -0.023234925728684477 -0.017127278572805028 0 -0.023671108994474874 -0.01597014588095811 0 -0.024757386090385004 -0.01755414748956716 0 -0.023118933200471887 -0.018068356416958184 0 -0.023234925728684477 -0.017127278572805028 0 -0.028466079973463756 -0.015215957172625668 0 -0.027111074683485337 -0.015436962680652333 0 -0.023118933200471887 -0.018068356416958184 0 -0.023234925728684477 -0.017127278572805028 0 -0.022179649574484008 -0.017202522491055409 0 -0.023234925728684477 -0.017127278572805028 0 -0.022179649574484008 -0.017202522491055409 0 -0.022586772190859892 -0.016436638174640195 0 -0.022179649574484008 -0.017202522491055409 0 -0.021592160830923957 -0.016115741467797179 0 -0.022586772190859892 -0.016436638174640195 0 -0.023118933200471887 -0.018068356416958184 0 -0.022179649574484008 -0.017202522491055409 0 -0.021957230727226877 -0.017853761875935469 0 -0.022179649574484008 -0.017202522491055409 0 -0.021957230727226877 -0.017853761875935469 0 -0.021243084007410731 -0.017248911448881032 0 -0.021262371299633646 -0.018035983065582427 0 -0.02083544402211408 -0.017654118171669567 0 -0.021243084007410731 -0.017248911448881032 0 -0.021262371299633646 -0.018035983065582427 0 -0.021957230727226877 -0.017853761875935469 0 -0.021243084007410731 -0.017248911448881032 0 -0.022179649574484008 -0.017202522491055409 0 -0.021243084007410731 -0.017248911448881032 0 -0.021592160830923957 -0.016115741467797179 0 -0.020660835840165953 -0.016452165449867145 0 -0.021243084007410731 -0.017248911448881032 0 -0.021592160830923957 -0.016115741467797179 0 -0.020660835840165953 -0.016452165449867145 0 -0.020724012332058343 -0.015543898090968702 0 -0.021592160830923957 -0.016115741467797179 0 -0.020724012332058343 -0.015543898090968702 0 -0.021592160830923957 -0.016115741467797179 0 -0.021552525718863152 -0.015121805306359443 0 -0.021592160830923957 -0.016115741467797179 0 -0.021552525718863152 -0.015121805306359443 0 -0.022272065651547192 -0.015574200463560854 0 -0.021592160830923957 -0.016115741467797179 0 -0.022272065651547192 -0.015574200463560854 0 -0.022586772190859892 -0.016436638174640195 0 -0.022272065651547192 -0.015574200463560854 0 -0.022586772190859892 -0.016436638174640195 0 -0.023671108994474874 -0.01597014588095811 0 -0.023234925728684477 -0.017127278572805028 0 -0.022586772190859892 -0.016436638174640195 0 -0.023671108994474874 -0.01597014588095811 0 -0.022272065651547192 -0.015574200463560854 0 -0.02296755855236755 -0.015177473428018191 0 -0.022315726261996911 -0.01465080976395159 0 -0.022272065651547192 -0.015574200463560854 0 -0.02296755855236755 -0.015177473428018191 0 -0.023671108994474874 -0.01597014588095811 0 -0.024459749395855577 -0.015125503703297384 0 -0.023671108994474874 -0.01597014588095811 0 -0.023612857322130646 -0.015049304696808631 0 -0.02296755855236755 -0.015177473428018191 0 -0.023671108994474874 -0.01597014588095811 0 -0.023612857322130646 -0.015049304696808631 0 -0.024657332611991482 -0.014345647222875636 0 -0.023631031504026151 -0.01444467641269079 0 -0.023403365457731876 -0.013671931485811157 0 -0.023631031504026151 -0.01444467641269079 0 -0.022805611863947865 -0.014117630020200419 0 -0.023403365457731876 -0.013671931485811157 0 -0.024459749395855577 -0.015125503703297384 0 -0.023631031504026151 -0.01444467641269079 0 -0.023612857322130646 -0.015049304696808631 0 -0.023631031504026151 -0.01444467641269079 0 -0.023612857322130646 -0.015049304696808631 0 -0.023016689715502782 -0.014662156087135699 0 -0.02296755855236755 -0.015177473428018191 0 -0.023612857322130646 -0.015049304696808631 0 -0.023016689715502782 -0.014662156087135699 0 -0.02296755855236755 -0.015177473428018191 0 -0.023016689715502782 -0.014662156087135699 0 -0.022315726261996911 -0.01465080976395159 0 -0.023016689715502782 -0.014662156087135699 0 -0.022805611863947865 -0.014117630020200419 0 -0.022315726261996911 -0.01465080976395159 0 -0.023631031504026151 -0.01444467641269079 0 -0.023016689715502782 -0.014662156087135699 0 -0.022805611863947865 -0.014117630020200419 0 -0.022805611863947865 -0.014117630020200419 0 -0.022106928343715831 -0.013882768758862149 0 -0.022315726261996911 -0.01465080976395159 0 -0.022805611863947865 -0.014117630020200419 0 -0.022106928343715831 -0.013882768758862149 0 -0.02263076048046711 -0.013528547323011007 0 -0.022106928343715831 -0.013882768758862149 0 -0.021557350884923696 -0.014266112356952871 0 -0.021509826671878472 -0.013559251866857632 0 -0.022106928343715831 -0.013882768758862149 0 -0.022315726261996911 -0.01465080976395159 0 -0.021557350884923696 -0.014266112356952871 0 -0.021552525718863152 -0.015121805306359443 0 -0.022272065651547192 -0.015574200463560854 0 -0.022315726261996911 -0.01465080976395159 0 -0.021552525718863152 -0.015121805306359443 0 -0.022315726261996911 -0.01465080976395159 0 -0.021557350884923696 -0.014266112356952871 0 -0.020724012332058343 -0.015543898090968702 0 -0.021552525718863152 -0.015121805306359443 0 -0.020851249132037598 -0.014595351572528262 0 -0.021552525718863152 -0.015121805306359443 0 -0.021557350884923696 -0.014266112356952871 0 -0.020851249132037598 -0.014595351572528262 0 -0.021557350884923696 -0.014266112356952871 0 -0.020983816609519094 -0.013869034417157028 0 -0.020851249132037598 -0.014595351572528262 0 -0.021557350884923696 -0.014266112356952871 0 -0.020983816609519094 -0.013869034417157028 0 -0.021509826671878472 -0.013559251866857632 0 -0.020983816609519094 -0.013869034417157028 0 -0.021509826671878472 -0.013559251866857632 0 -0.021053928662438694 -0.013316870121818839 0 -0.021509826671878472 -0.013559251866857632 0 -0.021427245920533033 -0.013193911169637508 0 -0.021053928662438694 -0.013316870121818839 0 -0.021158001989164343 -0.012921212824522394 0 -0.020826657760528101 -0.013005950495315954 0 -0.020798204314200121 -0.012669425143302479 0 -0.021053928662438694 -0.013316870121818839 0 -0.021158001989164343 -0.012921212824522394 0 -0.020826657760528101 -0.013005950495315954 0 -0.021158001989164343 -0.012921212824522394 0 -0.021131165154688294 -0.012601834542648165 0 -0.020798204314200121 -0.012669425143302479 0 -0.021131165154688294 -0.012601834542648165 0 -0.020798204314200121 -0.012669425143302479 0 -0.020971665095750325 -0.012340191493352961 0 -0.020798204314200121 -0.012669425143302479 0 -0.020971665095750325 -0.012340191493352961 0 -0.020710870006017339 -0.012378318292654043 0 -0.021369154705648073 -0.012571725823779136 0 -0.021331783319694476 -0.012759226513133609 0 -0.02156025501320024 -0.012803491733440088 0 -0.021131165154688294 -0.012601834542648165 0 -0.021369154705648073 -0.012571725823779136 0 -0.021142793488676235 -0.012420514771413361 0 -0.021131165154688294 -0.012601834542648165 0 -0.021369154705648073 -0.012571725823779136 0 -0.021331783319694476 -0.012759226513133609 0 -0.021158001989164343 -0.012921212824522394 0 -0.021131165154688294 -0.012601834542648165 0 -0.021331783319694476 -0.012759226513133609 0 -0.021331783319694476 -0.012759226513133609 0 -0.021536593862882009 -0.012937102535308541 0 -0.02156025501320024 -0.012803491733440088 0 -0.021427245920533033 -0.013193911169637508 0 -0.021053928662438694 -0.013316870121818839 0 -0.021158001989164343 -0.012921212824522394 0 -0.021427245920533033 -0.013193911169637508 0 -0.021158001989164343 -0.012921212824522394 0 -0.021536593862882009 -0.012937102535308541 0 -0.021158001989164343 -0.012921212824522394 0 -0.021331783319694476 -0.012759226513133609 0 -0.021536593862882009 -0.012937102535308541 0 -0.021812459657365835 -0.012957595483609306 0 -0.021536593862882009 -0.012937102535308541 0 -0.021869203425012675 -0.0132475489106328 0 -0.021427245920533033 -0.013193911169637508 0 -0.021536593862882009 -0.012937102535308541 0 -0.021869203425012675 -0.0132475489106328 0 -0.021812459657365835 -0.012957595483609306 0 -0.021536593862882009 -0.012937102535308541 0 -0.02156025501320024 -0.012803491733440088 0 -0.021369154705648073 -0.012571725823779136 0 -0.02156025501320024 -0.012803491733440088 0 -0.021734738709278362 -0.012793616916498619 0 -0.021812459657365835 -0.012957595483609306 0 -0.02156025501320024 -0.012803491733440088 0 -0.021734738709278362 -0.012793616916498619 0 -0.021734738709278362 -0.012793616916498619 0 -0.022048949934410395 -0.012881216996327384 0 -0.02200155236673746 -0.012663740737949047 0 -0.021812459657365835 -0.012957595483609306 0 -0.021734738709278362 -0.012793616916498619 0 -0.022048949934410395 -0.012881216996327384 0 -0.021812459657365835 -0.012957595483609306 0 -0.022048949934410395 -0.012881216996327384 0 -0.022288979271887444 -0.013088766090868448 0 -0.021812459657365835 -0.012957595483609306 0 -0.021869203425012675 -0.0132475489106328 0 -0.022288979271887444 -0.013088766090868448 0 -0.022106928343715831 -0.013882768758862149 0 -0.021509826671878472 -0.013559251866857632 0 -0.021869203425012675 -0.0132475489106328 0 -0.022106928343715831 -0.013882768758862149 0 -0.021869203425012675 -0.0132475489106328 0 -0.02263076048046711 -0.013528547323011007 0 -0.021509826671878472 -0.013559251866857632 0 -0.021427245920533033 -0.013193911169637508 0 -0.021869203425012675 -0.0132475489106328 0 -0.022805611863947865 -0.014117630020200419 0 -0.02263076048046711 -0.013528547323011007 0 -0.023403365457731876 -0.013671931485811157 0 -0.02263076048046711 -0.013528547323011007 0 -0.022778834231290835 -0.013133665266203026 0 -0.023403365457731876 -0.013671931485811157 0 -0.021869203425012675 -0.0132475489106328 0 -0.02263076048046711 -0.013528547323011007 0 -0.022288979271887444 -0.013088766090868448 0 -0.02263076048046711 -0.013528547323011007 0 -0.022288979271887444 -0.013088766090868448 0 -0.022778834231290835 -0.013133665266203026 0 -0.022288979271887444 -0.013088766090868448 0 -0.022590710398918357 -0.012804364181369682 0 -0.022778834231290835 -0.013133665266203026 0 -0.022048949934410395 -0.012881216996327384 0 -0.022288979271887444 -0.013088766090868448 0 -0.022590710398918357 -0.012804364181369682 0 -0.022048949934410395 -0.012881216996327384 0 -0.022590710398918357 -0.012804364181369682 0 -0.02200155236673746 -0.012663740737949047 0 -0.022590710398918357 -0.012804364181369682 0 -0.022778834231290835 -0.013133665266203026 0 -0.023314705075243372 -0.012926651079246501 0 -0.02409429163712663 -0.013304872170960233 0 -0.023314705075243372 -0.012926651079246501 0 -0.023688552746365589 -0.012259468251214857 0 -0.023314705075243372 -0.012926651079246501 0 -0.023688552746365589 -0.012259468251214857 0 -0.023128374433686354 -0.012502165101984281 0 -0.022590710398918357 -0.012804364181369682 0 -0.023314705075243372 -0.012926651079246501 0 -0.023128374433686354 -0.012502165101984281 0 -0.022778834231290835 -0.013133665266203026 0 -0.023314705075243372 -0.012926651079246501 0 -0.023403365457731876 -0.013671931485811157 0 -0.02409429163712663 -0.013304872170960233 0 -0.023314705075243372 -0.012926651079246501 0 -0.023403365457731876 -0.013671931485811157 0 -0.019377986794773438 -0.014223003726780483 0 -0.019513321726727071 -0.013608203223988728 0 -0.018986526630376213 -0.013696591755073165 0 -0.018665217871460766 -0.014074208286726342 0 -0.019377986794773438 -0.014223003726780483 0 -0.018986526630376213 -0.013696591755073165 0 -0.011249029054290999 -0.010697311428419252 0 -0.017476066921877049 -0.012144070257859914 0 -0.0032716649272924963 -0.0078791761161598264 0 -0.0038883245541346105 -0.0082928804595201258 0 -0.0039883159199698226 -0.0076932581665419709 0 -0.0032716649272924963 -0.0078791761161598264 0 -0.0037385884852974526 -0.0073472457056060142 0 -0.0039883159199698226 -0.0076932581665419709 0 -0.005639193875886169 -0.0067242363052683763 0 -0.0056736406452041399 -0.0067164064289077768 0 -0.0056182684701107516 -0.0066256062434218096 0 -0.011249029054290999 -0.010697311428419252 0 -0.0040001233164985777 -0.0068907157451224043 0 -0.012483628592530589 -0.010882715164843241 0 -0.011249029054290999 -0.010697311428419252 0 -0.01913329417287454 -0.015101065966079918 0 -0.018665217871460766 -0.014074208286726342 0 -0.019377986794773438 -0.014223003726780483 0 -0.01913329417287454 -0.015101065966079918 0 -0.019377986794773438 -0.014223003726780483 0 -0.020021816360604287 -0.014801928300271439 0 -0.020021816360604287 -0.014801928300271439 0 -0.020851249132037598 -0.014595351572528262 0 -0.020470840275854593 -0.014167212917577386 0 -0.020724012332058343 -0.015543898090968702 0 -0.020021816360604287 -0.014801928300271439 0 -0.020851249132037598 -0.014595351572528262 0 -0.020983816609519094 -0.013869034417157028 0 -0.020851249132037598 -0.014595351572528262 0 -0.020470840275854593 -0.014167212917577386 0 -0.020021816360604287 -0.014801928300271439 0 -0.020470840275854593 -0.014167212917577386 0 -0.019973715001293944 -0.013935341773302606 0 -0.020470840275854593 -0.014167212917577386 0 -0.019973715001293944 -0.013935341773302606 0 -0.020516327189419696 -0.013640704775538408 0 -0.020983816609519094 -0.013869034417157028 0 -0.020470840275854593 -0.014167212917577386 0 -0.020516327189419696 -0.013640704775538408 0 -0.019377986794773438 -0.014223003726780483 0 -0.020021816360604287 -0.014801928300271439 0 -0.019973715001293944 -0.013935341773302606 0 -0.019377986794773438 -0.014223003726780483 0 -0.019973715001293944 -0.013935341773302606 0 -0.019513321726727071 -0.013608203223988728 0 -0.019973715001293944 -0.013935341773302606 0 -0.019513321726727071 -0.013608203223988728 0 -0.020062362390175576 -0.013429740046750889 0 -0.020062362390175576 -0.013429740046750889 0 -0.019644466040900522 -0.013159704482996049 0 -0.020082864262293016 -0.012858939278409863 0 -0.019513321726727071 -0.013608203223988728 0 -0.020062362390175576 -0.013429740046750889 0 -0.019644466040900522 -0.013159704482996049 0 -0.019513321726727071 -0.013608203223988728 0 -0.019644466040900522 -0.013159704482996049 0 -0.018989104526236464 -0.0130694841960314 0 -0.020983816609519094 -0.013869034417157028 0 -0.021053928662438694 -0.013316870121818839 0 -0.020516327189419696 -0.013640704775538408 0 -0.019973715001293944 -0.013935341773302606 0 -0.020062362390175576 -0.013429740046750889 0 -0.020516327189419696 -0.013640704775538408 0 -0.020062362390175576 -0.013429740046750889 0 -0.020516327189419696 -0.013640704775538408 0 -0.020520707593181541 -0.013210696744664694 0 -0.020062362390175576 -0.013429740046750889 0 -0.020520707593181541 -0.013210696744664694 0 -0.020082864262293016 -0.012858939278409863 0 -0.021053928662438694 -0.013316870121818839 0 -0.020516327189419696 -0.013640704775538408 0 -0.020520707593181541 -0.013210696744664694 0 -0.021053928662438694 -0.013316870121818839 0 -0.020520707593181541 -0.013210696744664694 0 -0.020826657760528101 -0.013005950495315954 0 -0.020520707593181541 -0.013210696744664694 0 -0.020528275509130382 -0.012840439702075284 0 -0.020826657760528101 -0.013005950495315954 0 -0.020528275509130382 -0.012840439702075284 0 -0.020826657760528101 -0.013005950495315954 0 -0.020798204314200121 -0.012669425143302479 0 -0.020520707593181541 -0.013210696744664694 0 -0.020528275509130382 -0.012840439702075284 0 -0.020082864262293016 -0.012858939278409863 0 -0.020403638850974445 -0.012451176899731622 0 -0.020082864262293016 -0.012858939278409863 0 -0.019888199144926177 -0.01239904311359669 0 -0.020528275509130382 -0.012840439702075284 0 -0.020403638850974445 -0.012451176899731622 0 -0.020082864262293016 -0.012858939278409863 0 -0.020528275509130382 -0.012840439702075284 0 -0.020403638850974445 -0.012451176899731622 0 -0.020798204314200121 -0.012669425143302479 0 -0.020403638850974445 -0.012451176899731622 0 -0.020798204314200121 -0.012669425143302479 0 -0.020710870006017339 -0.012378318292654043 0 -0.019644466040900522 -0.013159704482996049 0 -0.01953049994411947 -0.012705958319517128 0 -0.018989104526236464 -0.0130694841960314 0 -0.019644466040900522 -0.013159704482996049 0 -0.020082864262293016 -0.012858939278409863 0 -0.01953049994411947 -0.012705958319517128 0 -0.020082864262293016 -0.012858939278409863 0 -0.019888199144926177 -0.01239904311359669 0 -0.01953049994411947 -0.012705958319517128 0 -0.019888199144926177 -0.01239904311359669 0 -0.01953049994411947 -0.012705958319517128 0 -0.019363816114232327 -0.012121343926781838 0 -0.01953049994411947 -0.012705958319517128 0 -0.018662996650078756 -0.012452532321567658 0 -0.019363816114232327 -0.012121343926781838 0 -0.01953049994411947 -0.012705958319517128 0 -0.018662996650078756 -0.012452532321567658 0 -0.018989104526236464 -0.0130694841960314 0 -0.018662996650078756 -0.012452532321567658 0 -0.018989104526236464 -0.0130694841960314 0 -0.018152768950459808 -0.013057058129809136 0 -0.018989104526236464 -0.0130694841960314 0 -0.018986526630376213 -0.013696591755073165 0 -0.018152768950459808 -0.013057058129809136 0 -0.019513321726727071 -0.013608203223988728 0 -0.018989104526236464 -0.0130694841960314 0 -0.018986526630376213 -0.013696591755073165 0 -0.011249029054290999 -0.010697311428419252 0 -0.01083453552990442 -0.01099501708685441 0 -0.018590961921054541 -0.014118813861356848 0 -0.018986526630376213 -0.013696591755073165 0 -0.018152768950459808 -0.013057058129809136 0 -0.0032716649272924963 -0.0078791761161598264 0 -0.0034947914573773605 -0.0087269834618507822 0 -0.0038883245541346105 -0.0082928804595201258 0 -0.01083453552990442 -0.01099501708685441 0 -0.010548055367241968 -0.010610755744761051 0 -0.018662996650078756 -0.012452532321567658 0 -0.018152768950459808 -0.013057058129809136 0 -0.017692006092758568 -0.012000418935585171 0 -0.0034947914573773605 -0.0087269834618507822 0 -0.0041702061325889 -0.0090763232688154723 0 -0.0038440062756279862 -0.0096821190326167525 0 -0.0041702061325889 -0.0090763232688154723 0 -0.0047724513529022435 -0.0093794504435583195 0 -0.0038440062756279862 -0.0096821190326167525 0 -0.0047724513529022435 -0.0093794504435583195 0 -0.0045448304313305734 -0.0088271278643267982 0 -0.0048377752026965131 -0.0086985890110426716 0 -0.0041702061325889 -0.0090763232688154723 0 -0.0047724513529022435 -0.0093794504435583195 0 -0.0045448304313305734 -0.0088271278643267982 0 -0.0041702061325889 -0.0090763232688154723 0 -0.0045448304313305734 -0.0088271278643267982 0 -0.0042645710863374424 -0.0085763929111412635 0 -0.0045448304313305734 -0.0088271278643267982 0 -0.0042645710863374424 -0.0085763929111412635 0 -0.0045722199804481972 -0.0084135483881409845 0 -0.0045448304313305734 -0.0088271278643267982 0 -0.0048377752026965131 -0.0086985890110426716 0 -0.0045722199804481972 -0.0084135483881409845 0 -0.0048377752026965131 -0.0086985890110426716 0 -0.0045722199804481972 -0.0084135483881409845 0 -0.0049309933881407234 -0.0081518818708604598 0 -0.0045722199804481972 -0.0084135483881409845 0 -0.0049309933881407234 -0.0081518818708604598 0 -0.0043287032489495621 -0.0080230413140229551 0 -0.0042645710863374424 -0.0085763929111412635 0 -0.0045722199804481972 -0.0084135483881409845 0 -0.0043287032489495621 -0.0080230413140229551 0 -0.0034947914573773605 -0.0087269834618507822 0 -0.0041702061325889 -0.0090763232688154723 0 -0.0038883245541346105 -0.0082928804595201258 0 -0.0041702061325889 -0.0090763232688154723 0 -0.0042645710863374424 -0.0085763929111412635 0 -0.0038883245541346105 -0.0082928804595201258 0 -0.0042645710863374424 -0.0085763929111412635 0 -0.0038883245541346105 -0.0082928804595201258 0 -0.0043287032489495621 -0.0080230413140229551 0 -0.0063284652998476963 -0.010185115554769614 0 -0.0067191409499517407 -0.0091018800021195317 0 -0.0072132906565677678 -0.010810534859274256 0 -0.0063284652998476963 -0.010185115554769614 0 -0.0072132906565677678 -0.010810534859274256 0 -0.0060636894404201809 -0.011344580160513974 0 -0.0063284652998476963 -0.010185115554769614 0 -0.0055817192987829131 -0.010275991219471942 0 -0.0060636894404201809 -0.011344580160513974 0 -0.0063284652998476963 -0.010185115554769614 0 -0.0055817192987829131 -0.010275991219471942 0 -0.0060098986670280132 -0.0094735478012534825 0 -0.0041813429638510235 -0.0099638834948406231 0 -0.0053519617504507689 -0.0086543231509405641 0 -0.0042357916488110856 -0.011002512501342303 0 -0.0055817192987829131 -0.010275991219471942 0 -0.005229563853922866 -0.011181224386194809 0 -0.0042357916488110856 -0.011002512501342303 0 -0.0055817192987829131 -0.010275991219471942 0 -0.0052988608445793152 -0.0085225801149971248 0 -0.0055817192987829131 -0.010275991219471942 0 -0.0060636894404201809 -0.011344580160513974 0 -0.005229563853922866 -0.011181224386194809 0 -0.0047724513529022435 -0.0093794504435583195 0 -0.0048377752026965131 -0.0086985890110426716 0 -0.0052988608445793152 -0.0085225801149971248 0 -0.0055817192987829131 -0.010275991219471942 0 -0.0052988608445793152 -0.0085225801149971248 0 -0.0060098986670280132 -0.0094735478012534825 0 -0.0052988608445793152 -0.0085225801149971248 0 -0.0067191409499517407 -0.0091018800021195317 0 -0.0049309933881407234 -0.0081518818708604598 0 -0.0048377752026965131 -0.0086985890110426716 0 -0.0052988608445793152 -0.0085225801149971248 0 -0.0049309933881407234 -0.0081518818708604598 0 -0.0052988608445793152 -0.0085225801149971248 0 -0.0060098986670280132 -0.0094735478012534825 0 -0.0067191409499517407 -0.0091018800021195317 0 -0.0057767100490727519 -0.0086572374026220797 0 -0.0046755233818150882 -0.0079823617454774908 0 -0.0048875243482356268 -0.008168766178791342 0 -0.0048786473297579309 -0.0081217819291889235 0 -0.0047744473962428435 -0.0081202844086834883 0 -0.0063284652998476963 -0.010185115554769614 0 -0.0060098986670280132 -0.0094735478012534825 0 -0.0067191409499517407 -0.0091018800021195317 0 -0.0043638193398698221 -0.0073889935543331167 0 -0.0043702463153047922 -0.0074981467510673444 0 -0.0044365012019608836 -0.0073990281571182388 0 -0.0043638193398698221 -0.0073889935543331167 0 -0.0043702463153047922 -0.0074981467510673444 0 -0.0043692390327834327 -0.0074826819106293182 0 -0.0043702463153047922 -0.0074981467510673444 0 -0.0043692390327834327 -0.0074826819106293182 0 -0.0043705713574028124 -0.0075622322908313055 0 -0.0043638193398698221 -0.0073889935543331167 0 -0.0043692390327834327 -0.0074826819106293182 0 -0.0043628469837339234 -0.0074198167269817232 0 -0.0046035479139277091 -0.0078105505427679411 0 -0.0046755233818150882 -0.0079823617454774908 0 -0.0043702463153047922 -0.0074981467510673444 0 -0.0043705713574028124 -0.0075622322908313055 0 -0.0043733801546387042 -0.0076110452459101988 0 -0.0043628469837339234 -0.0074198167269817232 0 -0.0043665923081217181 -0.0074573403943667812 0 -0.0043694685795460748 -0.0075134034358535461 0 -0.0043694685795460748 -0.0075134034358535461 0 -0.0043719476129266402 -0.0075626748173580052 0 -0.0043734793943629759 -0.0075540527775223368 0 -0.0043665923081217181 -0.0074573403943667812 0 -0.0043694685795460748 -0.0075134034358535461 0 -0.0043734793943629759 -0.0075540527775223368 0 -0.0043692390327834327 -0.0074826819106293182 0 -0.0043628469837339234 -0.0074198167269817232 0 -0.0043694685795460748 -0.0075134034358535461 0 -0.0043692390327834327 -0.0074826819106293182 0 -0.0043694685795460748 -0.0075134034358535461 0 -0.0043705713574028124 -0.0075622322908313055 0 -0.0043705713574028124 -0.0075622322908313055 0 -0.0043719476129266402 -0.0075626748173580052 0 -0.0043725885781169373 -0.0075971037097277583 0 -0.0043694685795460748 -0.0075134034358535461 0 -0.0043705713574028124 -0.0075622322908313055 0 -0.0043719476129266402 -0.0075626748173580052 0 -0.0043719476129266402 -0.0075626748173580052 0 -0.0043770765742083394 -0.0076074608868427667 0 -0.0043734793943629759 -0.0075540527775223368 0 -0.0043770765742083394 -0.0076074608868427667 0 -0.0043753871098102005 -0.0076110491896350663 0 -0.0043734793943629759 -0.0075540527775223368 0 -0.0043770765742083394 -0.0076074608868427667 0 -0.0043725885781169373 -0.0075971037097277583 0 -0.0043817246979509523 -0.0076323074874779552 0 -0.0043719476129266402 -0.0075626748173580052 0 -0.0043770765742083394 -0.0076074608868427667 0 -0.0043725885781169373 -0.0075971037097277583 0 -0.0043705713574028124 -0.0075622322908313055 0 -0.0043725885781169373 -0.0075971037097277583 0 -0.0043733801546387042 -0.0076110452459101988 0 -0.0043725885781169373 -0.0075971037097277583 0 -0.0043733801546387042 -0.0076110452459101988 0 -0.0043817246979509523 -0.0076323074874779552 0 -0.0046008003956849383 -0.0079406247761120551 0 -0.0046755233818150882 -0.0079823617454774908 0 -0.0043939350132510503 -0.0076796586210118494 0 -0.0043733801546387042 -0.0076110452459101988 0 -0.0043817246979509523 -0.0076323074874779552 0 -0.0043939350132510503 -0.0076796586210118494 0 -0.0043817246979509523 -0.0076323074874779552 0 -0.0043820018066157256 -0.0076464306391763361 0 -0.0043820018066157256 -0.0076464306391763361 0 -0.0043753871098102005 -0.0076110491896350663 0 -0.0043714005676972756 -0.0076862087319274205 0 -0.0043939350132510503 -0.0076796586210118494 0 -0.0043820018066157256 -0.0076464306391763361 0 -0.0043714005676972756 -0.0076862087319274205 0 -0.0043770765742083394 -0.0076074608868427667 0 -0.0043817246979509523 -0.0076323074874779552 0 -0.0043820018066157256 -0.0076464306391763361 0 -0.0043770765742083394 -0.0076074608868427667 0 -0.0043820018066157256 -0.0076464306391763361 0 -0.0043753871098102005 -0.0076110491896350663 0 -0.0043753871098102005 -0.0076110491896350663 0 -0.0043734793943629759 -0.0075540527775223368 0 -0.0043606033450722843 -0.0075185212936828968 0 -0.0043753871098102005 -0.0076110491896350663 0 -0.0043606033450722843 -0.0075185212936828968 0 -0.0043714005676972756 -0.0076862087319274205 0 -0.0043665923081217181 -0.0074573403943667812 0 -0.0043734793943629759 -0.0075540527775223368 0 -0.0043606033450722843 -0.0075185212936828968 0 -0.0043665923081217181 -0.0074573403943667812 0 -0.0043606033450722843 -0.0075185212936828968 0 -0.0043552873836038251 -0.0073570477402441778 0 -0.0043606033450722843 -0.0075185212936828968 0 -0.0043552873836038251 -0.0073570477402441778 0 -0.0043396985122767795 -0.0072818508619221269 0 -0.0043552873836038251 -0.0073570477402441778 0 -0.004346269373967494 -0.0071975325787046905 0 -0.0043396985122767795 -0.0072818508619221269 0 -0.004346269373967494 -0.0071975325787046905 0 -0.0043574373839234699 -0.0073468687777656578 0 -0.0043513456497577419 -0.007321026451129072 0 -0.0043552873836038251 -0.0073570477402441778 0 -0.004346269373967494 -0.0071975325787046905 0 -0.0043574373839234699 -0.0073468687777656578 0 -0.0043665923081217181 -0.0074573403943667812 0 -0.0043552873836038251 -0.0073570477402441778 0 -0.0043574373839234699 -0.0073468687777656578 0 -0.0043628469837339234 -0.0074198167269817232 0 -0.0043574373839234699 -0.0073468687777656578 0 -0.0043513456497577419 -0.007321026451129072 0 -0.0043628469837339234 -0.0074198167269817232 0 -0.0043665923081217181 -0.0074573403943667812 0 -0.0043574373839234699 -0.0073468687777656578 0 -0.0043638193398698221 -0.0073889935543331167 0 -0.0043628469837339234 -0.0074198167269817232 0 -0.0043513456497577419 -0.007321026451129072 0 -0.004346269373967494 -0.0071975325787046905 0 -0.0043242788002097196 -0.0072276767065115244 0 -0.0042584470487297922 -0.0070396762293834887 0 -0.004346269373967494 -0.0071975325787046905 0 -0.0043513456497577419 -0.007321026451129072 0 -0.0043242788002097196 -0.0072276767065115244 0 -0.0043242788002097196 -0.0072276767065115244 0 -0.0042584470487297922 -0.0070396762293834887 0 -0.0043847019108080847 -0.0072645267095260806 0 -0.0043638193398698221 -0.0073889935543331167 0 -0.0043242788002097196 -0.0072276767065115244 0 -0.0043847019108080847 -0.0072645267095260806 0 -0.0043638193398698221 -0.0073889935543331167 0 -0.0043513456497577419 -0.007321026451129072 0 -0.0043242788002097196 -0.0072276767065115244 0 -0.0038883245541346105 -0.0082928804595201258 0 -0.0039883159199698226 -0.0076932581665419709 0 -0.0043287032489495621 -0.0080230413140229551 0 -0.0043939350132510503 -0.0076796586210118494 0 -0.004406704903218958 -0.0076260533916558725 0 -0.0043287032489495621 -0.0080230413140229551 0 -0.0043287032489495621 -0.0080230413140229551 0 -0.0043714005676972756 -0.0076862087319274205 0 -0.0042836417274920748 -0.0075670384072742515 0 -0.0043939350132510503 -0.0076796586210118494 0 -0.0043287032489495621 -0.0080230413140229551 0 -0.0043714005676972756 -0.0076862087319274205 0 -0.0046755233818150882 -0.0079823617454774908 0 -0.004318034876966869 -0.0079815901235618832 0 -0.0043606033450722843 -0.0075185212936828968 0 -0.0043714005676972756 -0.0076862087319274205 0 -0.0042836417274920748 -0.0075670384072742515 0 -0.0039883159199698226 -0.0076932581665419709 0 -0.0043287032489495621 -0.0080230413140229551 0 -0.0042836417274920748 -0.0075670384072742515 0 -0.0042836417274920748 -0.0075670384072742515 0 -0.0043396985122767795 -0.0072818508619221269 0 -0.0041612568997035039 -0.0073601328847409248 0 -0.0043606033450722843 -0.0075185212936828968 0 -0.0042836417274920748 -0.0075670384072742515 0 -0.0043396985122767795 -0.0072818508619221269 0 -0.0043396985122767795 -0.0072818508619221269 0 -0.0041612568997035039 -0.0073601328847409248 0 -0.0042717280155095899 -0.0071809656768368393 0 -0.0037385884852974526 -0.0073472457056060142 0 -0.0039883159199698226 -0.0076932581665419709 0 -0.0041612568997035039 -0.0073601328847409248 0 -0.0039883159199698226 -0.0076932581665419709 0 -0.0042836417274920748 -0.0075670384072742515 0 -0.0041612568997035039 -0.0073601328847409248 0 -0.0037385884852974526 -0.0073472457056060142 0 -0.0041612568997035039 -0.0073601328847409248 0 -0.0041535174972510483 -0.0070455956497358458 0 -0.0040001233164985777 -0.0068907157451224043 0 -0.004791949171917052 -0.006819395272185844 0 -0.0056739572715742122 -0.0066651650878950773 0 -0.0056182684701107516 -0.0066256062434218096 0 -0.005304239270696288 -0.0065552522865350545 0 -0.0056739572715742122 -0.0066651650878950773 0 -0.005304239270696288 -0.0065552522865350545 0 -0.0053520799369238346 -0.0067600682946902376 0 -0.005304239270696288 -0.0065552522865350545 0 -0.0053520799369238346 -0.0067600682946902376 0 -0.0046262097962254077 -0.006993514342849263 0 -0.004791949171917052 -0.006819395272185844 0 -0.0045859064605633148 -0.007013281054202348 0 -0.0041535174972510483 -0.0070455956497358458 0 -0.0046262097962254077 -0.006993514342849263 0 -0.0043982410422845949 -0.0070611000588050562 0 -0.0046262097962254077 -0.006993514342849263 0 -0.0043982410422845949 -0.0070611000588050562 0 -0.004447187207484736 -0.0070141067129952479 0 -0.0041535174972510483 -0.0070455956497358458 0 -0.0043982410422845949 -0.0070611000588050562 0 -0.0042717280155095899 -0.0071809656768368393 0 -0.0043396985122767795 -0.0072818508619221269 0 -0.0043982410422845949 -0.0070611000588050562 0 -0.0042717280155095899 -0.0071809656768368393 0 -0.0041612568997035039 -0.0073601328847409248 0 -0.0041535174972510483 -0.0070455956497358458 0 -0.0042717280155095899 -0.0071809656768368393 0 -0.0043396985122767795 -0.0072818508619221269 0 -0.0043982410422845949 -0.0070611000588050562 0 -0.0043578668430587098 -0.0070548781094467066 0 -0.004346269373967494 -0.0071975325787046905 0 -0.0043396985122767795 -0.0072818508619221269 0 -0.0043578668430587098 -0.0070548781094467066 0 -0.0043982410422845949 -0.0070611000588050562 0 -0.0043578668430587098 -0.0070548781094467066 0 -0.004447187207484736 -0.0070141067129952479 0 -0.004346269373967494 -0.0071975325787046905 0 -0.0043578668430587098 -0.0070548781094467066 0 -0.0042584470487297922 -0.0070396762293834887 0 -0.0043578668430587098 -0.0070548781094467066 0 -0.0042584470487297922 -0.0070396762293834887 0 -0.0042439991190419586 -0.0068935144579436308 0 -0.0042584470487297922 -0.0070396762293834887 0 -0.0042439991190419586 -0.0068935144579436308 0 -0.0040118947248773632 -0.0066757219863051659 0 -0.0042439991190419586 -0.0068935144579436308 0 -0.0041472610529926842 -0.0072743158179537975 0 -0.0040118947248773632 -0.0066757219863051659 0 -0.0042439991190419586 -0.0068935144579436308 0 -0.0041472610529926842 -0.0072743158179537975 0 -0.0043063343216379396 -0.0071475908716860754 0 -0.0043578668430587098 -0.0070548781094467066 0 -0.0042439991190419586 -0.0068935144579436308 0 -0.0043568615397438634 -0.007003174789586581 0 -0.0042439991190419586 -0.0068935144579436308 0 -0.0043568615397438634 -0.007003174789586581 0 -0.0043063343216379396 -0.0071475908716860754 0 -0.0043578668430587098 -0.0070548781094467066 0 -0.004447187207484736 -0.0070141067129952479 0 -0.0043568615397438634 -0.007003174789586581 0 -0.0043568615397438634 -0.007003174789586581 0 -0.0044276965857567947 -0.0071303980639270299 0 -0.0043063343216379396 -0.0071475908716860754 0 -0.004447187207484736 -0.0070141067129952479 0 -0.0043568615397438634 -0.007003174789586581 0 -0.0044276965857567947 -0.0071303980639270299 0 -0.0046262097962254077 -0.006993514342849263 0 -0.004447187207484736 -0.0070141067129952479 0 -0.0044276965857567947 -0.0071303980639270299 0 -0.0062418328462500458 -0.0066686379256291149 0 -0.0058475927652149318 -0.0067264951802211122 0 -0.0044276965857567947 -0.0071303980639270299 0 -0.0043263164185559444 -0.0074107608217162104 0 -0.0049227076315867145 -0.0072687855213887645 0 -0.0044276965857567947 -0.0071303980639270299 0 -0.0043063343216379396 -0.0071475908716860754 0 -0.0043263164185559444 -0.0074107608217162104 0 -0.0041472610529926842 -0.0072743158179537975 0 -0.0043063343216379396 -0.0071475908716860754 0 -0.0043263164185559444 -0.0074107608217162104 0 -0.0041472610529926842 -0.0072743158179537975 0 -0.0043263164185559444 -0.0074107608217162104 0 -0.004062166289389821 -0.0074755171431615938 0 -0.0062418328462500458 -0.0066686379256291149 0 -0.0052923855951456942 -0.005905365648931649 0 -0.0079132806864562772 -0.0051887204330612205 0 -0.0077585020144151189 -0.0057949106757677988 0 -0.0084555385849907194 -0.0054960342404717878 0 -0.0075387928094348402 -0.0053200873384816024 0 -0.0077585020144151189 -0.0057949106757677988 0 -0.0071701698074704955 -0.005505642369818143 0 -0.0075387928094348402 -0.0053200873384816024 0 -0.0079132806864562772 -0.0051887204330612205 0 -0.0077585020144151189 -0.0057949106757677988 0 -0.0071701698074704955 -0.005505642369818143 0 -0.0064990813681240637 -0.0057521994877917076 0 -0.0068845736249192714 -0.0062226210512287107 0 -0.0077585020144151189 -0.0057949106757677988 0 -0.0071701698074704955 -0.005505642369818143 0 -0.0068845736249192714 -0.0062226210512287107 0 -0.0065717127959711331 -0.0050050825702864518 0 -0.0071701698074704955 -0.005505642369818143 0 -0.0064990813681240637 -0.0057521994877917076 0 -0.0057942316010777539 -0.0066614062249370654 0 -0.0064990813681240637 -0.0057521994877917076 0 -0.0068845736249192714 -0.0062226210512287107 0 -0.0058061720568014135 -0.0066863431452849811 0 -0.0058475927652149318 -0.0067264951802211122 0 -0.0057942316010777539 -0.0066614062249370654 0 -0.0053520799369238346 -0.0067600682946902376 0 -0.0049227076315867145 -0.0072687855213887645 0 -0.0053520799369238346 -0.0067600682946902376 0 -0.0046262097962254077 -0.006993514342849263 0 -0.0049227076315867145 -0.0072687855213887645 0 -0.0046262097962254077 -0.006993514342849263 0 -0.0044276965857567947 -0.0071303980639270299 0 -0.0049227076315867145 -0.0072687855213887645 0 -0.00047841928832169031 -0.0071571262092202572 0 -0.0001352267761333795 -0.007256767069835926 0 -0.0014568487267658057 -0.0071307628540504386 0 -0.00036210333489124967 -0.0070362981772675677 0 -0.0018744373121753267 -0.0081785746306722445 0 -0.0014568487267658057 -0.0071307628540504386 0 -0.00036210333489124967 -0.0070362981772675677 0 -0.0011429166015176021 -0.0064780897471270445 0 -0.00031719092972932653 -0.0067683666752780492 0 -0.00036210333489124967 -0.0070362981772675677 0 -0.00030044530762634794 -0.0064607426130670305 0 -0.00031719092972932653 -0.0067683666752780492 0 -0.0002982584586185389 -0.0065817339632839719 0 -0.00039352361439973877 -0.0065797990129108103 0 -0.00031719092972932653 -0.0067683666752780492 0 -0.00036210333489124967 -0.0070362981772675677 0 -0.0002982584586185389 -0.0065817339632839719 0 -0.0002982584586185389 -0.0065817339632839719 0 -0.00010548388327219184 -0.0060376146394964776 0 0.00034037304920117584 -0.0061408104515530727 0 -0.00036210333489124967 -0.0070362981772675677 0 -0.0002982584586185389 -0.0065817339632839719 0 0.00034037304920117584 -0.0061408104515530727 0 -0.0002982584586185389 -0.0065817339632839719 0 -0.00010548388327219184 -0.0060376146394964776 0 -0.00036593107355957299 -0.006315154293189823 0 0.00039986027599032503 -0.0053988949936071172 0 -0.00010548388327219184 -0.0060376146394964776 0 0.00034037304920117584 -0.0061408104515530727 0 -0.00036210333489124967 -0.0070362981772675677 0 0.00034037304920117584 -0.0061408104515530727 0 0.00097963682718307083 -0.006510211918515754 0 0.00034037304920117584 -0.0061408104515530727 0 0.0011778750550080514 -0.0060214205847201009 0 0.00097963682718307083 -0.006510211918515754 0 0.00087007478210121764 -0.005638303246779261 0 0.00034037304920117584 -0.0061408104515530727 0 0.0011778750550080514 -0.0060214205847201009 0 0.00087007478210121764 -0.005638303246779261 0 0.0011778750550080514 -0.0060214205847201009 0 0.0016055887198731745 -0.0058545429927579764 0 -0.0018744373121753267 -0.0081785746306722445 0 -0.0032312077408120613 -0.0087977830120120389 0 -0.003007725425486094 -0.007567563257624821 0 -0.0001352267761333795 -0.007256767069835926 0 -0.0030371356337359711 -0.0063421070586818021 0 0.0011778750550080514 -0.0060214205847201009 0 0.00097963682718307083 -0.006510211918515754 0 0.0017969216104636854 -0.0060162056790853619 0 0.0011778750550080514 -0.0060214205847201009 0 0.0016055887198731745 -0.0058545429927579764 0 0.0017969216104636854 -0.0060162056790853619 0 -0.0018701165410368577 -0.0059214346574640794 0 -0.0029059123997176727 -0.005652421096400807 0 -0.0041472610529926842 -0.0072743158179537975 0 -0.004062166289389821 -0.0074755171431615938 0 -0.0040405564753073671 -0.0074644457973502849 0 -0.0052923855951456942 -0.005905365648931649 0 -0.0030371356337359711 -0.0063421070586818021 0 -0.0032705846974633553 -0.0057317670143074697 0 -0.0033152056144550644 -0.0057124423597995433 0 -0.0032969756548375945 -0.0057454520831645706 0 -0.0052923855951456942 -0.005905365648931649 0 -0.0029059123997176727 -0.005652421096400807 0 0.0016055887198731745 -0.0058545429927579764 0 0.0017179221266737084 -0.0058946547732135427 0 0.0017969216104636854 -0.0060162056790853619 0 -0.0029059123997176727 -0.005652421096400807 0 -0.0030371356337359711 -0.0063421070586818021 0 -0.0041472610529926842 -0.0072743158179537975 0 -0.0032312077408120613 -0.0087977830120120389 0 -0.003007725425486094 -0.007567563257624821 0 -0.0041444715751021753 -0.0079322324588495721 0 -0.0030371356337359711 -0.0063421070586818021 0 -0.0041472610529926842 -0.0072743158179537975 0 -0.003007725425486094 -0.007567563257624821 0 -0.0040118947248773632 -0.0066757219863051659 0 -0.0014568487267658057 -0.0071307628540504386 0 -0.0018744373121753267 -0.0081785746306722445 0 -0.003007725425486094 -0.007567563257624821 0 -0.0014568487267658057 -0.0071307628540504386 0 -0.003007725425486094 -0.007567563257624821 0 -0.0023645925594300244 -0.006712103051918536 0 -0.0023645925594300244 -0.006712103051918536 0 -0.0040118947248773632 -0.0066757219863051659 0 -0.0023522975600253596 -0.005637826061401438 0 -0.0023645925594300244 -0.006712103051918536 0 -0.0023522975600253596 -0.005637826061401438 0 -0.0011429166015176021 -0.0064780897471270445 0 -0.003007725425486094 -0.007567563257624821 0 -0.0023645925594300244 -0.006712103051918536 0 -0.0040118947248773632 -0.0066757219863051659 0 -0.0040118947248773632 -0.0066757219863051659 0 -0.0043320454649714664 -0.0070595840856430983 0 -0.0046320502886931592 -0.0069675737408564321 0 -0.0039967489499697943 -0.0066499977452814663 0 -0.0034434912586791596 -0.0062457473438097431 0 -0.0042584470487297922 -0.0070396762293834887 0 -0.0040118947248773632 -0.0066757219863051659 0 -0.0043320454649714664 -0.0070595840856430983 0 -0.0042584470487297922 -0.0070396762293834887 0 -0.0043320454649714664 -0.0070595840856430983 0 -0.0043847019108080847 -0.0072645267095260806 0 -0.0043320454649714664 -0.0070595840856430983 0 -0.0046320502886931592 -0.0069675737408564321 0 -0.0044914198209887648 -0.0072286516238648096 0 -0.0046320502886931592 -0.0069675737408564321 0 -0.0044914198209887648 -0.0072286516238648096 0 -0.0046583614911594488 -0.0071968139772274663 0 -0.0046320502886931592 -0.0069675737408564321 0 -0.0048288188682411451 -0.0072074900281179225 0 -0.0046583614911594488 -0.0071968139772274663 0 -0.0023522975600253596 -0.005637826061401438 0 -0.0009389428902101891 -0.0059065397470789236 0 -0.0011638165523219681 -0.0051934432504998447 0 -0.0023522975600253596 -0.005637826061401438 0 -0.0009389428902101891 -0.0059065397470789236 0 -0.0011429166015176021 -0.0064780897471270445 0 -0.0034434912586791596 -0.0062457473438097431 0 -0.0030493459935132501 -0.0070373495343826033 0 -0.0046320502886931592 -0.0069675737408564321 0 -0.0048943525715934048 -0.0071729496031777444 0 -0.0048288188682411451 -0.0072074900281179225 0 -0.0014568487267658057 -0.0071307628540504386 0 -0.0023645925594300244 -0.006712103051918536 0 -0.0011429166015176021 -0.0064780897471270445 0 -0.00036210333489124967 -0.0070362981772675677 0 -0.0011429166015176021 -0.0064780897471270445 0 -0.00030044530762634794 -0.0064607426130670305 0 -0.0009389428902101891 -0.0059065397470789236 0 -0.0011429166015176021 -0.0064780897471270445 0 -0.00030044530762634794 -0.0064607426130670305 0 -0.0012420099882653809 -0.0069335064690721499 0 -0.0030493459935132501 -0.0070373495343826033 0 -0.0009389428902101891 -0.0059065397470789236 0 -0.00038160749674675723 -0.0058100340569004335 0 -0.00030044530762634794 -0.0064607426130670305 0 -0.0009389428902101891 -0.0059065397470789236 0 -0.00038160749674675723 -0.0058100340569004335 0 -0.0011638165523219681 -0.0051934432504998447 0 -0.0020786738898306884 -0.0081457002734225976 0 -0.002059973312698248 -0.0077416490053262271 0 -0.0024639189118901982 -0.0079457014904386822 0 -0.0053009471929460067 -0.0073499014878005888 0 -0.0049083599839686264 -0.0071572070720832505 0 -0.0049650510620173277 -0.0074128242325576304 0 -0.0040752955611916414 -0.0076441013890309198 0 -0.0030493459935132501 -0.0070373495343826033 0 -0.0053009471929460067 -0.0073499014878005888 0 -0.0049650510620173277 -0.0074128242325576304 0 -0.0051111013407666075 -0.0075951983778650284 0 -0.0049083599839686264 -0.0071572070720832505 0 -0.0048288188682411451 -0.0072074900281179225 0 -0.0049650510620173277 -0.0074128242325576304 0 -0.0030493459935132501 -0.0070373495343826033 0 -0.0040156842835344566 -0.0067883577142907499 0 -0.0048288188682411451 -0.0072074900281179225 0 -0.0046583614911594488 -0.0071968139772274663 0 -0.0047124886031798983 -0.0072987537045784718 0 -0.0048288188682411451 -0.0072074900281179225 0 -0.0047743841866612268 -0.0074221281346358355 0 -0.0047124886031798983 -0.0072987537045784718 0 -0.0048288188682411451 -0.0072074900281179225 0 -0.0047743841866612268 -0.0074221281346358355 0 -0.0049650510620173277 -0.0074128242325576304 0 -0.0047743841866612268 -0.0074221281346358355 0 -0.0048597958869663902 -0.0076979624320167514 0 -0.004526476606440755 -0.0075736846760335571 0 -0.0047743841866612268 -0.0074221281346358355 0 -0.0049650510620173277 -0.0074128242325576304 0 -0.0048597958869663902 -0.0076979624320167514 0 -0.0049650510620173277 -0.0074128242325576304 0 -0.0048597958869663902 -0.0076979624320167514 0 -0.0051111013407666075 -0.0075951983778650284 0 -0.0048597958869663902 -0.0076979624320167514 0 -0.0051111013407666075 -0.0075951983778650284 0 -0.0053686128469941459 -0.0078959788517527513 0 -0.0053009471929460067 -0.0073499014878005888 0 -0.0051111013407666075 -0.0075951983778650284 0 -0.0053686128469941459 -0.0078959788517527513 0 -0.0050120107128358423 -0.007879306560991544 0 -0.0053616432572712825 -0.0078917300575915613 0 -0.0043638193398698221 -0.0073889935543331167 0 -0.0043847019108080847 -0.0072645267095260806 0 -0.0044365012019608836 -0.0073990281571182388 0 -0.0043320454649714664 -0.0070595840856430983 0 -0.0043847019108080847 -0.0072645267095260806 0 -0.0044914198209887648 -0.0072286516238648096 0 -0.0043847019108080847 -0.0072645267095260806 0 -0.0044914198209887648 -0.0072286516238648096 0 -0.0044365012019608836 -0.0073990281571182388 0 -0.0045946115140140364 -0.007366979746364917 0 -0.0044914198209887648 -0.0072286516238648096 0 -0.0044365012019608836 -0.0073990281571182388 0 -0.0045946115140140364 -0.007366979746364917 0 -0.0044914198209887648 -0.0072286516238648096 0 -0.0046583614911594488 -0.0071968139772274663 0 -0.0045946115140140364 -0.007366979746364917 0 -0.0046583614911594488 -0.0071968139772274663 0 -0.0047124886031798983 -0.0072987537045784718 0 -0.0047743841866612268 -0.0074221281346358355 0 -0.0045946115140140364 -0.007366979746364917 0 -0.0047124886031798983 -0.0072987537045784718 0 -0.0050120107128358423 -0.007879306560991544 0 -0.0047666126832409039 -0.0078435060972086353 0 -0.0045946115140140364 -0.007366979746364917 0 -0.004526476606440755 -0.0075736846760335571 0 -0.0044365012019608836 -0.0073990281571182388 0 -0.0047743841866612268 -0.0074221281346358355 0 -0.0045946115140140364 -0.007366979746364917 0 -0.004526476606440755 -0.0075736846760335571 0 -0.0043702463153047922 -0.0074981467510673444 0 -0.004526476606440755 -0.0075736846760335571 0 -0.0044365012019608836 -0.0073990281571182388 0 -0.0046035479139277091 -0.0078105505427679411 0 -0.0047666126832409039 -0.0078435060972086353 0 -0.0048875243482356268 -0.008168766178791342 0 -0.0048786473297579309 -0.0081217819291889235 0 -0.0049813314230573143 -0.0081114972842002576 0 -0.0048875243482356268 -0.008168766178791342 0 -0.0049813314230573143 -0.0081114972842002576 0 -0.0050050556507899909 -0.0082307173745850941 0 -0.0057767100490727519 -0.0086572374026220797 0 -0.0071330229199109228 -0.0089644638935019796 0 -0.0049813314230573143 -0.0081114972842002576 0 -0.0050050556507899909 -0.0082307173745850941 0 -0.0050921983764802975 -0.0081927340817477094 0 -0.008632250281683922 -0.009947809919537226 0 -0.01051782975738369 -0.010711215471948931 0 -0.0089887400264665202 -0.012219788621848556 0 -0.0067191409499517407 -0.0091018800021195317 0 -0.008632250281683922 -0.009947809919537226 0 -0.0072132906565677678 -0.010810534859274256 0 -0.008632250281683922 -0.009947809919537226 0 -0.0072132906565677678 -0.010810534859274256 0 -0.007831083580975895 -0.011674291432943839 0 -0.0052132991082172184 -0.0081650943656666648 0 -0.005168324258787077 -0.0083462994571939352 0 -0.0054199089442192334 -0.0081991708311772368 0 -0.0051147911916729263 -0.0080661456513786318 0 -0.0052132991082172184 -0.0081650943656666648 0 -0.0053686128469941459 -0.0078959788517527513 0 -0.0052132991082172184 -0.0081650943656666648 0 -0.0053686128469941459 -0.0078959788517527513 0 -0.0054199089442192334 -0.0081991708311772368 0 -0.0051147911916729263 -0.0080661456513786318 0 -0.0052132991082172184 -0.0081650943656666648 0 -0.0050921983764802975 -0.0081927340817477094 0 -0.0051147911916729263 -0.0080661456513786318 0 -0.0049813314230573143 -0.0081114972842002576 0 -0.0050921983764802975 -0.0081927340817477094 0 -0.0050050556507899909 -0.0082307173745850941 0 -0.0050921983764802975 -0.0081927340817477094 0 -0.005168324258787077 -0.0083462994571939352 0 -0.0052132991082172184 -0.0081650943656666648 0 -0.0050921983764802975 -0.0081927340817477094 0 -0.005168324258787077 -0.0083462994571939352 0 -0.0071330229199109228 -0.0089644638935019796 0 -0.0060571876351333811 -0.010913504175296929 0 -0.0060571876351333811 -0.010913504175296929 0 -0.0046354856984791894 -0.012581988349230765 0 -0.0045043700809789464 -0.0090491144971457139 0 -0.0054199089442192334 -0.0081991708311772368 0 -0.0054043378305400997 -0.008857544536263192 0 -0.0060571876351333811 -0.010913504175296929 0 -0.0051598955665636036 -0.0075771887087816023 0 -0.0045043700809789464 -0.0090491144971457139 0 -0.0052906885652918255 -0.0093408443081113724 0 -0.0054043378305400997 -0.008857544536263192 0 -0.0049046004227219532 -0.016209651122092057 0 -0.0046390254803522976 -0.015375225037244315 0 -0.0038342498236267767 -0.015694440845553683 0 -0.0046390254803522976 -0.015375225037244315 0 -0.0041239130786402539 -0.01544400306775863 0 -0.0038342498236267767 -0.015694440845553683 0 -0.0049046004227219532 -0.016209651122092057 0 -0.0046390254803522976 -0.015375225037244315 0 -0.0061274590407791795 -0.015117558550207008 0 -0.0060571876351333811 -0.010913504175296929 0 -0.0077097064682151968 -0.014035628772447477 0 -0.0046390254803522976 -0.015375225037244315 0 -0.0051948837137595133 -0.014508874629325551 0 -0.0061274590407791795 -0.015117558550207008 0 -0.0051948837137595133 -0.014508874629325551 0 -0.004167372460743282 -0.014638239813465239 0 -0.0047710777888463878 -0.013755626353989298 0 -0.0046390254803522976 -0.015375225037244315 0 -0.0051948837137595133 -0.014508874629325551 0 -0.004167372460743282 -0.014638239813465239 0 -0.0046390254803522976 -0.015375225037244315 0 -0.0041239130786402539 -0.01544400306775863 0 -0.004167372460743282 -0.014638239813465239 0 -0.0032398323678794151 -0.018090260262756192 0 -0.0027005253460098849 -0.018426942698526329 0 -0.00013740873029713762 -0.01892356096247199 0 -0.0026563101621300744 -0.018674661239858815 0 -0.0023125372149443942 -0.020285671472040655 0 -0.0026785013207709985 -0.01693640475597228 0 -0.0017732826658638961 -0.018153825223684014 0 -0.0035516181609103908 -0.018073762307859897 0 -0.0036526796557963979 -0.015550215160770221 0 -0.0032398323678794151 -0.018090260262756192 0 -0.005167333147126669 -0.019997862918608077 0 -0.0044733933878825941 -0.020979336507459964 0 -0.0041142221484387611 -0.020072956991685841 0 -0.0051948837137595133 -0.014508874629325551 0 -0.0047710777888463878 -0.013755626353989298 0 -0.0062924238246820649 -0.01363118410060145 0 -0.0032398323678794151 -0.018090260262756192 0 -0.005308489596815652 -0.016654987728944071 0 -0.00013740873029713762 -0.01892356096247199 0 0.0017787403633391457 -0.021638000905255007 0 -0.00088253167709289248 -0.02122472838454011 0 -0.0032398323678794151 -0.018090260262756192 0 -0.00088471370574071931 -0.021586171781921529 0 -0.00013740873029713762 -0.01892356096247199 0 -0.00088253167709289248 -0.02122472838454011 0 -0.0023125372149443942 -0.020285671472040655 0 -0.0062731024765129307 -0.017824384708531451 0 -0.0062540072805611557 -0.021588660903206665 0 -0.0035547746023713122 -0.021051489864878078 0 -0.0041142221484387611 -0.020072956991685841 0 -0.0030287024789926193 -0.020121092798576996 0 -0.0035547746023713122 -0.021051489864878078 0 -0.0030287024789926193 -0.020121092798576996 0 -0.0033264432305376208 -0.021120101720803787 0 -0.0044733933878825941 -0.020979336507459964 0 -0.0035547746023713122 -0.021051489864878078 0 -0.0041142221484387611 -0.020072956991685841 0 -0.005308489596815652 -0.016654987728944071 0 -0.0062731024765129307 -0.017824384708531451 0 -0.0062924238246820649 -0.01363118410060145 0 -0.007127404308060351 -0.013881538306622703 0 -0.0071316585399482518 -0.013837497716927379 0 -0.007127404308060351 -0.013881538306622703 0 -0.0071316585399482518 -0.013837497716927379 0 -0.0069268849259245327 -0.013911668074036399 0 -0.007127404308060351 -0.013881538306622703 0 -0.0068501944348079886 -0.013532965158625412 0 -0.0069268849259245327 -0.013911668074036399 0 -0.007127404308060351 -0.013881538306622703 0 -0.0073222256567048744 -0.012834498820663051 0 -0.0089887400264665202 -0.012219788621848556 0 -0.0073222256567048744 -0.012834498820663051 0 -0.0065386133363438638 -0.013022530480096939 0 -0.0068501944348079886 -0.013532965158625412 0 -0.007127404308060351 -0.013881538306622703 0 -0.0073222256567048744 -0.012834498820663051 0 -0.0068501944348079886 -0.013532965158625412 0 -0.0073222256567048744 -0.012834498820663051 0 -0.006858125851499257 -0.012202568291798527 0 -0.0065386133363438638 -0.013022530480096939 0 -0.0071301026621334801 -0.013781515076713234 0 -0.0077097064682151968 -0.014035628772447477 0 -0.0051948837137595133 -0.014508874629325551 0 -0.0062924238246820649 -0.01363118410060145 0 -0.0061274590407791795 -0.015117558550207008 0 -0.0062924238246820649 -0.01363118410060145 0 -0.007127404308060351 -0.013881538306622703 0 -0.0061274590407791795 -0.015117558550207008 0 -0.008632250281683922 -0.009947809919537226 0 -0.0089887400264665202 -0.012219788621848556 0 -0.007831083580975895 -0.011674291432943839 0 -0.0072132906565677678 -0.010810534859274256 0 -0.007831083580975895 -0.011674291432943839 0 -0.006858125851499257 -0.012202568291798527 0 -0.0073222256567048744 -0.012834498820663051 0 -0.0089887400264665202 -0.012219788621848556 0 -0.007831083580975895 -0.011674291432943839 0 -0.0073222256567048744 -0.012834498820663051 0 -0.007831083580975895 -0.011674291432943839 0 -0.006858125851499257 -0.012202568291798527 0 -0.0072132906565677678 -0.010810534859274256 0 -0.006858125851499257 -0.012202568291798527 0 -0.0060636894404201809 -0.011344580160513974 0 -0.006858125851499257 -0.012202568291798527 0 -0.0060636894404201809 -0.011344580160513974 0 -0.0060529973988023931 -0.012372680316668116 0 -0.0060636894404201809 -0.011344580160513974 0 -0.005229563853922866 -0.011181224386194809 0 -0.0050059079131950868 -0.012073845017856785 0 -0.0042357916488110856 -0.011002512501342303 0 -0.005229563853922866 -0.011181224386194809 0 -0.0050059079131950868 -0.012073845017856785 0 -0.0060636894404201809 -0.011344580160513974 0 -0.0050059079131950868 -0.012073845017856785 0 -0.0060529973988023931 -0.012372680316668116 0 -0.0050059079131950868 -0.012073845017856785 0 -0.0043899860183901056 -0.013083358901231065 0 -0.0047437842903365742 -0.013475092178539384 0 -0.0050059079131950868 -0.012073845017856785 0 -0.0058047590557031778 -0.013171583421653109 0 -0.0060529973988023931 -0.012372680316668116 0 -0.0050059079131950868 -0.012073845017856785 0 -0.0058047590557031778 -0.013171583421653109 0 -0.0047437842903365742 -0.013475092178539384 0 -0.0058047590557031778 -0.013171583421653109 0 -0.0065386133363438638 -0.013022530480096939 0 -0.00638589051391496 -0.013725954857627034 0 -0.0065386133363438638 -0.013022530480096939 0 -0.0068501944348079886 -0.013532965158625412 0 -0.00638589051391496 -0.013725954857627034 0 -0.006858125851499257 -0.012202568291798527 0 -0.0065386133363438638 -0.013022530480096939 0 -0.0060529973988023931 -0.012372680316668116 0 -0.0058047590557031778 -0.013171583421653109 0 -0.0065386133363438638 -0.013022530480096939 0 -0.0060529973988023931 -0.012372680316668116 0 -0.0042357916488110856 -0.011002512501342303 0 -0.0050059079131950868 -0.012073845017856785 0 -0.0033224248852963454 -0.013300994602584682 0 -0.0047724513529022435 -0.0093794504435583195 0 -0.0038440062756279862 -0.0096821190326167525 0 -0.0044174203745197711 -0.010473504905316938 0 -0.0041813429638510235 -0.0099638834948406231 0 -0.0062468952696748212 -0.013186079978043301 0 -0.003981135474919158 -0.012419654375024392 0 -0.0062468952696748212 -0.013186079978043301 0 -0.0050059079131950868 -0.012073845017856785 0 -0.0043899860183901056 -0.013083358901231065 0 -0.0037157815949995445 -0.013193257941489388 0 -0.0043899860183901056 -0.013083358901231065 0 -0.0040985648206370703 -0.013579858024750776 0 -0.0047437842903365742 -0.013475092178539384 0 -0.0043899860183901056 -0.013083358901231065 0 -0.0037157815949995445 -0.013193257941489388 0 -0.0040985648206370703 -0.013579858024750776 0 -0.017692006092758568 -0.012000418935585171 0 -0.017240912263085162 -0.010919757093707254 0 -0.018083334606338528 -0.011148950803948229 0 -0.0038440062756279862 -0.0096821190326167525 0 -0.0044174203745197711 -0.010473504905316938 0 -0.0042424203953095986 -0.010616098821712808 0 -0.010548055367241968 -0.010610755744761051 0 -0.012332202270783551 -0.011545131662462032 0 -0.0062468952696748212 -0.013186079978043301 0 -0.012332202270783551 -0.011545131662462032 0 -0.0095584495972656711 -0.013114431587585207 0 -0.010574775508546503 -0.012396907089578808 0 -0.010255863785622292 -0.0115712911125345 0 -0.0062468952696748212 -0.013186079978043301 0 -0.012723473929529642 -0.013476697884842168 0 -0.019333800120231601 -0.015087077051997735 0 -0.019360486187088844 -0.015080337508687709 0 -0.019378904330396067 -0.01508205612575903 0 -0.017240912263085162 -0.010919757093707254 0 -0.018083334606338528 -0.011148950803948229 0 -0.017909083516600859 -0.010469523398113743 0 -0.019360486187088844 -0.015080337508687709 0 -0.019411506726868939 -0.015071497268515156 0 -0.019395839693000943 -0.01506991107888098 0 -0.019318240611480401 -0.015080953155108717 0 -0.019360486187088844 -0.015080337508687709 0 -0.019395839693000943 -0.01506991107888098 0 -0.012332202270783551 -0.011545131662462032 0 -0.019200555957077411 -0.012308640149842211 0 -0.019314201691166571 -0.015088604068502778 0 -0.019318240611480401 -0.015080953155108717 0 -0.019395839693000943 -0.01506991107888098 0 -0.012723473929529642 -0.013476697884842168 0 -0.016588434312092736 -0.013817343554713061 0 -0.012332202270783551 -0.011545131662462032 0 -0.012723473929529642 -0.013476697884842168 0 -0.0037157815949995445 -0.013193257941489388 0 -0.0034977123129270441 -0.013706811118844042 0 -0.0040985648206370703 -0.013579858024750776 0 -0.0034977123129270441 -0.013706811118844042 0 -0.0040985648206370703 -0.013579858024750776 0 -0.0043553322638591055 -0.014385350643862678 0 -0.0040985648206370703 -0.013579858024750776 0 -0.0043553322638591055 -0.014385350643862678 0 -0.0047437842903365742 -0.013475092178539384 0 -0.004599527694739979 -0.01493076018456118 0 -0.0049443059231055152 -0.015982607488312477 0 -0.0043553322638591055 -0.014385350643862678 0 -0.0047437842903365742 -0.013475092178539384 0 -0.0050511064903956699 -0.014330348890747366 0 -0.0034977123129270441 -0.013706811118844042 0 -0.0043553322638591055 -0.014385350643862678 0 -0.0042876861846867379 -0.015683554513645261 0 -0.0043553322638591055 -0.014385350643862678 0 -0.0042876861846867379 -0.015683554513645261 0 -0.0051456193852889654 -0.014347282010026993 0 -0.019333800120231601 -0.015087077051997735 0 -0.019322782731244978 -0.015086547219970693 0 -0.019378904330396067 -0.01508205612575903 0 -0.012723473929529642 -0.013476697884842168 0 -0.0097888317194493209 -0.017466411472373336 0 -0.0097888317194493209 -0.017466411472373336 0 -0.0049443059231055152 -0.015982607488312477 0 -0.019322782731244978 -0.015086547219970693 0 -0.019378904330396067 -0.01508205612575903 0 -0.019478939190274495 -0.015065497222786125 0 -0.019378904330396067 -0.01508205612575903 0 -0.019411506726868939 -0.015071497268515156 0 -0.019478939190274495 -0.015065497222786125 0 -0.019360486187088844 -0.015080337508687709 0 -0.019378904330396067 -0.01508205612575903 0 -0.019411506726868939 -0.015071497268515156 0 -0.0062731024765129307 -0.017824384708531451 0 -0.0049443059231055152 -0.015982607488312477 0 -0.0070297456423781251 -0.014298344978277436 0 -0.00638589051391496 -0.013725954857627034 0 -0.0049345330265312161 -0.014487142949521616 0 -0.0062731024765129307 -0.017824384708531451 0 -0.0059806578144407123 -0.015900940309577588 0 -0.0070297456423781251 -0.014298344978277436 0 -0.0069268849259245327 -0.013911668074036399 0 -0.00638589051391496 -0.013725954857627034 0 -0.0068501944348079886 -0.013532965158625412 0 -0.0069268849259245327 -0.013911668074036399 0 -0.00638589051391496 -0.013725954857627034 0 -0.0058047590557031778 -0.013171583421653109 0 -0.00638589051391496 -0.013725954857627034 0 -0.0049345330265312161 -0.014487142949521616 0 -0.0058047590557031778 -0.013171583421653109 0 -0.0047437842903365742 -0.013475092178539384 0 -0.0050511064903956699 -0.014330348890747366 0 -0.0059490867548604399 -0.012828293614166092 0 -0.0049443059231055152 -0.015982607488312477 0 -0.0049387503554795742 -0.021107319482172548 0 -0.0058027753616077911 -0.019657466533660024 0 -0.0059808351509256499 -0.02084361461934443 0 -0.0058027753616077911 -0.019657466533660024 0 -0.0059808351509256499 -0.02084361461934443 0 -0.007383226529074062 -0.020718528455627536 0 -0.0059808351509256499 -0.02084361461934443 0 -0.007383226529074062 -0.020718528455627536 0 -0.0064309788134358078 -0.021795062987790617 0 -0.0049387503554795742 -0.021107319482172548 0 -0.0059808351509256499 -0.02084361461934443 0 -0.0056936497215596127 -0.021481651054266176 0 -0.0079354963638938528 -0.019436592190597159 0 -0.007383226529074062 -0.020718528455627536 0 -0.0088222357415195015 -0.021494526949533559 0 -0.0079354963638938528 -0.019436592190597159 0 -0.0058027753616077911 -0.019657466533660024 0 -0.007383226529074062 -0.020718528455627536 0 -0.007383226529074062 -0.020718528455627536 0 -0.0074661534321258929 -0.021994641256700722 0 -0.0088222357415195015 -0.021494526949533559 0 -0.0074661534321258929 -0.021994641256700722 0 -0.0078218560465041151 -0.023235600826761862 0 -0.0088222357415195015 -0.021494526949533559 0 -0.0074661534321258929 -0.021994641256700722 0 -0.0078218560465041151 -0.023235600826761862 0 -0.0070642859809991959 -0.02273606668923223 0 -0.0070642859809991959 -0.02273606668923223 0 -0.0063682403124885305 -0.0232529465893417 0 -0.0062938360644432976 -0.022294655539626704 0 -0.0078218560465041151 -0.023235600826761862 0 -0.0070642859809991959 -0.02273606668923223 0 -0.0063682403124885305 -0.0232529465893417 0 -0.007383226529074062 -0.020718528455627536 0 -0.0062938360644432976 -0.022294655539626704 0 -0.005881384695812856 -0.022419021239660612 0 -0.0072845676753741546 -0.020736976283429701 0 -0.0065214591001066932 -0.022752231922646856 0 -0.0074661534321258929 -0.021994641256700722 0 -0.0070642859809991959 -0.02273606668923223 0 -0.0062938360644432976 -0.022294655539626704 0 -0.007383226529074062 -0.020718528455627536 0 -0.0074661534321258929 -0.021994641256700722 0 -0.0062938360644432976 -0.022294655539626704 0 -0.0064232071368922009 -0.022719961655574866 0 -0.0065214591001066932 -0.022752231922646856 0 -0.0059808351509256499 -0.02084361461934443 0 -0.0056936497215596127 -0.021481651054266176 0 -0.0064309788134358078 -0.021795062987790617 0 -0.007844131345079771 -0.02379652693400388 0 -0.0080194989873357408 -0.023610343519210941 0 -0.008069928593294657 -0.023734280391148586 0 -0.0065214591001066932 -0.022752231922646856 0 -0.0085101563394228766 -0.025679237044450735 0 -0.0056936497215596127 -0.021481651054266176 0 -0.0064309788134358078 -0.021795062987790617 0 -0.0053515201229826339 -0.022132757464255474 0 -0.0065214591001066932 -0.022752231922646856 0 -0.0092058841083391164 -0.023065830218272035 0 -0.0063682403124885305 -0.0232529465893417 0 -0.0058882435741487715 -0.022428018294024063 0 -0.0045970037309017581 -0.024014605823142483 0 -0.0063682403124885305 -0.0232529465893417 0 -0.0062938360644432976 -0.022294655539626704 0 -0.0058882435741487715 -0.022428018294024063 0 -0.0063682403124885305 -0.0232529465893417 0 -0.0045970037309017581 -0.024014605823142483 0 -0.0065326315150140962 -0.024802791375561357 0 -0.0085101563394228766 -0.025679237044450735 0 -0.007191195296191567 -0.027760208854406866 0 -0.0045970037309017581 -0.024014605823142483 0 -0.0065326315150140962 -0.024802791375561357 0 -0.0053364719151906504 -0.025949159690930545 0 -0.0078218560465041151 -0.023235600826761862 0 -0.0065326315150140962 -0.024802791375561357 0 -0.0082442616878197466 -0.025997815235867892 0 -0.0078218560465041151 -0.023235600826761862 0 -0.0063682403124885305 -0.0232529465893417 0 -0.0065326315150140962 -0.024802791375561357 0 -0.019322782731244978 -0.015086547219970693 0 -0.019478939190274495 -0.015065497222786125 0 -0.019451192787574088 -0.014998812831781434 0 -0.019559728420604754 -0.015017353127206713 0 -0.019478939190274495 -0.015065497222786125 0 -0.019451192787574088 -0.014998812831781434 0 -0.019559728420604754 -0.015017353127206713 0 -0.019478939190274495 -0.015065497222786125 0 -0.019627988371598952 -0.015018950130894626 0 -0.0097888317194493209 -0.017466411472373336 0 -0.015738952566063065 -0.020874245728939082 0 -0.011591626667304622 -0.02105285283840019 0 -0.01126042078496825 -0.020213032482501621 0 -0.012443033681020357 -0.019845957344594056 0 -0.0097888317194493209 -0.017466411472373336 0 -0.0092058841083391164 -0.023065830218272035 0 -0.0049387503554795742 -0.021107319482172548 0 -0.0056936497215596127 -0.021481651054266176 0 -0.0053515201229826339 -0.022132757464255474 0 -0.013287609856789385 -0.025638703666509683 0 -0.012411689547790122 -0.026940097431996411 0 -0.010690219690669809 -0.026490939794032598 0 -0.0092058841083391164 -0.023065830218272035 0 -0.015738952566063065 -0.020874245728939082 0 -0.012411689547790122 -0.026940097431996411 0 -0.010690219690669809 -0.026490939794032598 0 -0.012177179869100514 -0.028937815244925041 0 -0.013786867267932785 -0.026915045670622563 0 -0.013287609856789385 -0.025638703666509683 0 -0.012411689547790122 -0.026940097431996411 0 -0.0085101563394228766 -0.025679237044450735 0 -0.0092058841083391164 -0.023065830218272035 0 -0.0085101563394228766 -0.025679237044450735 0 -0.0099015915220185286 -0.02903778237527932 0 -0.013786867267932785 -0.026915045670622563 0 -0.012411689547790122 -0.026940097431996411 0 -0.012177179869100514 -0.028937815244925041 0 -0.010690219690669809 -0.026490939794032598 0 -0.0093887772984332495 -0.028476179810963304 0 -0.012177179869100514 -0.028937815244925041 0 -0.015738952566063065 -0.020874245728939082 0 -0.013576687949782401 -0.032971001755620268 0 -0.01773315177574715 -0.023723479017510749 0 -0.015295468135333461 -0.027431259915334235 0 -0.014130063898490778 -0.024903470308575197 0 -0.015738952566063065 -0.020874245728939082 0 -0.018840625608994611 -0.023433104584428013 0 -0.019559728420604754 -0.015017353127206713 0 -0.019451192787574088 -0.014998812831781434 0 -0.019622401400485389 -0.014966845733200675 0 -0.0093887772984332495 -0.028476179810963304 0 -0.012177179869100514 -0.028937815244925041 0 -0.010529279683651378 -0.030978021776897454 0 -0.010214143602884045 -0.036066425093567361 0 -0.010342086955809826 -0.03638210266376888 0 -0.010161093820903397 -0.03639752956081007 0 -0.013576687949782401 -0.032971001755620268 0 -0.009388281706403644 -0.033469485094874164 0 -0.0072923319430322252 -0.029527501546700044 0 -0.007682081170263335 -0.031379361011795143 0 -0.0085615566622762439 -0.03075669962054094 0 -0.0084867704772540655 -0.028042639711631446 0 -0.0072923319430322252 -0.029527501546700044 0 -0.0091647626246235715 -0.029823699961533865 0 -0.0072923319430322252 -0.029527501546700044 0 -0.0091647626246235715 -0.029823699961533865 0 -0.0085615566622762439 -0.03075669962054094 0 -0.0072923319430322252 -0.029527501546700044 0 -0.007682081170263335 -0.031379361011795143 0 -0.0061148974824220131 -0.031000255518965764 0 -0.0099015915220185286 -0.02903778237527932 0 -0.009388281706403644 -0.033469485094874164 0 -0.007682081170263335 -0.031379361011795143 0 -0.0061148974824220131 -0.031000255518965764 0 -0.0070406702295973626 -0.033003470290004236 0 -0.007682081170263335 -0.031379361011795143 0 -0.0085615566622762439 -0.03075669962054094 0 -0.0085775464445576963 -0.031582994126002344 0 -0.007682081170263335 -0.031379361011795143 0 -0.0083068890106983324 -0.03238183060394427 0 -0.0070406702295973626 -0.033003470290004236 0 -0.007682081170263335 -0.031379361011795143 0 -0.0083068890106983324 -0.03238183060394427 0 -0.0085775464445576963 -0.031582994126002344 0 -0.01009514812453258 -0.036557569370193707 0 -0.010095903990709351 -0.036593978302356729 0 -0.010092648851830437 -0.036611473748916913 0 -0.009388281706403644 -0.033469485094874164 0 -0.008588551001782933 -0.034900514931204482 0 -0.009388281706403644 -0.033469485094874164 0 -0.0097132865314952851 -0.036994883778519734 0 -0.010342086955809826 -0.03638210266376888 0 -0.010161093820903397 -0.03639752956081007 0 -0.010095903990709351 -0.036593978302356729 0 -0.0065871788242145976 -0.026536120080480868 0 -0.0067396074569062029 -0.028039745343441801 0 -0.0082442616878197466 -0.025997815235867892 0 -0.0065326315150140962 -0.024802791375561357 0 -0.0065871788242145976 -0.026536120080480868 0 -0.0082442616878197466 -0.025997815235867892 0 -0.0065326315150140962 -0.024802791375561357 0 -0.0065871788242145976 -0.026536120080480868 0 -0.0053364719151906504 -0.025949159690930545 0 -0.0065871788242145976 -0.026536120080480868 0 -0.0053364719151906504 -0.025949159690930545 0 -0.0060817662289202167 -0.027897389214984507 0 -0.007191195296191567 -0.027760208854406866 0 -0.0073205016323373978 -0.030441388617206026 0 -0.0091647626246235715 -0.029823699961533865 0 -0.0093962407715260723 -0.031492218495070792 0 -0.0085615566622762439 -0.03075669962054094 0 -0.0091647626246235715 -0.029823699961533865 0 -0.0093962407715260723 -0.031492218495070792 0 -0.0098258562713970585 -0.031585388763483394 0 -0.008430164414696642 -0.030777332659261133 0 -0.0073205016323373978 -0.030441388617206026 0 -0.0093962407715260723 -0.031492218495070792 0 -0.0085615566622762439 -0.03075669962054094 0 -0.0085775464445576963 -0.031582994126002344 0 -0.0093962407715260723 -0.031492218495070792 0 -0.0085775464445576963 -0.031582994126002344 0 -0.0091964824067361454 -0.032139960300040731 0 -0.0083068890106983324 -0.03238183060394427 0 -0.0085775464445576963 -0.031582994126002344 0 -0.0091964824067361454 -0.032139960300040731 0 -0.0098237059233848827 -0.031587950968197401 0 -0.0091964824067361454 -0.032139960300040731 0 -0.010056854232592487 -0.032193464312985878 0 -0.0073205016323373978 -0.030441388617206026 0 -0.0066724622028326696 -0.03232752721894705 0 -0.0093962407715260723 -0.031492218495070792 0 -0.0098237059233848827 -0.031587950968197401 0 -0.0091964824067361454 -0.032139960300040731 0 -0.0033436879578380278 -0.028116512634876686 0 -0.0043081823200125866 -0.028329070276161404 0 -0.003987436079945457 -0.027215766390507285 0 -0.003919944242274531 -0.032777375221015717 0 -0.0040218880084629885 -0.032639705047653143 0 -0.0042551107711460961 -0.032937198613128021 0 -0.0040218880084629885 -0.032639705047653143 0 -0.004590093382826955 -0.03277062159333146 0 -0.0042551107711460961 -0.032937198613128021 0 -0.005347611646863256 -0.029837937843304334 0 -0.0044918749547622015 -0.030577308908361505 0 -0.005347611646863256 -0.029837937843304334 0 -0.0064307796723908767 -0.02635746373203628 0 -0.0066724622028326696 -0.03232752721894705 0 -0.005347611646863256 -0.029837937843304334 0 -0.006551702388233281 -0.030431652050485265 0 -0.0065803871403145716 -0.030512404634670833 0 -0.0066248209890279273 -0.030447845824201618 0 -0.0073205016323373978 -0.030441388617206026 0 -0.005347611646863256 -0.029837937843304334 0 -0.0065871788242145976 -0.026536120080480868 0 -0.0060817662289202167 -0.027897389214984507 0 -0.0067396074569062029 -0.028039745343441801 0 -0.003987436079945457 -0.027215766390507285 0 -0.0050046958878732705 -0.02733523359822148 0 -0.0046495091706047287 -0.026290296777771539 0 -0.0043081823200125866 -0.028329070276161404 0 -0.003987436079945457 -0.027215766390507285 0 -0.0050046958878732705 -0.02733523359822148 0 -0.0011795818606344598 -0.026817294041757578 0 -0.0044609835829697202 -0.024054542478827205 0 0.0029780683782633646 -0.02688657980829668 0 0.00058985614921727584 -0.02740207263174901 0 0.0020081991228167832 -0.029748094420455947 0 -0.0044918749547622015 -0.030577308908361505 0 -0.0033949587188832116 -0.0308000747842999 0 -0.0010654946765903692 -0.026795318571371355 0 -0.0024431889703337714 -0.031044314017957271 0 -0.002054124529124244 -0.030959152944484841 0 -0.0011795818606344598 -0.026817294041757578 0 -0.0010112908917978712 -0.030713792383486222 0 -0.0043081823200125866 -0.028329070276161404 0 -0.0050046958878732705 -0.02733523359822148 0 -0.0052810459849816577 -0.028554860819508945 0 -0.0011795818606344598 -0.026817294041757578 0 -0.0033949587188832116 -0.0308000747842999 0 0.00079706810285219416 -0.029136304628958779 0 0.00058985614921727584 -0.02740207263174901 0 0.0018040320637028615 -0.029516630826721207 0 0.00079706810285219416 -0.029136304628958779 0 -9.9257935077638314e-05 -0.028535901714167835 0 0.00058985614921727584 -0.02740207263174901 0 0.0012283037535437578 -0.027497354732905127 0 -0.0010112908917978712 -0.030713792383486222 0 0.00079706810285219416 -0.029136304628958779 0 -9.9257935077638314e-05 -0.028535901714167835 0 -0.00027067047912290604 -0.029474446890993274 0 -0.0014110340400892154 -0.029103901815916707 0 -0.00070315653111553363 -0.028804480560179806 0 -0.0010240850154980431 -0.028101411648379093 0 -9.9257935077638314e-05 -0.028535901714167835 0 -0.00070315653111553363 -0.028804480560179806 0 -0.0010240850154980431 -0.028101411648379093 0 -0.0014110340400892154 -0.029103901815916707 0 -0.00070315653111553363 -0.028804480560179806 0 -0.00027067047912290604 -0.029474446890993274 0 -9.9257935077638314e-05 -0.028535901714167835 0 -0.00070315653111553363 -0.028804480560179806 0 -0.00027067047912290604 -0.029474446890993274 0 -9.9257935077638314e-05 -0.028535901714167835 0 -0.0010240850154980431 -0.028101411648379093 0 0.00058985614921727584 -0.02740207263174901 0 -0.0010240850154980431 -0.028101411648379093 0 -0.0012193377968212446 -0.026316168252693811 0 0.00058985614921727584 -0.02740207263174901 0 0.0029780683782633646 -0.02688657980829668 0 0.00058985614921727584 -0.02740207263174901 0 0.0010955991396010951 -0.025030724044425523 0 -0.0012193377968212446 -0.026316168252693811 0 0.00058985614921727584 -0.02740207263174901 0 0.0010955991396010951 -0.025030724044425523 0 -0.0012193377968212446 -0.026316168252693811 0 0.0010955991396010951 -0.025030724044425523 0 -0.0011686681403455851 -0.023604394861413486 0 -0.0012193377968212446 -0.026316168252693811 0 -0.0011686681403455851 -0.023604394861413486 0 -0.0026299856628858864 -0.02557772706852041 0 -0.00088253167709289248 -0.02122472838454011 0 -0.0011686681403455851 -0.023604394861413486 0 -0.0023649594892396373 -0.02205465654013115 0 0.0017787403633391457 -0.021638000905255007 0 -0.00088253167709289248 -0.02122472838454011 0 -0.0011686681403455851 -0.023604394861413486 0 0.0017787403633391457 -0.021638000905255007 0 0.0010955991396010951 -0.025030724044425523 0 -0.0011686681403455851 -0.023604394861413486 0 -0.0044733933878825941 -0.020979336507459964 0 -0.0035547746023713122 -0.021051489864878078 0 -0.0037484847778225892 -0.021969107420709372 0 0.0017787403633391457 -0.021638000905255007 0 0.0010955991396010951 -0.025030724044425523 0 0.0036404752401729122 -0.024260557987367495 0 -0.00088471370574071931 -0.021586171781921529 0 -0.0022365293370794188 -0.023593926529401819 0 -0.0036771577594263633 -0.020706335248618701 0 -0.0022365293370794188 -0.023593926529401819 0 -0.0062540072805611557 -0.021588660903206665 0 -0.0044609835829697202 -0.024054542478827205 0 -0.0078218560465041151 -0.023235600826761862 0 -0.0088222357415195015 -0.021494526949533559 0 -0.0097279251414844076 -0.02396915934748067 0 -0.0033264432305376208 -0.021120101720803787 0 -0.0037636262021349216 -0.022420867366867773 0 -0.0038686671955599663 -0.022279263493279609 0 -0.0035547746023713122 -0.021051489864878078 0 -0.0033264432305376208 -0.021120101720803787 0 -0.0038686671955599663 -0.022279263493279609 0 -0.0064307796723908767 -0.02635746373203628 0 -0.0044609835829697202 -0.024054542478827205 0 -0.0078218560465041151 -0.023235600826761862 0 -0.0082442616878197466 -0.025997815235867892 0 -0.0097279251414844076 -0.02396915934748067 0 -0.0044609835829697202 -0.024054542478827205 0 -0.0022365293370794188 -0.023593926529401819 0 -0.0011795818606344598 -0.026817294041757578 0 -0.0022365293370794188 -0.023593926529401819 0 -0.002501836022300542 -0.026466286347948537 0 -0.0017390970678795976 -0.024219068365870556 0 -0.0019380839794765979 -0.023957297631788985 0 0.0029780683782633646 -0.02688657980829668 0 0.0010955991396010951 -0.025030724044425523 0 0.0036404752401729122 -0.024260557987367495 0 -0.021339860091151942 -0.021140423839944095 0 -0.021252600028479073 -0.021188030552203748 0 -0.021294318126039678 -0.0212313402315139 0 -0.021724367984379857 -0.021219587443842898 0 -0.021339860091151942 -0.021140423839944095 0 -0.021294318126039678 -0.0212313402315139 0 -0.021339860091151942 -0.021140423839944095 0 -0.021207422247214346 -0.021175080315233956 0 -0.021116901603821098 -0.021217118620903089 0 -0.021339860091151942 -0.021140423839944095 0 -0.021207422247214346 -0.021175080315233956 0 -0.021252600028479073 -0.021188030552203748 0 -0.021252600028479073 -0.021188030552203748 0 -0.021290315881070172 -0.021121882144578673 0 -0.021294318126039678 -0.0212313402315139 0 -0.021207422247214346 -0.021175080315233956 0 -0.021252600028479073 -0.021188030552203748 0 -0.021291194132621552 -0.021118131436849243 0 -0.021252600028479073 -0.021188030552203748 0 -0.021290315881070172 -0.021121882144578673 0 -0.021291194132621552 -0.021118131436849243 0 -0.021290315881070172 -0.021121882144578673 0 -0.021262375992718744 -0.021149983999646398 0 -0.021294318126039678 -0.0212313402315139 0 -0.021724367984379857 -0.021219587443842898 0 -0.021333358925761034 -0.021322033163764915 0 -0.021294318126039678 -0.0212313402315139 0 -0.024605411565948223 -0.020624453469072119 0 -0.023142525983033624 -0.020710162629083064 0 -0.024605411565948223 -0.020624453469072119 0 -0.026276250600330692 -0.018368015382668523 0 -0.021428973337605749 -0.020929759440578826 0 -0.021488148003837144 -0.021078101912624107 0 -0.021307403511034596 -0.021032110223019367 0 -0.024605411565948223 -0.020624453469072119 0 -0.020744431579419343 -0.021661340821570133 0 -0.021488148003837144 -0.021078101912624107 0 -0.021342761633521827 -0.021058913024787042 0 -0.021307403511034596 -0.021032110223019367 0 -0.026276250600330692 -0.018368015382668523 0 -0.02159024545872202 -0.016470589204269779 0 -0.023688552746365589 -0.012259468251214857 0 -0.023128374433686354 -0.012502165101984281 0 -0.02287597473107221 -0.01208569289739689 0 -0.021342761633521827 -0.021058913024787042 0 -0.021307403511034596 -0.021032110223019367 0 -0.021326050445947129 -0.0209938419520747 0 -0.022484513750864882 -0.012379036427603315 0 -0.02287597473107221 -0.01208569289739689 0 -0.02191937159385958 -0.011905883838610796 0 -0.02159024545872202 -0.016470589204269779 0 -0.02114317156215436 -0.015032378400647318 0 -0.022590710398918357 -0.012804364181369682 0 -0.022484513750864882 -0.012379036427603315 0 -0.02200155236673746 -0.012663740737949047 0 -0.022484513750864882 -0.012379036427603315 0 -0.02191937159385958 -0.011905883838610796 0 -0.02200155236673746 -0.012663740737949047 0 -0.022590710398918357 -0.012804364181369682 0 -0.023128374433686354 -0.012502165101984281 0 -0.022484513750864882 -0.012379036427603315 0 -0.023128374433686354 -0.012502165101984281 0 -0.022484513750864882 -0.012379036427603315 0 -0.02287597473107221 -0.01208569289739689 0 -0.021290315881070172 -0.021121882144578673 0 -0.021307403511034596 -0.021032110223019367 0 -0.021326050445947129 -0.0209938419520747 0 -0.021290315881070172 -0.021121882144578673 0 -0.021262375992718744 -0.021149983999646398 0 -0.021307403511034596 -0.021032110223019367 0 -0.018130229982414439 -0.012850083882520824 0 -0.018881997488247787 -0.013225233425937611 0 -0.01869482821540026 -0.013440850193640573 0 -0.021290315881070172 -0.021121882144578673 0 -0.021326050445947129 -0.0209938419520747 0 -0.021291194132621552 -0.021118131436849243 0 -0.02114317156215436 -0.015032378400647318 0 -0.019840582943198615 -0.017511606489398979 0 -0.018130229982414439 -0.012850083882520824 0 -0.01869482821540026 -0.013440850193640573 0 -0.018346770771508432 -0.014001822642585333 0 -0.021794508527570623 -0.012068203876072204 0 -0.02148327071853165 -0.012564477969782292 0 -0.020793255761464166 -0.012637174681335107 0 -0.021734738709278362 -0.012793616916498619 0 -0.02148327071853165 -0.012564477969782292 0 -0.020793255761464166 -0.012637174681335107 0 -0.02114317156215436 -0.015032378400647318 0 -0.021643441451555709 -0.011939207782947957 0 -0.021794508527570623 -0.012068203876072204 0 -0.02148327071853165 -0.012564477969782292 0 -0.02200155236673746 -0.012663740737949047 0 -0.021734738709278362 -0.012793616916498619 0 -0.02148327071853165 -0.012564477969782292 0 -0.02200155236673746 -0.012663740737949047 0 -0.021369154705648073 -0.012571725823779136 0 -0.021734738709278362 -0.012793616916498619 0 -0.021140250450725488 -0.012280878692208884 0 -0.021794508527570623 -0.012068203876072204 0 -0.020793255761464166 -0.012637174681335107 0 -0.019492677482027852 -0.012960800155996663 0 -0.021535429016923388 -0.012744831130491097 0 -0.020234312466445328 -0.012333311692830641 0 -0.021734738709278362 -0.012793616916498619 0 -0.020793255761464166 -0.012637174681335107 0 -0.019549891328826719 -0.012892491985089165 0 -0.021734738709278362 -0.012793616916498619 0 -0.021140250450725488 -0.012280878692208884 0 -0.020842182529578274 -0.011724246367403613 0 -0.021140250450725488 -0.012280878692208884 0 -0.020842136608853038 -0.012146520399615094 0 -0.020971665095750325 -0.012340191493352961 0 -0.020842136608853038 -0.012146520399615094 0 -0.020971665095750325 -0.012340191493352961 0 -0.020710870006017339 -0.012378318292654043 0 -0.021131165154688294 -0.012601834542648165 0 -0.020971665095750325 -0.012340191493352961 0 -0.021142793488676235 -0.012420514771413361 0 -0.021140250450725488 -0.012280878692208884 0 -0.020971665095750325 -0.012340191493352961 0 -0.021142793488676235 -0.012420514771413361 0 -0.021369154705648073 -0.012571725823779136 0 -0.021140250450725488 -0.012280878692208884 0 -0.021142793488676235 -0.012420514771413361 0 -0.020793255761464166 -0.012637174681335107 0 -0.019492677482027852 -0.012960800155996663 0 -0.019549891328826719 -0.012892491985089165 0 -0.021140250450725488 -0.012280878692208884 0 -0.020842136608853038 -0.012146520399615094 0 -0.020842182529578274 -0.011724246367403613 0 -0.02114317156215436 -0.015032378400647318 0 -0.019029156952315249 -0.012148053209548322 0 -0.018130229982414439 -0.012850083882520824 0 -0.018881997488247787 -0.013225233425937611 0 -0.019492677482027852 -0.012960800155996663 0 -0.018881997488247787 -0.013225233425937611 0 -0.01869482821540026 -0.013440850193640573 0 -0.019165222547352746 -0.013641678584733549 0 -0.018881997488247787 -0.013225233425937611 0 -0.019165222547352746 -0.013641678584733549 0 -0.019492677482027852 -0.012960800155996663 0 -0.019165222547352746 -0.013641678584733549 0 -0.018346770771508432 -0.014001822642585333 0 -0.019154316506720295 -0.014265601058820963 0 -0.01869482821540026 -0.013440850193640573 0 -0.019165222547352746 -0.013641678584733549 0 -0.018346770771508432 -0.014001822642585333 0 -0.022246085160600587 -0.021739222160243137 0 -0.018220331657315347 -0.020113581883633661 0 -0.021207422247214346 -0.021175080315233956 0 -0.021291194132621552 -0.021118131436849243 0 -0.021233748749724189 -0.021181417664509747 0 -0.019840582943198615 -0.017511606489398979 0 -0.018220331657315347 -0.020113581883633661 0 -0.018346770771508432 -0.014001822642585333 0 -0.019154316506720295 -0.014265601058820963 0 -0.018500075218514132 -0.014885410947270939 0 -0.019154316506720295 -0.014265601058820963 0 -0.019222539332534549 -0.014756230190354686 0 -0.018500075218514132 -0.014885410947270939 0 -0.019565116489812913 -0.01446515347019464 0 -0.019507177402277368 -0.014903589158229409 0 -0.019222539332534549 -0.014756230190354686 0 -0.019154316506720295 -0.014265601058820963 0 -0.019565116489812913 -0.01446515347019464 0 -0.019222539332534549 -0.014756230190354686 0 -0.019565116489812913 -0.01446515347019464 0 -0.019796005466233314 -0.013817612982992779 0 -0.019864039654813492 -0.01478241497035199 0 -0.019565116489812913 -0.01446515347019464 0 -0.019670417465050008 -0.014774241054343155 0 -0.019864039654813492 -0.01478241497035199 0 -0.019565116489812913 -0.01446515347019464 0 -0.019670417465050008 -0.014774241054343155 0 -0.019507177402277368 -0.014903589158229409 0 -0.019165222547352746 -0.013641678584733549 0 -0.019154316506720295 -0.014265601058820963 0 -0.019796005466233314 -0.013817612982992779 0 -0.019154316506720295 -0.014265601058820963 0 -0.019565116489812913 -0.01446515347019464 0 -0.019796005466233314 -0.013817612982992779 0 -0.019685367865408906 -0.010842498328326006 0 -0.020842182529578274 -0.011724246367403613 0 -0.020058894384505397 -0.011843330564867674 0 -0.019796005466233314 -0.013817612982992779 0 -0.019492677482027852 -0.012960800155996663 0 -0.019549891328826719 -0.012892491985089165 0 -0.019165222547352746 -0.013641678584733549 0 -0.019796005466233314 -0.013817612982992779 0 -0.019492677482027852 -0.012960800155996663 0 -0.019667850917196035 -0.012038540175274646 0 -0.020234312466445328 -0.012333311692830641 0 -0.020842136608853038 -0.012146520399615094 0 -0.020842182529578274 -0.011724246367403613 0 -0.020581491180248265 -0.012096746243555697 0 -0.020842182529578274 -0.011724246367403613 0 -0.020581491180248265 -0.012096746243555697 0 -0.020058894384505397 -0.011843330564867674 0 -0.020403638850974445 -0.012451176899731622 0 -0.020581491180248265 -0.012096746243555697 0 -0.020058894384505397 -0.011843330564867674 0 -0.020403638850974445 -0.012451176899731622 0 -0.019888199144926177 -0.01239904311359669 0 -0.020058894384505397 -0.011843330564867674 0 -0.020403638850974445 -0.012451176899731622 0 -0.020710870006017339 -0.012378318292654043 0 -0.020581491180248265 -0.012096746243555697 0 -0.020842136608853038 -0.012146520399615094 0 -0.020710870006017339 -0.012378318292654043 0 -0.020581491180248265 -0.012096746243555697 0 -0.019888199144926177 -0.01239904311359669 0 -0.019363816114232327 -0.012121343926781838 0 -0.020058894384505397 -0.011843330564867674 0 -0.019363816114232327 -0.012121343926781838 0 -0.020058894384505397 -0.011843330564867674 0 -0.019299362770642179 -0.011498119460662433 0 -0.019685367865408906 -0.010842498328326006 0 -0.020058894384505397 -0.011843330564867674 0 -0.019299362770642179 -0.011498119460662433 0 -0.018737200824296439 -0.010930762413995137 0 -0.019299362770642179 -0.011498119460662433 0 -0.018663433123816284 -0.011750485658587608 0 -0.019685367865408906 -0.010842498328326006 0 -0.018737200824296439 -0.010930762413995137 0 -0.019299362770642179 -0.011498119460662433 0 -0.019363816114232327 -0.012121343926781838 0 -0.019299362770642179 -0.011498119460662433 0 -0.018663433123816284 -0.011750485658587608 0 -0.018662996650078756 -0.012452532321567658 0 -0.019363816114232327 -0.012121343926781838 0 -0.018663433123816284 -0.011750485658587608 0 -0.017692006092758568 -0.012000418935585171 0 -0.018663433123816284 -0.011750485658587608 0 -0.018083334606338528 -0.011148950803948229 0 -0.018662996650078756 -0.012452532321567658 0 -0.017692006092758568 -0.012000418935585171 0 -0.018663433123816284 -0.011750485658587608 0 -0.018737200824296439 -0.010930762413995137 0 -0.018663433123816284 -0.011750485658587608 0 -0.018083334606338528 -0.011148950803948229 0 -0.018737200824296439 -0.010930762413995137 0 -0.018083334606338528 -0.011148950803948229 0 -0.018322541836254199 -0.010643722858152007 0 -0.018737200824296439 -0.010930762413995137 0 -0.018322541836254199 -0.010643722858152007 0 -0.018559619504501079 -0.010027705963731003 0 -0.018083334606338528 -0.011148950803948229 0 -0.017909083516600859 -0.010469523398113743 0 -0.018322541836254199 -0.010643722858152007 0 -0.017909083516600859 -0.010469523398113743 0 -0.018322541836254199 -0.010643722858152007 0 -0.018559619504501079 -0.010027705963731003 0 -0.019200555957077411 -0.012308640149842211 0 -0.019296668142887517 -0.013878833421826609 0 -0.019796005466233314 -0.013817612982992779 0 -0.019864039654813492 -0.01478241497035199 0 -0.020187181631329699 -0.014545548905206459 0 -0.019685367865408906 -0.010842498328326006 0 -0.018737200824296439 -0.010930762413995137 0 -0.018559619504501079 -0.010027705963731003 0 -0.019667850917196035 -0.012038540175274646 0 -0.019296668142887517 -0.013878833421826609 0 -0.019729475730135001 -0.014565253984960249 0 -0.019296668142887517 -0.013878833421826609 0 -0.019670417465050008 -0.014774241054343155 0 -0.019864039654813492 -0.01478241497035199 0 -0.019711159078892062 -0.014913791014038185 0 -0.019864039654813492 -0.01478241497035199 0 -0.019769045592357343 -0.014970941038326064 0 -0.019765134296873772 -0.014908352243426268 0 -0.019478939190274495 -0.015065497222786125 0 -0.019769045592357343 -0.014970941038326064 0 -0.019675927203319454 -0.014979919132400031 0 -0.019411506726868939 -0.015071497268515156 0 -0.019478939190274495 -0.015065497222786125 0 -0.01938754707981323 -0.015067003568488373 0 -0.019769045592357343 -0.014970941038326064 0 -0.019675927203319454 -0.014979919132400031 0 -0.019765134296873772 -0.014908352243426268 0 -0.019676744210021038 -0.015417245577515613 0 -0.019296668142887517 -0.013878833421826609 0 -0.019411506726868939 -0.015071497268515156 0 -0.019395839693000943 -0.01506991107888098 0 -0.01938754707981323 -0.015067003568488373 0 -0.019691438901854468 -0.015012248722441137 0 -0.019696661147446216 -0.015014711814123153 0 -0.019673821983522844 -0.015100839491480196 0 -0.019691438901854468 -0.015012248722441137 0 -0.019627988371598952 -0.015018950130894626 0 -0.019680878863782742 -0.015039097519204027 0 -0.019691438901854468 -0.015012248722441137 0 -0.019627988371598952 -0.015018950130894626 0 -0.019675927203319454 -0.014979919132400031 0 -0.019559728420604754 -0.015017353127206713 0 -0.019627988371598952 -0.015018950130894626 0 -0.019680878863782742 -0.015039097519204027 0 -0.019478939190274495 -0.015065497222786125 0 -0.019627988371598952 -0.015018950130894626 0 -0.019675927203319454 -0.014979919132400031 0 -0.019691438901854468 -0.015012248722441137 0 -0.019675927203319454 -0.014979919132400031 0 -0.019765134296873772 -0.014908352243426268 0 -0.019765134296873772 -0.014908352243426268 0 -0.019711159078892062 -0.014913791014038185 0 -0.019696661147446216 -0.015014711814123153 0 -0.019864039654813492 -0.01478241497035199 0 -0.019765134296873772 -0.014908352243426268 0 -0.019711159078892062 -0.014913791014038185 0 -0.019711159078892062 -0.014913791014038185 0 -0.019696661147446216 -0.015014711814123153 0 -0.019598645776635809 -0.01512108835509747 0 -0.019691438901854468 -0.015012248722441137 0 -0.019765134296873772 -0.014908352243426268 0 -0.019696661147446216 -0.015014711814123153 0 -0.019696661147446216 -0.015014711814123153 0 -0.019673821983522844 -0.015100839491480196 0 -0.019598645776635809 -0.01512108835509747 0 -0.019627406495387471 -0.015257986936759725 0 -0.019470554490554837 -0.015428892743322617 0 -0.019598645776635809 -0.01512108835509747 0 -0.018553809977472427 -0.026443965372566835 0 -0.017542911757778064 -0.029468805375002922 0 -0.019627406495387471 -0.015257986936759725 0 -0.019673821983522844 -0.015100839491480196 0 -0.019598645776635809 -0.01512108835509747 0 -0.018553809977472427 -0.026443965372566835 0 -0.018840625608994611 -0.023433104584428013 0 -0.017333712204814049 -0.03767976612728207 0 -0.019312741899341124 -0.036951613721467345 0 -0.018474189132472282 -0.038296837305582476 0 -0.019627406495387471 -0.015257986936759725 0 -0.019673821983522844 -0.015100839491480196 0 -0.019716300850202914 -0.015114567150189306 0 -0.019691438901854468 -0.015012248722441137 0 -0.019673821983522844 -0.015100839491480196 0 -0.019680878863782742 -0.015039097519204027 0 -0.019673821983522844 -0.015100839491480196 0 -0.019680878863782742 -0.015039097519204027 0 -0.019716300850202914 -0.015114567150189306 0 -0.019559728420604754 -0.015017353127206713 0 -0.019680878863782742 -0.015039097519204027 0 -0.019622401400485389 -0.014966845733200675 0 -0.017712934919407713 -0.017987701124520007 0 -0.018840625608994611 -0.023433104584428013 0 -0.013576687949782401 -0.032971001755620268 0 -0.018840625608994611 -0.023433104584428013 0 -0.019834228384578701 -0.038101299985738267 0 -0.019312741899341124 -0.036951613721467345 0 -0.018474189132472282 -0.038296837305582476 0 -0.013576687949782401 -0.032971001755620268 0 -0.013841006278079675 -0.03927091494729483 0 -0.010214143602884045 -0.036066425093567361 0 -0.010161093820903397 -0.03639752956081007 0 -0.0099954784188752387 -0.03651129183021086 0 -0.018474189132472282 -0.038296837305582476 0 -0.018007124440621355 -0.040832523087252562 0 -0.017278388315540984 -0.039198036421235045 0 -0.019834228384578701 -0.038101299985738267 0 -0.018474189132472282 -0.038296837305582476 0 -0.018007124440621355 -0.040832523087252562 0 -0.017333712204814049 -0.03767976612728207 0 -0.018474189132472282 -0.038296837305582476 0 -0.017278388315540984 -0.039198036421235045 0 -0.010161093820903397 -0.03639752956081007 0 -0.0099954784188752387 -0.03651129183021086 0 -0.010095903990709351 -0.036593978302356729 0 -0.018007124440621355 -0.040832523087252562 0 -0.015794467263036623 -0.040315513666112232 0 -0.017278388315540984 -0.039198036421235045 0 -0.018007124440621355 -0.040832523087252562 0 -0.015794467263036623 -0.040315513666112232 0 -0.01626074010964217 -0.043365466206177844 0 -0.015794467263036623 -0.040315513666112232 0 -0.017278388315540984 -0.039198036421235045 0 -0.016272181089883948 -0.039116904733240983 0 -0.017333712204814049 -0.03767976612728207 0 -0.016272181089883948 -0.039116904733240983 0 -0.015333262023150558 -0.038383470598388085 0 -0.017333712204814049 -0.03767976612728207 0 -0.017278388315540984 -0.039198036421235045 0 -0.016272181089883948 -0.039116904733240983 0 -0.015135001109355997 -0.039717292079184868 0 -0.014686253713396052 -0.040378452368094536 0 -0.014013649710672078 -0.039992227498132096 0 -0.017542911757778064 -0.029468805375002922 0 -0.015260797686016325 -0.034300450286407311 0 -0.016272181089883948 -0.039116904733240983 0 -0.01542789230566145 -0.038879887149173425 0 -0.015135001109355997 -0.039717292079184868 0 -0.01542789230566145 -0.038879887149173425 0 -0.015135001109355997 -0.039717292079184868 0 -0.014013649710672078 -0.039992227498132096 0 -0.018255069643158983 -0.036034902136806594 0 -0.017542911757778064 -0.029468805375002922 0 -0.015794467263036623 -0.040315513666112232 0 -0.016272181089883948 -0.039116904733240983 0 -0.015135001109355997 -0.039717292079184868 0 -0.015794467263036623 -0.040315513666112232 0 -0.014686253713396052 -0.040378452368094536 0 -0.015125818031220213 -0.041263444816265919 0 -0.015794467263036623 -0.040315513666112232 0 -0.015135001109355997 -0.039717292079184868 0 -0.014686253713396052 -0.040378452368094536 0 -0.014686253713396052 -0.040378452368094536 0 -0.015125818031220213 -0.041263444816265919 0 -0.014031704509672005 -0.041146673983989322 0 -0.014686253713396052 -0.040378452368094536 0 -0.014031704509672005 -0.041146673983989322 0 -0.014013649710672078 -0.039992227498132096 0 -0.014031704509672005 -0.041146673983989322 0 -0.014013649710672078 -0.039992227498132096 0 -0.013917219591697932 -0.041083573123901873 0 -0.017542911757778064 -0.029468805375002922 0 -0.017800461643987738 -0.018503039245364877 0 -0.02013242762206818 -0.02685706796939203 0 -0.017442638727642314 -0.027726452250875784 0 -0.017077701115681777 -0.024799556918292824 0 -0.019470554490554837 -0.015428892743322617 0 -0.019178956061410062 -0.015208266282275564 0 -0.019598645776635809 -0.01512108835509747 0 -0.019178956061410062 -0.015208266282275564 0 -0.019598645776635809 -0.01512108835509747 0 -0.019507177402277368 -0.014903589158229409 0 -0.019711159078892062 -0.014913791014038185 0 -0.019598645776635809 -0.01512108835509747 0 -0.019507177402277368 -0.014903589158229409 0 -0.019670417465050008 -0.014774241054343155 0 -0.019711159078892062 -0.014913791014038185 0 -0.019507177402277368 -0.014903589158229409 0 -0.019178956061410062 -0.015208266282275564 0 -0.019507177402277368 -0.014903589158229409 0 -0.019222539332534549 -0.014756230190354686 0 -0.019178956061410062 -0.015208266282275564 0 -0.019222539332534549 -0.014756230190354686 0 -0.018500075218514132 -0.014885410947270939 0 -0.017077701115681777 -0.024799556918292824 0 -0.013994544584135817 -0.022730220922651086 0 -0.01434586265967314 -0.025677757920444435 0 -0.017800461643987738 -0.018503039245364877 0 -0.018220331657315347 -0.020113581883633661 0 -0.018220331657315347 -0.020113581883633661 0 -0.017761241509479268 -0.023143811322651902 0 -0.021207422247214346 -0.021175080315233956 0 -0.021233961937691132 -0.021150941902604373 0 -0.021116901603821098 -0.021217118620903089 0 -0.021233961937691132 -0.021150941902604373 0 -0.021133942424258416 -0.021855469881446744 0 -0.021152418402936503 -0.022490873781829429 0 -0.021233961937691132 -0.021150941902604373 0 -0.021133942424258416 -0.021855469881446744 0 -0.021116901603821098 -0.021217118620903089 0 -0.021133942424258416 -0.021855469881446744 0 -0.020307305054368119 -0.022638158703858616 0 -0.021152418402936503 -0.022490873781829429 0 -0.021133942424258416 -0.021855469881446744 0 -0.020307305054368119 -0.022638158703858616 0 -0.019269463416542721 -0.022036253102605669 0 -0.020307305054368119 -0.022638158703858616 0 -0.021152418402936503 -0.022490873781829429 0 -0.020244050692898696 -0.023555322711711669 0 -0.017442638727642314 -0.027726452250875784 0 -0.017077701115681777 -0.024799556918292824 0 -0.01434586265967314 -0.025677757920444435 0 -0.015260797686016325 -0.034300450286407311 0 -0.016249825301657573 -0.033212446300143139 0 -0.017442638727642314 -0.027726452250875784 0 -0.01434586265967314 -0.025677757920444435 0 -0.014716365373822477 -0.028628050168163121 0 -0.014013649710672078 -0.039992227498132096 0 -0.013545120880695694 -0.040582133604710774 0 -0.013917219591697932 -0.041083573123901873 0 -0.016249825301657573 -0.033212446300143139 0 -0.014104280379074985 -0.044313328203555533 0 -0.013545120880695694 -0.040582133604710774 0 -0.013917219591697932 -0.041083573123901873 0 -0.014191306274177468 -0.041235791021455123 0 -0.016249825301657573 -0.033212446300143139 0 -0.018397016164673492 -0.033777908229419139 0 -0.014696193813516676 -0.042319519564050133 0 -0.014909250916703316 -0.041735082817346787 0 -0.016054007275590105 -0.041791242899216978 0 -0.014909250916703316 -0.041735082817346787 0 -0.016054007275590105 -0.041791242899216978 0 -0.014745844144196749 -0.041228681694414654 0 -0.014696193813516676 -0.042319519564050133 0 -0.014909250916703316 -0.041735082817346787 0 -0.014191306274177468 -0.041235791021455123 0 -0.021204730197230973 -0.024380425064282788 0 -0.020244050692898696 -0.023555322711711669 0 -0.019357524965820907 -0.024879939495619743 0 -0.017761241509479268 -0.023143811322651902 0 -0.016249825301657573 -0.033212446300143139 0 -0.021152418402936503 -0.022490873781829429 0 -0.021204730197230973 -0.024380425064282788 0 -0.020244050692898696 -0.023555322711711669 0 -0.020307305054368119 -0.022638158703858616 0 -0.020244050692898696 -0.023555322711711669 0 -0.019331182192598276 -0.023272649891586762 0 -0.020244050692898696 -0.023555322711711669 0 -0.019331182192598276 -0.023272649891586762 0 -0.019357524965820907 -0.024879939495619743 0 -0.019331182192598276 -0.023272649891586762 0 -0.019357524965820907 -0.024879939495619743 0 -0.018405894138467604 -0.023826405201469648 0 -0.018397016164673492 -0.033777908229419139 0 -0.020191478260132033 -0.024225634694462896 0 -0.020767063627527178 -0.033613703436252043 0 -0.018397016164673492 -0.033777908229419139 0 -0.02322395584113908 -0.02504049779372311 0 -0.021296260962151436 -0.025636293891505631 0 -0.02253533031894768 -0.026374682239617697 0 -0.017617392787687702 -0.0229394969822505 0 -0.018405894138467604 -0.023826405201469648 0 -0.018469526039422122 -0.02286773908670383 0 -0.019331182192598276 -0.023272649891586762 0 -0.018405894138467604 -0.023826405201469648 0 -0.018469526039422122 -0.02286773908670383 0 -0.017935588756514985 -0.022272785853998313 0 -0.018469526039422122 -0.02286773908670383 0 -0.019269463416542721 -0.022036253102605669 0 -0.019331182192598276 -0.023272649891586762 0 -0.018469526039422122 -0.02286773908670383 0 -0.019269463416542721 -0.022036253102605669 0 -0.020307305054368119 -0.022638158703858616 0 -0.019331182192598276 -0.023272649891586762 0 -0.019269463416542721 -0.022036253102605669 0 -0.021339860091151942 -0.021140423839944095 0 -0.021150632954364264 -0.021089581161677227 0 -0.021116901603821098 -0.021217118620903089 0 -0.021133942424258416 -0.021855469881446744 0 -0.021150632954364264 -0.021089581161677227 0 -0.021116901603821098 -0.021217118620903089 0 -0.021062546007585843 -0.021783374183287949 0 -0.020413648621019933 -0.021609329472279292 0 -0.019136944502714432 -0.021436727736533372 0 -0.020413648621019933 -0.021609329472279292 0 -0.021540327786118266 -0.020831358041496984 0 -0.021339860091151942 -0.021140423839944095 0 -0.021150632954364264 -0.021089581161677227 0 -0.016950427808938025 -0.039473692879231574 0 -0.016380634068961883 -0.038256319471962681 0 -0.017472320191094699 -0.038100483113795602 0 -0.015588738652639478 -0.038814030438393141 0 -0.016950427808938025 -0.039473692879231574 0 -0.016380634068961883 -0.038256319471962681 0 -0.016950427808938025 -0.039473692879231574 0 -0.01638453666527559 -0.04090781041043122 0 -0.015107842252535253 -0.039978711241337055 0 -0.015588738652639478 -0.038814030438393141 0 -0.016950427808938025 -0.039473692879231574 0 -0.015107842252535253 -0.039978711241337055 0 -0.017814859129951902 -0.040719688724031471 0 -0.016950427808938025 -0.039473692879231574 0 -0.01638453666527559 -0.04090781041043122 0 -0.018146237818651354 -0.042098633897043033 0 -0.017814859129951902 -0.040719688724031471 0 -0.01638453666527559 -0.04090781041043122 0 -0.018146237818651354 -0.042098633897043033 0 -0.016279599212425718 -0.042549586293442722 0 -0.01638453666527559 -0.04090781041043122 0 -0.016279599212425718 -0.042549586293442722 0 -0.01638453666527559 -0.04090781041043122 0 -0.015550888344303871 -0.041171823120949871 0 -0.01638453666527559 -0.04090781041043122 0 -0.014996354863239084 -0.040675951184059284 0 -0.015550888344303871 -0.041171823120949871 0 -0.01638453666527559 -0.04090781041043122 0 -0.014996354863239084 -0.040675951184059284 0 -0.015107842252535253 -0.039978711241337055 0 -0.014651079130036045 -0.040361306985807553 0 -0.014996354863239084 -0.040675951184059284 0 -0.015107842252535253 -0.039978711241337055 0 -0.014651079130036045 -0.040361306985807553 0 -0.014996354863239084 -0.040675951184059284 0 -0.014298732063133228 -0.040657371434620934 0 -0.014996354863239084 -0.040675951184059284 0 -0.014745844144196749 -0.041228681694414654 0 -0.014361632908178086 -0.040974159442484816 0 -0.016279599212425718 -0.042549586293442722 0 -0.015550888344303871 -0.041171823120949871 0 -0.014745844144196749 -0.041228681694414654 0 -0.014996354863239084 -0.040675951184059284 0 -0.015550888344303871 -0.041171823120949871 0 -0.014745844144196749 -0.041228681694414654 0 -0.018397016164673492 -0.033777908229419139 0 -0.014814538558557853 -0.043714687072415 0 -0.014909250916703316 -0.041735082817346787 0 -0.014745844144196749 -0.041228681694414654 0 -0.014191306274177468 -0.041235791021455123 0 -0.013917219591697932 -0.041083573123901873 0 -0.014191306274177468 -0.041235791021455123 0 -0.013976522911716327 -0.0410231578136682 0 -0.014191306274177468 -0.041235791021455123 0 -0.014361632908178086 -0.040974159442484816 0 -0.013976522911716327 -0.0410231578136682 0 -0.014745844144196749 -0.041228681694414654 0 -0.014191306274177468 -0.041235791021455123 0 -0.014361632908178086 -0.040974159442484816 0 -0.013976522911716327 -0.0410231578136682 0 -0.014298732063133228 -0.040657371434620934 0 -0.013839063132212209 -0.040561624875309829 0 -0.014361632908178086 -0.040974159442484816 0 -0.013976522911716327 -0.0410231578136682 0 -0.014298732063133228 -0.040657371434620934 0 -0.014996354863239084 -0.040675951184059284 0 -0.014361632908178086 -0.040974159442484816 0 -0.014298732063133228 -0.040657371434620934 0 -0.014651079130036045 -0.040361306985807553 0 -0.014298732063133228 -0.040657371434620934 0 -0.014214727528625596 -0.04012992457616997 0 -0.014298732063133228 -0.040657371434620934 0 -0.013839063132212209 -0.040561624875309829 0 -0.014214727528625596 -0.04012992457616997 0 -0.014215376505715849 -0.0395214301582908 0 -0.014214727528625596 -0.04012992457616997 0 -0.013667507469886382 -0.040037553235185305 0 -0.013839063132212209 -0.040561624875309829 0 -0.014214727528625596 -0.04012992457616997 0 -0.013667507469886382 -0.040037553235185305 0 -0.014215376505715849 -0.0395214301582908 0 -0.013450938503671539 -0.039222513100259947 0 -0.013667507469886382 -0.040037553235185305 0 -0.014215376505715849 -0.0395214301582908 0 -0.014214727528625596 -0.04012992457616997 0 -0.015107842252535253 -0.039978711241337055 0 -0.014651079130036045 -0.040361306985807553 0 -0.014214727528625596 -0.04012992457616997 0 -0.015107842252535253 -0.039978711241337055 0 -0.014215376505715849 -0.0395214301582908 0 -0.015107842252535253 -0.039978711241337055 0 -0.014752719155443265 -0.039003649420279875 0 -0.015588738652639478 -0.038814030438393141 0 -0.015107842252535253 -0.039978711241337055 0 -0.014752719155443265 -0.039003649420279875 0 -0.015588738652639478 -0.038814030438393141 0 -0.014752719155443265 -0.039003649420279875 0 -0.014780915630822875 -0.038020179644326774 0 -0.014215376505715849 -0.0395214301582908 0 -0.014752719155443265 -0.039003649420279875 0 -0.014063433220560348 -0.038628530354084693 0 -0.014215376505715849 -0.0395214301582908 0 -0.014063433220560348 -0.038628530354084693 0 -0.013450938503671539 -0.039222513100259947 0 -0.013450938503671539 -0.039222513100259947 0 -0.012596269660192094 -0.039024678195730286 0 -0.013069026214957334 -0.038186915861384355 0 -0.013450938503671539 -0.039222513100259947 0 -0.012596269660192094 -0.039024678195730286 0 -0.013030293080548379 -0.039835278754858372 0 -0.014063433220560348 -0.038628530354084693 0 -0.013450938503671539 -0.039222513100259947 0 -0.013069026214957334 -0.038186915861384355 0 -0.012596269660192094 -0.039024678195730286 0 -0.011758693328324696 -0.039157188449913727 0 -0.012263508892664783 -0.039899544230194088 0 -0.012596269660192094 -0.039024678195730286 0 -0.011758693328324696 -0.039157188449913727 0 -0.011852964805755338 -0.038345725624909129 0 -0.012596269660192094 -0.039024678195730286 0 -0.012263508892664783 -0.039899544230194088 0 -0.013030293080548379 -0.039835278754858372 0 -0.012263508892664783 -0.039899544230194088 0 -0.012842379176755453 -0.040313797379816788 0 -0.012548072820505912 -0.040571208006581747 0 -0.012263508892664783 -0.039899544230194088 0 -0.013030293080548379 -0.039835278754858372 0 -0.012842379176755453 -0.040313797379816788 0 -0.013450938503671539 -0.039222513100259947 0 -0.013030293080548379 -0.039835278754858372 0 -0.013667507469886382 -0.040037553235185305 0 -0.013030293080548379 -0.039835278754858372 0 -0.013408491860052238 -0.040495981763484616 0 -0.012842379176755453 -0.040313797379816788 0 -0.013030293080548379 -0.039835278754858372 0 -0.013667507469886382 -0.040037553235185305 0 -0.013408491860052238 -0.040495981763484616 0 -0.013839063132212209 -0.040561624875309829 0 -0.013667507469886382 -0.040037553235185305 0 -0.013408491860052238 -0.040495981763484616 0 -0.013408491860052238 -0.040495981763484616 0 -0.013043745389410881 -0.040698095769937721 0 -0.012842379176755453 -0.040313797379816788 0 -0.013408491860052238 -0.040495981763484616 0 -0.013571750958814022 -0.040855261770516745 0 -0.013043745389410881 -0.040698095769937721 0 -0.013976522911716327 -0.0410231578136682 0 -0.013839063132212209 -0.040561624875309829 0 -0.013571750958814022 -0.040855261770516745 0 -0.013839063132212209 -0.040561624875309829 0 -0.013408491860052238 -0.040495981763484616 0 -0.013571750958814022 -0.040855261770516745 0 -0.013571750958814022 -0.040855261770516745 0 -0.013785693532823613 -0.041103200802786073 0 -0.012803618322038862 -0.041117678848672908 0 -0.014031704509672005 -0.041146673983989322 0 -0.013785693532823613 -0.041103200802786073 0 -0.012803618322038862 -0.041117678848672908 0 -0.013976522911716327 -0.0410231578136682 0 -0.013571750958814022 -0.040855261770516745 0 -0.013785693532823613 -0.041103200802786073 0 -0.013917219591697932 -0.041083573123901873 0 -0.013976522911716327 -0.0410231578136682 0 -0.013785693532823613 -0.041103200802786073 0 -0.014031704509672005 -0.041146673983989322 0 -0.013917219591697932 -0.041083573123901873 0 -0.013785693532823613 -0.041103200802786073 0 -0.015794467263036623 -0.040315513666112232 0 -0.015125818031220213 -0.041263444816265919 0 -0.015880493195954415 -0.042239332348412317 0 -0.013799911758695937 -0.04107126308123582 0 -0.014300540663698067 -0.041953995908198927 0 -0.015125818031220213 -0.041263444816265919 0 -0.014031704509672005 -0.041146673983989322 0 -0.015134769728621451 -0.042201946256377382 0 -0.015125818031220213 -0.041263444816265919 0 -0.015134769728621451 -0.042201946256377382 0 -0.015880493195954415 -0.042239332348412317 0 -0.015134769728621451 -0.042201946256377382 0 -0.015766368862810468 -0.042368690485713567 0 -0.015880493195954415 -0.042239332348412317 0 -0.012803618322038862 -0.041117678848672908 0 -0.012548072820505912 -0.040571208006581747 0 -0.011742741440898499 -0.040528196787312454 0 -0.013571750958814022 -0.040855261770516745 0 -0.012803618322038862 -0.041117678848672908 0 -0.013043745389410881 -0.040698095769937721 0 -0.014300540663698067 -0.041953995908198927 0 -0.012031762293968006 -0.039877504231745138 0 -0.012803618322038862 -0.041117678848672908 0 -0.013043745389410881 -0.040698095769937721 0 -0.012548072820505912 -0.040571208006581747 0 -0.013043745389410881 -0.040698095769937721 0 -0.012842379176755453 -0.040313797379816788 0 -0.012548072820505912 -0.040571208006581747 0 -0.012263508892664783 -0.039899544230194088 0 -0.012548072820505912 -0.040571208006581747 0 -0.011742741440898499 -0.040528196787312454 0 -0.010001566269652899 -0.036741295062171254 0 -0.010018013514823905 -0.036707986955658203 0 -0.010030474841841556 -0.036727213488053488 0 -0.010001566269652899 -0.036741295062171254 0 -0.0099773527240608999 -0.036701576755149068 0 -0.010018013514823905 -0.036707986955658203 0 -0.01597417163407943 -0.043021245935657884 0 -0.015766368862810468 -0.042368690485713567 0 -0.015851639767742877 -0.042236552350977404 0 -0.015134769728621451 -0.042201946256377382 0 -0.01597417163407943 -0.043021245935657884 0 -0.015766368862810468 -0.042368690485713567 0 -0.012031762293968006 -0.039877504231745138 0 -0.014717916748960596 -0.040829994305487213 0 -0.0099773527240608999 -0.036701576755149068 0 -0.01003037908816619 -0.036656723079163331 0 -0.010018013514823905 -0.036707986955658203 0 -0.013841006278079675 -0.03927091494729483 0 -0.014717916748960596 -0.040829994305487213 0 -0.016176982835693941 -0.041296036483922889 0 -0.014717916748960596 -0.040829994305487213 0 -0.0099954784188752387 -0.03651129183021086 0 -0.0099773527240608999 -0.036701576755149068 0 -0.01003037908816619 -0.036656723079163331 0 -0.014731539445823385 -0.041019541643629094 0 -0.014717916748960596 -0.040829994305487213 0 -0.0099954784188752387 -0.03651129183021086 0 -0.010095903990709351 -0.036593978302356729 0 -0.01003037908816619 -0.036656723079163331 0 -0.010095903990709351 -0.036593978302356729 0 -0.01003037908816619 -0.036656723079163331 0 -0.010060752206830911 -0.036652420386636554 0 -0.01003037908816619 -0.036656723079163331 0 -0.010060752206830911 -0.036652420386636554 0 -0.010041831030325047 -0.036699189873963652 0 -0.01003037908816619 -0.036656723079163331 0 -0.010041831030325047 -0.036699189873963652 0 -0.010018013514823905 -0.036707986955658203 0 -0.010041831030325047 -0.036699189873963652 0 -0.010018013514823905 -0.036707986955658203 0 -0.010030474841841556 -0.036727213488053488 0 -0.010041831030325047 -0.036699189873963652 0 -0.010030474841841556 -0.036727213488053488 0 -0.010032698048861475 -0.036729124349487954 0 -0.010041831030325047 -0.036699189873963652 0 -0.010032698048861475 -0.036729124349487954 0 -0.010026760845195404 -0.036719462537792381 0 -0.010030474841841556 -0.036727213488053488 0 -0.010032698048861475 -0.036729124349487954 0 -0.010068307293503342 -0.036728923102144907 0 -0.010001566269652899 -0.036741295062171254 0 -0.010030474841841556 -0.036727213488053488 0 -0.010068307293503342 -0.036728923102144907 0 -0.012031762293968006 -0.039877504231745138 0 -0.009525835244738181 -0.038045479694722127 0 -0.010032698048861475 -0.036729124349487954 0 -0.010068307293503342 -0.036728923102144907 0 -0.010011659668029962 -0.03673081628978811 0 -0.012263508892664783 -0.039899544230194088 0 -0.011742741440898499 -0.040528196787312454 0 -0.01132409511624786 -0.039650293577032265 0 -0.011110308673858409 -0.041291539167510868 0 -0.010899173725600534 -0.040028318613270136 0 -0.0096518902238981012 -0.03981735172489325 0 -0.012031762293968006 -0.039877504231745138 0 -0.011106971452847456 -0.039961776774024751 0 -0.011758693328324696 -0.039157188449913727 0 -0.012263508892664783 -0.039899544230194088 0 -0.01132409511624786 -0.039650293577032265 0 -0.011758693328324696 -0.039157188449913727 0 -0.01132409511624786 -0.039650293577032265 0 -0.010732050295214859 -0.038742572758613425 0 -0.011758693328324696 -0.039157188449913727 0 -0.010732050295214859 -0.038742572758613425 0 -0.011852964805755338 -0.038345725624909129 0 -0.011106971452847456 -0.039961776774024751 0 -0.010801171201605153 -0.038761859183121736 0 -0.0096518902238981012 -0.03981735172489325 0 -0.0095883459892558715 -0.038050011638403755 0 -0.010732050295214859 -0.038742572758613425 0 -0.010899173725600534 -0.040028318613270136 0 -0.0096518902238981012 -0.03981735172489325 0 -0.010732050295214859 -0.038742572758613425 0 -0.010732050295214859 -0.038742572758613425 0 -0.010870347123882362 -0.037573852296256802 0 -0.011852964805755338 -0.038345725624909129 0 -0.0095883459892558715 -0.038050011638403755 0 -0.010732050295214859 -0.038742572758613425 0 -0.010870347123882362 -0.037573852296256802 0 -0.010870347123882362 -0.037573852296256802 0 -0.0098049628419448979 -0.036795916378621001 0 -0.011101953728081043 -0.036237920687568086 0 -0.0095883459892558715 -0.038050011638403755 0 -0.0098049628419448979 -0.036795916378621001 0 -0.008509291612439079 -0.037040860059008834 0 -0.0095883459892558715 -0.038050011638403755 0 -0.010870347123882362 -0.037573852296256802 0 -0.0098049628419448979 -0.036795916378621001 0 -0.0098049628419448979 -0.036795916378621001 0 -0.01035171569657962 -0.03499985610520677 0 -0.0088491764122828696 -0.036035074157535804 0 -0.01035171569657962 -0.03499985610520677 0 -0.0088491764122828696 -0.036035074157535804 0 -0.0084357469235352717 -0.034999902655661559 0 -0.0098049628419448979 -0.036795916378621001 0 -0.01035171569657962 -0.03499985610520677 0 -0.011101953728081043 -0.036237920687568086 0 -0.011101953728081043 -0.036237920687568086 0 -0.013058632062132255 -0.036188910838942732 0 -0.012167752321752939 -0.037267325514858389 0 -0.01035171569657962 -0.03499985610520677 0 -0.011101953728081043 -0.036237920687568086 0 -0.012268690147449834 -0.034999853410791461 0 -0.011101953728081043 -0.036237920687568086 0 -0.012268690147449834 -0.034999853410791461 0 -0.013058632062132255 -0.036188910838942732 0 -0.012268690147449834 -0.034999853410791461 0 -0.013058632062132255 -0.036188910838942732 0 -0.014185499111668732 -0.034999899634310175 0 -0.013058632062132255 -0.036188910838942732 0 -0.013259494583862134 -0.037313302093234399 0 -0.012167752321752939 -0.037267325514858389 0 -0.013259494583862134 -0.037313302093234399 0 -0.012167752321752939 -0.037267325514858389 0 -0.013069026214957334 -0.038186915861384355 0 -0.010870347123882362 -0.037573852296256802 0 -0.011101953728081043 -0.036237920687568086 0 -0.012167752321752939 -0.037267325514858389 0 -0.010870347123882362 -0.037573852296256802 0 -0.012167752321752939 -0.037267325514858389 0 -0.011852964805755338 -0.038345725624909129 0 -0.012167752321752939 -0.037267325514858389 0 -0.011852964805755338 -0.038345725624909129 0 -0.013069026214957334 -0.038186915861384355 0 -0.012596269660192094 -0.039024678195730286 0 -0.011852964805755338 -0.038345725624909129 0 -0.013069026214957334 -0.038186915861384355 0 -0.013259494583862134 -0.037313302093234399 0 -0.013069026214957334 -0.038186915861384355 0 -0.013861317669947689 -0.037844128391347411 0 -0.014063433220560348 -0.038628530354084693 0 -0.013069026214957334 -0.038186915861384355 0 -0.013861317669947689 -0.037844128391347411 0 -0.014063433220560348 -0.038628530354084693 0 -0.013861317669947689 -0.037844128391347411 0 -0.014780915630822875 -0.038020179644326774 0 -0.014752719155443265 -0.039003649420279875 0 -0.014063433220560348 -0.038628530354084693 0 -0.014780915630822875 -0.038020179644326774 0 -0.015588738652639478 -0.038814030438393141 0 -0.014780915630822875 -0.038020179644326774 0 -0.015867477099252417 -0.037536515501083674 0 -0.014780915630822875 -0.038020179644326774 0 -0.015011270489153496 -0.037040825182813583 0 -0.0141347794125707 -0.037066026182773236 0 -0.014780915630822875 -0.038020179644326774 0 -0.015011270489153496 -0.037040825182813583 0 -0.015867477099252417 -0.037536515501083674 0 -0.013058632062132255 -0.036188910838942732 0 -0.013259494583862134 -0.037313302093234399 0 -0.0141347794125707 -0.037066026182773236 0 -0.013861317669947689 -0.037844128391347411 0 -0.014780915630822875 -0.038020179644326774 0 -0.0141347794125707 -0.037066026182773236 0 -0.013259494583862134 -0.037313302093234399 0 -0.013861317669947689 -0.037844128391347411 0 -0.0141347794125707 -0.037066026182773236 0 -0.013058632062132255 -0.036188910838942732 0 -0.0141347794125707 -0.037066026182773236 0 -0.014277960637777991 -0.036128684903992909 0 -0.013058632062132255 -0.036188910838942732 0 -0.014277960637777991 -0.036128684903992909 0 -0.014185499111668732 -0.034999899634310175 0 -0.014185499111668732 -0.034999899634310175 0 -0.015619230587988947 -0.036214032508428716 0 -0.016101883626029403 -0.03499968677503254 0 -0.014277960637777991 -0.036128684903992909 0 -0.014185499111668732 -0.034999899634310175 0 -0.015619230587988947 -0.036214032508428716 0 -0.015011270489153496 -0.037040825182813583 0 -0.014277960637777991 -0.036128684903992909 0 -0.015619230587988947 -0.036214032508428716 0 -0.015011270489153496 -0.037040825182813583 0 -0.0141347794125707 -0.037066026182773236 0 -0.014277960637777991 -0.036128684903992909 0 -0.015619230587988947 -0.036214032508428716 0 -0.016101883626029403 -0.03499968677503254 0 -0.016952205195195257 -0.035894450484512473 0 -0.016102342137306404 -0.035000187462217475 0 -0.017052605976003103 -0.035944408838493126 0 -0.017922269760074511 -0.036807524026789468 0 -0.016952205195195257 -0.035894450484512473 0 -0.016713513005273996 -0.037001839971906779 0 -0.015619230587988947 -0.036214032508428716 0 -0.016952205195195257 -0.035894450484512473 0 -0.016713513005273996 -0.037001839971906779 0 -0.017922269760074511 -0.036807524026789468 0 -0.016713513005273996 -0.037001839971906779 0 -0.017472320191094699 -0.038100483113795602 0 -0.016713513005273996 -0.037001839971906779 0 -0.015867477099252417 -0.037536515501083674 0 -0.016380634068961883 -0.038256319471962681 0 -0.015011270489153496 -0.037040825182813583 0 -0.015619230587988947 -0.036214032508428716 0 -0.015867477099252417 -0.037536515501083674 0 -0.015619230587988947 -0.036214032508428716 0 -0.016713513005273996 -0.037001839971906779 0 -0.015867477099252417 -0.037536515501083674 0 -0.015588738652639478 -0.038814030438393141 0 -0.015867477099252417 -0.037536515501083674 0 -0.016380634068961883 -0.038256319471962681 0 -0.016713513005273996 -0.037001839971906779 0 -0.016380634068961883 -0.038256319471962681 0 -0.017472320191094699 -0.038100483113795602 0 -0.0022176328615630984 -0.038836878667532347 0 -0.0018357112880265126 -0.03820488194681166 0 -0.0017105560734338152 -0.038835700694322579 0 -0.0022176328615630984 -0.038836878667532347 0 -0.0017105560734338152 -0.038835700694322579 0 -0.0017745361928281113 -0.039301553564420298 0 -0.0046422884061227306 -0.035542516163349552 0 -0.0034430601727142955 -0.034201084018072946 0 -0.0023368016749216298 -0.03526514279545466 0 -0.0015525229306552193 -0.035662759913664105 0 -0.0021767095577403077 -0.034558497191177082 0 -0.0021597798284110747 -0.03718029436330484 0 -0.0034742871531521324 -0.03765706510077968 0 -0.0023368016749216298 -0.03526514279545466 0 -0.0015525229306552193 -0.035662759913664105 0 -0.0017041796336580604 -0.036042943237189887 0 -0.0050793128185787195 -0.037117827539069059 0 -0.0050273390826159692 -0.036984373124121124 0 -0.0053241206121785699 -0.036775861467665316 0 -0.0046422884061227306 -0.035542516163349552 0 -0.0034742871531521324 -0.03765706510077968 0 -0.0026894459728541904 -0.038340158913409833 0 -0.0018357112880265126 -0.03820488194681166 0 -0.002379623198354192 -0.037426304235821058 0 -0.0022176328615630984 -0.038836878667532347 0 -0.0026894459728541904 -0.038340158913409833 0 -0.0018357112880265126 -0.03820488194681166 0 -0.0018357112880265126 -0.03820488194681166 0 -0.0011819650369447247 -0.038465479697325534 0 -0.0012298666755843357 -0.037893234179137925 0 -0.00067580550945855241 -0.038117032538893543 0 -0.00041585972359771113 -0.037163928032505185 0 -0.0011819650369447247 -0.038465479697325534 0 -0.00070269707789112244 -0.037524006044142952 0 -0.0012298666755843357 -0.037893234179137925 0 -0.00015547754385003865 -0.037076620785553328 0 -0.00015641079535831198 -0.037069078208254613 0 -0.00018662857800360978 -0.037029556403752217 0 -0.00015547754385003865 -0.037076620785553328 0 -0.00015641079535831198 -0.037069078208254613 0 -0.00016970801339486532 -0.037060856229177312 0 -0.00015547754385003865 -0.037076620785553328 0 -0.0001651965440273504 -0.037038997867412569 0 -0.00016970801339486532 -0.037060856229177312 0 -0.0001651965440273504 -0.037038997867412569 0 -0.00016970801339486532 -0.037060856229177312 0 -0.00018000410013776927 -0.037027165619577057 0 -0.00015547754385003865 -0.037076620785553328 0 -0.0001651965440273504 -0.037038997867412569 0 -0.00015451262461539246 -0.037031187979812252 0 -0.0011819650369447247 -0.038465479697325534 0 -0.0017105560734338152 -0.038835700694322579 0 -0.0015497375189379655 -0.039340202256089168 0 -0.00015547754385003865 -0.037076620785553328 0 -0.00013504500002252073 -0.037007367820469206 0 -0.00015451262461539246 -0.037031187979812252 0 -0.0018357112880265126 -0.03820488194681166 0 -0.0011819650369447247 -0.038465479697325534 0 -0.0017105560734338152 -0.038835700694322579 0 -0.00067580550945855241 -0.038117032538893543 0 -0.0011384877320351737 -0.036525872611646568 0 -0.0017105560734338152 -0.038835700694322579 0 -0.0015497375189379655 -0.039340202256089168 0 -0.0017745361928281113 -0.039301553564420298 0 -0.00013504500002252073 -0.037007367820469206 0 -0.00015451262461539246 -0.037031187979812252 0 -0.00016246129589794189 -0.037001536633502113 0 -0.0011384877320351737 -0.036525872611646568 0 -0.00052325678220259831 -0.035211328268461073 0 -0.00064403690202872056 -0.033708161598590587 0 -0.00053261004765782212 -0.033808761385468844 0 -0.00081747220782195471 -0.033748876505686379 0 -0.00064403690202872056 -0.033708161598590587 0 -0.00078831218620017279 -0.033725879745511757 0 -0.00074771938784924565 -0.033664898780617056 0 -0.00064403690202872056 -0.033708161598590587 0 -0.00049785672004925576 -0.033710039794935406 0 -0.00053261004765782212 -0.033808761385468844 0 -0.0011384877320351737 -0.036525872611646568 0 -0.0019259638594574737 -0.035806174696831013 0 -0.0013118821072405674 -0.035922002996877277 0 -0.0012396792931263436 -0.035722955537722333 0 -0.0015345789214581324 -0.03567102878304141 0 -0.0033887322541004527 -0.034081519035101517 0 -0.0030688372002613913 -0.034216578751489125 0 -0.003011519938460805 -0.034480056357604608 0 -0.0013621589826761688 -0.034306591479252996 0 -0.0019259638594574737 -0.035806174696831013 0 -0.0013621589826761688 -0.034306591479252996 0 -0.0011384877320351737 -0.036525872611646568 0 -0.00052325678220259831 -0.035211328268461073 0 7.4981630465213218e-05 -0.035638500389249754 0 -0.0001651965440273504 -0.037038997867412569 0 -0.00016246129589794189 -0.037001536633502113 0 -0.00018000410013776927 -0.037027165619577057 0 -0.0001651965440273504 -0.037038997867412569 0 -0.00015451262461539246 -0.037031187979812252 0 -0.00016246129589794189 -0.037001536633502113 0 -0.00064403690202872056 -0.033708161598590587 0 -0.00078831218620017279 -0.033725879745511757 0 -0.00081747220782195471 -0.033748876505686379 0 -0.00078831218620017279 -0.033725879745511757 0 -0.00081680869414485306 -0.033747603753252274 0 -0.00082730267350715416 -0.033627842420941342 0 -0.00078831218620017279 -0.033725879745511757 0 -0.00082730267350715416 -0.033627842420941342 0 -0.00074771938784924565 -0.033664898780617056 0 -0.00048527450833480275 -0.035129700173069461 0 -0.00052325678220259831 -0.035211328268461073 0 -0.00052325678220259831 -0.035211328268461073 0 -0.00030880004792042856 -0.03445862992300696 0 -0.00020795374279692985 -0.035145695119200501 0 -0.00023405559919912965 -0.035139854650013604 0 -0.00023522863137888245 -0.035170609300223837 0 -0.00081680869414485306 -0.033747603753252274 0 -0.0009274817542621231 -0.033615090154206384 0 -0.0010788862646382948 -0.033690066336554962 0 -0.00027067047912290604 -0.029474446890993274 0 5.0771143245414993e-05 -0.029852175244936694 0 -0.0018718613504524252 -0.030115648613111997 0 -0.0009274817542621231 -0.033615090154206384 0 -0.00070144729522735635 -0.033459170590573614 0 -0.0010785489981708434 -0.03354035069457241 0 -0.00032243074803500754 -0.031325761197482926 0 -0.0015938801360019246 -0.031822339483279394 0 -0.0010407494975083814 -0.033631550589365719 0 -0.0009274817542621231 -0.033615090154206384 0 -0.0010788862646382948 -0.033690066336554962 0 -0.0010407494975083814 -0.033631550589365719 0 -0.0009274817542621231 -0.033615090154206384 0 -0.0010785489981708434 -0.03354035069457241 0 -0.00082730267350715416 -0.033627842420941342 0 -0.00073114090865397988 -0.03359775255374365 0 -0.00070144729522735635 -0.033459170590573614 0 -0.0009274817542621231 -0.033615090154206384 0 -0.00082730267350715416 -0.033627842420941342 0 -0.00070144729522735635 -0.033459170590573614 0 -0.00081680869414485306 -0.033747603753252274 0 -0.0009274817542621231 -0.033615090154206384 0 -0.00082730267350715416 -0.033627842420941342 0 -0.00082730267350715416 -0.033627842420941342 0 -0.00074771938784924565 -0.033664898780617056 0 -0.00073114090865397988 -0.03359775255374365 0 -0.00057987078060160496 -0.030647732814402497 0 -0.00032243074803500754 -0.031325761197482926 0 -0.0014110340400892154 -0.029103901815916707 0 -0.00027067047912290604 -0.029474446890993274 0 -0.0018718613504524252 -0.030115648613111997 0 0.00079706810285219416 -0.029136304628958779 0 8.516083913548296e-05 -0.029882642926294854 0 0.0018040320637028615 -0.029516630826721207 0 -0.00084142704896896176 -0.032593095960723718 0 -0.0014124468746725095 -0.031922612168601691 0 -0.00049210269709615393 -0.031719925164572969 0 -0.00032243074803500754 -0.031325761197482926 0 -0.0010112908917978712 -0.030713792383486222 0 -0.0033887322541004527 -0.034081519035101517 0 -0.0030688372002613913 -0.034216578751489125 0 -0.0027377672951301897 -0.032993261796786057 0 -0.0013621589826761688 -0.034306591479252996 0 -0.0010112908917978712 -0.030713792383486222 0 -0.00064403690202872056 -0.033708161598590587 0 -0.00073114090865397988 -0.03359775255374365 0 -0.00070144729522735635 -0.033459170590573614 0 -0.0013621589826761688 -0.034306591479252996 0 -0.00032243074803500754 -0.031325761197482926 0 -0.00064403690202872056 -0.033708161598590587 0 -0.00049785672004925576 -0.033710039794935406 0 -0.00070144729522735635 -0.033459170590573614 0 -0.00064403690202872056 -0.033708161598590587 0 -0.00074771938784924565 -0.033664898780617056 0 -0.00073114090865397988 -0.03359775255374365 0 0.00079706810285219416 -0.029136304628958779 0 -0.00027067047912290604 -0.029474446890993274 0 8.516083913548296e-05 -0.029882642926294854 0 -0.005180318221847946 -0.032980932049397761 0 -0.0048363407242303811 -0.033026054534991627 0 -0.0048256981881193376 -0.033606234970316166 0 -0.005158531990403047 -0.03289415783625009 0 -0.005180318221847946 -0.032980932049397761 0 -0.0048363407242303811 -0.033026054534991627 0 -0.004590093382826955 -0.03277062159333146 0 -0.005158531990403047 -0.03289415783625009 0 -0.0048363407242303811 -0.033026054534991627 0 -0.0026038754780630001 -0.031940115505675451 0 -0.0034430601727142955 -0.034201084018072946 0 -0.0033949587188832116 -0.0308000747842999 0 -0.0026038754780630001 -0.031940115505675451 0 -0.003469194954627801 -0.029925614714897894 0 -0.0023442139890770966 -0.029681513351660034 0 -0.0027019696833942039 -0.031162564289263301 0 -0.0010112908917978712 -0.030713792383486222 0 -0.0033949587188832116 -0.0308000747842999 0 -0.0010112908917978712 -0.030713792383486222 0 -0.0026038754780630001 -0.031940115505675451 0 -0.0031171616415261094 -0.034396917574228997 0 -0.0026038754780630001 -0.031940115505675451 0 -0.0033887322541004527 -0.034081519035101517 0 -0.002864256964246139 -0.032784327230095202 0 -0.0027377672951301897 -0.032993261796786057 0 -0.002862158813494975 -0.033373847769929271 0 -0.0021767095577403077 -0.034558497191177082 0 -0.0026821506558693548 -0.03452998626540621 0 -0.0030688372002613913 -0.034216578751489125 0 -0.002862158813494975 -0.033373847769929271 0 -0.0026821506558693548 -0.03452998626540621 0 -0.0030688372002613913 -0.034216578751489125 0 -0.003011519938460805 -0.034480056357604608 0 -0.0026821506558693548 -0.03452998626540621 0 -0.0023368016749216298 -0.03526514279545466 0 -0.0021767095577403077 -0.034558497191177082 0 -0.0026821506558693548 -0.03452998626540621 0 -0.0021597798284110747 -0.03718029436330484 0 -0.0019259638594574737 -0.035806174696831013 0 -0.0023368016749216298 -0.03526514279545466 0 -0.0029984045132493507 -0.034473373543361274 0 -0.0026821506558693548 -0.03452998626540621 0 -0.0019259638594574737 -0.035806174696831013 0 -0.002635409784384965 -0.035359154240841136 0 -0.0048363407242303811 -0.033026054534991627 0 -0.0048256981881193376 -0.033606234970316166 0 -0.0041771367610974513 -0.033501124680040253 0 -0.0044512527066520235 -0.034245037035858766 0 -0.0048256981881193376 -0.033606234970316166 0 -0.0041771367610974513 -0.033501124680040253 0 -0.0048363407242303811 -0.033026054534991627 0 -0.0042551107711460961 -0.032937198613128021 0 -0.0041771367610974513 -0.033501124680040253 0 -0.004590093382826955 -0.03277062159333146 0 -0.0048363407242303811 -0.033026054534991627 0 -0.0042551107711460961 -0.032937198613128021 0 -0.0066724622028326696 -0.03232752721894705 0 -0.0058418195696837401 -0.034346083289840727 0 -0.003919944242274531 -0.032777375221015717 0 -0.0042551107711460961 -0.032937198613128021 0 -0.0041771367610974513 -0.033501124680040253 0 -0.0072242027212666166 -0.034427584039406739 0 -0.0070140226883726176 -0.034733973569039442 0 -0.0074056816445384468 -0.034954875628731702 0 -0.0066724622028326696 -0.03232752721894705 0 -0.008052106072778167 -0.034080651241249024 0 -0.0091964824067361454 -0.032139960300040731 0 -0.010056854232592487 -0.032193464312985878 0 -0.0090150109799617753 -0.033599208395569263 0 -0.0083068890106983324 -0.03238183060394427 0 -0.0091964824067361454 -0.032139960300040731 0 -0.0090150109799617753 -0.033599208395569263 0 -0.0070140226883726176 -0.034733973569039442 0 -0.0070939764819031763 -0.035082477590026986 0 -0.0074056816445384468 -0.034954875628731702 0 -0.0070140226883726176 -0.034733973569039442 0 -0.0070939764819031763 -0.035082477590026986 0 -0.0068135292927386593 -0.035029024160208498 0 -0.008052106072778167 -0.034080651241249024 0 -0.0078353361458113162 -0.035555102818659264 0 -0.0070939764819031763 -0.035082477590026986 0 -0.0068135292927386593 -0.035029024160208498 0 -0.0069579003639507172 -0.035308696668183683 0 -0.0070939764819031763 -0.035082477590026986 0 -0.0074056816445384468 -0.034954875628731702 0 -0.0072081252878943144 -0.035425631393111501 0 -0.010095903990709351 -0.036593978302356729 0 -0.010069189601236423 -0.036652276156879972 0 -0.010092648851830437 -0.036611473748916913 0 -0.010095903990709351 -0.036593978302356729 0 -0.010060752206830911 -0.036652420386636554 0 -0.010069189601236423 -0.036652276156879972 0 -0.010069189601236423 -0.036652276156879972 0 -0.010092648851830437 -0.036611473748916913 0 -0.010090201153138634 -0.036672671223708063 0 -0.0083068890106983324 -0.03238183060394427 0 -0.0090150109799617753 -0.033599208395569263 0 -0.0070406702295973626 -0.033003470290004236 0 -0.0090150109799617753 -0.033599208395569263 0 -0.0070406702295973626 -0.033003470290004236 0 -0.0079660192453611389 -0.035001877467653902 0 -0.008588551001782933 -0.034900514931204482 0 -0.0078353361458113162 -0.035555102818659264 0 -0.010090201153138634 -0.036672671223708063 0 -0.010049022982603595 -0.036691825025873447 0 -0.010034766878441547 -0.036709410999083869 0 -0.0078353361458113162 -0.035555102818659264 0 -0.0069246730027756513 -0.03502045594497593 0 -0.010069189601236423 -0.036652276156879972 0 -0.010090201153138634 -0.036672671223708063 0 -0.010049022982603595 -0.036691825025873447 0 -0.010041831030325047 -0.036699189873963652 0 -0.010049022982603595 -0.036691825025873447 0 -0.010026760845195404 -0.036719462537792381 0 -0.010060752206830911 -0.036652420386636554 0 -0.010041831030325047 -0.036699189873963652 0 -0.010069189601236423 -0.036652276156879972 0 -0.010041831030325047 -0.036699189873963652 0 -0.010069189601236423 -0.036652276156879972 0 -0.010049022982603595 -0.036691825025873447 0 -0.010068307293503342 -0.036728923102144907 0 -0.010011659668029962 -0.03673081628978811 0 -0.0099637902008606113 -0.036702111603246088 0 -0.010011659668029962 -0.03673081628978811 0 -0.0099924653705041749 -0.036728925659454403 0 -0.0099637902008606113 -0.036702111603246088 0 -0.010032698048861475 -0.036729124349487954 0 -0.010011659668029962 -0.03673081628978811 0 -0.010026760845195404 -0.036719462537792381 0 -0.010011659668029962 -0.03673081628978811 0 -0.010026760845195404 -0.036719462537792381 0 -0.0099924653705041749 -0.036728925659454403 0 -0.010049022982603595 -0.036691825025873447 0 -0.010026760845195404 -0.036719462537792381 0 -0.010034766878441547 -0.036709410999083869 0 -0.010026760845195404 -0.036719462537792381 0 -0.010034766878441547 -0.036709410999083869 0 -0.0099924653705041749 -0.036728925659454403 0 -0.010034766878441547 -0.036709410999083869 0 -0.0099924653705041749 -0.036728925659454403 0 -0.010016828505475377 -0.036745450288035622 0 -0.0099924653705041749 -0.036728925659454403 0 -0.0099409352709397859 -0.036711566764183773 0 -0.0099637902008606113 -0.036702111603246088 0 -0.0095300941124260279 -0.036653374383137795 0 -0.009067478027520403 -0.036247730125017606 0 -0.010090201153138634 -0.036672671223708063 0 -0.010034766878441547 -0.036709410999083869 0 -0.010016828505475377 -0.036745450288035622 0 -0.0078353361458113162 -0.035555102818659264 0 -0.009067478027520403 -0.036247730125017606 0 -0.0068676693823037224 -0.035102412052816688 0 -0.0066033120635540553 -0.035462308900653751 0 -0.0069579003639507172 -0.035308696668183683 0 -0.0066033120635540553 -0.035462308900653751 0 -0.0069579003639507172 -0.035308696668183683 0 -0.006995309992036112 -0.035573519892909744 0 -0.009067478027520403 -0.036247730125017606 0 -0.0081462764916935444 -0.03601710991466809 0 -0.0066033120635540553 -0.035462308900653751 0 -0.006995309992036112 -0.035573519892909744 0 -0.006850094961162013 -0.035787809118926706 0 -0.010068307293503342 -0.036728923102144907 0 -0.0098889893770035507 -0.036613051802975263 0 -0.0096808019519060481 -0.036341683414322958 0 -0.0098889893770035507 -0.036613051802975263 0 -0.0096808019519060481 -0.036341683414322958 0 -0.0093899704185092959 -0.036461453862877823 0 -0.0097382021252505301 -0.036806547925731431 0 -0.0098889893770035507 -0.036613051802975263 0 -0.0093899704185092959 -0.036461453862877823 0 -0.009525835244738181 -0.038045479694722127 0 -0.0091239953977679169 -0.037359816845464133 0 -0.009067478027520403 -0.036247730125017606 0 -0.0096610631153837122 -0.036456496371668992 0 -0.010068307293503342 -0.036728923102144907 0 -0.0098889893770035507 -0.036613051802975263 0 -0.0099637902008606113 -0.036702111603246088 0 -0.0099409352709397859 -0.036711566764183773 0 -0.0098889893770035507 -0.036613051802975263 0 -0.0099637902008606113 -0.036702111603246088 0 -0.0046422884061227306 -0.035542516163349552 0 -0.0058418195696837401 -0.034346083289840727 0 -0.0075578781534427677 -0.035426994148497246 0 -0.0074056816445384468 -0.034954875628731702 0 -0.0072081252878943144 -0.035425631393111501 0 -0.0070939764819031763 -0.035082477590026986 0 -0.0072081252878943144 -0.035425631393111501 0 -0.0069579003639507172 -0.035308696668183683 0 -0.0072081252878943144 -0.035425631393111501 0 -0.0069579003639507172 -0.035308696668183683 0 -0.006995309992036112 -0.035573519892909744 0 -0.0072081252878943144 -0.035425631393111501 0 -0.006995309992036112 -0.035573519892909744 0 -0.0070963234937409672 -0.035831283650927234 0 -0.006995309992036112 -0.035573519892909744 0 -0.0070963234937409672 -0.035831283650927234 0 -0.006850094961162013 -0.035787809118926706 0 -0.0072081252878943144 -0.035425631393111501 0 -0.0073457935443550226 -0.035764225814697161 0 -0.0070963234937409672 -0.035831283650927234 0 -0.0075578781534427677 -0.035426994148497246 0 -0.0072081252878943144 -0.035425631393111501 0 -0.0073457935443550226 -0.035764225814697161 0 -0.0046422884061227306 -0.035542516163349552 0 -0.006505607155435556 -0.036184520117742126 0 -0.0050273390826159692 -0.036984373124121124 0 -0.0053241206121785699 -0.036775861467665316 0 -0.0052982930216039503 -0.036707532331834089 0 -0.0034742871531521324 -0.03765706510077968 0 -0.0048669357569274645 -0.037637117445920118 0 -0.006505607155435556 -0.036184520117742126 0 -0.0061825945273075774 -0.036817319510972515 0 -0.0053241206121785699 -0.036775861467665316 0 -0.0052982930216039503 -0.036707532331834089 0 -0.0055907405963744406 -0.036432730680164699 0 -0.0045020386845083414 -0.038436298531542686 0 -0.0045872005595154171 -0.037824227369520597 0 -0.0041423208898081114 -0.037700033815678283 0 -0.0045020386845083414 -0.038436298531542686 0 -0.0045872005595154171 -0.037824227369520597 0 -0.0051965767405331232 -0.037658522715832497 0 -0.0048669357569274645 -0.037637117445920118 0 -0.0061825945273075774 -0.036817319510972515 0 -0.0070963234937409672 -0.035831283650927234 0 -0.007142495032523362 -0.036092233370435052 0 -0.0071167264280422755 -0.036133657504764063 0 -0.0066606786118314394 -0.036792225907801339 0 -0.0081462764916935444 -0.03601710991466809 0 -0.0070963234937409672 -0.035831283650927234 0 -0.0071167264280422755 -0.036133657504764063 0 -0.006850094961162013 -0.035787809118926706 0 -0.0073457935443550226 -0.035764225814697161 0 -0.0070963234937409672 -0.035831283650927234 0 -0.007142495032523362 -0.036092233370435052 0 -0.0089677326116792376 -0.036029518726704991 0 -0.0091570030753760287 -0.03583182248006983 0 -0.0093899704185092959 -0.036461453862877823 0 -0.0061825945273075774 -0.036817319510972515 0 -0.0066606786118314394 -0.036792225907801339 0 -0.0067795629947296132 -0.036806159161901893 0 -0.0067225010309700734 -0.03690197920074377 0 -0.0067077873619725481 -0.036886140398167198 0 -0.0066606786118314394 -0.036792225907801339 0 -0.007316942890374027 -0.036898233947361345 0 -0.006665848728867595 -0.037006392645208476 0 -0.007316942890374027 -0.036898233947361345 0 -0.0057495207759877152 -0.037875577798244298 0 -0.0061454113071656149 -0.037236078442930413 0 -0.0054382204523286569 -0.036994679419732446 0 -0.0066606786118314394 -0.036792225907801339 0 -0.006665848728867595 -0.037006392645208476 0 -0.0066606786118314394 -0.036792225907801339 0 -0.0043711048063012296 -0.036612499171481815 0 -0.0052737520173962316 -0.037536503092380845 0 -0.0045660818779192369 -0.037302601393007083 0 -0.0043874999040334978 -0.036466074041467865 0 -0.0057495207759877152 -0.037875577798244298 0 -0.0046452785691638333 -0.036608687556656139 0 -0.0054382204523286569 -0.036994679419732446 0 -0.0045660818779192369 -0.037302601393007083 0 -0.0043874999040334978 -0.036466074041467865 0 -0.003767488465729261 -0.037034948235955968 0 -0.0045872005595154171 -0.037824227369520597 0 -0.0045660818779192369 -0.037302601393007083 0 -0.0041423208898081114 -0.037700033815678283 0 -0.0045872005595154171 -0.037824227369520597 0 -0.0051965767405331232 -0.037658522715832497 0 -0.0045660818779192369 -0.037302601393007083 0 -0.0051965767405331232 -0.037658522715832497 0 -0.0052737520173962316 -0.037536503092380845 0 -0.0045660818779192369 -0.037302601393007083 0 -0.0096518902238981012 -0.03981735172489325 0 -0.0095883459892558715 -0.038050011638403755 0 -0.0082086562093067628 -0.038375699365451238 0 -0.0095883459892558715 -0.038050011638403755 0 -0.0082086562093067628 -0.038375699365451238 0 -0.008509291612439079 -0.037040860059008834 0 -0.0091570030753760287 -0.03583182248006983 0 -0.0096808019519060481 -0.036341683414322958 0 -0.0093899704185092959 -0.036461453862877823 0 -0.0069519994420666207 -0.037051632184697536 0 -0.0082086562093067628 -0.038375699365451238 0 -0.008509291612439079 -0.037040860059008834 0 -0.007316942890374027 -0.036898233947361345 0 -0.0091239953977679169 -0.037359816845464133 0 -0.008509291612439079 -0.037040860059008834 0 -0.0088491764122828696 -0.036035074157535804 0 -0.0078504574424650107 -0.036013394907645477 0 -0.0098049628419448979 -0.036795916378621001 0 -0.008509291612439079 -0.037040860059008834 0 -0.0088491764122828696 -0.036035074157535804 0 -0.0064499784153825854 -0.037248489355640298 0 -0.0073919610291630243 -0.036170345015154592 0 -0.0069642322114848963 -0.036161254035274176 0 -0.007316942890374027 -0.036898233947361345 0 -0.0075205779808959778 -0.036151654989568988 0 -0.0069519994420666207 -0.037051632184697536 0 -0.008509291612439079 -0.037040860059008834 0 -0.0078504574424650107 -0.036013394907645477 0 -0.0069015887290673683 -0.036221182101330365 0 -0.0075477353564567537 -0.035183300541072896 0 -0.0069003629199051722 -0.036207260957199179 0 -0.0067943108115695238 -0.035605578622885312 0 -0.0075996127300422007 -0.035094055104870223 0 -0.0073919610291630243 -0.036170345015154592 0 -0.0069642322114848963 -0.036161254035274176 0 -0.0075996127300422007 -0.035094055104870223 0 -0.0068057063219568292 -0.034999990259171776 0 -0.0075996127300422007 -0.035094055104870223 0 -0.0084347564530907436 -0.035000006818176471 0 -0.0069003629199051722 -0.036207260957199179 0 -0.0067943108115695238 -0.035605578622885312 0 -0.0063724340631110517 -0.036010686299574567 0 -0.0067943108115695238 -0.035605578622885312 0 -0.0068057063219568292 -0.034999990259171776 0 -0.0062489332258541825 -0.035608343921302556 0 -0.0067943108115695238 -0.035605578622885312 0 -0.0068057063219568292 -0.034999990259171776 0 -0.0075996127300422007 -0.035094055104870223 0 -0.0073919610291630243 -0.036170345015154592 0 -0.0075996127300422007 -0.035094055104870223 0 -0.0084347564530907436 -0.035000006818176471 0 -0.0075205779808959778 -0.036151654989568988 0 -0.0084347692925338755 -0.035000100965629832 0 -0.0088491764122828696 -0.036035074157535804 0 -0.0078504574424650107 -0.036013394907645477 0 -0.0084357469235352717 -0.034999902655661559 0 -0.0052109060112507906 -0.036254991755186518 0 -0.0046452785691638333 -0.036608687556656139 0 -0.0054382204523286569 -0.036994679419732446 0 -0.0063555471460688502 -0.037148045991793048 0 -0.0064499784153825854 -0.037248489355640298 0 -0.0069642322114848963 -0.036161254035274176 0 -0.006665848728867595 -0.037006392645208476 0 -0.0069015887290673683 -0.036221182101330365 0 -0.0062119838470161186 -0.037312981009914106 0 -0.0069003629199051722 -0.036207260957199179 0 -0.006077774661570637 -0.036464134528791825 0 -0.0062119838470161186 -0.037312981009914106 0 -0.0052324082986215936 -0.036284072407584932 0 -0.006077774661570637 -0.036464134528791825 0 -0.0061454113071656149 -0.037236078442930413 0 -0.0052109060112507906 -0.036254991755186518 0 -0.0054382204523286569 -0.036994679419732446 0 -0.006665848728867595 -0.037006392645208476 0 -0.0051649410001882185 -0.036250237991059905 0 -0.006077774661570637 -0.036464134528791825 0 -0.0057449798049697132 -0.035954089528163806 0 -0.0063724340631110517 -0.036010686299574567 0 -0.0069003629199051722 -0.036207260957199179 0 -0.006077774661570637 -0.036464134528791825 0 -0.0063724340631110517 -0.036010686299574567 0 -0.0052324082986215936 -0.036284072407584932 0 -0.006077774661570637 -0.036464134528791825 0 -0.0057449798049697132 -0.035954089528163806 0 -0.0068057063219568292 -0.034999990259171776 0 -0.0062489332258541825 -0.035608343921302556 0 -0.005176629802144222 -0.03499999613550013 0 -0.0057449798049697132 -0.035954089528163806 0 -0.0063724340631110517 -0.036010686299574567 0 -0.0062489332258541825 -0.035608343921302556 0 -0.0067943108115695238 -0.035605578622885312 0 -0.0063724340631110517 -0.036010686299574567 0 -0.0062489332258541825 -0.035608343921302556 0 -0.0057449798049697132 -0.035954089528163806 0 -0.0062489332258541825 -0.035608343921302556 0 -0.005176629802144222 -0.03499999613550013 0 -0.0052109060112507906 -0.036254991755186518 0 -0.0046452785691638333 -0.036608687556656139 0 -0.0042452276785728618 -0.035244351797115742 0 -0.0057449798049697132 -0.035954089528163806 0 -0.005176629802144222 -0.03499999613550013 0 -0.0051801755321175163 -0.035642132498103614 0 -0.0052324082986215936 -0.036284072407584932 0 -0.0057449798049697132 -0.035954089528163806 0 -0.0051801755321175163 -0.035642132498103614 0 -0.0051649410001882185 -0.036250237991059905 0 -0.0043427462561021098 -0.035340883907269416 0 -0.0052324082986215936 -0.036284072407584932 0 -0.0051801755321175163 -0.035642132498103614 0 -0.0042452276785728618 -0.035244351797115742 0 -0.005176629802144222 -0.03499999613550013 0 -0.0051801755321175163 -0.035642132498103614 0 -0.0042452276785728618 -0.035244351797115742 0 -0.005176629802144222 -0.03499999613550013 0 -0.0042452276785728618 -0.035244351797115742 0 -0.0035473910410391356 -0.034999979959760501 0 -0.0046452785691638333 -0.036608687556656139 0 -0.0042452276785728618 -0.035244351797115742 0 -0.0034886906585264183 -0.035290790425163747 0 -0.0043711048063012296 -0.036612499171481815 0 -0.0035749390031186391 -0.03534474256952258 0 -0.0042452276785728618 -0.035244351797115742 0 -0.0035473910410391356 -0.034999979959760501 0 -0.0034886906585264183 -0.035290790425163747 0 -0.0034886906585264183 -0.035290790425163747 0 -0.002670077647506893 -0.036548502779324317 0 -0.0019186587326158657 -0.03499998005621089 0 -0.0035473910410391356 -0.034999979959760501 0 -0.0034886906585264183 -0.035290790425163747 0 -0.0019186587326158657 -0.03499998005621089 0 -0.0023743483060097506 -0.036379084973670296 0 -0.001918491284570708 -0.035000282093961554 0 -0.0034886906585264183 -0.035290790425163747 0 -0.002670077647506893 -0.036548502779324317 0 -0.0035481733483448217 -0.036217900340584488 0 -0.002670077647506893 -0.036548502779324317 0 -0.0035481733483448217 -0.036217900340584488 0 -0.003767488465729261 -0.037034948235955968 0 -0.0043874999040334978 -0.036466074041467865 0 -0.0034886906585264183 -0.035290790425163747 0 -0.0035481733483448217 -0.036217900340584488 0 -0.0043874999040334978 -0.036466074041467865 0 -0.0035481733483448217 -0.036217900340584488 0 -0.003767488465729261 -0.037034948235955968 0 -0.003767488465729261 -0.037034948235955968 0 -0.0041423208898081114 -0.037700033815678283 0 -0.0032893776177848329 -0.037891622626507318 0 -0.0045660818779192369 -0.037302601393007083 0 -0.003767488465729261 -0.037034948235955968 0 -0.0041423208898081114 -0.037700033815678283 0 -0.002670077647506893 -0.036548502779324317 0 -0.003767488465729261 -0.037034948235955968 0 -0.0032893776177848329 -0.037891622626507318 0 -0.002379623198354192 -0.037426304235821058 0 -0.0015521539589075477 -0.037555697557461944 0 -0.0015961043668418103 -0.036953437703351071 0 -0.002104376010036831 -0.036354920952131851 0 -0.002379623198354192 -0.037426304235821058 0 -0.0015961043668418103 -0.036953437703351071 0 -0.0023743483060097506 -0.036379084973670296 0 -0.0028424898843035949 -0.037876448741666506 0 -0.0018357112880265126 -0.03820488194681166 0 -0.002379623198354192 -0.037426304235821058 0 -0.0015521539589075477 -0.037555697557461944 0 -0.0034742871531521324 -0.03765706510077968 0 -0.0028424898843035949 -0.037876448741666506 0 -0.0045020386845083414 -0.038436298531542686 0 -0.0041423208898081114 -0.037700033815678283 0 -0.0032893776177848329 -0.037891622626507318 0 -0.0038256643179868871 -0.039195893272855817 0 -0.0045020386845083414 -0.038436298531542686 0 -0.0032893776177848329 -0.037891622626507318 0 -0.00015641079535831198 -0.037069078208254613 0 -0.00018662857800360978 -0.037029556403752217 0 -0.00014730966474545978 -0.037060099168283712 0 -0.00070269707789112244 -0.037524006044142952 0 -0.0011100464428113025 -0.037476427809542315 0 -0.00088748785659913511 -0.037216622917545211 0 -0.00070269707789112244 -0.037524006044142952 0 -0.0012298666755843357 -0.037893234179137925 0 -0.0011100464428113025 -0.037476427809542315 0 -0.00018662857800360978 -0.037029556403752217 0 -0.00014730966474545978 -0.037060099168283712 0 -1.8422886972770619e-05 -0.036922178149866057 0 -0.00015641079535831198 -0.037069078208254613 0 -0.00014730966474545978 -0.037060099168283712 0 -0.00015477527896521031 -0.037067789977711207 0 -0.0018357112880265126 -0.03820488194681166 0 -0.0012298666755843357 -0.037893234179137925 0 -0.0015521539589075477 -0.037555697557461944 0 -0.0015521539589075477 -0.037555697557461944 0 -0.0011100464428113025 -0.037476427809542315 0 -0.0011676736056944648 -0.037160367059658334 0 -0.0012298666755843357 -0.037893234179137925 0 -0.0015521539589075477 -0.037555697557461944 0 -0.0011100464428113025 -0.037476427809542315 0 -0.0015521539589075477 -0.037555697557461944 0 -0.0011676736056944648 -0.037160367059658334 0 -0.0015961043668418103 -0.036953437703351071 0 -0.0011676736056944648 -0.037160367059658334 0 -0.0015961043668418103 -0.036953437703351071 0 -0.0011333233853960097 -0.036681977939803295 0 -0.00070269707789112244 -0.037524006044142952 0 -0.00057954316664433762 -0.036872872806350619 0 -1.6038642517417968e-05 -0.036288572369026668 0 -0.00041585972359771113 -0.037163928032505185 0 -5.0671410976788974e-05 -0.036360086313412025 0 -0.00018662857800360978 -0.037029556403752217 0 -1.6038642517417968e-05 -0.036288572369026668 0 -1.8422886972770619e-05 -0.036922178149866057 0 -0.00087329348207670096 -0.036885546261815942 0 -0.00057954316664433762 -0.036872872806350619 0 -0.00057422971570099358 -0.036474227986718386 0 -0.0011676736056944648 -0.037160367059658334 0 -0.0011333233853960097 -0.036681977939803295 0 -0.00087329348207670096 -0.036885546261815942 0 -0.0011333233853960097 -0.036681977939803295 0 -0.00087329348207670096 -0.036885546261815942 0 -0.00057422971570099358 -0.036474227986718386 0 -0.00070269707789112244 -0.037524006044142952 0 -0.00088748785659913511 -0.037216622917545211 0 -0.00057954316664433762 -0.036872872806350619 0 -0.0011676736056944648 -0.037160367059658334 0 -0.00087329348207670096 -0.036885546261815942 0 -0.00088748785659913511 -0.037216622917545211 0 -0.00087329348207670096 -0.036885546261815942 0 -0.00088748785659913511 -0.037216622917545211 0 -0.00057954316664433762 -0.036872872806350619 0 -0.0011100464428113025 -0.037476427809542315 0 -0.0011676736056944648 -0.037160367059658334 0 -0.00088748785659913511 -0.037216622917545211 0 -0.00057954316664433762 -0.036872872806350619 0 -0.00057422971570099358 -0.036474227986718386 0 -1.6038642517417968e-05 -0.036288572369026668 0 -0.00057422971570099358 -0.036474227986718386 0 -0.00038143926736493755 -0.036183737857577114 0 -1.6038642517417968e-05 -0.036288572369026668 0 -0.0011333233853960097 -0.036681977939803295 0 -0.00057422971570099358 -0.036474227986718386 0 -0.00076583988558176909 -0.036053245868754677 0 -0.00076583988558176909 -0.036053245868754677 0 -0.0013896250291065301 -0.036150366351593473 0 -0.00080974126886033037 -0.035603673034568246 0 -0.00038143926736493755 -0.036183737857577114 0 -0.00017220356808359089 -0.035916788319939344 0 -1.6038642517417968e-05 -0.036288572369026668 0 -0.00076583988558176909 -0.036053245868754677 0 -0.00038143926736493755 -0.036183737857577114 0 -0.00017220356808359089 -0.035916788319939344 0 -0.00057422971570099358 -0.036474227986718386 0 -0.00076583988558176909 -0.036053245868754677 0 -0.00038143926736493755 -0.036183737857577114 0 -0.0015961043668418103 -0.036953437703351071 0 -0.0011333233853960097 -0.036681977939803295 0 -0.0013896250291065301 -0.036150366351593473 0 -0.002104376010036831 -0.036354920952131851 0 -0.0015961043668418103 -0.036953437703351071 0 -0.0013896250291065301 -0.036150366351593473 0 -0.0011333233853960097 -0.036681977939803295 0 -0.00076583988558176909 -0.036053245868754677 0 -0.0013896250291065301 -0.036150366351593473 0 -0.0013896250291065301 -0.036150366351593473 0 -0.0019177226976220389 -0.035000044203757998 0 -0.00080974126886033037 -0.035603673034568246 0 -0.002104376010036831 -0.036354920952131851 0 -0.0013896250291065301 -0.036150366351593473 0 -0.0019177226976220389 -0.035000044203757998 0 -0.0019177226976220389 -0.035000044203757998 0 -0.00080974126886033037 -0.035603673034568246 0 -0.00043261165643605364 -0.034999898397195785 0 -0.00076583988558176909 -0.036053245868754677 0 -0.00017220356808359089 -0.035916788319939344 0 -0.00080974126886033037 -0.035603673034568246 0 -0.00017220356808359089 -0.035916788319939344 0 -0.00015124901038407899 -0.035513910762849106 0 -0.00080974126886033037 -0.035603673034568246 0 -0.00015124901038407899 -0.035513910762849106 0 -0.00080974126886033037 -0.035603673034568246 0 -0.00043261165643605364 -0.034999898397195785 0 -0.00015124901038407899 -0.035513910762849106 0 0.0010538472334335118 -0.034999978197610318 0 0.001375364873841734 -0.035728060083837977 0 -0.00015124901038407899 -0.035513910762849106 0 0.00020089730064990101 -0.035833590703484665 0 0.00070907684701553095 -0.035649637448061253 0 3.581947337568223e-05 -0.03554362475712259 0 0.00079522702664097016 -0.035676295305404129 0 -0.00015124901038407899 -0.035513910762849106 0 -0.00043261165643605364 -0.034999898397195785 0 0.0010538472334335118 -0.034999978197610318 0 -0.00017220356808359089 -0.035916788319939344 0 -0.00015124901038407899 -0.035513910762849106 0 0.00020089730064990101 -0.035833590703484665 0 0.00020089730064990101 -0.035833590703484665 0 0.00070907684701553095 -0.035649637448061253 0 0.00044831012135964379 -0.036050255885333178 0 0.00070907684701553095 -0.035649637448061253 0 0.0010798589293685369 -0.03601901146593587 0 0.001553298688965169 -0.035749910348399611 0 0.0010538472334335118 -0.034999978197610318 0 0.001375364873841734 -0.035728060083837977 0 0.0025399755036081516 -0.035000012061726586 0 0.00079522702664097016 -0.035676295305404129 0 0.0033168304797423368 -0.035592956743098002 0 0.00070907684701553095 -0.035649637448061253 0 0.00075679411340599269 -0.036071477001641289 0 0.00044831012135964379 -0.036050255885333178 0 0.00070907684701553095 -0.035649637448061253 0 0.00075679411340599269 -0.036071477001641289 0 0.0010798589293685369 -0.03601901146593587 0 0.00075679411340599269 -0.036071477001641289 0 0.0006275397227713149 -0.036291341457226102 0 0.00044831012135964379 -0.036050255885333178 0 0.00075679411340599269 -0.036071477001641289 0 0.0010798589293685369 -0.03601901146593587 0 0.0010016231720608303 -0.036368254754761908 0 0.0010798589293685369 -0.03601901146593587 0 0.0010016231720608303 -0.036368254754761908 0 0.0013708749114136503 -0.036247487901800629 0 0.0010016231720608303 -0.036368254754761908 0 0.0006275397227713149 -0.036291341457226102 0 0.0006504199577463647 -0.036656496796598236 0 0.00075679411340599269 -0.036071477001641289 0 0.0010016231720608303 -0.036368254754761908 0 0.0006275397227713149 -0.036291341457226102 0 0.0006275397227713149 -0.036291341457226102 0 0.00025936216859822372 -0.036296950659042274 0 0.00044831012135964379 -0.036050255885333178 0 0.0006275397227713149 -0.036291341457226102 0 0.00025936216859822372 -0.036296950659042274 0 0.0006504199577463647 -0.036656496796598236 0 0.00025936216859822372 -0.036296950659042274 0 -1.6038642517417968e-05 -0.036288572369026668 0 0.0001548466636176678 -0.036081233548911837 0 -0.00017220356808359089 -0.035916788319939344 0 -1.6038642517417968e-05 -0.036288572369026668 0 0.0001548466636176678 -0.036081233548911837 0 -0.00017220356808359089 -0.035916788319939344 0 0.00020089730064990101 -0.035833590703484665 0 0.0001548466636176678 -0.036081233548911837 0 0.00020089730064990101 -0.035833590703484665 0 0.0001548466636176678 -0.036081233548911837 0 0.00044831012135964379 -0.036050255885333178 0 0.00025936216859822372 -0.036296950659042274 0 0.0001548466636176678 -0.036081233548911837 0 0.00044831012135964379 -0.036050255885333178 0 0.0042959148505121317 -0.036059432838619468 0 0.0041755257574750959 -0.034999868403329776 0 0.0028382079141548071 -0.035888755335138391 0 0.005579010095327212 -0.036015893849818369 0 0.0033168304797423368 -0.035592956743098002 0 0.0041755257574750959 -0.034999868403329776 0 0.0028382079141548071 -0.035888755335138391 0 0.0025399510017511152 -0.03500006704759339 0 0.001375364873841734 -0.035728060083837977 0 0.0028362429252733897 -0.035884080899707467 0 0.0025399755036081516 -0.035000012061726586 0 0.0033168304797423368 -0.035592956743098002 0 0.002540264015587801 -0.035000340263497687 0 0.0033168304797423368 -0.035592956743098002 0 0.0039796378020986846 -0.03645410723387963 0 0.001553298688965169 -0.035749910348399611 0 0.0013708749114136503 -0.036247487901800629 0 0.0018141505772423733 -0.036576403291950076 0 0.0010798589293685369 -0.03601901146593587 0 0.001553298688965169 -0.035749910348399611 0 0.0013708749114136503 -0.036247487901800629 0 0.0010016231720608303 -0.036368254754761908 0 0.0013708749114136503 -0.036247487901800629 0 0.0014022615349526973 -0.036611682236980705 0 0.0063530480275825803 -0.035929699674843288 0 0.0061762372628691008 -0.035892013051473139 0 0.0062435225394777477 -0.036023359325307223 0 0.0063530480275825803 -0.035929699674843288 0 0.0062435225394777477 -0.036023359325307223 0 0.0063922969981966716 -0.035955491438645626 0 0.0039796378020986846 -0.03645410723387963 0 0.0056451634654255929 -0.036024336980541985 0 0.0063567691285449776 -0.036094197057991273 0 0.0062435225394777477 -0.036023359325307223 0 0.0063922969981966716 -0.035955491438645626 0 0.0018141505772423733 -0.036576403291950076 0 0.0016562903836743221 -0.037066829474325519 0 0.0020681316922734868 -0.037321216099483516 0 0.0063567691285449776 -0.036094197057991273 0 0.0062435225394777477 -0.036023359325307223 0 0.0062761767588336665 -0.036270900111099194 0 0.0018141505772423733 -0.036576403291950076 0 0.0014022615349526973 -0.036611682236980705 0 0.0016562903836743221 -0.037066829474325519 0 0.0013708749114136503 -0.036247487901800629 0 0.0018141505772423733 -0.036576403291950076 0 0.0014022615349526973 -0.036611682236980705 0 0.0014022615349526973 -0.036611682236980705 0 0.0016562903836743221 -0.037066829474325519 0 0.0011105641526523362 -0.036895754790067223 0 0.0016049457256487067 -0.037706716454270928 0 0.0030467953105106863 -0.036043609786131102 0 0.0016562903836743221 -0.037066829474325519 0 0.0020681316922734868 -0.037321216099483516 0 0.0016438332023363488 -0.037630112293561953 0 0.001257309266659836 -0.037429782011503931 0 0.0016562903836743221 -0.037066829474325519 0 0.0015863267456813841 -0.037711298364404129 0 0.001257309266659836 -0.037429782011503931 0 0.0016562903836743221 -0.037066829474325519 0 0.0011105641526523362 -0.036895754790067223 0 0.0056451634654255929 -0.036024336980541985 0 0.0030467953105106863 -0.036043609786131102 0 0.00025877141722167429 -0.036338650257421438 0 0.00020405503087472088 -0.036913036600251581 0 0.00025936216859822372 -0.036296950659042274 0 0.00027916917708529463 -0.036955325981949644 0 0.0006504199577463647 -0.036656496796598236 0 -1.6038642517417968e-05 -0.036288572369026668 0 0.0001439801295176547 -0.036842254739117793 0 -1.8422886972770619e-05 -0.036922178149866057 0 0.00025936216859822372 -0.036296950659042274 0 -1.6038642517417968e-05 -0.036288572369026668 0 0.0001439801295176547 -0.036842254739117793 0 0.00027916917708529463 -0.036955325981949644 0 0.0006504199577463647 -0.036656496796598236 0 0.00070073332243161129 -0.037024123651867254 0 0.0010016231720608303 -0.036368254754761908 0 0.0006504199577463647 -0.036656496796598236 0 0.0011105641526523362 -0.036895754790067223 0 0.0010016231720608303 -0.036368254754761908 0 0.0014022615349526973 -0.036611682236980705 0 0.0011105641526523362 -0.036895754790067223 0 0.0006504199577463647 -0.036656496796598236 0 0.0011105641526523362 -0.036895754790067223 0 0.00070073332243161129 -0.037024123651867254 0 0.00070073332243161129 -0.037024123651867254 0 0.00081713908830168284 -0.03739147531454555 0 0.00051376891606382609 -0.037245434104617413 0 0.0011105641526523362 -0.036895754790067223 0 0.00070073332243161129 -0.037024123651867254 0 0.00081713908830168284 -0.03739147531454555 0 0.001257309266659836 -0.037429782011503931 0 0.0011105641526523362 -0.036895754790067223 0 0.00081713908830168284 -0.03739147531454555 0 0.00027916917708529463 -0.036955325981949644 0 0.00051376891606382609 -0.037245434104617413 0 0.00022873056130808623 -0.037615914694677649 0 0.00020405503087472088 -0.036913036600251581 0 0.000272518735150438 -0.037237179223656089 0 0.0001439801295176547 -0.036842254739117793 0 -1.8422886972770619e-05 -0.036922178149866057 0 6.2367367310038431e-05 -0.037235923348088361 0 0.00081713908830168284 -0.03739147531454555 0 0.00051376891606382609 -0.037245434104617413 0 0.00022873056130808623 -0.037615914694677649 0 0.00027916917708529463 -0.036955325981949644 0 0.00070073332243161129 -0.037024123651867254 0 0.00051376891606382609 -0.037245434104617413 0 -0.00014730966474545978 -0.037060099168283712 0 -1.8422886972770619e-05 -0.036922178149866057 0 6.2367367310038431e-05 -0.037235923348088361 0 -0.00014520493676728737 -0.037018594555483113 0 0.000272518735150438 -0.037237179223656089 0 0.000272518735150438 -0.037237179223656089 0 0.0001690853489366915 -0.036802873241606505 0 0.000272518735150438 -0.037237179223656089 0 0.0008137813197870578 -0.035959733485058799 0 -0.00015641079535831198 -0.037069078208254613 0 -0.00015477527896521031 -0.037067789977711207 0 -0.00016970801339486532 -0.037060856229177312 0 0.0004966244365591844 -0.036692943104684093 0 0.00052639699734961527 -0.036377212597567168 0 0.00013131948413044401 -0.036390763439705202 0 0.0001690853489366915 -0.036802873241606505 0 7.4981630465213218e-05 -0.035638500389249754 0 0.00052639699734961527 -0.036377212597567168 0 0.00013131948413044401 -0.036390763439705202 0 0.00055419415486006329 -0.036062174991703222 0 0.0008137813197870578 -0.035959733485058799 0 7.4981630465213218e-05 -0.035638500389249754 0 0.00037623931368623476 -0.034338310746318657 0 0.00040712578587401548 -0.034253679516525831 0 0.00026072250863808777 -0.034348926282993443 0 0.00037623931368623476 -0.034338310746318657 0 0.00040712578587401548 -0.034253679516525831 0 0.00049845043955798268 -0.034312035041697234 0 0.00081713908830168284 -0.03739147531454555 0 0.00022873056130808623 -0.037615914694677649 0 0.00094857574933302955 -0.038176913714806283 0 0.001257309266659836 -0.037429782011503931 0 0.00081713908830168284 -0.03739147531454555 0 0.00094857574933302955 -0.038176913714806283 0 0.0027374865303685073 -0.035416337856409519 0 0.0026941402790273653 -0.03545731974324192 0 0.0027039456856247394 -0.035374245954454653 0 0.0030467953105106863 -0.036043609786131102 0 0.0041683717782098964 -0.034221711387748967 0 0.0008137813197870578 -0.035959733485058799 0 0.0030467953105106863 -0.036043609786131102 0 0.001257309266659836 -0.037429782011503931 0 0.00094857574933302955 -0.038176913714806283 0 0.0015863267456813841 -0.037711298364404129 0 0.0056451634654255929 -0.036024336980541985 0 0.0068150020462221057 -0.034494299493519981 0 0.0064671021109669134 -0.034182565727325323 0 0.0064830823146277876 -0.033963267879704363 0 0.0063243229081286099 -0.034033628769771958 0 0.0063557949851178672 -0.034280389719293043 0 0.0064671021109669134 -0.034182565727325323 0 0.0063243229081286099 -0.034033628769771958 0 0.0064830823146277876 -0.033963267879704363 0 0.006371625430770838 -0.033846019605297276 0 0.0063243229081286099 -0.034033628769771958 0 0.0008137813197870578 -0.035959733485058799 0 0.0041683717782098964 -0.034221711387748967 0 0.0041683717782098964 -0.034221711387748967 0 0.0012657900794079595 -0.03266057341360476 0 0.00049845043955798268 -0.034312035041697234 0 0.00044855466087909401 -0.034405247595117698 0 0.0004774861736478441 -0.034438042451974932 0 0.00049845043955798268 -0.034312035041697234 0 0.00044855466087909401 -0.034405247595117698 0 0.00040002754636748669 -0.03438395295596363 0 0.0060488917224407694 -0.033578623663385279 0 0.0061925763520019085 -0.033864552041006482 0 0.0060313301181722425 -0.033957113732798506 0 0.0041683717782098964 -0.034221711387748967 0 0.0069982643042791884 -0.033935999785745373 0 0.0060488917224407694 -0.033578623663385279 0 0.0061925763520019085 -0.033864552041006482 0 0.006371625430770838 -0.033846019605297276 0 0.0061925763520019085 -0.033864552041006482 0 0.006371625430770838 -0.033846019605297276 0 0.0063175823409106881 -0.033944842554035952 0 0.006371625430770838 -0.033846019605297276 0 0.0063175823409106881 -0.033944842554035952 0 0.0064315520088402602 -0.033960310652464402 0 0.0063175823409106881 -0.033944842554035952 0 0.0062819451864728256 -0.034024847331237215 0 0.0061700188893776767 -0.033965435011083789 0 0.0061925763520019085 -0.033864552041006482 0 0.0063175823409106881 -0.033944842554035952 0 0.0061700188893776767 -0.033965435011083789 0 0.0062819451864728256 -0.034024847331237215 0 0.0061700188893776767 -0.033965435011083789 0 0.0062411570457571444 -0.03415598157565556 0 0.0062819451864728256 -0.034024847331237215 0 0.0063924388091202398 -0.034032238714200282 0 0.0062411570457571444 -0.03415598157565556 0 0.0063175823409106881 -0.033944842554035952 0 0.0062819451864728256 -0.034024847331237215 0 0.0063924388091202398 -0.034032238714200282 0 0.0063175823409106881 -0.033944842554035952 0 0.0063924388091202398 -0.034032238714200282 0 0.0064315520088402602 -0.033960310652464402 0 0.0060504070266432725 -0.033938046558508947 0 0.0061700188893776767 -0.033965435011083789 0 0.0062411570457571444 -0.03415598157565556 0 0.0012657900794079595 -0.03266057341360476 0 0.0060379589013426606 -0.033718312975504476 0 0.0061925763520019085 -0.033864552041006482 0 0.0060313301181722425 -0.033957113732798506 0 0.0061700188893776767 -0.033965435011083789 0 -0.004673995131672163 -0.029923885544551974 0 -0.0034148103657110837 -0.030281759847907277 0 -0.0039165250566276059 -0.029162803087975905 0 0.00044855466087909401 -0.034405247595117698 0 0.0004774861736478441 -0.034438042451974932 0 0.00033805883646557147 -0.034414251110638061 0 0.0012657900794079595 -0.03266057341360476 0 -0.0014499977452315563 -0.033164214562971944 0 -0.0034148103657110837 -0.030281759847907277 0 -0.0039165250566276059 -0.029162803087975905 0 -0.0032340504627882878 -0.028360556946784007 0 0.00077435388073147828 -0.034111441316984778 0 -0.0014499977452315563 -0.033164214562971944 0 -0.0014499977452315563 -0.033164214562971944 0 -0.0015938801360019246 -0.031822339483279394 0 -0.0014494376986518315 -0.033611260385731791 0 -0.0010785489981708434 -0.03354035069457241 0 -0.0010788862646382948 -0.033690066336554962 0 -0.0034148103657110837 -0.030281759847907277 0 -0.0018718613504524252 -0.030115648613111997 0 -0.0032340504627882878 -0.028360556946784007 0 -0.0014499977452315563 -0.033164214562971944 0 -0.00030880004792042856 -0.03445862992300696 0 -0.0010407494975083814 -0.033631550589365719 0 -0.0010785489981708434 -0.03354035069457241 0 -0.0010788862646382948 -0.033690066336554962 0 0.00037623931368623476 -0.034338310746318657 0 0.00031570692456221202 -0.03438840563368277 0 0.00026072250863808777 -0.034348926282993443 0 0.00036020890184393134 -0.034434899481376992 0 0.00031570692456221202 -0.03438840563368277 0 0.00024937357414039863 -0.034423815980721376 0 0.00031570692456221202 -0.03438840563368277 0 0.00024937357414039863 -0.034423815980721376 0 0.00026072250863808777 -0.034348926282993443 0 -0.00030880004792042856 -0.03445862992300696 0 7.4981630465213218e-05 -0.035638500389249754 0 0.00037623931368623476 -0.034338310746318657 0 0.00049845043955798268 -0.034312035041697234 0 0.00040002754636748669 -0.03438395295596363 0 0.00037623931368623476 -0.034338310746318657 0 0.00031570692456221202 -0.03438840563368277 0 0.00040002754636748669 -0.03438395295596363 0 0.00044855466087909401 -0.034405247595117698 0 0.00036020890184393134 -0.034434899481376992 0 0.00040002754636748669 -0.03438395295596363 0 0.00036020890184393134 -0.034434899481376992 0 0.00031570692456221202 -0.03438840563368277 0 0.00040002754636748669 -0.03438395295596363 0 0.0071681822481519542 -0.034161831204749402 0 0.0073638341448104862 -0.034060346995259734 0 0.007213952688142007 -0.034117513951392966 0 0.0071681822481519542 -0.034161831204749402 0 0.007213952688142007 -0.034117513951392966 0 0.0073035264457222996 -0.034121820193240421 0 0.0071681822481519542 -0.034161831204749402 0 0.0073638341448104862 -0.034060346995259734 0 0.0076366424831405674 -0.033779620885903736 0 0.0071681822481519542 -0.034161831204749402 0 0.0068049142509473389 -0.034606611219834396 0 0.0068388319501226326 -0.034478041668209253 0 0.0071928230925279602 -0.034153920298655473 0 0.0073119121442842836 -0.034136792983500391 0 0.0073638341448104862 -0.034060346995259734 0 0.0075645302914899579 -0.034047728033989533 0 0.0076366424831405674 -0.033779620885903736 0 0.0073638341448104862 -0.034060346995259734 0 0.0075645302914899579 -0.034047728033989533 0 0.007376071620152469 -0.034160205793292063 0 0.0075645302914899579 -0.034047728033989533 0 0.007376071620152469 -0.034160205793292063 0 0.0075991672053470774 -0.034229569281594353 0 0.007376071620152469 -0.034160205793292063 0 0.007213952688142007 -0.034117513951392966 0 0.0071943373380026912 -0.034232513199992903 0 0.0073638341448104862 -0.034060346995259734 0 0.007376071620152469 -0.034160205793292063 0 0.007213952688142007 -0.034117513951392966 0 0.007213952688142007 -0.034117513951392966 0 0.0069807807363170878 -0.034238746580449383 0 0.0071943373380026912 -0.034232513199992903 0 0.0068817679267998639 -0.034480953863002511 0 0.0066292063085494667 -0.034683202593728729 0 0.0069807807363170878 -0.034238746580449383 0 0.0069695228275672653 -0.034441582216155182 0 0.0069765086544701562 -0.034282615606041837 0 0.007213952688142007 -0.034117513951392966 0 0.0073035264457222996 -0.034121820193240421 0 0.0069807807363170878 -0.034238746580449383 0 0.0068817679267998639 -0.034480953863002511 0 0.0069476311884622451 -0.034247683490611386 0 0.0069807807363170878 -0.034238746580449383 0 0.0064315520088402602 -0.033960310652464402 0 0.0063961850977839419 -0.033854223515617919 0 0.0066557764304754977 -0.034075608407862307 0 0.0067111282836048048 -0.034306696686277303 0 0.0067947121516887341 -0.034183664429794099 0 0.0068817679267998639 -0.034480953863002511 0 0.0070329655033298756 -0.03468265799739504 0 0.0069476311884622451 -0.034247683490611386 0 0.0063924388091202398 -0.034032238714200282 0 0.0064981236661804768 -0.034063628238231183 0 0.0064315520088402602 -0.033960310652464402 0 0.0064981236661804768 -0.034063628238231183 0 0.0064315520088402602 -0.033960310652464402 0 0.0066557764304754977 -0.034075608407862307 0 0.006371625430770838 -0.033846019605297276 0 0.0063961850977839419 -0.033854223515617919 0 0.0063243229081286099 -0.034033628769771958 0 0.006371625430770838 -0.033846019605297276 0 0.0064315520088402602 -0.033960310652464402 0 0.0063961850977839419 -0.033854223515617919 0 0.0068817679267998639 -0.034480953863002511 0 0.0070329655033298756 -0.03468265799739504 0 0.0068425973490915558 -0.034683888828609948 0 0.0070329655033298756 -0.03468265799739504 0 0.0068425973490915558 -0.034683888828609948 0 0.0067964056255915154 -0.034977677451884577 0 0.0071681822481519542 -0.034161831204749402 0 0.0073035264457222996 -0.034121820193240421 0 0.0074310781292325498 -0.034737227496195122 0 0.0068817679267998639 -0.034480953863002511 0 0.0066292063085494667 -0.034683202593728729 0 0.0068425973490915558 -0.034683888828609948 0 0.0066292063085494667 -0.034683202593728729 0 0.0068425973490915558 -0.034683888828609948 0 0.0067964056255915154 -0.034977677451884577 0 0.0069695228275672653 -0.034441582216155182 0 0.0069600827737431141 -0.035019077687747299 0 0.0066292063085494667 -0.034683202593728729 0 0.0067964056255915154 -0.034977677451884577 0 0.0065062994263780042 -0.03529482534833181 0 0.0067964056255915154 -0.034977677451884577 0 0.0065062994263780042 -0.03529482534833181 0 0.0071017211190325114 -0.035292124110526762 0 0.0070329655033298756 -0.03468265799739504 0 0.0067964056255915154 -0.034977677451884577 0 0.0071017211190325114 -0.035292124110526762 0 0.0067111282836048048 -0.034306696686277303 0 0.0068150020462221057 -0.034494299493519981 0 0.0071602834692269706 -0.035826487136033217 0 0.0071017211190325114 -0.035292124110526762 0 0.0067716614068828 -0.035697319072121377 0 0.0065062994263780042 -0.03529482534833181 0 0.0071017211190325114 -0.035292124110526762 0 0.0067716614068828 -0.035697319072121377 0 0.0069600827737431141 -0.035019077687747299 0 0.0068784565522071349 -0.035651624754261611 0 0.0065062994263780042 -0.03529482534833181 0 0.0067716614068828 -0.035697319072121377 0 0.0065147848641995123 -0.035853158950714926 0 0.0074310781292325498 -0.034737227496195122 0 0.0070237449078873193 -0.035048634794953938 0 0.0072585159721861312 -0.035514576568761773 0 0.0074310781292325498 -0.034737227496195122 0 0.0070237449078873193 -0.035048634794953938 0 0.007102261540377441 -0.03462813378957507 0 0.0071681822481519542 -0.034161831204749402 0 0.007102261540377441 -0.03462813378957507 0 0.0068049142509473389 -0.034606611219834396 0 0.0071681822481519542 -0.034161831204749402 0 0.0074310781292325498 -0.034737227496195122 0 0.007102261540377441 -0.03462813378957507 0 0.0070237449078873193 -0.035048634794953938 0 0.007102261540377441 -0.03462813378957507 0 0.0068049142509473389 -0.034606611219834396 0 0.0070237449078873193 -0.035048634794953938 0 0.0068049142509473389 -0.034606611219834396 0 0.0066109989735020306 -0.035352169769524884 0 0.0067822188488111217 -0.034625505287037152 0 0.0067352506631863582 -0.034804619357163231 0 0.0066109989735020306 -0.035352169769524884 0 0.0067852010738475368 -0.035642056108730683 0 0.0067276720676464584 -0.0358100779253386 0 0.0067352506631863582 -0.034804619357163231 0 0.0067316364505345064 -0.034688626292885237 0 0.0070237449078873193 -0.035048634794953938 0 0.0066109989735020306 -0.035352169769524884 0 0.0069267556211648519 -0.035502485578485565 0 0.0067852010738475368 -0.035642056108730683 0 0.0069267556211648519 -0.035502485578485565 0 0.0068935021986533942 -0.035857529516884486 0 0.0066109989735020306 -0.035352169769524884 0 0.0067852010738475368 -0.035642056108730683 0 0.0069267556211648519 -0.035502485578485565 0 0.0069267556211648519 -0.035502485578485565 0 0.0068935021986533942 -0.035857529516884486 0 0.0072585159721861312 -0.035514576568761773 0 0.0070237449078873193 -0.035048634794953938 0 0.0069267556211648519 -0.035502485578485565 0 0.0072585159721861312 -0.035514576568761773 0 0.0068935021986533942 -0.035857529516884486 0 0.0067465185802472799 -0.03603009712963888 0 0.0069500907132930305 -0.035974090856597613 0 0.0068935021986533942 -0.035857529516884486 0 0.0072585159721861312 -0.035514576568761773 0 0.0067465185802472799 -0.03603009712963888 0 0.0068935021986533942 -0.035857529516884486 0 0.0069245188538226699 -0.035930414469740102 0 0.0067276720676464584 -0.0358100779253386 0 0.0067852010738475368 -0.035642056108730683 0 0.0068935021986533942 -0.035857529516884486 0 0.0067276720676464584 -0.0358100779253386 0 0.0068935021986533942 -0.035857529516884486 0 0.0069245188538226699 -0.035930414469740102 0 0.0069500907132930305 -0.035974090856597613 0 0.0056451634654255929 -0.036024336980541985 0 0.0069790409250933385 -0.035968545086502157 0 0.0071602834692269706 -0.035826487136033217 0 0.0067716614068828 -0.035697319072121377 0 0.0066028388046585887 -0.036076154109402826 0 0.0067716614068828 -0.035697319072121377 0 0.0065147848641995123 -0.035853158950714926 0 0.0066028388046585887 -0.036076154109402826 0 0.0067465185802472799 -0.03603009712963888 0 0.0066028388046585887 -0.036076154109402826 0 0.0063922969981966716 -0.035955491438645626 0 0.0068784565522071349 -0.035651624754261611 0 0.006778077501327159 -0.03596646993869107 0 0.0065147848641995123 -0.035853158950714926 0 0.0067465185802472799 -0.03603009712963888 0 0.0066028388046585887 -0.036076154109402826 0 0.0063567691285449776 -0.036094197057991273 0 0.0062761767588336665 -0.036270900111099194 0 0.0066028388046585887 -0.036076154109402826 0 0.0063567691285449776 -0.036094197057991273 0 0.0066028388046585887 -0.036076154109402826 0 0.0063922969981966716 -0.035955491438645626 0 0.005579010095327212 -0.036015893849818369 0 0.0060097094226847165 -0.035996588482007846 0 0.0063530480275825803 -0.035929699674843288 0 0.0063922969981966716 -0.035955491438645626 0 0.0062084245565799051 -0.035991782548502438 0 0.0067465185802472799 -0.03603009712963888 0 0.0063922969981966716 -0.035955491438645626 0 0.0062084245565799051 -0.035991782548502438 0 0.0067465185802472799 -0.03603009712963888 0 0.0062084245565799051 -0.035991782548502438 0 0.0067971763594220557 -0.03596897536082766 0 0.0062084245565799051 -0.035991782548502438 0 0.0067971763594220557 -0.03596897536082766 0 0.006687279425378086 -0.035645613030582467 0 0.0062084245565799051 -0.035991782548502438 0 0.0058116504826391463 -0.034999943457770251 0 0.006687279425378086 -0.035645613030582467 0 0.0062084245565799051 -0.035991782548502438 0 0.0058116504826391463 -0.034999943457770251 0 0.0051350619760511061 -0.035476827852371079 0 0.0042959148505121317 -0.036059432838619468 0 0.0062084245565799051 -0.035991782548502438 0 0.0051350619760511061 -0.035476827852371079 0 0.0041755257574750959 -0.034999868403329776 0 0.0058116504826391463 -0.034999943457770251 0 0.0051350619760511061 -0.035476827852371079 0 0.0042959148505121317 -0.036059432838619468 0 0.0041755257574750959 -0.034999868403329776 0 0.0051350619760511061 -0.035476827852371079 0 0.0072638897827717493 -0.036173059517194114 0 0.0079304768523092862 -0.034931566997803233 0 0.0069245188538226699 -0.035930414469740102 0 0.0067485339554845475 -0.036081509756771719 0 0.0067276720676464584 -0.0358100779253386 0 0.0069245188538226699 -0.035930414469740102 0 0.0072160560566788805 -0.035986254425228133 0 0.0067485339554845475 -0.036081509756771719 0 0.0069245188538226699 -0.035930414469740102 0 0.0069500907132930305 -0.035974090856597613 0 0.0072160560566788805 -0.035986254425228133 0 0.0067465185802472799 -0.03603009712963888 0 0.0069500907132930305 -0.035974090856597613 0 0.0067971763594220557 -0.03596897536082766 0 0.0067971763594220557 -0.03596897536082766 0 0.0072160560566788805 -0.035986254425228133 0 0.006687279425378086 -0.035645613030582467 0 0.0069500907132930305 -0.035974090856597613 0 0.0067971763594220557 -0.03596897536082766 0 0.0072160560566788805 -0.035986254425228133 0 0.0058116504826391463 -0.034999943457770251 0 0.0074459198954344268 -0.034999989210056065 0 0.006687279425378086 -0.035645613030582467 0 0.0072160560566788805 -0.035986254425228133 0 0.0074459198954344268 -0.034999989210056065 0 0.006687279425378086 -0.035645613030582467 0 0.0074459198954344268 -0.034999989210056065 0 0.0081998840809567614 -0.035534504153709831 0 0.0090819144381808995 -0.034999836236086088 0 0.0072160560566788805 -0.035986254425228133 0 0.0081998840809567614 -0.035534504153709831 0 0.009057081683308963 -0.036158088004035339 0 0.0072160560566788805 -0.035986254425228133 0 0.0074459198954344268 -0.034999989210056065 0 0.0081998840809567614 -0.035534504153709831 0 0.0081998840809567614 -0.035534504153709831 0 0.008820252653485303 -0.03557041653904152 0 0.009057081683308963 -0.036158088004035339 0 0.0081998840809567614 -0.035534504153709831 0 0.0090819144381808995 -0.034999836236086088 0 0.008820252653485303 -0.03557041653904152 0 0.0090819144381808995 -0.034999836236086088 0 0.0091589049555052347 -0.035311812033762456 0 0.008820252653485303 -0.03557041653904152 0 0.0092324268158376997 -0.034999999694413593 0 0.009081950699266296 -0.034999999808760271 0 0.0091773126015550384 -0.035337865818626045 0 0.0092319606754570384 -0.03500025573718752 0 0.0089595453422747721 -0.035273487198212626 0 0.0090816826689329652 -0.035000346172040689 0 0.0089595453422747721 -0.035273487198212626 0 0.0092324348662008362 -0.034999985028212138 0 0.0095399870948755516 -0.035527984017918221 0 0.010145171862137614 -0.035537467616605423 0 0.0092324348662008362 -0.034999985028212138 0 0.0091801571846791344 -0.035332565703910433 0 0.0095399870948755516 -0.035527984017918221 0 0.0095399870948755516 -0.035527984017918221 0 0.0093963080137172191 -0.036105132422513148 0 0.010145171862137614 -0.035537467616605423 0 0.0091801571846791344 -0.035332565703910433 0 0.0095399870948755516 -0.035527984017918221 0 0.0093963080137172191 -0.036105132422513148 0 0.0089595453422747721 -0.035273487198212626 0 0.0079304768523092862 -0.034931566997803233 0 0.0091589049555052347 -0.035311812033762456 0 0.008820252653485303 -0.03557041653904152 0 0.009057081683308963 -0.036158088004035339 0 0.0089595453422747721 -0.035273487198212626 0 0.008225580042403341 -0.034161398875687962 0 0.0085489544197159227 -0.03514998750412391 0 0.008640884207260037 -0.034550545596767401 0 0.0083755398324179484 -0.034548937355636453 0 0.008225580042403341 -0.034161398875687962 0 0.0072281029618738906 -0.033201304755594081 0 0.0072748464349155564 -0.032554255342429693 0 0.0076404538042657063 -0.032867774734316492 0 0.0074619995194383911 -0.03332024166626512 0 0.0071268435729430991 -0.03318119000218904 0 0.0069152454223539786 -0.033659286223503143 0 0.0072713691512318922 -0.03365257791327015 0 0.0070186083092131429 -0.033183598588830715 0 0.0071268435729430991 -0.03318119000218904 0 0.0069152454223539786 -0.033659286223503143 0 0.0079304768523092862 -0.034931566997803233 0 0.0067316364505345064 -0.034688626292885237 0 0.0079304768523092862 -0.034931566997803233 0 0.008225580042403341 -0.034161398875687962 0 0.008225580042403341 -0.034161398875687962 0 0.0093138407990721265 -0.034259290230610952 0 0.0072748464349155564 -0.032554255342429693 0 0.0076404538042657063 -0.032867774734316492 0 0.0079964882823265297 -0.032542283521902846 0 0.0079989719299062984 -0.032870515243229231 0 0.0076404538042657063 -0.032867774734316492 0 0.007939171292804038 -0.033178379975942147 0 0.0079989719299062984 -0.032870515243229231 0 0.0076404538042657063 -0.032867774734316492 0 0.0079964882823265297 -0.032542283521902846 0 0.010845513938134779 -0.036116891084256517 0 0.010145171862137614 -0.035537467616605423 0 0.011128626180731307 -0.036118595927052945 0 0.0093963080137172191 -0.036105132422513148 0 0.010845513938134779 -0.036116891084256517 0 0.010145171862137614 -0.035537467616605423 0 0.0092324348662008362 -0.034999985028212138 0 0.010145171862137614 -0.035537467616605423 0 0.011159680862822777 -0.034999987628731098 0 0.010145171862137614 -0.035537467616605423 0 0.011159680862822777 -0.034999987628731098 0 0.011128626180731307 -0.036118595927052945 0 0.011159680862822777 -0.034999987628731098 0 0.012060162159828743 -0.035561660374173271 0 0.011128626180731307 -0.036118595927052945 0 0.012060162159828743 -0.035561660374173271 0 0.012866231769076007 -0.036128760074464333 0 0.011128626180731307 -0.036118595927052945 0 0.011159680862822777 -0.034999987628731098 0 0.012060162159828743 -0.035561660374173271 0 0.01308696577005238 -0.03499999239043277 0 0.012060162159828743 -0.035561660374173271 0 0.01308696577005238 -0.03499999239043277 0 0.012866231769076007 -0.036128760074464333 0 0.011382347421711856 -0.034279790801302404 0 0.010552600322491855 -0.034924273744960529 0 0.011505303943449124 -0.035542629884398103 0 0.012111820241720432 -0.035222174397817427 0 0.010327034190709189 -0.034739078261516156 0 0.011382347421711856 -0.034279790801302404 0 0.0098497225369118119 -0.034272866791775533 0 0.010552600322491855 -0.034924273744960529 0 0.0079989719299062984 -0.032870515243229231 0 0.0085691973438991407 -0.032910961938379363 0 0.007939171292804038 -0.033178379975942147 0 0.0079989719299062984 -0.032870515243229231 0 0.0079964882823265297 -0.032542283521902846 0 0.0085691973438991407 -0.032910961938379363 0 0.0096005200275665007 -0.03427227517720749 0 0.0098497225369118119 -0.034272866791775533 0 0.010552600322491855 -0.034924273744960529 0 0.0093138407990721265 -0.034259290230610952 0 0.0094461163229113496 -0.033826108659679041 0 0.0093138407990721265 -0.034259290230610952 0 0.010327034190709189 -0.034739078261516156 0 0.0085691973438991407 -0.032910961938379363 0 0.0082801228957839982 -0.033465231889309006 0 0.008701002432626009 -0.033633820152709042 0 0.0085691973438991407 -0.032910961938379363 0 0.0082801228957839982 -0.033465231889309006 0 0.007939171292804038 -0.033178379975942147 0 0.0082801228957839982 -0.033465231889309006 0 0.007939171292804038 -0.033178379975942147 0 0.0079042574746073079 -0.033623110116805265 0 0.0095402525158599649 -0.032988869080398116 0 0.0089261688865657079 -0.03346832652869703 0 0.0095671458078168143 -0.033771466457680581 0 0.0085691973438991407 -0.032910961938379363 0 0.0091489764776389575 -0.033280201480787509 0 0.008701002432626009 -0.033633820152709042 0 0.0094461163229113496 -0.033826108659679041 0 0.010418053634147743 -0.034189762541930777 0 0.010418053634147743 -0.034189762541930777 0 0.0088203901394104632 -0.033624566794876416 0 0.0089261688865657079 -0.03346832652869703 0 0.0093894504538476042 -0.034238481619399581 0 0.0088476601894605447 -0.03439850072463161 0 0.0089261688865657079 -0.03346832652869703 0 0.0095671458078168143 -0.033771466457680581 0 0.0093894504538476042 -0.034238481619399581 0 0.0095671458078168143 -0.033771466457680581 0 0.0093894504538476042 -0.034238481619399581 0 0.0097604688620246596 -0.034515097405132707 0 0.0089261688865657079 -0.03346832652869703 0 0.008282884489392673 -0.033989901934676207 0 0.0088476601894605447 -0.03439850072463161 0 0.0082801228957839982 -0.033465231889309006 0 0.008282884489392673 -0.033989901934676207 0 0.0079042574746073079 -0.033623110116805265 0 0.0088203901394104632 -0.033624566794876416 0 0.0083655101617370661 -0.033926947774856074 0 0.0082801228957839982 -0.033465231889309006 0 0.008701002432626009 -0.033633820152709042 0 0.008282884489392673 -0.033989901934676207 0 0.0075734376002865597 -0.03420778985160524 0 0.0074619995194383911 -0.03332024166626512 0 0.0079042574746073079 -0.033623110116805265 0 0.0076092950768049837 -0.034299796796606968 0 0.0072281029618738906 -0.033201304755594081 0 0.0075734376002865597 -0.03420778985160524 0 0.0071161541111583919 -0.034024478607821838 0 0.0072713691512318922 -0.03365257791327015 0 0.008282884489392673 -0.033989901934676207 0 0.0075734376002865597 -0.03420778985160524 0 0.0079042574746073079 -0.033623110116805265 0 0.0075734376002865597 -0.03420778985160524 0 0.0071161541111583919 -0.034024478607821838 0 0.0070292059164715022 -0.034459030623584415 0 0.0067988848082921457 -0.034277721640296098 0 0.0071161541111583919 -0.034024478607821838 0 0.0069152454223539786 -0.033659286223503143 0 0.0067988848082921457 -0.034277721640296098 0 0.0071161541111583919 -0.034024478607821838 0 0.0070292059164715022 -0.034459030623584415 0 0.0071161541111583919 -0.034024478607821838 0 0.0069152454223539786 -0.033659286223503143 0 0.0072713691512318922 -0.03365257791327015 0 0.0076404538042657063 -0.032867774734316492 0 0.0074619995194383911 -0.03332024166626512 0 0.007939171292804038 -0.033178379975942147 0 0.0074619995194383911 -0.03332024166626512 0 0.007939171292804038 -0.033178379975942147 0 0.0079042574746073079 -0.033623110116805265 0 0.018086924705952558 -0.035734113629296647 0 0.018003751888428936 -0.03615668105413878 0 0.018528013871163033 -0.036094626343926614 0 0.017523030784477318 -0.035937473713224033 0 0.017926552574402874 -0.03500019232821612 0 0.016771399215209627 -0.036250196044766321 0 0.016307108430365154 -0.035717492241948902 0 0.017926500275079634 -0.035000008599278133 0 0.016470406199099844 -0.034999954246519825 0 0.016307108430365154 -0.035717492241948902 0 0.017926500275079634 -0.035000008599278133 0 0.016470406199099844 -0.034999954246519825 0 0.015630804965391105 -0.035437591530185428 0 0.015014351239466522 -0.034999964441880992 0 0.016470406199099844 -0.034999954246519825 0 0.016307108430365154 -0.035717492241948902 0 0.015630804965391105 -0.035437591530185428 0 0.015630804965391105 -0.035437591530185428 0 0.015622034477809915 -0.036041871972780651 0 0.014927814464505855 -0.036037358418028312 0 0.016307108430365154 -0.035717492241948902 0 0.015630804965391105 -0.035437591530185428 0 0.015622034477809915 -0.036041871972780651 0 0.016771399215209627 -0.036250196044766321 0 0.015641111229650229 -0.036843588137654745 0 0.01577125248620655 -0.037296465662659005 0 0.015622034477809915 -0.036041871972780651 0 0.015916332177450022 -0.036268821640072613 0 0.015320672221106047 -0.03645253012461408 0 0.016771399215209627 -0.036250196044766321 0 0.015916332177450022 -0.036268821640072613 0 0.015641111229650229 -0.036843588137654745 0 0.017523030784477318 -0.035937473713224033 0 0.016270700424777358 -0.036601728270043543 0 0.016307108430365154 -0.035717492241948902 0 0.015622034477809915 -0.036041871972780651 0 0.015916332177450022 -0.036268821640072613 0 0.016771399215209627 -0.036250196044766321 0 0.016307108430365154 -0.035717492241948902 0 0.015916332177450022 -0.036268821640072613 0 0.015916332177450022 -0.036268821640072613 0 0.015641111229650229 -0.036843588137654745 0 0.015320672221106047 -0.03645253012461408 0 0.015230778898299503 -0.036745746259529109 0 0.014877456301351781 -0.036207016823854604 0 0.014982450474307013 -0.037035739430523629 0 0.015320672221106047 -0.03645253012461408 0 0.015230778898299503 -0.036745746259529109 0 0.014877456301351781 -0.036207016823854604 0 0.015641111229650229 -0.036843588137654745 0 0.015320672221106047 -0.03645253012461408 0 0.015230778898299503 -0.036745746259529109 0 0.01377018145330247 -0.035513734075486338 0 0.014497593791137213 -0.035605802707688351 0 0.01377018145330247 -0.035513734075486338 0 0.013983479168119151 -0.035498163901152624 0 0.014082628575413843 -0.035543780653491251 0 0.014054122708999967 -0.035626036160477631 0 0.013984404635238874 -0.03562591443679633 0 0.013983479168119151 -0.035498163901152624 0 0.014497593791137213 -0.035605802707688351 0 0.015622034477809915 -0.036041871972780651 0 0.015320672221106047 -0.03645253012461408 0 0.015035297486211904 -0.036066928543311054 0 0.015320672221106047 -0.03645253012461408 0 0.014877456301351781 -0.036207016823854604 0 0.015035297486211904 -0.036066928543311054 0 0.015563200337999732 -0.035913827534303402 0 0.014497593791137213 -0.035605802707688351 0 0.015630804965391105 -0.035437591530185428 0 0.014771020956901705 -0.0361339078849989 0 0.015014351239466522 -0.034999964441880992 0 0.01308696577005238 -0.03499999239043277 0 0.014599427479641632 -0.036135001954833851 0 0.015014222326805108 -0.034999992752666305 0 0.015494950767304269 -0.035496721049169358 0 0.014497593791137213 -0.035605802707688351 0 0.013983479168119151 -0.035498163901152624 0 0.015014012607261665 -0.035000641344454637 0 0.014612420679274056 -0.036132958200734692 0 0.014771020956901705 -0.0361339078849989 0 0.015014351239466522 -0.034999964441880992 0 0.01308696577005238 -0.03499999239043277 0 0.012866231769076007 -0.036128760074464333 0 0.014599427479641632 -0.036135001954833851 0 0.012111820241720432 -0.035222174397817427 0 0.013983479168119151 -0.035498163901152624 0 0.010418053634147743 -0.034189762541930777 0 0.01377018145330247 -0.035513734075486338 0 0.011382347421711856 -0.034279790801302404 0 0.011505303943449124 -0.035542629884398103 0 0.012863464991494433 -0.034457316190400711 0 0.011382347421711856 -0.034279790801302404 0 0.012863464991494433 -0.034457316190400711 0 0.01292352017633042 -0.03429372537486728 0 0.011671917893920726 -0.03508862905821708 0 0.01240184753162309 -0.034516327775407488 0 0.012083636726253283 -0.035355924909816858 0 0.01377018145330247 -0.035513734075486338 0 0.011784238305380159 -0.035138823493218452 0 0.0095402525158599649 -0.032988869080398116 0 0.0095671458078168143 -0.033771466457680581 0 0.010158121859276319 -0.033395221259018767 0 0.010418053634147743 -0.034189762541930777 0 0.011784238305380159 -0.035138823493218452 0 0.011784238305380159 -0.035138823493218452 0 0.0095574632339885113 -0.033846123100877201 0 0.0095671458078168143 -0.033771466457680581 0 0.010158121859276319 -0.033395221259018767 0 0.0097604688620246596 -0.034515097405132707 0 0.010259192972137723 -0.033234363842712486 0 0.010286999783523489 -0.03409442813275091 0 0.0097604688620246596 -0.034515097405132707 0 0.010259192972137723 -0.033234363842712486 0 0.010286999783523489 -0.03409442813275091 0 0.011074808895032184 -0.033761477591306897 0 0.011784238305380159 -0.035138823493218452 0 0.013893126163446741 -0.033770901244987543 0 0.015132521732900407 -0.037857816353745258 0 0.015342021499325609 -0.037131177584277753 0 0.015716872541307349 -0.037172136446953268 0 0.014877456301351781 -0.036207016823854604 0 0.014446604133198619 -0.037432788644143997 0 0.014982450474307013 -0.037035739430523629 0 0.014446604133198619 -0.037432788644143997 0 0.015132521732900407 -0.037857816353745258 0 0.014982450474307013 -0.037035739430523629 0 0.015132521732900407 -0.037857816353745258 0 0.014982450474307013 -0.037035739430523629 0 0.015342021499325609 -0.037131177584277753 0 0.015230778898299503 -0.036745746259529109 0 0.014982450474307013 -0.037035739430523629 0 0.015342021499325609 -0.037131177584277753 0 0.015641111229650229 -0.036843588137654745 0 0.015230778898299503 -0.036745746259529109 0 0.015342021499325609 -0.037131177584277753 0 0.016021527887791712 -0.036862323266915256 0 0.016270700424777358 -0.036601728270043543 0 0.015641111229650229 -0.036843588137654745 0 0.015342021499325609 -0.037131177584277753 0 0.015716872541307349 -0.037172136446953268 0 0.013893126163446741 -0.033770901244987543 0 0.016270700424777358 -0.036601728270043543 0 0.018003751888428936 -0.03615668105413878 0 0.018419175078768005 -0.036456137380130538 0 0.018352463472533793 -0.036547299210219819 0 0.015850136957170816 -0.03487502157240939 0 0.015621763734988515 -0.035179782660567878 0 0.015467327898321746 -0.034615768472637504 0 0.013893126163446741 -0.033770901244987543 0 0.016548038531071448 -0.034147178754200924 0 0.016270700424777358 -0.036601728270043543 0 0.016548038531071448 -0.034147178754200924 0 0.018003751888428936 -0.03615668105413878 0 0.018419175078768005 -0.036456137380130538 0 0.018479755852609876 -0.036338814676718637 0 0.018419175078768005 -0.036456137380130538 0 0.018479755852609876 -0.036338814676718637 0 0.018585907222637393 -0.036512883084918235 0 0.018003751888428936 -0.03615668105413878 0 0.018479755852609876 -0.036338814676718637 0 0.018528013871163033 -0.036094626343926614 0 0.018500912667280343 -0.036581625575101154 0 0.018580202548529063 -0.036586589490248837 0 0.018408645974912225 -0.036553954706170823 0 0.017664049322078362 -0.034726309615946707 0 0.016548038531071448 -0.034147178754200924 0 0.018580202548529063 -0.036586589490248837 0 0.018408645974912225 -0.036553954706170823 0 0.018585907222637393 -0.036512883084918235 0 0.018500912667280343 -0.036581625575101154 0 0.018408645974912225 -0.036553954706170823 0 0.018394680162611705 -0.036550198730218579 0 0.018419175078768005 -0.036456137380130538 0 0.018408645974912225 -0.036553954706170823 0 0.018585907222637393 -0.036512883084918235 0 0.018419175078768005 -0.036456137380130538 0 0.018408645974912225 -0.036553954706170823 0 0.018352463472533793 -0.036547299210219819 0 0.017170199066495615 -0.034648697632362814 0 0.016548038531071448 -0.034147178754200924 0 0.013858692077286296 -0.029689891307549031 0 0.015722266130562573 -0.030721371961281212 0 0.014370193729268873 -0.031053911947662063 0 0.015722266130562573 -0.030721371961281212 0 0.015272024942987832 -0.031778736865586424 0 0.014370193729268873 -0.031053911947662063 0 0.016768095700830425 -0.032931517498673166 0 0.015272024942987832 -0.031778736865586424 0 0.01435857821744402 -0.032534062826457356 0 0.016768095700830425 -0.032931517498673166 0 0.015722266130562573 -0.030721371961281212 0 0.015272024942987832 -0.031778736865586424 0 0.015272024942987832 -0.031778736865586424 0 0.01435857821744402 -0.032534062826457356 0 0.014370193729268873 -0.031053911947662063 0 0.01435857821744402 -0.032534062826457356 0 0.013470805308823573 -0.03174926745817571 0 0.014370193729268873 -0.031053911947662063 0 0.01435857821744402 -0.032534062826457356 0 0.013198674366875275 -0.033014287944299822 0 0.013470805308823573 -0.03174926745817571 0 0.013198674366875275 -0.033014287944299822 0 0.013470805308823573 -0.03174926745817571 0 0.012777333864718431 -0.03252073206650722 0 0.013858692077286296 -0.029689891307549031 0 0.013470805308823573 -0.03174926745817571 0 0.012372573886257336 -0.031796826661173991 0 0.013893126163446741 -0.033770901244987543 0 0.011174763892734798 -0.033094901508559406 0 0.013858692077286296 -0.029689891307549031 0 0.013470805308823573 -0.03174926745817571 0 0.014370193729268873 -0.031053911947662063 0 0.010286999783523489 -0.03409442813275091 0 0.0097604688620246596 -0.034515097405132707 0 0.0099817468835378866 -0.035020980629585134 0 0.010286999783523489 -0.03409442813275091 0 0.011074808895032184 -0.033761477591306897 0 0.0099817468835378866 -0.035020980629585134 0 0.0097604688620246596 -0.034515097405132707 0 0.0099817468835378866 -0.035020980629585134 0 0.0093184749416748529 -0.034744504793724228 0 0.012372573886257336 -0.031796826661173991 0 0.012777333864718431 -0.03252073206650722 0 0.012384349581063454 -0.032832801736936611 0 0.013470805308823573 -0.03174926745817571 0 0.012372573886257336 -0.031796826661173991 0 0.012777333864718431 -0.03252073206650722 0 0.012777333864718431 -0.03252073206650722 0 0.012384349581063454 -0.032832801736936611 0 0.012722387279634966 -0.033101921729945194 0 0.013198674366875275 -0.033014287944299822 0 0.012777333864718431 -0.03252073206650722 0 0.012722387279634966 -0.033101921729945194 0 0.012372573886257336 -0.031796826661173991 0 0.012384349581063454 -0.032832801736936611 0 0.011885330978950866 -0.032900247152429556 0 0.012384349581063454 -0.032832801736936611 0 0.012477350380489662 -0.033453634540759267 0 0.012176688935767968 -0.03318711228244188 0 0.012384349581063454 -0.032832801736936611 0 0.012176688935767968 -0.03318711228244188 0 0.011885330978950866 -0.032900247152429556 0 0.012384349581063454 -0.032832801736936611 0 0.012477350380489662 -0.033453634540759267 0 0.012722387279634966 -0.033101921729945194 0 0.012477350380489662 -0.033453634540759267 0 0.012162768387787102 -0.033442616845788704 0 0.012176688935767968 -0.03318711228244188 0 0.012162768387787102 -0.033442616845788704 0 0.012176688935767968 -0.03318711228244188 0 0.01197272702199993 -0.033299395880799589 0 0.012477350380489662 -0.033453634540759267 0 0.012722387279634966 -0.033101921729945194 0 0.012867248634793287 -0.033859498702615537 0 0.013198674366875275 -0.033014287944299822 0 0.012722387279634966 -0.033101921729945194 0 0.012867248634793287 -0.033859498702615537 0 0.012477350380489662 -0.033453634540759267 0 0.012580134923224184 -0.033877088822018564 0 0.012232097404305389 -0.033709693045046361 0 0.012477350380489662 -0.033453634540759267 0 0.012867248634793287 -0.033859498702615537 0 0.012580134923224184 -0.033877088822018564 0 0.012477350380489662 -0.033453634540759267 0 0.012162768387787102 -0.033442616845788704 0 0.012232097404305389 -0.033709693045046361 0 0.012580134923224184 -0.033877088822018564 0 0.012232097404305389 -0.033709693045046361 0 0.012242967548254312 -0.033909848343146101 0 0.011540995805531402 -0.033662304313957336 0 0.013068842164717653 -0.033657105012888128 0 0.012867248634793287 -0.033859498702615537 0 0.012580134923224184 -0.033877088822018564 0 0.012611754894047859 -0.033943790310526634 0 0.012867248634793287 -0.033859498702615537 0 0.012611754894047859 -0.033943790310526634 0 0.012918151438356767 -0.033737013044041662 0 0.011887581884019097 -0.032681988709492488 0 0.012918151438356767 -0.033737013044041662 0 0.012015022370654356 -0.033503898615099767 0 0.011844994449937625 -0.033620415932300404 0 0.011540995805531402 -0.033662304313957336 0 0.012580134923224184 -0.033877088822018564 0 0.012242967548254312 -0.033909848343146101 0 0.012301312208636745 -0.034241463562778053 0 0.013397860072395249 -0.03400411519863808 0 0.013142655674799265 -0.033775680579692109 0 0.012918151438356767 -0.033737013044041662 0 0.012867248634793287 -0.033859498702615537 0 0.013397860072395249 -0.03400411519863808 0 0.012918151438356767 -0.033737013044041662 0 0.01435857821744402 -0.032534062826457356 0 0.013198674366875275 -0.033014287944299822 0 0.013397860072395249 -0.03400411519863808 0 0.013198674366875275 -0.033014287944299822 0 0.012867248634793287 -0.033859498702615537 0 0.013397860072395249 -0.03400411519863808 0 0.01435857821744402 -0.032534062826457356 0 0.013397860072395249 -0.03400411519863808 0 0.015762472089481783 -0.03432903946667841 0 0.016768095700830425 -0.032931517498673166 0 0.01435857821744402 -0.032534062826457356 0 0.015762472089481783 -0.03432903946667841 0 0.013397860072395249 -0.03400411519863808 0 0.015762472089481783 -0.03432903946667841 0 0.016484847286087696 -0.036396541289055825 0 0.013502816953354587 -0.034140487113188372 0 0.014925202292918046 -0.034979110964112159 0 0.013397860072395249 -0.03400411519863808 0 0.013236209525442452 -0.033741862557722074 0 0.013142655674799265 -0.033775680579692109 0 0.015762472089481783 -0.03432903946667841 0 0.018010206149190442 -0.036380793680979441 0 0.016484847286087696 -0.036396541289055825 0 0.014925202292918046 -0.034979110964112159 0 0.015762473234116808 -0.035833499587388747 0 0.018010206149190442 -0.036380793680979441 0 0.016484847286087696 -0.036396541289055825 0 0.01864899084806056 -0.03717123802607112 0 0.018500912667280343 -0.036581625575101154 0 0.018010206149190442 -0.036380793680979441 0 0.018638426123374689 -0.036576233050686607 0 0.017664049322078362 -0.034726309615946707 0 0.01800895072287886 -0.036341956044149984 0 0.016768095700830425 -0.032931517498673166 0 0.015762472089481783 -0.03432903946667841 0 0.018010206149190442 -0.036380793680979441 0 0.007035068516717616 -0.034511048476458125 0 0.0069378848423208407 -0.034534975406204066 0 0.0070292059164715022 -0.034459030623584415 0 0.007035068516717616 -0.034511048476458125 0 0.0069378848423208407 -0.034534975406204066 0 0.0070056593470905846 -0.034598495412029272 0 0.0068049142509473389 -0.034606611219834396 0 0.0069378848423208407 -0.034534975406204066 0 0.0070292059164715022 -0.034459030623584415 0 0.0068049142509473389 -0.034606611219834396 0 0.0069378848423208407 -0.034534975406204066 0 0.0068388319501226326 -0.034478041668209253 0 0.0068049142509473389 -0.034606611219834396 0 0.0067988848082921457 -0.034277721640296098 0 0.0070292059164715022 -0.034459030623584415 0 0.0074138041625409568 -0.035035421968203091 0 0.0070652615151755461 -0.034462383616320834 0 0.0075734376002865597 -0.03420778985160524 0 0.0079426938049140926 -0.03532183243012061 0 0.0070292059164715022 -0.034459030623584415 0 0.0075734376002865597 -0.03420778985160524 0 0.0079426938049140926 -0.03532183243012061 0 0.0083191756672480102 -0.034726179657240022 0 0.008282884489392673 -0.033989901934676207 0 0.0075734376002865597 -0.03420778985160524 0 0.0083191756672480102 -0.034726179657240022 0 0.008282884489392673 -0.033989901934676207 0 0.0083191756672480102 -0.034726179657240022 0 0.0088476601894605447 -0.03439850072463161 0 0.0083191756672480102 -0.034726179657240022 0 0.0088476601894605447 -0.03439850072463161 0 0.0088195236589561684 -0.035032329552707027 0 0.0099817468835378866 -0.035020980629585134 0 0.0093184749416748529 -0.034744504793724228 0 0.0091376152182071606 -0.035268568783468499 0 0.0093894504538476042 -0.034238481619399581 0 0.0097604688620246596 -0.034515097405132707 0 0.0093184749416748529 -0.034744504793724228 0 0.0093894504538476042 -0.034238481619399581 0 0.0088476601894605447 -0.03439850072463161 0 0.0093184749416748529 -0.034744504793724228 0 0.0093184749416748529 -0.034744504793724228 0 0.0088195236589561684 -0.035032329552707027 0 0.0091376152182071606 -0.035268568783468499 0 0.0088476601894605447 -0.03439850072463161 0 0.0093184749416748529 -0.034744504793724228 0 0.0088195236589561684 -0.035032329552707027 0 0.0099817468835378866 -0.035020980629585134 0 0.0090072474367810379 -0.036155687796798473 0 0.009024003062932915 -0.03580429673485537 0 0.011174763892734798 -0.033094901508559406 0 0.0092349860852870488 -0.034437410064749464 0 0.012372573886257336 -0.031796826661173991 0 0.011885330978950866 -0.032900247152429556 0 0.011343872149717913 -0.03346867015447804 0 0.0099817468835378866 -0.035020980629585134 0 0.0091376152182071606 -0.035268568783468499 0 0.009024003062932915 -0.03580429673485537 0 0.0088195236589561684 -0.035032329552707027 0 0.0091376152182071606 -0.035268568783468499 0 0.0085616323790435062 -0.035408932377248029 0 0.0091376152182071606 -0.035268568783468499 0 0.0085616323790435062 -0.035408932377248029 0 0.009024003062932915 -0.03580429673485537 0 0.0085616323790435062 -0.035408932377248029 0 0.009024003062932915 -0.03580429673485537 0 0.0089367273092694557 -0.036156276353020871 0 0.0079426938049140926 -0.03532183243012061 0 0.0085616323790435062 -0.035408932377248029 0 0.0089367273092694557 -0.036156276353020871 0 0.0074138041625409568 -0.035035421968203091 0 0.0088189219722835197 -0.034335516126606486 0 0.0079426938049140926 -0.03532183243012061 0 0.0083191756672480102 -0.034726179657240022 0 0.0085616323790435062 -0.035408932377248029 0 0.0083191756672480102 -0.034726179657240022 0 0.0088195236589561684 -0.035032329552707027 0 0.0085616323790435062 -0.035408932377248029 0 0.0087242593808837306 -0.033777649466440428 0 0.0084961304730783449 -0.033934732102246144 0 0.0082239834916676535 -0.033686288340086669 0 0.0088189219722835197 -0.034335516126606486 0 0.0074360681631774452 -0.034120442626293136 0 0.00877004404859358 -0.03368010810451335 0 0.0087242593808837306 -0.033777649466440428 0 0.0082239834916676535 -0.033686288340086669 0 0.007035068516717616 -0.034511048476458125 0 0.0071990374356774526 -0.0346091751980186 0 0.0070056593470905846 -0.034598495412029272 0 0.011885330978950866 -0.032900247152429556 0 0.011682134926983317 -0.033374383632114653 0 0.011343872149717913 -0.03346867015447804 0 0.01197272702199993 -0.033299395880799589 0 0.011682134926983317 -0.033374383632114653 0 0.011925430999327268 -0.033547928501340966 0 0.012162768387787102 -0.033442616845788704 0 0.01197272702199993 -0.033299395880799589 0 0.011925430999327268 -0.033547928501340966 0 0.012176688935767968 -0.03318711228244188 0 0.011885330978950866 -0.032900247152429556 0 0.01197272702199993 -0.033299395880799589 0 0.011885330978950866 -0.032900247152429556 0 0.01197272702199993 -0.033299395880799589 0 0.011682134926983317 -0.033374383632114653 0 0.011682134926983317 -0.033374383632114653 0 0.011689677765458076 -0.033516847842277014 0 0.011925430999327268 -0.033547928501340966 0 0.011682134926983317 -0.033374383632114653 0 0.011549446119380555 -0.033548048125089582 0 0.011689677765458076 -0.033516847842277014 0 0.011682134926983317 -0.033374383632114653 0 0.011343872149717913 -0.03346867015447804 0 0.011549446119380555 -0.033548048125089582 0 0.011343872149717913 -0.03346867015447804 0 0.011233725062169323 -0.033463816050964483 0 0.011454003037767948 -0.033551927833277116 0 0.0090072474367810379 -0.036155687796798473 0 0.009024003062932915 -0.03580429673485537 0 0.0089367273092694557 -0.036156276353020871 0 0.0092349860852870488 -0.034437410064749464 0 0.0088189219722835197 -0.034335516126606486 0 0.011233725062169323 -0.033463816050964483 0 0.011454003037767948 -0.033551927833277116 0 0.011894844185657753 -0.033818176646651377 0 0.0087689293486948993 -0.033687137037339769 0 0.00879608146442604 -0.03381669180754307 0 0.0089017810231884296 -0.033852792527119077 0 0.0088189219722835197 -0.034335516126606486 0 0.0088826858404730397 -0.03404067313832361 0 0.0087689293486948993 -0.033687137037339769 0 0.0087242593808837306 -0.033777649466440428 0 0.00879608146442604 -0.03381669180754307 0 0.0087242593808837306 -0.033777649466440428 0 0.00879608146442604 -0.03381669180754307 0 0.0087769478665780162 -0.033923933024382069 0 0.011343872149717913 -0.03346867015447804 0 0.011454003037767948 -0.033551927833277116 0 0.011549446119380555 -0.033548048125089582 0 0.011454003037767948 -0.033551927833277116 0 0.011549446119380555 -0.033548048125089582 0 0.011662831989658328 -0.033637731444034792 0 0.0090750478432439028 -0.033935295032536172 0 0.0087689293486948993 -0.033687137037339769 0 0.0089017810231884296 -0.033852792527119077 0 0.011540995805531402 -0.033662304313957336 0 0.0088189219722835197 -0.034335516126606486 0 0.012301312208636745 -0.034241463562778053 0 0.011233725062169323 -0.033463816050964483 0 0.011894844185657753 -0.033818176646651377 0 0.011454003037767948 -0.033551927833277116 0 0.011662831989658328 -0.033637731444034792 0 0.011894844185657753 -0.033818176646651377 0 0.011823397594707052 -0.033673564418670678 0 0.011894844185657753 -0.033818176646651377 0 0.011925430999327268 -0.033547928501340966 0 0.011549446119380555 -0.033548048125089582 0 0.011689677765458076 -0.033516847842277014 0 0.011662831989658328 -0.033637731444034792 0 0.011689677765458076 -0.033516847842277014 0 0.011823397594707052 -0.033673564418670678 0 0.011662831989658328 -0.033637731444034792 0 0.011689677765458076 -0.033516847842277014 0 0.011823397594707052 -0.033673564418670678 0 0.011925430999327268 -0.033547928501340966 0 0.011823397594707052 -0.033673564418670678 0 0.011662831989658328 -0.033637731444034792 0 0.011894844185657753 -0.033818176646651377 0 0.012232097404305389 -0.033709693045046361 0 0.012242967548254312 -0.033909848343146101 0 0.011894844185657753 -0.033818176646651377 0 0.012232097404305389 -0.033709693045046361 0 0.011894844185657753 -0.033818176646651377 0 0.011925430999327268 -0.033547928501340966 0 0.012162768387787102 -0.033442616845788704 0 0.012232097404305389 -0.033709693045046361 0 0.011925430999327268 -0.033547928501340966 0 0.0090750478432439028 -0.033935295032536172 0 0.0087769478665780162 -0.033923933024382069 0 0.0087111659523183421 -0.03406819883961365 0 0.0090750478432439028 -0.033935295032536172 0 0.0087111659523183421 -0.03406819883961365 0 0.008773155340934112 -0.034390273180719182 0 0.0090750478432439028 -0.033935295032536172 0 0.0089017810231884296 -0.033852792527119077 0 0.0087769478665780162 -0.033923933024382069 0 0.012242967548254312 -0.033909848343146101 0 0.012301312208636745 -0.034241463562778053 0 0.011894844185657753 -0.033818176646651377 0 0.00879608146442604 -0.03381669180754307 0 0.0089017810231884296 -0.033852792527119077 0 0.0087769478665780162 -0.033923933024382069 0 0.0084961304730783449 -0.033934732102246144 0 0.0087111659523183421 -0.03406819883961365 0 0.0083851369235448635 -0.034162385325186347 0 0.0087242593808837306 -0.033777649466440428 0 0.0087769478665780162 -0.033923933024382069 0 0.0084961304730783449 -0.033934732102246144 0 0.0087769478665780162 -0.033923933024382069 0 0.0084961304730783449 -0.033934732102246144 0 0.0087111659523183421 -0.03406819883961365 0 0.0084961304730783449 -0.033934732102246144 0 0.0083851369235448635 -0.034162385325186347 0 0.0081303286711119586 -0.033976564089869009 0 0.0083851369235448635 -0.034162385325186347 0 0.0081303286711119586 -0.033976564089869009 0 0.0078621769154063898 -0.034122567225962595 0 0.0084961304730783449 -0.033934732102246144 0 0.0081303286711119586 -0.033976564089869009 0 0.0082239834916676535 -0.033686288340086669 0 0.0074360681631774452 -0.034120442626293136 0 0.0073119121442842836 -0.034136792983500391 0 0.0069378848423208407 -0.034534975406204066 0 0.0070056593470905846 -0.034598495412029272 0 0.0068388319501226326 -0.034478041668209253 0 0.0081303286711119586 -0.033976564089869009 0 0.0082239834916676535 -0.033686288340086669 0 0.0076366424831405674 -0.033779620885903736 0 0.0081303286711119586 -0.033976564089869009 0 0.0076366424831405674 -0.033779620885903736 0 0.0078621769154063898 -0.034122567225962595 0 0.0075645302914899579 -0.034047728033989533 0 0.0076366424831405674 -0.033779620885903736 0 0.0078621769154063898 -0.034122567225962595 0 0.0075645302914899579 -0.034047728033989533 0 0.0078621769154063898 -0.034122567225962595 0 0.0075991672053470774 -0.034229569281594353 0 0.0078621769154063898 -0.034122567225962595 0 0.0077316291334347063 -0.034422519403394164 0 0.0082407321360612341 -0.034491379961049146 0 0.0078621769154063898 -0.034122567225962595 0 0.0077316291334347063 -0.034422519403394164 0 0.0075991672053470774 -0.034229569281594353 0 0.0077316291334347063 -0.034422519403394164 0 0.0079468273333805801 -0.034668450681432546 0 0.0082407321360612341 -0.034491379961049146 0 0.0077316291334347063 -0.034422519403394164 0 0.0079468273333805801 -0.034668450681432546 0 0.0076020412358585596 -0.034611608034256593 0 0.0079468273333805801 -0.034668450681432546 0 0.0082407321360612341 -0.034491379961049146 0 0.0083174616463496057 -0.034920322842697811 0 0.0083851369235448635 -0.034162385325186347 0 0.0078621769154063898 -0.034122567225962595 0 0.0082407321360612341 -0.034491379961049146 0 0.0083851369235448635 -0.034162385325186347 0 0.0082407321360612341 -0.034491379961049146 0 0.008773155340934112 -0.034390273180719182 0 0.0087111659523183421 -0.03406819883961365 0 0.0083851369235448635 -0.034162385325186347 0 0.008773155340934112 -0.034390273180719182 0 0.011204885601783067 -0.033598636151400928 0 0.011736274368842088 -0.034084022293319208 0 0.012015022370654356 -0.033503898615099767 0 0.011887581884019097 -0.032681988709492488 0 0.011204885601783067 -0.033598636151400928 0 0.012015022370654356 -0.033503898615099767 0 0.011540995805531402 -0.033662304313957336 0 0.0098215549812452341 -0.033967178946094724 0 0.011204885601783067 -0.033598636151400928 0 0.011736274368842088 -0.034084022293319208 0 0.01108885104448129 -0.034255419577173506 0 0.0082407321360612341 -0.034491379961049146 0 0.008773155340934112 -0.034390273180719182 0 0.0085763658917952582 -0.034801957124301709 0 0.0098215549812452341 -0.033967178946094724 0 0.0093679155590357006 -0.034600876985643389 0 0.011204885601783067 -0.033598636151400928 0 0.010159677572984483 -0.034289080366757665 0 0.01108885104448129 -0.034255419577173506 0 0.010159677572984483 -0.034289080366757665 0 0.010744834396271732 -0.034813699269002581 0 0.0086947587755641341 -0.035422865899026781 0 0.010159677572984483 -0.034289080366757665 0 0.010744834396271732 -0.034813699269002581 0 0.01108885104448129 -0.034255419577173506 0 0.010744834396271732 -0.034813699269002581 0 0.011558911012407986 -0.034636908418747434 0 0.011977987397027625 -0.035080724962164835 0 0.011736274368842088 -0.034084022293319208 0 0.01108885104448129 -0.034255419577173506 0 0.011558911012407986 -0.034636908418747434 0 0.010744834396271732 -0.034813699269002581 0 0.01108885104448129 -0.034255419577173506 0 0.011558911012407986 -0.034636908418747434 0 0.0052624154446525183 -0.012715824740885508 0 0.0045019440613175846 -0.013010161234319851 0 0.0045883788965011005 -0.012093409458331612 0 0.0076447861710935601 -0.024200585288789822 0 0.009114081703047389 -0.024031976116281245 0 0.010744834396271732 -0.034813699269002581 0 0.010477639440690162 -0.03562282361573723 0 0.011977987397027625 -0.035080724962164835 0 0.010744834396271732 -0.034813699269002581 0 0.010477639440690162 -0.03562282361573723 0 0.0086947587755641341 -0.035422865899026781 0 0.010477639440690162 -0.03562282361573723 0 0.0086947587755641341 -0.035422865899026781 0 0.0085769042291735289 -0.035912710507069262 0 0.0086947587755641341 -0.035422865899026781 0 0.0081741108097261612 -0.035185461909137516 0 0.0083174616463496057 -0.034920322842697811 0 0.0093679155590357006 -0.034600876985643389 0 0.008705625776756383 -0.035427554274266165 0 0.0081741108097261612 -0.035185461909137516 0 0.0078092859986176009 -0.034925938335592682 0 0.0077767786990793194 -0.035400176142323041 0 0.0086947587755641341 -0.035422865899026781 0 0.0081741108097261612 -0.035185461909137516 0 0.008138736402845393 -0.035601897024305551 0 0.0081741108097261612 -0.035185461909137516 0 0.008138736402845393 -0.035601897024305551 0 0.0077767786990793194 -0.035400176142323041 0 0.0081741108097261612 -0.035185461909137516 0 0.0078092859986176009 -0.034925938335592682 0 0.0083174616463496057 -0.034920322842697811 0 0.0079468273333805801 -0.034668450681432546 0 0.0078092859986176009 -0.034925938335592682 0 0.0083174616463496057 -0.034920322842697811 0 0.0079468273333805801 -0.034668450681432546 0 0.0078092859986176009 -0.034925938335592682 0 0.0076020412358585596 -0.034611608034256593 0 0.0085763658917952582 -0.034801957124301709 0 0.0086947587755641341 -0.035422865899026781 0 0.0083174616463496057 -0.034920322842697811 0 0.0082407321360612341 -0.034491379961049146 0 0.0085763658917952582 -0.034801957124301709 0 0.0083174616463496057 -0.034920322842697811 0 0.013338307688669421 -0.033920150434878171 0 0.013313405928837225 -0.034316940651622913 0 0.013693184456531881 -0.034143347613870695 0 0.012565766574279078 -0.026835601914502329 0 0.01119979453700321 -0.027262720462076558 0 0.013236209525442452 -0.033741862557722074 0 0.013338307688669421 -0.033920150434878171 0 0.013685093188680464 -0.033756133752740829 0 0.013236209525442452 -0.033741862557722074 0 0.013338307688669421 -0.033920150434878171 0 0.013142655674799265 -0.033775680579692109 0 0.013338307688669421 -0.033920150434878171 0 0.013142655674799265 -0.033775680579692109 0 0.013021834486795921 -0.034031220234308171 0 0.013338307688669421 -0.033920150434878171 0 0.013021834486795921 -0.034031220234308171 0 0.013313405928837225 -0.034316940651622913 0 0.013021834486795921 -0.034031220234308171 0 0.012918151438356767 -0.033737013044041662 0 0.012466662346673421 -0.034088893532088722 0 0.013021834486795921 -0.034031220234308171 0 0.012466662346673421 -0.034088893532088722 0 0.012791012406413862 -0.034621864064558486 0 0.013142655674799265 -0.033775680579692109 0 0.013021834486795921 -0.034031220234308171 0 0.012918151438356767 -0.033737013044041662 0 0.012918151438356767 -0.033737013044041662 0 0.012015022370654356 -0.033503898615099767 0 0.012466662346673421 -0.034088893532088722 0 0.011736274368842088 -0.034084022293319208 0 0.012015022370654356 -0.033503898615099767 0 0.012466662346673421 -0.034088893532088722 0 0.011736274368842088 -0.034084022293319208 0 0.012466662346673421 -0.034088893532088722 0 0.012096794802503315 -0.034482231270849248 0 0.011736274368842088 -0.034084022293319208 0 0.011558911012407986 -0.034636908418747434 0 0.012096794802503315 -0.034482231270849248 0 0.012096794802503315 -0.034482231270849248 0 0.011942971491058003 -0.0349957493034765 0 0.012791012406413862 -0.034621864064558486 0 0.013869872189188759 -0.035549891035662258 0 0.009114081703047389 -0.024031976116281245 0 0.011558911012407986 -0.034636908418747434 0 0.012096794802503315 -0.034482231270849248 0 0.011942971491058003 -0.0349957493034765 0 0.009114081703047389 -0.024031976116281245 0 0.007926355318739026 -0.013687647675020818 0 0.012795357247243856 -0.018967859892449219 0 0.012144040858101404 -0.019219566385729761 0 0.012194466496493698 -0.018137615619762605 0 0.009114081703047389 -0.024031976116281245 0 0.012912969626238816 -0.027089691641571902 0 0.012466662346673421 -0.034088893532088722 0 0.012096794802503315 -0.034482231270849248 0 0.012791012406413862 -0.034621864064558486 0 0.012912969626238816 -0.027089691641571902 0 0.012565766574279078 -0.026835601914502329 0 0.013021834486795921 -0.034031220234308171 0 0.012791012406413862 -0.034621864064558486 0 0.013313405928837225 -0.034316940651622913 0 0.012144040858101404 -0.019219566385729761 0 0.011498975086968882 -0.018671379970853975 0 0.011545533820529521 -0.019481030066643396 0 0.012144040858101404 -0.019219566385729761 0 0.011498975086968882 -0.018671379970853975 0 0.012194466496493698 -0.018137615619762605 0 0.011498975086968882 -0.018671379970853975 0 0.011545533820529521 -0.019481030066643396 0 0.011088479122098923 -0.01915241966745599 0 0.011545533820529521 -0.019481030066643396 0 0.010967260756067307 -0.019761110777482969 0 0.011088479122098923 -0.01915241966745599 0 0.011398998220294105 -0.018007176250923448 0 0.01164332698928815 -0.017382815444363976 0 0.010939915069827612 -0.017500060295301569 0 0.011498975086968882 -0.018671379970853975 0 0.011398998220294105 -0.018007176250923448 0 0.010727238975033119 -0.018361384689862148 0 0.011498975086968882 -0.018671379970853975 0 0.011398998220294105 -0.018007176250923448 0 0.012194466496493698 -0.018137615619762605 0 0.007926355318739026 -0.013687647675020818 0 0.0060508752911761551 -0.013920401082724826 0 0.011398998220294105 -0.018007176250923448 0 0.012194466496493698 -0.018137615619762605 0 0.01164332698928815 -0.017382815444363976 0 0.0038821879672427772 -0.012038363114084658 0 0.0041142892602740715 -0.011162844688407088 0 0.0034636831426737651 -0.011106322376301042 0 0.0045019440613175846 -0.013010161234319851 0 0.0038821879672427772 -0.012038363114084658 0 0.0045883788965011005 -0.012093409458331612 0 0.0045883788965011005 -0.012093409458331612 0 0.0041142892602740715 -0.011162844688407088 0 0.0046570087986532406 -0.010906317096514786 0 0.0038821879672427772 -0.012038363114084658 0 0.0045883788965011005 -0.012093409458331612 0 0.0041142892602740715 -0.011162844688407088 0 0.0043169857718152599 -0.010282909716090116 0 0.0041142892602740715 -0.011162844688407088 0 0.0046570087986532406 -0.010906317096514786 0 0.0043169857718152599 -0.010282909716090116 0 0.0038366257767453011 -0.010649574736069223 0 0.0039661771024227651 -0.010079914920555487 0 0.0038366257767453011 -0.010649574736069223 0 0.0035894582840768387 -0.010260421283916351 0 0.0039661771024227651 -0.010079914920555487 0 0.0043169857718152599 -0.010282909716090116 0 0.0038366257767453011 -0.010649574736069223 0 0.0041142892602740715 -0.011162844688407088 0 0.0038366257767453011 -0.010649574736069223 0 0.0041142892602740715 -0.011162844688407088 0 0.0034636831426737651 -0.011106322376301042 0 0.0038366257767453011 -0.010649574736069223 0 0.0034636831426737651 -0.011106322376301042 0 0.0035894582840768387 -0.010260421283916351 0 0.0034636831426737651 -0.011106322376301042 0 0.0035894582840768387 -0.010260421283916351 0 0.0031284347336504666 -0.010403926505799303 0 0.0060508752911761551 -0.013920401082724826 0 0.016099633662590502 -0.014924799413971056 0 0.01164332698928815 -0.017382815444363976 0 0.011177291283732189 -0.016716798559222142 0 0.010939915069827612 -0.017500060295301569 0 0.0057912063386819463 -0.012625709559131481 0 0.0053460815973358083 -0.012089026917455063 0 0.0059235885403166946 -0.011900287464429268 0 0.0057912063386819463 -0.012625709559131481 0 0.0059235885403166946 -0.011900287464429268 0 0.0063394151388229975 -0.012524359639136385 0 0.0045748641945964176 -0.012043885327620246 0 0.0060331292153230475 -0.024360789529381636 0 0.008138736402845393 -0.035601897024305551 0 0.0076098069016001307 -0.036017552680916005 0 0.0077767786990793194 -0.035400176142323041 0 0.008138736402845393 -0.035601897024305551 0 0.0085769042291735289 -0.035912710507069262 0 0.0076098069016001307 -0.036017552680916005 0 0.0074605362291188665 -0.024208402081714889 0 0.0060331292153230475 -0.024360789529381636 0 0.0086947587755641341 -0.035422865899026781 0 0.008138736402845393 -0.035601897024305551 0 0.0085769042291735289 -0.035912710507069262 0 0.0052624154446525183 -0.012715824740885508 0 0.0057912063386819463 -0.012625709559131481 0 0.0053460815973358083 -0.012089026917455063 0 0.0076447861710935601 -0.024200585288789822 0 0.0074605362291188665 -0.024208402081714889 0 0.0052624154446525183 -0.012715824740885508 0 0.0045883788965011005 -0.012093409458331612 0 0.0053460815973358083 -0.012089026917455063 0 0.0045883788965011005 -0.012093409458331612 0 0.0051607224472330496 -0.011293148984806149 0 0.0046570087986532406 -0.010906317096514786 0 0.0044392689790286911 -0.012165535076135008 0 0.0055585005990783582 -0.011536030169487413 0 0.0051607224472330496 -0.011293148984806149 0 0.0049417437422615224 -0.010588886224735167 0 0.0052918163756270412 -0.010738845181637586 0 0.0051607224472330496 -0.011293148984806149 0 0.0049417437422615224 -0.010588886224735167 0 0.0046570087986532406 -0.010906317096514786 0 0.0049417437422615224 -0.010588886224735167 0 0.0052918163756270412 -0.010738845181637586 0 0.005242870032905118 -0.010390695809239878 0 0.0049417437422615224 -0.010588886224735167 0 0.0046570087986532406 -0.010906317096514786 0 0.0047370178452507579 -0.010181623765021085 0 0.0043169857718152599 -0.010282909716090116 0 0.0046570087986532406 -0.010906317096514786 0 0.0047370178452507579 -0.010181623765021085 0 0.0049417437422615224 -0.010588886224735167 0 0.005242870032905118 -0.010390695809239878 0 0.0050380772014954282 -0.010102669571364669 0 0.005242870032905118 -0.010390695809239878 0 0.0050380772014954282 -0.010102669571364669 0 0.0052388457212821484 -0.0099465212111030255 0 0.0049417437422615224 -0.010588886224735167 0 0.0047370178452507579 -0.010181623765021085 0 0.0050380772014954282 -0.010102669571364669 0 0.0047370178452507579 -0.010181623765021085 0 0.0050380772014954282 -0.010102669571364669 0 0.0049242481307590564 -0.0097314323556309187 0 0.0050380772014954282 -0.010102669571364669 0 0.0052188656831748548 -0.0098936476246119752 0 0.0049242481307590564 -0.0097314323556309187 0 0.0050380772014954282 -0.010102669571364669 0 0.0052188656831748548 -0.0098936476246119752 0 0.0052388457212821484 -0.0099465212111030255 0 0.0052388457212821484 -0.0099465212111030255 0 0.0051170763911083791 -0.0098769264443121819 0 0.0051269868429347177 -0.0099763013896315648 0 0.005242870032905118 -0.010390695809239878 0 0.0052388457212821484 -0.0099465212111030255 0 0.0059549120188058637 -0.010777278909383537 0 0.0052188656831748548 -0.0098936476246119752 0 0.0052388457212821484 -0.0099465212111030255 0 0.0051269868429347177 -0.0099763013896315648 0 0.0053770329571098067 -0.0094761597035335331 0 0.0045748641945964176 -0.012043885327620246 0 0.0052918163756270412 -0.010738845181637586 0 0.005242870032905118 -0.010390695809239878 0 0.0059549120188058637 -0.010777278909383537 0 0.0055585005990783582 -0.011536030169487413 0 0.0045748641945964176 -0.012043885327620246 0 0.0051607224472330496 -0.011293148984806149 0 0.0052918163756270412 -0.010738845181637586 0 0.0059549120188058637 -0.010777278909383537 0 0.0045748641945964176 -0.012043885327620246 0 0.0043115782390302166 -0.014043386796791827 0 0.0052188656831748548 -0.0098936476246119752 0 0.0051269868429347177 -0.0099763013896315648 0 0.0050333072659424476 -0.010125186589807681 0 0.0051170763911083791 -0.0098769264443121819 0 0.0051269868429347177 -0.0099763013896315648 0 0.0049023450165073482 -0.0099750404895949871 0 0.0051269868429347177 -0.0099763013896315648 0 0.0049023450165073482 -0.0099750404895949871 0 0.0050333072659424476 -0.010125186589807681 0 0.0049023450165073482 -0.0099750404895949871 0 0.0046670585501189365 -0.010278317465434769 0 0.0050333072659424476 -0.010125186589807681 0 0.0043115782390302166 -0.014043386796791827 0 0.0048678899326001284 -0.013715748048256884 0 0.0049023450165073482 -0.0099750404895949871 0 0.0045779097759654627 -0.010172098158743587 0 0.0046670585501189365 -0.010278317465434769 0 0.0041549556406407194 -0.017545224298739486 0 0.0048182005341366411 -0.017709830299048362 0 0.0048912901171984189 -0.017203144468427609 0 0.004035905569470288 -0.016351318608593537 0 0.0055911442269157745 -0.023592816224338922 0 0.0041549556406407194 -0.017545224298739486 0 0.0048182005341366411 -0.017709830299048362 0 0.0043309739762161644 -0.017930593360656295 0 0.0048182005341366411 -0.017709830299048362 0 0.0043309739762161644 -0.017930593360656295 0 0.0051518892256115743 -0.018308934071512038 0 0.0029649352255495531 -0.018109980778752484 0 0.0043309739762161644 -0.017930593360656295 0 0.0041889293135851042 -0.018739414268118374 0 0.0029649352255495531 -0.018109980778752484 0 0.0041549556406407194 -0.017545224298739486 0 0.0043309739762161644 -0.017930593360656295 0 0.0029649352255495531 -0.018109980778752484 0 0.0041889293135851042 -0.018739414268118374 0 0.0039205102516811294 -0.019498360772022653 0 0.0055930129995953775 -0.027272009586974951 0 0.0060331292153230475 -0.024360789529381636 0 0.0043309739762161644 -0.017930593360656295 0 0.0041889293135851042 -0.018739414268118374 0 0.0049018454820454931 -0.019167131857000235 0 0.0041889293135851042 -0.018739414268118374 0 0.0049018454820454931 -0.019167131857000235 0 0.0039205102516811294 -0.019498360772022653 0 0.0055930129995953775 -0.027272009586974951 0 0.0055911442269157745 -0.023592816224338922 0 0.0043309739762161644 -0.017930593360656295 0 0.0049018454820454931 -0.019167131857000235 0 0.0059280402857278033 -0.018817585994218518 0 0.006873398431446371 -0.034911900772727017 0 0.0069048567111953101 -0.034891940746197191 0 0.006818181737970665 -0.034913928210322263 0 0.006873398431446371 -0.034911900772727017 0 0.0069048567111953101 -0.034891940746197191 0 0.0068938303667703251 -0.034845843325134775 0 0.0072868174364513474 -0.035549657296725129 0 0.0076098069016001307 -0.036017552680916005 0 0.0077767786990793194 -0.035400176142323041 0 0.0081279026620446528 -0.036550642608962972 0 0.0060331292153230475 -0.024360789529381636 0 0.006818181737970665 -0.034913928210322263 0 0.0067752882534248462 -0.034983393112808243 0 0.006482525914736091 -0.034987253270448535 0 0.006818181737970665 -0.034913928210322263 0 0.006482525914736091 -0.034987253270448535 0 0.0065685517680208428 -0.034756994428050851 0 0.006873398431446371 -0.034911900772727017 0 0.006818181737970665 -0.034913928210322263 0 0.0067752882534248462 -0.034983393112808243 0 0.0043604937239957245 -0.024187683069235921 0 0.0048511784582634353 -0.023979218249773223 0 0.0049348668923899254 -0.024525083245941177 0 0.0055911442269157745 -0.023592816224338922 0 0.0065402981200181126 -0.03091968386667204 0 0.0055911442269157745 -0.023592816224338922 0 0.0054820040291763076 -0.020936773428164763 0 0.0051518892256115743 -0.018308934071512038 0 0.0058246225195521823 -0.01802148301776639 0 0.0054483875498079863 -0.017502721104612096 0 0.0048182005341366411 -0.017709830299048362 0 0.0051518892256115743 -0.018308934071512038 0 0.0054483875498079863 -0.017502721104612096 0 0.0048182005341366411 -0.017709830299048362 0 0.0054483875498079863 -0.017502721104612096 0 0.0048912901171984189 -0.017203144468427609 0 0.0058246225195521823 -0.01802148301776639 0 0.0054483875498079863 -0.017502721104612096 0 0.0060389455230189905 -0.017551510582294184 0 0.0054483875498079863 -0.017502721104612096 0 0.0060389455230189905 -0.017551510582294184 0 0.0059354791801912374 -0.017117469801113578 0 0.0060389455230189905 -0.017551510582294184 0 0.0063830884584892512 -0.017224861803479204 0 0.0059354791801912374 -0.017117469801113578 0 0.0034573979528135673 -0.014638245838720743 0 0.0039831776321241552 -0.014712091022665507 0 0.0036954545037070803 -0.015668982890648546 0 0.0060389455230189905 -0.017551510582294184 0 0.0063830884584892512 -0.017224861803479204 0 0.006503234036979659 -0.017744795129534634 0 0.0048593146599327118 -0.015726426294374412 0 0.0044201322293192973 -0.018734253508215611 0 0.0044201322293192973 -0.018734253508215611 0 -0.00012669129370833712 -0.01559615133288848 0 0.0039831776321241552 -0.014712091022665507 0 0.0036954545037070803 -0.015668982890648546 0 0.0043833933015241548 -0.01539689225688873 0 -0.00017550297372446246 -0.018115692988762169 0 0.0013723036633018462 -0.017517974258406021 0 0.0011585183764503189 -0.020102099266282265 0 -0.00017550297372446246 -0.018115692988762169 0 0.0011585183764503189 -0.020102099266282265 0 0.00038094941515034477 -0.02040083449258507 0 0.0053688303702214332 -0.023730815352753881 0 0.0051730392233253555 -0.024151050669668092 0 0.0054668016009555452 -0.024152449853100968 0 0.0044201322293192973 -0.018734253508215611 0 0.0030495470965316695 -0.022829658160339848 0 0.0058246225195521823 -0.01802148301776639 0 0.0060389455230189905 -0.017551510582294184 0 0.006503234036979659 -0.017744795129534634 0 0.0048511784582634353 -0.023979218249773223 0 0.0053688303702214332 -0.023730815352753881 0 0.0051730392233253555 -0.024151050669668092 0 0.0054820040291763076 -0.020936773428164763 0 0.0044201322293192973 -0.018734253508215611 0 -0.0052906885652918255 -0.0093408443081113724 0 -0.0060697525848239517 -0.0096622286673781217 0 -0.0056840343603419465 -0.0090866662023408734 0 -0.0046354856984791894 -0.012581988349230765 0 -0.0042557836110551708 -0.013033066288387624 0 -0.0038384701962990079 -0.015659164208060277 0 -0.0038342498236267767 -0.015694440845553683 0 -0.0045200897372090574 -0.015546231133563109 0 -0.0041239130786402539 -0.01544400306775863 0 -0.0038384701962990079 -0.015659164208060277 0 -0.0038342498236267767 -0.015694440845553683 0 -0.0038384701962990079 -0.015659164208060277 0 -0.0045200897372090574 -0.015546231133563109 0 -0.0042818201764227709 -0.016139538249500606 0 -0.00012669129370833712 -0.01559615133288848 0 0.0018801949075096941 -0.012823417232263316 0 0.0039831776321241552 -0.014712091022665507 0 0.0043833933015241548 -0.01539689225688873 0 0.0044779610544683612 -0.013808152539066948 0 -0.00056088944816679964 -0.013163530831217725 0 -0.0011199805930831844 -0.014028046501905386 0 -0.00086740631562652257 -0.011869897642494621 0 -0.0046324646483687287 -0.015775754159999867 0 -0.0046114459302613008 -0.015461507669313137 0 -0.0054619785897147641 -0.015751395556255012 0 -0.0046324646483687287 -0.015775754159999867 0 -0.0045200897372090574 -0.015546231133563109 0 -0.0042818201764227709 -0.016139538249500606 0 -0.004319295538495211 -0.013808554418444665 0 -0.0042557836110551708 -0.013033066288387624 0 -0.0042557836110551708 -0.013033066288387624 0 -0.00012669129370833712 -0.01559615133288848 0 -0.0046324646483687287 -0.015775754159999867 0 -0.0054619785897147641 -0.015751395556255012 0 -0.0049529908095575365 -0.016111279870908702 0 -0.00038205431431426477 -0.013796662226900529 0 -0.00056088944816679964 -0.013163530831217725 0 -0.0011199805930831844 -0.014028046501905386 0 -0.0054619785897147641 -0.015751395556255012 0 -0.005105535216471069 -0.016608345605442647 0 -0.0057124734596822593 -0.017562494525507281 0 -0.00012669129370833712 -0.01559615133288848 0 -0.0023530066037590397 -0.018832053220007066 0 -0.0054619785897147641 -0.015751395556255012 0 -0.005105535216471069 -0.016608345605442647 0 -0.0049529908095575365 -0.016111279870908702 0 -0.005105535216471069 -0.016608345605442647 0 -0.0057124734596822593 -0.017562494525507281 0 -0.0047781831150113807 -0.017506703249426624 0 -0.005105535216471069 -0.016608345605442647 0 -0.0047781831150113807 -0.017506703249426624 0 -0.0043138150740295563 -0.01695153852516992 0 -0.0046508863792385077 -0.016294846830638539 0 -0.0042818201764227709 -0.016139538249500606 0 -0.0043138150740295563 -0.01695153852516992 0 -0.005105535216471069 -0.016608345605442647 0 -0.0046508863792385077 -0.016294846830638539 0 -0.0043138150740295563 -0.01695153852516992 0 -0.005105535216471069 -0.016608345605442647 0 -0.0049529908095575365 -0.016111279870908702 0 -0.0046508863792385077 -0.016294846830638539 0 -0.0046324646483687287 -0.015775754159999867 0 -0.0049529908095575365 -0.016111279870908702 0 -0.0046508863792385077 -0.016294846830638539 0 -0.0046324646483687287 -0.015775754159999867 0 -0.0046508863792385077 -0.016294846830638539 0 -0.0042818201764227709 -0.016139538249500606 0 -0.0042818201764227709 -0.016139538249500606 0 -0.0043138150740295563 -0.01695153852516992 0 -0.0035812077711531061 -0.016889094835910581 0 -0.0038384701962990079 -0.015659164208060277 0 -0.0042818201764227709 -0.016139538249500606 0 -0.0035812077711531061 -0.016889094835910581 0 -0.0043138150740295563 -0.01695153852516992 0 -0.0035812077711531061 -0.016889094835910581 0 -0.0035516181609103908 -0.018073762307859897 0 -0.0026785013207709985 -0.01693640475597228 0 -0.0035812077711531061 -0.016889094835910581 0 -0.0035516181609103908 -0.018073762307859897 0 -0.0026785013207709985 -0.01693640475597228 0 -0.0038384701962990079 -0.015659164208060277 0 -0.0035812077711531061 -0.016889094835910581 0 -0.0041239130786402539 -0.01544400306775863 0 -0.004167372460743282 -0.014638239813465239 0 -0.0038384701962990079 -0.015659164208060277 0 -0.0036526796557963979 -0.015550215160770221 0 -0.0036926732333869474 -0.015711122734427492 0 -0.0047781831150113807 -0.017506703249426624 0 -0.0043138150740295563 -0.01695153852516992 0 -0.0035516181609103908 -0.018073762307859897 0 -0.0026563101621300744 -0.018674661239858815 0 -0.0042770318415109145 -0.019728200842019615 0 -0.0023125372149443942 -0.020285671472040655 0 -0.0023530066037590397 -0.018832053220007066 0 -0.00086246379822892149 -0.022813533030003122 0 -0.0026563101621300744 -0.018674661239858815 0 -0.0042770318415109145 -0.019728200842019615 0 -0.0053694378338340941 -0.018289690046886187 0 -0.0047781831150113807 -0.017506703249426624 0 -0.0035516181609103908 -0.018073762307859897 0 -0.0053694378338340941 -0.018289690046886187 0 -0.0027005253460098849 -0.018426942698526329 0 -0.0053830926167433455 -0.018273132060369991 0 -0.0057124734596822593 -0.017562494525507281 0 -0.0053694378338340941 -0.018289690046886187 0 -0.0059170726789128762 -0.020131895519385129 0 -0.0057124734596822593 -0.017562494525507281 0 -0.0047781831150113807 -0.017506703249426624 0 -0.0053694378338340941 -0.018289690046886187 0 -0.0042770318415109145 -0.019728200842019615 0 -0.0053694378338340941 -0.018289690046886187 0 -0.0059170726789128762 -0.020131895519385129 0 -0.0037662977342310701 -0.025570249379449721 0 -0.0037772249211345918 -0.026130656117347769 0 -0.0036842873037024417 -0.026471491823466625 0 -0.00086246379822892149 -0.022813533030003122 0 -0.0047184497836203886 -0.024599901823099166 0 -0.0046949128418824759 -0.021541730759443375 0 -0.0059170726789128762 -0.020131895519385129 0 -0.0050762950513404161 -0.023009078165557015 0 -0.0042770318415109145 -0.019728200842019615 0 -0.0046374410116130473 -0.020632198195345706 0 -0.0059170726789128762 -0.020131895519385129 0 -0.0046949128418824759 -0.021541730759443375 0 -0.0046374410116130473 -0.020632198195345706 0 -0.0059170726789128762 -0.020131895519385129 0 -0.0037662977342310701 -0.025570249379449721 0 -0.003869673143147262 -0.0260721964055254 0 -0.0037772249211345918 -0.026130656117347769 0 0.0027123922908485294 -0.029107735101925769 0 0.00074860090343108828 -0.028125647352922792 0 -0.0046949128418824759 -0.021541730759443375 0 -0.0046374410116130473 -0.020632198195345706 0 -0.0036826259398113179 -0.021117554594166379 0 -0.0046949128418824759 -0.021541730759443375 0 -0.0036826259398113179 -0.021117554594166379 0 -0.003719373941670899 -0.022441683267540567 0 -0.0042770318415109145 -0.019728200842019615 0 -0.0046374410116130473 -0.020632198195345706 0 -0.0036826259398113179 -0.021117554594166379 0 -0.0042770318415109145 -0.019728200842019615 0 -0.0036826259398113179 -0.021117554594166379 0 -0.0023125372149443942 -0.020285671472040655 0 -0.0036826259398113179 -0.021117554594166379 0 -0.0023125372149443942 -0.020285671472040655 0 -0.0023649594892396373 -0.02205465654013115 0 -0.00088253167709289248 -0.02122472838454011 0 -0.0023125372149443942 -0.020285671472040655 0 -0.0023649594892396373 -0.02205465654013115 0 0.0051730392233253555 -0.024151050669668092 0 0.0053193048631058849 -0.024446822274881309 0 0.0049348668923899254 -0.024525083245941177 0 0.0048511784582634353 -0.023979218249773223 0 0.0051730392233253555 -0.024151050669668092 0 0.0049348668923899254 -0.024525083245941177 0 0.0030495470965316695 -0.022829658160339848 0 -0.00086246379822892149 -0.022813533030003122 0 0.0054668016009555452 -0.024152449853100968 0 0.0053193048631058849 -0.024446822274881309 0 0.0055458289376914705 -0.024571627462758157 0 0.0051730392233253555 -0.024151050669668092 0 0.0054668016009555452 -0.024152449853100968 0 0.0053193048631058849 -0.024446822274881309 0 0.0011585183764503189 -0.020102099266282265 0 0.00038094941515034477 -0.02040083449258507 0 0.00091846836091332611 -0.022681200106548085 0 0.0060697118236325695 -0.034832442170485756 0 0.006482525914736091 -0.034987253270448535 0 0.0063041596272986949 -0.034740128908187784 0 0.0053193048631058849 -0.024446822274881309 0 0.0055458289376914705 -0.024571627462758157 0 0.0055113094319554469 -0.024881112548351538 0 0.0053193048631058849 -0.024446822274881309 0 0.0055113094319554469 -0.024881112548351538 0 0.0049348668923899254 -0.024525083245941177 0 0.0027123922908485294 -0.029107735101925769 0 0.0065402981200181126 -0.03091968386667204 0 -0.00086246379822892149 -0.022813533030003122 0 0.0027123922908485294 -0.029107735101925769 0 0.006482525914736091 -0.034987253270448535 0 0.0063041596272986949 -0.034740128908187784 0 0.0065685517680208428 -0.034756994428050851 0 0.0027123922908485294 -0.029107735101925769 0 0.00080216229257095957 -0.031168861701832036 0 0.0060697118236325695 -0.034832442170485756 0 0.0063041596272986949 -0.034740128908187784 0 0.0060703247437159649 -0.03455169769455315 0 0.0063041596272986949 -0.034740128908187784 0 0.0060703247437159649 -0.03455169769455315 0 0.0062876836423848021 -0.034483151906395185 0 0.0063041596272986949 -0.034740128908187784 0 0.0062876836423848021 -0.034483151906395185 0 0.0065685517680208428 -0.034756994428050851 0 0.0062876836423848021 -0.034483151906395185 0 0.0065010010726905907 -0.034422413378542641 0 0.0065685517680208428 -0.034756994428050851 0 -0.0011686681403455851 -0.023604394861413486 0 -0.0023649594892396373 -0.02205465654013115 0 -0.0032029821747836034 -0.023809489890478441 0 -0.0023649594892396373 -0.02205465654013115 0 -0.003719373941670899 -0.022441683267540567 0 -0.0032029821747836034 -0.023809489890478441 0 -0.0036826259398113179 -0.021117554594166379 0 -0.0023649594892396373 -0.02205465654013115 0 -0.003719373941670899 -0.022441683267540567 0 -0.0038821007955021922 -0.026077035733004246 0 -0.0041088664064772877 -0.027102033056683499 0 -0.0036842873037024417 -0.026471491823466625 0 -0.003719373941670899 -0.022441683267540567 0 -0.0032029821747836034 -0.023809489890478441 0 -0.0050762950513404161 -0.023009078165557015 0 -0.0046949128418824759 -0.021541730759443375 0 -0.003719373941670899 -0.022441683267540567 0 -0.0050762950513404161 -0.023009078165557015 0 -0.0038821007955021922 -0.026077035733004246 0 -0.0037772249211345918 -0.026130656117347769 0 -0.0036842873037024417 -0.026471491823466625 0 -0.0032029821747836034 -0.023809489890478441 0 -0.0050762950513404161 -0.023009078165557015 0 -0.004229701948091049 -0.025708418892095675 0 -0.0047184497836203886 -0.024599901823099166 0 -0.0038199027553795571 -0.026593139819755533 0 -0.0041088664064772877 -0.027102033056683499 0 -0.0036842873037024417 -0.026471491823466625 0 -0.003519286320861017 -0.027379578512286482 0 -0.0011686681403455851 -0.023604394861413486 0 -0.0032029821747836034 -0.023809489890478441 0 -0.0026299856628858864 -0.02557772706852041 0 -0.0032029821747836034 -0.023809489890478441 0 -0.004229701948091049 -0.025708418892095675 0 -0.0026299856628858864 -0.02557772706852041 0 -0.004229701948091049 -0.025708418892095675 0 -0.0026299856628858864 -0.02557772706852041 0 -0.0032340504627882878 -0.028360556946784007 0 -0.0012193377968212446 -0.026316168252693811 0 -0.0026299856628858864 -0.02557772706852041 0 -0.0032340504627882878 -0.028360556946784007 0 -0.0010240850154980431 -0.028101411648379093 0 -0.0012193377968212446 -0.026316168252693811 0 -0.0032340504627882878 -0.028360556946784007 0 -0.003519286320861017 -0.027379578512286482 0 -0.0032340504627882878 -0.028360556946784007 0 -0.0043837220409699935 -0.028254831862087111 0 -0.0041088664064772877 -0.027102033056683499 0 -0.003519286320861017 -0.027379578512286482 0 -0.0043837220409699935 -0.028254831862087111 0 -0.0038199027553795571 -0.026593139819755533 0 -0.0033231593756740565 -0.028197904941520184 0 -0.0039165250566276059 -0.029162803087975905 0 -0.0032340504627882878 -0.028360556946784007 0 -0.0043837220409699935 -0.028254831862087111 0 -0.0014110340400892154 -0.029103901815916707 0 -0.0018718613504524252 -0.030115648613111997 0 -0.0032340504627882878 -0.028360556946784007 0 -0.0014110340400892154 -0.029103901815916707 0 -0.0010240850154980431 -0.028101411648379093 0 -0.0032340504627882878 -0.028360556946784007 0 0.0062876836423848021 -0.034483151906395185 0 0.0062411570457571444 -0.03415598157565556 0 0.0065010010726905907 -0.034422413378542641 0 0.0060703247437159649 -0.03455169769455315 0 0.0062876836423848021 -0.034483151906395185 0 0.0060517572179398073 -0.034242502521521646 0 0.0062876836423848021 -0.034483151906395185 0 0.0060517572179398073 -0.034242502521521646 0 0.0062411570457571444 -0.03415598157565556 0 0.00080216229257095957 -0.031168861701832036 0 0.0008028526976291599 -0.03104894696354215 0 -0.004673995131672163 -0.029923885544551974 0 -0.0039165250566276059 -0.029162803087975905 0 -0.0043837220409699935 -0.028254831862087111 0 0.0060504070266432725 -0.033938046558508947 0 0.0060517572179398073 -0.034242502521521646 0 0.0062411570457571444 -0.03415598157565556 0 0.0012657900794079595 -0.03266057341360476 0 0.0008028526976291599 -0.03104894696354215 0 0.0062411570457571444 -0.03415598157565556 0 0.006516185668385889 -0.03419597331040343 0 0.0065010010726905907 -0.034422413378542641 0 0.0063924388091202398 -0.034032238714200282 0 0.0062411570457571444 -0.03415598157565556 0 0.006516185668385889 -0.03419597331040343 0 0.006516185668385889 -0.03419597331040343 0 0.006878849570430179 -0.034493860349913315 0 0.0066557764304754977 -0.034075608407862307 0 0.0063924388091202398 -0.034032238714200282 0 0.0064981236661804768 -0.034063628238231183 0 0.006516185668385889 -0.03419597331040343 0 0.0064981236661804768 -0.034063628238231183 0 0.006516185668385889 -0.03419597331040343 0 0.0066557764304754977 -0.034075608407862307 0 0.006516185668385889 -0.03419597331040343 0 0.0065010010726905907 -0.034422413378542641 0 0.006878849570430179 -0.034493860349913315 0 0.0065010010726905907 -0.034422413378542641 0 0.006878849570430179 -0.034493860349913315 0 0.0067965863508916155 -0.034750572089980947 0 0.006878849570430179 -0.034493860349913315 0 0.0070340947497184291 -0.034311823915840034 0 0.0069476311884622451 -0.034247683490611386 0 0.0068838716263770255 -0.034480418526940379 0 0.0067947121516887341 -0.034183664429794099 0 0.0070340947497184291 -0.034311823915840034 0 0.0069476311884622451 -0.034247683490611386 0 0.0069807807363170878 -0.034238746580449383 0 0.0070340947497184291 -0.034311823915840034 0 0.0073311635366670727 -0.034387117048551012 0 0.0071943373380026912 -0.034232513199992903 0 0.007376071620152469 -0.034160205793292063 0 0.0073311635366670727 -0.034387117048551012 0 0.0071943373380026912 -0.034232513199992903 0 0.0070340947497184291 -0.034311823915840034 0 0.0069807807363170878 -0.034238746580449383 0 0.0071943373380026912 -0.034232513199992903 0 0.0077316291334347063 -0.034422519403394164 0 0.0073311635366670727 -0.034387117048551012 0 0.0075991672053470774 -0.034229569281594353 0 0.007376071620152469 -0.034160205793292063 0 0.0073311635366670727 -0.034387117048551012 0 0.0075991672053470774 -0.034229569281594353 0 0.0077316291334347063 -0.034422519403394164 0 0.0073311635366670727 -0.034387117048551012 0 0.0076020412358585596 -0.034611608034256593 0 0.0073311635366670727 -0.034387117048551012 0 0.0076020412358585596 -0.034611608034256593 0 0.0072227373921949821 -0.034734084889402682 0 0.006878849570430179 -0.034493860349913315 0 0.0070340947497184291 -0.034311823915840034 0 0.0073311635366670727 -0.034387117048551012 0 0.006878849570430179 -0.034493860349913315 0 0.0073311635366670727 -0.034387117048551012 0 0.0072227373921949821 -0.034734084889402682 0 0.0072227373921949821 -0.034734084889402682 0 0.0069721305890071295 -0.034939584806848625 0 0.0067965863508916155 -0.034750572089980947 0 0.0072227373921949821 -0.034734084889402682 0 0.0074108630951841966 -0.035083306600067712 0 0.0069721305890071295 -0.034939584806848625 0 0.0078092859986176009 -0.034925938335592682 0 0.0072227373921949821 -0.034734084889402682 0 0.0074108630951841966 -0.035083306600067712 0 0.0078092859986176009 -0.034925938335592682 0 0.0076020412358585596 -0.034611608034256593 0 0.0072227373921949821 -0.034734084889402682 0 0.0078092859986176009 -0.034925938335592682 0 0.0074108630951841966 -0.035083306600067712 0 0.0077767786990793194 -0.035400176142323041 0 0.0072868174364513474 -0.035549657296725129 0 0.0074108630951841966 -0.035083306600067712 0 0.0077767786990793194 -0.035400176142323041 0 0.0069048567111953101 -0.034891940746197191 0 0.006818181737970665 -0.034913928210322263 0 0.0069721305890071295 -0.034939584806848625 0 0.0081279026620446528 -0.036550642608962972 0 0.0066325552612537583 -0.03454272859330066 0 0.0072868174364513474 -0.035549657296725129 0 0.0074108630951841966 -0.035083306600067712 0 0.0069721305890071295 -0.034939584806848625 0 0.006818181737970665 -0.034913928210322263 0 0.0065685517680208428 -0.034756994428050851 0 0.0067965863508916155 -0.034750572089980947 0 0.006818181737970665 -0.034913928210322263 0 0.0069721305890071295 -0.034939584806848625 0 0.0067965863508916155 -0.034750572089980947 0 0.0065010010726905907 -0.034422413378542641 0 0.0065685517680208428 -0.034756994428050851 0 0.0067965863508916155 -0.034750572089980947 0 0.006878849570430179 -0.034493860349913315 0 0.0072227373921949821 -0.034734084889402682 0 0.0067965863508916155 -0.034750572089980947 0 0.03460493285509935 -0.022864114273761341 0 0.034767086969732401 -0.022772459659242975 0 0.034624560569925203 -0.022496356961257302 0 0.034767086969732401 -0.022772459659242975 0 0.035017639271331905 -0.022587393234262187 0 0.034831905580984535 -0.023162823240087307 0 0.03460493285509935 -0.022864114273761341 0 0.034767086969732401 -0.022772459659242975 0 0.034831905580984535 -0.023162823240087307 0 0.03460493285509935 -0.022864114273761341 0 0.034296171637213387 -0.022602354610090455 0 0.034624560569925203 -0.022496356961257302 0 0.03460493285509935 -0.022864114273761341 0 0.034296171637213387 -0.022602354610090455 0 0.03437185332658569 -0.022992404512086052 0 0.034296171637213387 -0.022602354610090455 0 0.034624560569925203 -0.022496356961257302 0 0.034284932736906817 -0.022216041576523998 0 0.034624560569925203 -0.022496356961257302 0 0.035017639271331905 -0.022587393234262187 0 0.034631236453841314 -0.022118186129565745 0 0.034767086969732401 -0.022772459659242975 0 0.034624560569925203 -0.022496356961257302 0 0.035017639271331905 -0.022587393234262187 0 0.035480985143417514 -0.028004606184305399 0 0.034999998855342607 -0.027080223372693647 0 0.034999984637818018 -0.029164960314525867 0 0.03519811066996241 -0.023676608746779688 0 0.035231918046527498 -0.023655938482302394 0 0.035247237147991016 -0.023805615448110575 0 0.035051121668500163 -0.022584293127107771 0 0.035165562529879353 -0.024134644331190742 0 0.035345115617130253 -0.025761156039864532 0 0.035218499136757557 -0.025174491411537082 0 0.035231918046527498 -0.023655938482302394 0 0.035247237147991016 -0.023805615448110575 0 0.035102193214367527 -0.02395352949728119 0 0.035480985143417514 -0.028004606184305399 0 0.034999998855342607 -0.027080223372693647 0 0.035241520247432392 -0.026500862065882719 0 0.035017639271331905 -0.022587393234262187 0 0.034831905580984535 -0.023162823240087307 0 0.035102193214367527 -0.02395352949728119 0 0.034805378155244239 -0.02353120644687481 0 0.034831905580984535 -0.023162823240087307 0 0.035102193214367527 -0.02395352949728119 0 0.034627885691992363 -0.023526904984978808 0 0.034805378155244239 -0.02353120644687481 0 0.034775042007150571 -0.023845164085031297 0 0.034627885691992363 -0.023526904984978808 0 0.034805378155244239 -0.02353120644687481 0 0.034634234408837984 -0.023230591030477404 0 0.03460493285509935 -0.022864114273761341 0 0.034831905580984535 -0.023162823240087307 0 0.034634234408837984 -0.023230591030477404 0 0.034805378155244239 -0.02353120644687481 0 0.034831905580984535 -0.023162823240087307 0 0.034634234408837984 -0.023230591030477404 0 0.034634234408837984 -0.023230591030477404 0 0.03437185332658569 -0.022992404512086052 0 0.034374988998577563 -0.023330294257097869 0 0.03460493285509935 -0.022864114273761341 0 0.034634234408837984 -0.023230591030477404 0 0.03437185332658569 -0.022992404512086052 0 0.034627885691992363 -0.023526904984978808 0 0.034374988998577563 -0.023330294257097869 0 0.034545708397620403 -0.023681345497289612 0 0.034374988998577563 -0.023330294257097869 0 0.034288035863436234 -0.02365878385430677 0 0.034545708397620403 -0.023681345497289612 0 0.034627885691992363 -0.023526904984978808 0 0.034634234408837984 -0.023230591030477404 0 0.034374988998577563 -0.023330294257097869 0 0.034374988998577563 -0.023330294257097869 0 0.034087411263071736 -0.023307553671892245 0 0.034288035863436234 -0.02365878385430677 0 0.034087411263071736 -0.023307553671892245 0 0.033937690102122969 -0.023451653218224205 0 0.034288035863436234 -0.02365878385430677 0 0.034087411263071736 -0.023307553671892245 0 0.033937690102122969 -0.023451653218224205 0 0.033729750591510441 -0.023101724320657692 0 0.033937690102122969 -0.023451653218224205 0 0.033729750591510441 -0.023101724320657692 0 0.033602160702565241 -0.02343207535165933 0 0.034087411263071736 -0.023307553671892245 0 0.033729750591510441 -0.023101724320657692 0 0.034085806986724504 -0.022940235633441063 0 0.03437185332658569 -0.022992404512086052 0 0.034374988998577563 -0.023330294257097869 0 0.034085806986724504 -0.022940235633441063 0 0.034374988998577563 -0.023330294257097869 0 0.034087411263071736 -0.023307553671892245 0 0.034085806986724504 -0.022940235633441063 0 0.033729750591510441 -0.023101724320657692 0 0.033233633493500905 -0.023030553108322228 0 0.033302901678747582 -0.022449024167874813 0 0.033233633493500905 -0.023030553108322228 0 0.033075766964520525 -0.023387054572575956 0 0.033602160702565241 -0.02343207535165933 0 0.033729750591510441 -0.023101724320657692 0 0.033233633493500905 -0.023030553108322228 0 0.033602160702565241 -0.02343207535165933 0 0.033233633493500905 -0.023030553108322228 0 0.033302901678747582 -0.022449024167874813 0 0.032649742989062064 -0.022788508006876085 0 0.033729750591510441 -0.023101724320657692 0 0.033302901678747582 -0.022449024167874813 0 0.033880589161040323 -0.022530324390287324 0 0.033729750591510441 -0.023101724320657692 0 0.034085806986724504 -0.022940235633441063 0 0.033880589161040323 -0.022530324390287324 0 0.034296171637213387 -0.022602354610090455 0 0.034085806986724504 -0.022940235633441063 0 0.033880589161040323 -0.022530324390287324 0 0.034296171637213387 -0.022602354610090455 0 0.03437185332658569 -0.022992404512086052 0 0.034085806986724504 -0.022940235633441063 0 0.033302901678747582 -0.022449024167874813 0 0.033880589161040323 -0.022530324390287324 0 0.033939911172937286 -0.021990156555300906 0 0.034296171637213387 -0.022602354610090455 0 0.033880589161040323 -0.022530324390287324 0 0.034284932736906817 -0.022216041576523998 0 0.033596335910541793 -0.022060818624095875 0 0.033278359378966019 -0.021905399441844348 0 0.033841543640263511 -0.021858737837579596 0 0.033880589161040323 -0.022530324390287324 0 0.034284932736906817 -0.022216041576523998 0 0.033939911172937286 -0.021990156555300906 0 0.034284932736906817 -0.022216041576523998 0 0.033939911172937286 -0.021990156555300906 0 0.034419550133445984 -0.021861297428063808 0 0.034029803705674926 -0.021522531039430415 0 0.034502621980586255 -0.025920717720951676 0 0.033939911172937286 -0.021990156555300906 0 0.034505168115859748 -0.021498431764194241 0 0.034419550133445984 -0.021861297428063808 0 0.033302901678747582 -0.022449024167874813 0 0.033596335910541793 -0.022060818624095875 0 0.033278359378966019 -0.021905399441844348 0 0.033198653943986821 -0.022584798298295079 0 0.034029803705674926 -0.021522531039430415 0 0.030848741367863534 -0.031824324554376539 0 0.031254171742217743 -0.030652432175131743 0 0.029983590407447087 -0.031081069532247037 0 0.034003244183305775 -0.027843883523403834 0 0.031961425526910225 -0.030915923402194272 0 0.030848741367863534 -0.031824324554376539 0 0.032493631396115455 -0.031194472966604669 0 0.031254171742217743 -0.030652432175131743 0 0.033961223290129829 -0.031377728833260177 0 0.033505480405872132 -0.030667094111644828 0 0.032621524582825565 -0.030768178498811839 0 0.031904894659299424 -0.026689815273356621 0 0.034003244183305775 -0.027843883523403834 0 0.033961223290129829 -0.031377728833260177 0 0.034020087382620669 -0.030897288615772761 0 0.033505480405872132 -0.030667094111644828 0 0.033961223290129829 -0.031377728833260177 0 0.034285529995479874 -0.031254997436847155 0 0.034020087382620669 -0.030897288615772761 0 0.034385806506487426 -0.028193027788885303 0 0.034977519731909497 -0.027973312720901467 0 0.0346267149793269 -0.028309592338658821 0 0.034003244183305775 -0.027843883523403834 0 0.034629742902008397 -0.028297062672387845 0 0.034629742902008397 -0.028297062672387845 0 0.034502621980586255 -0.025920717720951676 0 0.034396359293047719 -0.031148827579455623 0 0.034285529995479874 -0.031254997436847155 0 0.034020087382620669 -0.030897288615772761 0 0.035039969585931169 -0.027102365910509709 0 0.035196673514013045 -0.02694790890528324 0 0.034889839942921774 -0.02639926731780488 0 0.035203608416646083 -0.029562762946390961 0 0.035055765441649227 -0.025341242097499779 0 0.035203608416646083 -0.029562762946390961 0 0.034629742902008397 -0.028297062672387845 0 0.036410047090602859 -0.030327350500536317 0 0.036294935110465942 -0.0297950926558775 0 0.035705131105189594 -0.029510553270092141 0 0.035196673514013045 -0.02694790890528324 0 0.034889839942921774 -0.02639926731780488 0 0.035466811577153236 -0.026682236605138052 0 0.035055765441649227 -0.025341242097499779 0 0.034502621980586255 -0.025920717720951676 0 0.033596335910541793 -0.022060818624095875 0 0.033841543640263511 -0.021858737837579596 0 0.033876408642264225 -0.021878425553181601 0 0.03473937641050686 -0.021603858575229264 0 0.034505168115859748 -0.021498431764194241 0 0.034419550133445984 -0.021861297428063808 0 0.034003244183305775 -0.027843883523403834 0 0.034502621980586255 -0.025920717720951676 0 0.035017639271331905 -0.022587393234262187 0 0.03473937641050686 -0.021603858575229264 0 0.034631236453841314 -0.022118186129565745 0 0.035051121668500163 -0.022584293127107771 0 0.035055765441649227 -0.025341242097499779 0 0.03473937641050686 -0.021603858575229264 0 0.034419550133445984 -0.021861297428063808 0 0.034631236453841314 -0.022118186129565745 0 0.034284932736906817 -0.022216041576523998 0 0.034419550133445984 -0.021861297428063808 0 0.034631236453841314 -0.022118186129565745 0 0.034624560569925203 -0.022496356961257302 0 0.034284932736906817 -0.022216041576523998 0 0.034631236453841314 -0.022118186129565745 0 0.035231918046527498 -0.023655938482302394 0 0.035360645574212625 -0.024138375733693106 0 0.035202324498835341 -0.024057799507684597 0 0.035345115617130253 -0.025761156039864532 0 0.035274034609984989 -0.027256251209894888 0 0.035480985143417514 -0.028004606184305399 0 0.035713807276765118 -0.029498440825418516 0 0.034999984637818018 -0.029164960314525867 0 0.03519811066996241 -0.023676608746779688 0 0.035231918046527498 -0.023655938482302394 0 0.035202324498835341 -0.024057799507684597 0 0.035274034609984989 -0.027256251209894888 0 0.035001102193207338 -0.029164572636958673 0 0.035203608416646083 -0.029562762946390961 0 0.035001445186656752 -0.030831962361426549 0 0.035705131105189594 -0.029510553270092141 0 0.034999977620140038 -0.029165063430058358 0 0.034999985633945699 -0.030832046372766906 0 0.036410047090602859 -0.030327350500536317 0 0.035705131105189594 -0.029510553270092141 0 0.034999985633945699 -0.030832046372766906 0 0.035055765441649227 -0.025341242097499779 0 0.035274034609984989 -0.027256251209894888 0 0.035203608416646083 -0.029562762946390961 0 0.035290761457848784 -0.031347237980578459 0 0.036386993688154998 -0.030365802769927286 0 0.0349999945303038 -0.0308321943959773 0 0.035320858018632537 -0.031433974843183804 0 0.035290761457848784 -0.031347237980578459 0 0.035067187389945603 -0.031449688446432852 0 0.0349999945303038 -0.0308321943959773 0 0.035320858018632537 -0.031433974843183804 0 0.034999989080124548 -0.031441735343811374 0 0.035329904923529228 -0.031445496353364723 0 0.03499999949180025 -0.031441811016923803 0 0.03499999971871328 -0.031765913591005786 0 0.035290761457848784 -0.031347237980578459 0 0.035000166281728647 -0.031765576369831502 0 0.035290761457848784 -0.031347237980578459 0 0.035000316566499143 -0.031441620577194657 0 0.035328356812567331 -0.030457658078200358 0 0.034852827310030497 -0.030927232225044347 0 0.035430463850899638 -0.030932575116631836 0 0.034396359293047719 -0.031148827579455623 0 0.034020087382620669 -0.030897288615772761 0 0.034182083675027772 -0.030151149621740838 0 0.035203608416646083 -0.029562762946390961 0 0.035067187389945603 -0.031449688446432852 0 0.034020087382620669 -0.030897288615772761 0 0.034182083675027772 -0.030151149621740838 0 0.033505480405872132 -0.030667094111644828 0 0.036594392742038212 -0.031488331744475136 0 0.036835321474356947 -0.032623276894977515 0 0.035000029725058737 -0.032418536341282576 0 0.035067187389945603 -0.031449688446432852 0 0.036047537127929248 -0.032297130268626774 0 0.036096894869524554 -0.032825429435006187 0 0.035000343728469129 -0.032420077537704033 0 0.03595371435804165 -0.033152943234520477 0 0.035309388712873181 -0.031465889981572924 0 0.036594392742038212 -0.031488331744475136 0 0.035000029725058737 -0.032418536341282576 0 0.036047537127929248 -0.032297130268626774 0 0.035000946106755443 -0.032419142196394954 0 0.035309388712873181 -0.031465889981572924 0 0.034999939349455063 -0.031766130944345029 0 0.035000029725058737 -0.032418536341282576 0 0.034999309210794451 -0.033072290609211061 0 0.03508194506304986 -0.033802734855254514 0 0.03499780058799757 -0.033077626244377288 0 0.033922506278529566 -0.034794101917806158 0 0.035000269152817634 -0.034997129795079192 0 0.035000269152817634 -0.034997129795079192 0 0.031085609462596923 -0.034999999682824121 0 0.032855750761353518 -0.035093488576008351 0 0.035000343728469129 -0.032420077537704033 0 0.034999550747830586 -0.033070645874215064 0 0.03595371435804165 -0.033152943234520477 0 0.033922506278529566 -0.034794101917806158 0 0.035000269152817634 -0.034997129795079192 0 0.032855750761353518 -0.035093488576008351 0 0.036096894869524554 -0.032825429435006187 0 0.03595371435804165 -0.033152943234520477 0 0.036050504495983501 -0.033031434799009156 0 0.036047537127929248 -0.032297130268626774 0 0.036106858200824571 -0.032729129017181204 0 0.031085609462596923 -0.034999999682824121 0 0.031856390363726513 -0.036365676304970986 0 0.030375620824446319 -0.036114143626139419 0 0.03259542262724436 -0.035406618886694392 0 0.033319275166812226 -0.035160075250153078 0 0.031085609462596923 -0.034999999682824121 0 0.032855750761353518 -0.035093488576008351 0 0.031856390363726513 -0.036365676304970986 0 0.036044531008689283 -0.033012699155554812 0 0.036050504495983501 -0.033031434799009156 0 0.036122354640769599 -0.033046293828377378 0 0.033922506278529566 -0.034794101917806158 0 0.032855750761353518 -0.035093488576008351 0 0.033101935012812174 -0.035059978887425403 0 0.03508194506304986 -0.033802734855254514 0 0.033319275166812226 -0.035160075250153078 0 0.03595371435804165 -0.033152943234520477 0 0.036050504495983501 -0.033031434799009156 0 0.03611721082423229 -0.033080717065445499 0 0.036050504495983501 -0.033031434799009156 0 0.03611721082423229 -0.033080717065445499 0 0.036122354640769599 -0.033046293828377378 0 0.033319275166812226 -0.035160075250153078 0 0.030002516528428357 -0.036210429291649485 0 0.031853453478415984 -0.036327288025152317 0 0.031250527401232547 -0.037063604507946171 0 0.030375620824446319 -0.036114143626139419 0 0.033319275166812226 -0.035160075250153078 0 0.032551789087125103 -0.033494325378294297 0 0.032551789087125103 -0.033494325378294297 0 0.030291812026055107 -0.03120115347818243 0 0.032645292706756826 -0.031168632799089539 0 0.033199977521705032 -0.032657660925387688 0 0.031460429692712732 -0.032601213739812597 0 0.034866488255307027 -0.03267428148915956 0 0.034591205347895074 -0.031408355468723601 0 0.033199977521705032 -0.032657660925387688 0 0.034591205347895074 -0.031408355468723601 0 0.032645292706756826 -0.031168632799089539 0 0.033199977521705032 -0.032657660925387688 0 0.036047537127929248 -0.032297130268626774 0 0.032551789087125103 -0.033494325378294297 0 0.035067187389945603 -0.031449688446432852 0 0.033073004854312867 -0.031404184485904714 0 0.034182083675027772 -0.030151149621740838 0 0.032734173651961108 -0.030133271963061543 0 0.033505480405872132 -0.030667094111644828 0 0.032734173651961108 -0.030133271963061543 0 0.033505480405872132 -0.030667094111644828 0 0.032621524582825565 -0.030768178498811839 0 0.031961425526910225 -0.030915923402194272 0 0.030291812026055107 -0.03120115347818243 0 0.033073004854312867 -0.031404184485904714 0 0.030291812026055107 -0.03120115347818243 0 0.032734173651961108 -0.030133271963061543 0 0.032621524582825565 -0.030768178498811839 0 0.031176887423093356 -0.030107230590167382 0 0.031254171742217743 -0.030652432175131743 0 0.029980409727565112 -0.030078434950358675 0 0.029983590407447087 -0.031081069532247037 0 0.030291812026055107 -0.03120115347818243 0 0.029041340378288923 -0.030982637339862097 0 0.029980409727565112 -0.030078434950358675 0 0.029045578293744479 -0.031311846591435745 0 0.029983590407447087 -0.031081069532247037 0 0.030291812026055107 -0.03120115347818243 0 0.02818177265341602 -0.030549604575443961 0 0.029708374391180001 -0.030494956452942926 0 0.028454257688503105 -0.030515823707036399 0 0.029045578293744479 -0.031311846591435745 0 0.02949565115723923 -0.03076540547079017 0 0.028637764593914008 -0.030342316332818916 0 0.028254793822965196 -0.030734247038948323 0 0.030272461022710136 -0.033706694011042156 0 0.029124517213843803 -0.033164226361519847 0 0.029729864408314939 -0.032428379291324159 0 0.030291812026055107 -0.03120115347818243 0 0.028867677561938629 -0.031847867465502236 0 0.03118538311037046 -0.032606828036833076 0 0.030272461022710136 -0.033706694011042156 0 0.029729864408314939 -0.032428379291324159 0 0.032551789087125103 -0.033494325378294297 0 0.029328779467326545 -0.034746025427085922 0 0.030375620824446319 -0.036114143626139419 0 0.028927577497374454 -0.036149832440292178 0 0.029460883243759915 -0.036854709633381277 0 0.031085609462596923 -0.034999999682824121 0 0.030375620824446319 -0.036114143626139419 0 0.028183224126044609 -0.034999960660776361 0 0.031250527401232547 -0.037063604507946171 0 0.030375620824446319 -0.036114143626139419 0 0.029460883243759915 -0.036854709633381277 0 0.029328779467326545 -0.034746025427085922 0 0.02800680536633408 -0.034669992484257062 0 0.029124517213843803 -0.033164226361519847 0 0.029729864408314939 -0.032428379291324159 0 0.028276565563826492 -0.032251877658033869 0 0.028927577497374454 -0.036149832440292178 0 0.029460883243759915 -0.036854709633381277 0 0.027694515039354075 -0.036629581944023798 0 0.030375620824446319 -0.036114143626139419 0 0.028927577497374454 -0.036149832440292178 0 0.028183224126044609 -0.034999960660776361 0 0.026962249125758474 -0.035756124189851274 0 0.028183224126044609 -0.034999960660776361 0 0.026034298025100391 -0.034999967887213775 0 0.026962249125758474 -0.035756124189851274 0 0.025949336973325857 -0.036387333558281734 0 0.026034298025100391 -0.034999967887213775 0 0.028927577497374454 -0.036149832440292178 0 0.028183224126044609 -0.034999960660776361 0 0.027694515039354075 -0.036629581944023798 0 0.026962249125758474 -0.035756124189851274 0 0.028183224126044609 -0.034999960660776361 0 0.027694515039354075 -0.036629581944023798 0 0.027882346278238806 -0.031186215291633276 0 0.026683729460269149 -0.032025291300852819 0 0.028276565563826492 -0.032251877658033869 0 0.027973996178409385 -0.032620934701625394 0 0.026823718674465338 -0.032071972905698604 0 0.02800680536633408 -0.034669992484257062 0 0.026683729460269149 -0.032025291300852819 0 0.026962249125758474 -0.035756124189851274 0 0.027694515039354075 -0.036629581944023798 0 0.025949336973325857 -0.036387333558281734 0 0.027818140804499996 -0.029972587132551555 0 0.028254793822965196 -0.030734247038948323 0 0.027142488325377308 -0.030664316083582242 0 0.027818140804499996 -0.029972587132551555 0 0.027142488325377308 -0.030664316083582242 0 0.026742874362429499 -0.030180303467816194 0 0.029124517213843803 -0.033164226361519847 0 0.028276565563826492 -0.032251877658033869 0 0.027973996178409385 -0.032620934701625394 0 0.028867677561938629 -0.031847867465502236 0 0.027882346278238806 -0.031186215291633276 0 0.028637764593914008 -0.030342316332818916 0 0.027818140804499996 -0.029972587132551555 0 0.028254793822965196 -0.030734247038948323 0 0.028454257688503105 -0.030515823707036399 0 0.028115313465857338 -0.031192295509581417 0 0.029045578293744479 -0.031311846591435745 0 0.02818177265341602 -0.030549604575443961 0 0.027284512230386943 -0.030677399227245414 0 0.028454257688503105 -0.030515823707036399 0 0.028115313465857338 -0.031192295509581417 0 0.027142488325377308 -0.030664316083582242 0 0.027563289227500207 -0.031655125562536648 0 0.028115313465857338 -0.031192295509581417 0 0.027142488325377308 -0.030664316083582242 0 0.027563289227500207 -0.031655125562536648 0 0.02793897058546628 -0.032733131636584867 0 0.026668697039867482 -0.032160281345393622 0 0.027563289227500207 -0.031655125562536648 0 0.028414330054814446 -0.031848753493274554 0 0.02793897058546628 -0.032733131636584867 0 0.028414330054814446 -0.031848753493274554 0 0.029255988475666291 -0.032357753434058785 0 0.02793897058546628 -0.032733131636584867 0 0.027563289227500207 -0.031655125562536648 0 0.028414330054814446 -0.031848753493274554 0 0.028115313465857338 -0.031192295509581417 0 0.028414330054814446 -0.031848753493274554 0 0.028115313465857338 -0.031192295509581417 0 0.029045578293744479 -0.031311846591435745 0 0.029045578293744479 -0.031311846591435745 0 0.029983590407447087 -0.031081069532247037 0 0.029255988475666291 -0.032357753434058785 0 0.030848741367863534 -0.031824324554376539 0 0.029983590407447087 -0.031081069532247037 0 0.029255988475666291 -0.032357753434058785 0 0.031904894659299424 -0.026689815273356621 0 0.030788870532171827 -0.02722905131987292 0 0.033302901678747582 -0.022449024167874813 0 0.033278359378966019 -0.021905399441844348 0 0.032268075454893019 -0.022053376468674907 0 0.028414330054814446 -0.031848753493274554 0 0.029045578293744479 -0.031311846591435745 0 0.029255988475666291 -0.032357753434058785 0 0.032268075454893019 -0.022053376468674907 0 0.031895133547599513 -0.022607466458673332 0 0.032649742989062064 -0.022788508006876085 0 0.033302901678747582 -0.022449024167874813 0 0.032268075454893019 -0.022053376468674907 0 0.032649742989062064 -0.022788508006876085 0 0.033233633493500905 -0.023030553108322228 0 0.032649742989062064 -0.022788508006876085 0 0.033075766964520525 -0.023387054572575956 0 0.032649742989062064 -0.022788508006876085 0 0.032180246600898667 -0.023373058320465542 0 0.033075766964520525 -0.023387054572575956 0 0.031895133547599513 -0.022607466458673332 0 0.03155676307254783 -0.023070221800759367 0 0.032180246600898667 -0.023373058320465542 0 0.031895133547599513 -0.022607466458673332 0 0.032649742989062064 -0.022788508006876085 0 0.032180246600898667 -0.023373058320465542 0 0.03155676307254783 -0.023070221800759367 0 0.030911286249541856 -0.022924244491293811 0 0.031169461792142968 -0.022315554258449614 0 0.031895133547599513 -0.022607466458673332 0 0.03155676307254783 -0.023070221800759367 0 0.031169461792142968 -0.022315554258449614 0 0.030911286249541856 -0.022924244491293811 0 0.031169461792142968 -0.022315554258449614 0 0.030189729970567628 -0.022588364079407033 0 0.029546993382762909 -0.027525239299402062 0 0.02849356609782407 -0.027836123789715381 0 0.030788870532171827 -0.02722905131987292 0 0.029546993382762909 -0.027525239299402062 0 0.032268075454893019 -0.022053376468674907 0 0.031895133547599513 -0.022607466458673332 0 0.031169461792142968 -0.022315554258449614 0 0.025998208122155215 -0.032790776217602763 0 0.026754197524613024 -0.033092405226578976 0 0.026668697039867482 -0.032160281345393622 0 0.02793897058546628 -0.032733131636584867 0 0.026754197524613024 -0.033092405226578976 0 0.026668697039867482 -0.032160281345393622 0 0.030189729970567628 -0.022588364079407033 0 0.029885243032220912 -0.023165029754901832 0 0.030472946277457148 -0.023196516095538529 0 0.030911286249541856 -0.022924244491293811 0 0.030189729970567628 -0.022588364079407033 0 0.030472946277457148 -0.023196516095538529 0 0.030189729970567628 -0.022588364079407033 0 0.029285743254009528 -0.022855958633478859 0 0.029885243032220912 -0.023165029754901832 0 0.025998208122155215 -0.032790776217602763 0 0.026754197524613024 -0.033092405226578976 0 0.025656482707227111 -0.033365740081009822 0 0.02849356609782407 -0.027836123789715381 0 0.027388808591739599 -0.028107425642214377 0 0.025998208122155215 -0.032790776217602763 0 0.025656482707227111 -0.033365740081009822 0 0.02497625221727752 -0.03305523510765257 0 0.025656482707227111 -0.033365740081009822 0 0.02497625221727752 -0.03305523510765257 0 0.024713520079376789 -0.033587861278033336 0 0.02497625221727752 -0.03305523510765257 0 0.025565130301736301 -0.03215918096681971 0 0.024771376745008608 -0.032376545283640354 0 0.025998208122155215 -0.032790776217602763 0 0.02497625221727752 -0.03305523510765257 0 0.025565130301736301 -0.03215918096681971 0 0.025565130301736301 -0.03215918096681971 0 0.025035987497409259 -0.03185858667796676 0 0.024771376745008608 -0.032376545283640354 0 0.025035987497409259 -0.03185858667796676 0 0.025022775151814003 -0.031002588572372855 0 0.02423639404072658 -0.032160895922402927 0 0.025035987497409259 -0.03185858667796676 0 0.025659273929582855 -0.031223125289254142 0 0.025022775151814003 -0.031002588572372855 0 0.025565130301736301 -0.03215918096681971 0 0.026179754257829934 -0.031523167625493467 0 0.025659273929582855 -0.031223125289254142 0 0.025565130301736301 -0.03215918096681971 0 0.025035987497409259 -0.03185858667796676 0 0.025659273929582855 -0.031223125289254142 0 0.026179754257829934 -0.031523167625493467 0 0.026668697039867482 -0.032160281345393622 0 0.026852731368772927 -0.031359670620645645 0 0.026179754257829934 -0.031523167625493467 0 0.026852731368772927 -0.031359670620645645 0 0.026404131487218152 -0.030850865737713506 0 0.025998208122155215 -0.032790776217602763 0 0.025565130301736301 -0.03215918096681971 0 0.026668697039867482 -0.032160281345393622 0 0.025565130301736301 -0.03215918096681971 0 0.026179754257829934 -0.031523167625493467 0 0.026668697039867482 -0.032160281345393622 0 0.027563289227500207 -0.031655125562536648 0 0.026668697039867482 -0.032160281345393622 0 0.026852731368772927 -0.031359670620645645 0 0.027563289227500207 -0.031655125562536648 0 0.026852731368772927 -0.031359670620645645 0 0.027142488325377308 -0.030664316083582242 0 0.026852731368772927 -0.031359670620645645 0 0.027142488325377308 -0.030664316083582242 0 0.026404131487218152 -0.030850865737713506 0 0.026179754257829934 -0.031523167625493467 0 0.026404131487218152 -0.030850865737713506 0 0.025659273929582855 -0.031223125289254142 0 0.026404131487218152 -0.030850865737713506 0 0.026742874362429499 -0.030180303467816194 0 0.025818246308120036 -0.030164714683780396 0 0.027142488325377308 -0.030664316083582242 0 0.026404131487218152 -0.030850865737713506 0 0.026742874362429499 -0.030180303467816194 0 0.027818140804499996 -0.029972587132551555 0 0.026742874362429499 -0.030180303467816194 0 0.02704102397620925 -0.029624914287523518 0 0.026742874362429499 -0.030180303467816194 0 0.02704102397620925 -0.029624914287523518 0 0.026578587293979251 -0.029584322807222358 0 0.026683729460269149 -0.032025291300852819 0 0.025056337164843415 -0.034121642870604652 0 0.026994793087161302 -0.029673788327050948 0 0.026578587293979251 -0.029584322807222358 0 0.026562571772862056 -0.029424974727322216 0 0.026683729460269149 -0.032025291300852819 0 0.026602657982042012 -0.030249889051680016 0 0.026578587293979251 -0.029584322807222358 0 0.026562571772862056 -0.029424974727322216 0 0.025818246308120036 -0.030164714683780396 0 0.025056337164843415 -0.034121642870604652 0 0.024083121659877985 -0.031754206814775615 0 0.022307003716447785 -0.034637087832372869 0 0.021963435039743101 -0.034735441759820906 0 0.022410671788411659 -0.034028323698005868 0 0.026742874362429499 -0.030180303467816194 0 0.026578587293979251 -0.029584322807222358 0 0.025818246308120036 -0.030164714683780396 0 0.024188504909920895 -0.034999989262610935 0 0.024715373921639919 -0.035438043828171603 0 0.026034059546170985 -0.034999991410988342 0 0.025056337164843415 -0.034121642870604652 0 0.023110983469321687 -0.035129621904831751 0 0.025073363408898895 -0.036016896378413744 0 0.024715373921639919 -0.035438043828171603 0 0.024031373469898452 -0.035521797924949014 0 0.022307003716447785 -0.034637087832372869 0 0.021963435039743101 -0.034735441759820906 0 0.022426254170171512 -0.034950273799906263 0 0.024188504909920895 -0.034999989262610935 0 0.024715373921639919 -0.035438043828171603 0 0.024031373469898452 -0.035521797924949014 0 0.025073363408898895 -0.036016896378413744 0 0.024715373921639919 -0.035438043828171603 0 0.026034059546170985 -0.034999991410988342 0 0.025949336973325857 -0.036387333558281734 0 0.025125051572725748 -0.035979597314436056 0 0.026034298025100391 -0.034999967887213775 0 0.025056337164843415 -0.034121642870604652 0 0.026033009128215618 -0.03500147217534047 0 0.022342994439559616 -0.034999763527107743 0 0.022199331790704852 -0.03514371325416047 0 0.022347033889517167 -0.03500084350753252 0 0.022781498147810452 -0.034870966180555733 0 0.02279447172255309 -0.034652822410969369 0 0.022347033889517167 -0.03500084350753252 0 0.022984345172198377 -0.034998918365539852 0 0.022781498147810452 -0.034870966180555733 0 0.02303004051923311 -0.035060340634159984 0 0.023110983469321687 -0.035129621904831751 0 0.022984345172198377 -0.034998918365539852 0 0.022426254170171512 -0.034950273799906263 0 0.022781498147810452 -0.034870966180555733 0 0.024188504909920895 -0.034999989262610935 0 0.022988156236972385 -0.035000003070939673 0 0.024031373469898452 -0.035521797924949014 0 0.022307003716447785 -0.034637087832372869 0 0.022426254170171512 -0.034950273799906263 0 0.022539015147072884 -0.034658058477211172 0 0.022426254170171512 -0.034950273799906263 0 0.022781498147810452 -0.034870966180555733 0 0.022539015147072884 -0.034658058477211172 0 0.022781498147810452 -0.034870966180555733 0 0.02279447172255309 -0.034652822410969369 0 0.022539015147072884 -0.034658058477211172 0 0.022307003716447785 -0.034637087832372869 0 0.022539015147072884 -0.034658058477211172 0 0.022410671788411659 -0.034028323698005868 0 0.02279447172255309 -0.034652822410969369 0 0.022539015147072884 -0.034658058477211172 0 0.022410671788411659 -0.034028323698005868 0 0.02279447172255309 -0.034652822410969369 0 0.022410671788411659 -0.034028323698005868 0 0.023476435311397058 -0.034351469147430438 0 0.022347033889517167 -0.03500084350753252 0 0.02279447172255309 -0.034652822410969369 0 0.023476435311397058 -0.034351469147430438 0 0.022410671788411659 -0.034028323698005868 0 0.023216264479371525 -0.032953497360432044 0 0.023476435311397058 -0.034351469147430438 0 0.024083121659877985 -0.031754206814775615 0 0.02412851767209993 -0.03206004082821115 0 0.026404131487218152 -0.030850865737713506 0 0.025818246308120036 -0.030164714683780396 0 0.025659273929582855 -0.031223125289254142 0 0.025818246308120036 -0.030164714683780396 0 0.025659273929582855 -0.031223125289254142 0 0.025022775151814003 -0.031002588572372855 0 0.023216264479371525 -0.032953497360432044 0 0.024123244186839487 -0.032839712199806165 0 0.02423639404072658 -0.032160895922402927 0 0.01986684988563862 -0.036601175405467895 0 0.019599685083865188 -0.036319971651448998 0 0.019239798137944419 -0.036598404307124348 0 0.01986684988563862 -0.036601175405467895 0 0.019599685083865188 -0.036319971651448998 0 0.020898761515249088 -0.036163490959092277 0 0.022001590139718624 -0.034740001268630499 0 0.022199331790704852 -0.03514371325416047 0 0.023216264479371525 -0.032953497360432044 0 0.024123244186839487 -0.032839712199806165 0 0.023476435311397058 -0.034351469147430438 0 0.019599685083865188 -0.036319971651448998 0 0.020898761515249088 -0.036163490959092277 0 0.019928414349974242 -0.035741331677265821 0 0.019928414349974242 -0.035741331677265821 0 0.020870631298657828 -0.034999839728572395 0 0.019398165024219659 -0.034999688130303193 0 0.020898761515249088 -0.036163490959092277 0 0.019928414349974242 -0.035741331677265821 0 0.020870631298657828 -0.034999839728572395 0 0.02234183880119291 -0.034999797880231567 0 0.020898761515249088 -0.036163490959092277 0 0.020870631298657828 -0.034999839728572395 0 0.018086924705952558 -0.035734113629296647 0 0.017928667193106668 -0.035000157590065077 0 0.018842014436949557 -0.035867969083775 0 0.017928667193106668 -0.035000157590065077 0 0.019398165024219659 -0.034999688130303193 0 0.018842014436949557 -0.035867969083775 0 0.019928414349974242 -0.035741331677265821 0 0.019398165024219659 -0.034999688130303193 0 0.018842014436949557 -0.035867969083775 0 0.019599685083865188 -0.036319971651448998 0 0.019928414349974242 -0.035741331677265821 0 0.018842014436949557 -0.035867969083775 0 0.018086924705952558 -0.035734113629296647 0 0.018842014436949557 -0.035867969083775 0 0.018528013871163033 -0.036094626343926614 0 0.018479755852609876 -0.036338814676718637 0 0.018528013871163033 -0.036094626343926614 0 0.018868286528164767 -0.036402084575284994 0 0.018842014436949557 -0.035867969083775 0 0.018528013871163033 -0.036094626343926614 0 0.018868286528164767 -0.036402084575284994 0 0.019599685083865188 -0.036319971651448998 0 0.018842014436949557 -0.035867969083775 0 0.018868286528164767 -0.036402084575284994 0 0.019599685083865188 -0.036319971651448998 0 0.018868286528164767 -0.036402084575284994 0 0.019239798137944419 -0.036598404307124348 0 0.018479755852609876 -0.036338814676718637 0 0.018868286528164767 -0.036402084575284994 0 0.018585907222637393 -0.036512883084918235 0 0.018868286528164767 -0.036402084575284994 0 0.018585907222637393 -0.036512883084918235 0 0.018816447476895128 -0.036595026285034818 0 0.018580202548529063 -0.036586589490248837 0 0.018585907222637393 -0.036512883084918235 0 0.018816447476895128 -0.036595026285034818 0 0.018500912667280343 -0.036581625575101154 0 0.018580202548529063 -0.036586589490248837 0 0.018638426123374689 -0.036576233050686607 0 0.018580202548529063 -0.036586589490248837 0 0.018816447476895128 -0.036595026285034818 0 0.018638426123374689 -0.036576233050686607 0 0.018816447476895128 -0.036595026285034818 0 0.01898365752749389 -0.036630461250945143 0 0.018638426123374689 -0.036576233050686607 0 0.018868286528164767 -0.036402084575284994 0 0.018816447476895128 -0.036595026285034818 0 0.019239798137944419 -0.036598404307124348 0 0.018816447476895128 -0.036595026285034818 0 0.01898365752749389 -0.036630461250945143 0 0.019239798137944419 -0.036598404307124348 0 0.01986684988563862 -0.036601175405467895 0 0.019239798137944419 -0.036598404307124348 0 0.019266158100275623 -0.036666951733145492 0 0.024123244186839487 -0.032839712199806165 0 0.02423639404072658 -0.032160895922402927 0 0.024322630801113531 -0.032049917525117336 0 0.022001590139718624 -0.034740001268630499 0 0.021802037806307399 -0.034180432446679225 0 0.02412851767209993 -0.03206004082821115 0 0.024217233870316025 -0.03210755349051958 0 0.02423639404072658 -0.032160895922402927 0 0.024771376745008608 -0.032376545283640354 0 0.024322630801113531 -0.032049917525117336 0 0.025035987497409259 -0.03185858667796676 0 0.02423639404072658 -0.032160895922402927 0 0.024771376745008608 -0.032376545283640354 0 0.01898365752749389 -0.036630461250945143 0 0.019239798137944419 -0.036598404307124348 0 0.019266158100275623 -0.036666951733145492 0 0.021802037806307399 -0.034180432446679225 0 0.021727808247077131 -0.03574112298951887 0 0.01898365752749389 -0.036630461250945143 0 0.019266158100275623 -0.036666951733145492 0 0.019072382822111877 -0.036776208356975877 0 0.024771376745008608 -0.032376545283640354 0 0.024322630801113531 -0.032049917525117336 0 0.024028476607208374 -0.033010616624472015 0 0.02497625221727752 -0.03305523510765257 0 0.024771376745008608 -0.032376545283640354 0 0.024028476607208374 -0.033010616624472015 0 0.02497625221727752 -0.03305523510765257 0 0.024028476607208374 -0.033010616624472015 0 0.024713520079376789 -0.033587861278033336 0 0.019072382822111877 -0.036776208356975877 0 0.018690816127755076 -0.036690105231063877 0 0.018868505945897781 -0.036964582513296353 0 0.018010206149190442 -0.036380793680979441 0 0.018690816127755076 -0.036690105231063877 0 0.018638426123374689 -0.036576233050686607 0 0.018010206149190442 -0.036380793680979441 0 0.018690816127755076 -0.036690105231063877 0 0.01864899084806056 -0.03717123802607112 0 0.018690816127755076 -0.036690105231063877 0 0.01864899084806056 -0.03717123802607112 0 0.018868505945897781 -0.036964582513296353 0 0.019072382822111877 -0.036776208356975877 0 0.018690816127755076 -0.036690105231063877 0 0.018638426123374689 -0.036576233050686607 0 0.01898365752749389 -0.036630461250945143 0 0.019072382822111877 -0.036776208356975877 0 0.018638426123374689 -0.036576233050686607 0 0.028195313911690903 -0.023950416987142054 0 0.028252011966484254 -0.023962720570769053 0 0.028350182848453656 -0.024006902411868401 0 0.018120731912890171 -0.026315895111324115 0 0.019739564629749354 -0.020658789018857225 0 0.018120731912890171 -0.026315895111324115 0 0.01119979453700321 -0.027262720462076558 0 0.01041502850237404 -0.020058279585218535 0 0.010967260756067307 -0.019761110777482969 0 0.010556179084432613 -0.019219369662005908 0 0.013940268077119585 -0.033945416412320878 0 0.014183835351655801 -0.033973583410869458 0 0.013693184456531881 -0.034143347613870695 0 0.028214341395167011 -0.02393868117691559 0 0.028195313911690903 -0.023950416987142054 0 0.028252011966484254 -0.023962720570769053 0 0.013940268077119585 -0.033945416412320878 0 0.014183835351655801 -0.033973583410869458 0 0.01420625915890472 -0.033906454154471799 0 0.023686130252982888 -0.027629401417583164 0 0.019568242642512241 -0.031461602939634806 0 0.018120731912890171 -0.026315895111324115 0 0.019568242642512241 -0.031461602939634806 0 0.019607228964233288 -0.027027526781977739 0 0.018031770499478749 -0.027615193236867258 0 0.018395980526767972 -0.026375494661006676 0 0.023686130252982888 -0.027629401417583164 0 0.018120731912890171 -0.026315895111324115 0 0.013940268077119585 -0.033945416412320878 0 0.013693184456531881 -0.034143347613870695 0 0.013685093188680464 -0.033756133752740829 0 0.013338307688669421 -0.033920150434878171 0 0.013693184456531881 -0.034143347613870695 0 0.013685093188680464 -0.033756133752740829 0 0.01864899084806056 -0.03717123802607112 0 0.018868505945897781 -0.036964582513296353 0 0.018964885202605322 -0.037137865505852845 0 0.015762473234116808 -0.035833499587388747 0 0.019568242642512241 -0.031461602939634806 0 0.019072382822111877 -0.036776208356975877 0 0.018868505945897781 -0.036964582513296353 0 0.018964885202605322 -0.037137865505852845 0 0.013940268077119585 -0.033945416412320878 0 0.013685093188680464 -0.033756133752740829 0 0.01420625915890472 -0.033906454154471799 0 0.024028476607208374 -0.033010616624472015 0 0.023876802476221766 -0.033843332147152572 0 0.023793220358202499 -0.033799757127465552 0 0.021727808247077131 -0.03574112298951887 0 0.019568242642512241 -0.031461602939634806 0 0.023686130252982888 -0.027629401417583164 0 0.02698760292226109 -0.028458706013081338 0 0.024028476607208374 -0.033010616624472015 0 0.023876802476221766 -0.033843332147152572 0 0.024713520079376789 -0.033587861278033336 0 0.028427754719250391 -0.023133048378046396 0 0.028124310523829382 -0.023715935234609971 0 0.028913832247449499 -0.023451951369740959 0 0.028662729596610537 -0.023769732174452718 0 0.028467729313748705 -0.023857499200163435 0 0.023686130252982888 -0.027629401417583164 0 0.028662729596610537 -0.023769732174452718 0 0.028214341395167011 -0.02393868117691559 0 0.028323656185263679 -0.023883272838945726 0 0.028252011966484254 -0.023962720570769053 0 0.027540598125206945 -0.023466118953091229 0 0.028427754719250391 -0.023133048378046396 0 0.028124310523829382 -0.023715935234609971 0 0.028323656185263679 -0.023883272838945726 0 0.028252011966484254 -0.023962720570769053 0 0.028253442533376069 -0.023984996642434975 0 0.028323656185263679 -0.023883272838945726 0 0.028398385692728512 -0.024017399711902213 0 0.028640654857838854 -0.023891727762832781 0 0.028323656185263679 -0.023883272838945726 0 0.028253442533376069 -0.023984996642434975 0 0.028398385692728512 -0.024017399711902213 0 0.028398385692728512 -0.024017399711902213 0 0.028254538886725609 -0.024056832707082639 0 0.028610590602027926 -0.024237779181229029 0 0.028254538886725609 -0.024056832707082639 0 0.028472247207304697 -0.024259854474950059 0 0.028610590602027926 -0.024237779181229029 0 0.028398385692728512 -0.024017399711902213 0 0.028254538886725609 -0.024056832707082639 0 0.02822835867157706 -0.023962328755828492 0 0.028253442533376069 -0.023984996642434975 0 0.028398385692728512 -0.024017399711902213 0 0.02822835867157706 -0.023962328755828492 0 0.028253442533376069 -0.023984996642434975 0 0.02822835867157706 -0.023962328755828492 0 0.028299989183569907 -0.02384240392475152 0 0.028254538886725609 -0.024056832707082639 0 0.02822835867157706 -0.023962328755828492 0 0.02816620926543174 -0.023807005026587787 0 0.02822835867157706 -0.023962328755828492 0 0.028299989183569907 -0.02384240392475152 0 0.02816620926543174 -0.023807005026587787 0 0.019739564629749354 -0.020658789018857225 0 0.019667067639115323 -0.02108548211779715 0 0.028299989183569907 -0.02384240392475152 0 0.028350182848453656 -0.024006902411868401 0 0.028799257607077661 -0.023638764704316837 0 0.028253442533376069 -0.023984996642434975 0 0.028299989183569907 -0.02384240392475152 0 0.028350182848453656 -0.024006902411868401 0 0.028252011966484254 -0.023962720570769053 0 0.028253442533376069 -0.023984996642434975 0 0.028350182848453656 -0.024006902411868401 0 0.010967260756067307 -0.019761110777482969 0 0.010556179084432613 -0.019219369662005908 0 0.011088479122098923 -0.01915241966745599 0 0.011498975086968882 -0.018671379970853975 0 0.011088479122098923 -0.01915241966745599 0 0.010727238975033119 -0.018361384689862148 0 0.010556179084432613 -0.019219369662005908 0 0.011088479122098923 -0.01915241966745599 0 0.010727238975033119 -0.018361384689862148 0 0.028299989183569907 -0.02384240392475152 0 0.028799257607077661 -0.023638764704316837 0 0.028387619716835882 -0.023485846460735611 0 0.028799257607077661 -0.023638764704316837 0 0.028387619716835882 -0.023485846460735611 0 0.028496699600859821 -0.023121608154233825 0 0.028387619716835882 -0.023485846460735611 0 0.028496699600859821 -0.023121608154233825 0 0.028170760519092425 -0.023147292765073185 0 0.028799257607077661 -0.023638764704316837 0 0.028496699600859821 -0.023121608154233825 0 0.028799196077962396 -0.022687433123640379 0 0.028496699600859821 -0.023121608154233825 0 0.028214910448437328 -0.022544259331771566 0 0.028170760519092425 -0.023147292765073185 0 0.028496699600859821 -0.023121608154233825 0 0.028799196077962396 -0.022687433123640379 0 0.028214910448437328 -0.022544259331771566 0 0.028799196077962396 -0.022687433123640379 0 0.028214910448437328 -0.022544259331771566 0 0.02887029873604894 -0.021698891532163801 0 0.011398998220294105 -0.018007176250923448 0 0.010727238975033119 -0.018361384689862148 0 0.010939915069827612 -0.017500060295301569 0 0.019667067639115323 -0.02108548211779715 0 0.020788251351201142 -0.020359544667816518 0 0.028799257607077661 -0.023638764704316837 0 0.028799196077962396 -0.022687433123640379 0 0.029593437776804132 -0.022324261456894388 0 0.016099633662590502 -0.014924799413971056 0 0.020788251351201142 -0.020359544667816518 0 0.030567688877510504 -0.019313998897697811 0 0.029593437776804132 -0.022324261456894388 0 0.028987524778926337 -0.019916044664004508 0 0.029593437776804132 -0.022324261456894388 0 0.02887029873604894 -0.021698891532163801 0 0.028987524778926337 -0.019916044664004508 0 0.028799196077962396 -0.022687433123640379 0 0.029593437776804132 -0.022324261456894388 0 0.02887029873604894 -0.021698891532163801 0 0.027732890599994064 -0.022298103525280489 0 0.029545860396684387 -0.018412371431001041 0 0.029992781641811093 -0.014926408644289547 0 0.029545860396684387 -0.018412371431001041 0 0.02887029873604894 -0.021698891532163801 0 0.027344660021015529 -0.019253322347946276 0 0.026256358546601119 -0.021911441865118307 0 0.028214910448437328 -0.022544259331771566 0 0.02887029873604894 -0.021698891532163801 0 0.027906212487744962 -0.022184885191122047 0 0.02887029873604894 -0.021698891532163801 0 0.027344660021015529 -0.019253322347946276 0 0.028987524778926337 -0.019916044664004508 0 0.027344660021015529 -0.019253322347946276 0 0.028987524778926337 -0.019916044664004508 0 0.02845028512483724 -0.016530953404227049 0 0.030567688877510504 -0.019313998897697811 0 0.028987524778926337 -0.019916044664004508 0 0.02845028512483724 -0.016530953404227049 0 0.032067342546877285 -0.010412214022631705 0 0.032128869667446748 -0.010452088240341632 0 0.032140603361955004 -0.010377481332789441 0 0.032067342546877285 -0.010412214022631705 0 0.032128869667446748 -0.010452088240341632 0 0.032086863717124138 -0.010549373069817304 0 0.032099153284825988 -0.010182509511679764 0 0.031988458774140124 -0.010779476547861976 0 0.032436165818592197 -0.010935651370070404 0 0.03178647423236907 -0.011125573636209937 0 0.032190372159589191 -0.011690495126796409 0 0.032436165818592197 -0.010935651370070404 0 0.03178647423236907 -0.011125573636209937 0 0.032086863717124138 -0.010549373069817304 0 0.029105461394899345 -0.019400468839845007 0 0.031138338917263985 -0.019193352304438763 0 0.029408526102823813 -0.01870270223552202 0 0.03178647423236907 -0.011125573636209937 0 0.032190372159589191 -0.011690495126796409 0 0.031559001336991722 -0.011769186204199233 0 0.029545860396684387 -0.018412371431001041 0 0.031542797373395562 -0.01427090510810582 0 0.029545860396684387 -0.018412371431001041 0 0.028710513473201419 -0.022112543066401813 0 0.032067342546877285 -0.010412214022631705 0 0.032069146333545115 -0.010322694587764225 0 0.032140603361955004 -0.010377481332789441 0 0.032099153284825988 -0.010182509511679764 0 0.031542797373395562 -0.01427090510810582 0 0.031138338917263985 -0.019193352304438763 0 0.031295634932829136 -0.018702978754148628 0 0.029408526102823813 -0.01870270223552202 0 0.028270274834970511 -0.024056536630417489 0 0.028290750612676288 -0.024131462652357355 0 0.028282167734535402 -0.024123740292316682 0 0.03016403634938079 -0.02130292080981315 0 0.029072111116197088 -0.024536996160422323 0 0.031542797373395562 -0.01427090510810582 0 0.03016403634938079 -0.02130292080981315 0 0.03016403634938079 -0.02130292080981315 0 0.028710513473201419 -0.022112543066401813 0 0.028270274834970511 -0.024056536630417489 0 0.028340849949983659 -0.02404449818149644 0 0.028290750612676288 -0.024131462652357355 0 0.028214910448437328 -0.022544259331771566 0 0.027938095355618042 -0.022651913098278093 0 0.028170760519092425 -0.023147292765073185 0 0.028214910448437328 -0.022544259331771566 0 0.027906212487744962 -0.022184885191122047 0 0.027762714915004257 -0.022534763573640891 0 0.028095216727750887 -0.022347531411873591 0 0.028710513473201419 -0.022112543066401813 0 0.028710513473201419 -0.022112543066401813 0 0.028043890439791604 -0.023958155419909706 0 0.027938095355618042 -0.022651913098278093 0 0.028170760519092425 -0.023147292765073185 0 0.027907549600539323 -0.023426231528767216 0 0.028387619716835882 -0.023485846460735611 0 0.028170760519092425 -0.023147292765073185 0 0.028190513508406144 -0.023559865975518013 0 0.028170760519092425 -0.023147292765073185 0 0.028190513508406144 -0.023559865975518013 0 0.027907549600539323 -0.023426231528767216 0 0.028190513508406144 -0.023559865975518013 0 0.027907549600539323 -0.023426231528767216 0 0.02816620926543174 -0.023807005026587787 0 0.028254538886725609 -0.024056832707082639 0 0.027907549600539323 -0.023426231528767216 0 0.02816620926543174 -0.023807005026587787 0 0.028299989183569907 -0.02384240392475152 0 0.028387619716835882 -0.023485846460735611 0 0.028190513508406144 -0.023559865975518013 0 0.028299989183569907 -0.02384240392475152 0 0.028190513508406144 -0.023559865975518013 0 0.02816620926543174 -0.023807005026587787 0 0.028270274834970511 -0.024056536630417489 0 0.028282167734535402 -0.024123740292316682 0 0.028256704720420685 -0.02411774615109185 0 0.028254538886725609 -0.024056832707082639 0 0.028290750612676288 -0.024131462652357355 0 0.028282167734535402 -0.024123740292316682 0 0.02823204515649716 -0.023888968017714608 0 0.028043890439791604 -0.023958155419909706 0 0.028254538886725609 -0.024056832707082639 0 0.028282167734535402 -0.024123740292316682 0 0.028472247207304697 -0.024259854474950059 0 0.028127440869166322 -0.024202583580464739 0 0.029072111116197088 -0.024536996160422323 0 0.029072111116197088 -0.024536996160422323 0 0.028659727012443285 -0.024331850387978308 0 0.028466517290837198 -0.024770776150813301 0 0.029233284766253725 -0.024800304621831932 0 0.029029671329408466 -0.024415130198451655 0 0.029072111116197088 -0.024536996160422323 0 0.030200750458597166 -0.024449535721306363 0 0.030809356667374211 -0.024104440687973138 0 0.030948813995247855 -0.024122875689640905 0 0.030880500693085029 -0.024160634919848344 0 0.030948813995247855 -0.024122875689640905 0 0.031010996392188985 -0.02419490247788408 0 0.031085746680640527 -0.024177978667077223 0 0.030948813995247855 -0.024122875689640905 0 0.031010996392188985 -0.02419490247788408 0 0.030880500693085029 -0.024160634919848344 0 0.029233284766253725 -0.024800304621831932 0 0.029794090889451796 -0.0246336526506854 0 0.029459094464686503 -0.02449130639525824 0 0.029233284766253725 -0.024800304621831932 0 0.029459094464686503 -0.02449130639525824 0 0.029029671329408466 -0.024415130198451655 0 0.031809987560658122 -0.013283906992959045 0 0.031905882269654857 -0.015185648039811933 0 0.031181065762130863 -0.020830502276737252 0 0.031905882269654857 -0.015185648039811933 0 0.031360679503874583 -0.016717078636143589 0 0.031336036561523554 -0.016794270927199807 0 0.032068493173480893 -0.016646322244192987 0 0.030921411314273332 -0.02422916189542158 0 0.031010996392188985 -0.02419490247788408 0 0.030880500693085029 -0.024160634919848344 0 0.030921411314273332 -0.02422916189542158 0 0.031010996392188985 -0.02419490247788408 0 0.031070040415596755 -0.024249397583541311 0 0.03016403634938079 -0.02130292080981315 0 0.031181065762130863 -0.020830502276737252 0 0.03077265837354011 -0.024208918716503623 0 0.030921411314273332 -0.02422916189542158 0 0.030880500693085029 -0.024160634919848344 0 0.030538050974031207 -0.016883791127614119 0 0.030589180977971274 -0.016727153666796328 0 0.031336036561523554 -0.016794270927199807 0 0.030589180977971274 -0.016727153666796328 0 0.031360679503874583 -0.016717078636143589 0 0.031336036561523554 -0.016794270927199807 0 0.03077265837354011 -0.024208918716503623 0 0.030809356667374211 -0.024104440687973138 0 0.030880500693085029 -0.024160634919848344 0 0.031542797373395562 -0.01427090510810582 0 0.031809987560658122 -0.013283906992959045 0 0.032069146333545115 -0.010322694587764225 0 0.032185536647758112 -0.010244923228929996 0 0.032140603361955004 -0.010377481332789441 0 0.032185536647758112 -0.010244923228929996 0 0.032263221755329433 -0.010390462751454686 0 0.032399023402659981 -0.010114598032237377 0 0.032185536647758112 -0.010244923228929996 0 0.032263221755329433 -0.010390462751454686 0 0.032140603361955004 -0.010377481332789441 0 0.032263221755329433 -0.010390462751454686 0 0.032140603361955004 -0.010377481332789441 0 0.032172523909710531 -0.010479356660671974 0 0.032128869667446748 -0.010452088240341632 0 0.032140603361955004 -0.010377481332789441 0 0.032172523909710531 -0.010479356660671974 0 0.03250932314623791 -0.010310685062454358 0 0.03273326787870065 -0.010423111166120132 0 0.032411042801519276 -0.010517705973631943 0 0.03250932314623791 -0.010310685062454358 0 0.03273326787870065 -0.010423111166120132 0 0.03277761431475746 -0.010235125647764954 0 0.032263221755329433 -0.010390462751454686 0 0.03250932314623791 -0.010310685062454358 0 0.032411042801519276 -0.010517705973631943 0 0.032263221755329433 -0.010390462751454686 0 0.03250932314623791 -0.010310685062454358 0 0.032399023402659981 -0.010114598032237377 0 0.03250932314623791 -0.010310685062454358 0 0.032606238961395535 -0.010189826963210982 0 0.032399023402659981 -0.010114598032237377 0 0.032606238961395535 -0.010189826963210982 0 0.032756780757245869 -0.010114053223163598 0 0.032399023402659981 -0.010114598032237377 0 0.03250932314623791 -0.010310685062454358 0 0.032606238961395535 -0.010189826963210982 0 0.03277761431475746 -0.010235125647764954 0 0.032606238961395535 -0.010189826963210982 0 0.03277761431475746 -0.010235125647764954 0 0.032756780757245869 -0.010114053223163598 0 0.032744532349400668 -0.0099862169190581829 0 0.032076811774043909 -0.01035641007580505 0 0.032891225668936347 -0.0099965550939860159 0 0.032756780757245869 -0.010114053223163598 0 0.032399023402659981 -0.010114598032237377 0 0.032891225668936347 -0.0099965550939860159 0 0.031194312382772465 -0.024314339092068742 0 0.031135648791584404 -0.024251992836720866 0 0.031164981860468892 -0.024273466764022394 0 0.031194312382772465 -0.024314339092068742 0 0.031135648791584404 -0.024251992836720866 0 0.031070040415596755 -0.024249397583541311 0 0.031905882269654857 -0.015185648039811933 0 0.032988228837792268 -0.0087561335367928768 0 0.031894486358112636 -0.017339485550438648 0 0.031905882269654857 -0.015185648039811933 0 0.031135648791584404 -0.024251992836720866 0 0.031070040415596755 -0.024249397583541311 0 0.03107716467095176 -0.024220417474724122 0 0.031010996392188985 -0.02419490247788408 0 0.031070040415596755 -0.024249397583541311 0 0.03107716467095176 -0.024220417474724122 0 0.029233284766253725 -0.024800304621831932 0 0.030141440521092543 -0.024671489788163779 0 0.029794090889451796 -0.0246336526506854 0 0.030200750458597166 -0.024449535721306363 0 0.0305789933685119 -0.024408135607106262 0 0.031010996392188985 -0.02419490247788408 0 0.03107716467095176 -0.024220417474724122 0 0.031085746680640527 -0.024177978667077223 0 0.031135648791584404 -0.024251992836720866 0 0.03107716467095176 -0.024220417474724122 0 0.031085746680640527 -0.024177978667077223 0 0.030141440521092543 -0.024671489788163779 0 0.029794090889451796 -0.0246336526506854 0 0.030561777169802015 -0.024334768974425713 0 0.0305789933685119 -0.024408135607106262 0 0.031093207193698281 -0.024314525213047101 0 0.030141440521092543 -0.024671489788163779 0 0.030561777169802015 -0.024334768974425713 0 0.031164981860468892 -0.024273466764022394 0 0.030561777169802015 -0.024334768974425713 0 0.030947360663761855 -0.02382604852539915 0 0.031164981860468892 -0.024273466764022394 0 0.031135648791584404 -0.024251992836720866 0 0.031085746680640527 -0.024177978667077223 0 0.031164981860468892 -0.024273466764022394 0 0.029794090889451796 -0.0246336526506854 0 0.030561777169802015 -0.024334768974425713 0 0.030947360663761855 -0.02382604852539915 0 0.030349358856923834 -0.02448421610908276 0 0.030151737741000627 -0.02411266078775412 0 0.029901067433505051 -0.024265936489900962 0 0.030349358856923834 -0.02448421610908276 0 0.030151737741000627 -0.02411266078775412 0 0.03054821781519353 -0.024069423926621748 0 0.030151737741000627 -0.02411266078775412 0 0.03054821781519353 -0.024069423926621748 0 0.030235392285462813 -0.023739639024835908 0 0.030151737741000627 -0.02411266078775412 0 0.029726944835890119 -0.02397134011266347 0 0.030235392285462813 -0.023739639024835908 0 0.030151737741000627 -0.02411266078775412 0 0.029726944835890119 -0.02397134011266347 0 0.029901067433505051 -0.024265936489900962 0 0.029726944835890119 -0.02397134011266347 0 0.029901067433505051 -0.024265936489900962 0 0.029425929788529044 -0.024237305885658492 0 0.029901067433505051 -0.024265936489900962 0 0.029809976211806144 -0.024422285666482923 0 0.029425929788529044 -0.024237305885658492 0 0.029857641852551322 -0.024598337286062356 0 0.030642503167334946 -0.024177301605097214 0 0.029794090889451796 -0.0246336526506854 0 0.030349358856923834 -0.02448421610908276 0 0.029809976211806144 -0.024422285666482923 0 0.030349358856923834 -0.02448421610908276 0 0.029901067433505051 -0.024265936489900962 0 0.029809976211806144 -0.024422285666482923 0 0.029794090889451796 -0.0246336526506854 0 0.029809976211806144 -0.024422285666482923 0 0.029459094464686503 -0.02449130639525824 0 0.029809976211806144 -0.024422285666482923 0 0.029459094464686503 -0.02449130639525824 0 0.029425929788529044 -0.024237305885658492 0 0.029425929788529044 -0.024237305885658492 0 0.029029671329408466 -0.024415130198451655 0 0.028833286418020968 -0.024097747736968829 0 0.029459094464686503 -0.02449130639525824 0 0.029425929788529044 -0.024237305885658492 0 0.029029671329408466 -0.024415130198451655 0 0.028398385692728512 -0.024017399711902213 0 0.028610590602027926 -0.024237779181229029 0 0.028833286418020968 -0.024097747736968829 0 0.028466517290837198 -0.024770776150813301 0 0.028610590602027926 -0.024237779181229029 0 0.029029671329408466 -0.024415130198451655 0 0.028610590602027926 -0.024237779181229029 0 0.029029671329408466 -0.024415130198451655 0 0.028833286418020968 -0.024097747736968829 0 0.028398385692728512 -0.024017399711902213 0 0.028833286418020968 -0.024097747736968829 0 0.028640654857838854 -0.023891727762832781 0 0.028833286418020968 -0.024097747736968829 0 0.028640654857838854 -0.023891727762832781 0 0.029156122940871738 -0.023866918917765191 0 0.029726944835890119 -0.02397134011266347 0 0.029425929788529044 -0.024237305885658492 0 0.029156122940871738 -0.023866918917765191 0 0.029425929788529044 -0.024237305885658492 0 0.028833286418020968 -0.024097747736968829 0 0.029156122940871738 -0.023866918917765191 0 0.029726944835890119 -0.02397134011266347 0 0.029156122940871738 -0.023866918917765191 0 0.0295212962251779 -0.023539971679074505 0 0.029156122940871738 -0.023866918917765191 0 0.0295212962251779 -0.023539971679074505 0 0.028913832247449499 -0.023451951369740959 0 0.028640654857838854 -0.023891727762832781 0 0.029156122940871738 -0.023866918917765191 0 0.028913832247449499 -0.023451951369740959 0 0.028124310523829382 -0.023715935234609971 0 0.028640654857838854 -0.023891727762832781 0 0.028913832247449499 -0.023451951369740959 0 0.027388808591739599 -0.028107425642214377 0 0.02698760292226109 -0.028458706013081338 0 0.029285743254009528 -0.022855958633478859 0 0.028427754719250391 -0.023133048378046396 0 0.028913832247449499 -0.023451951369740959 0 0.029285743254009528 -0.022855958633478859 0 0.0295212962251779 -0.023539971679074505 0 0.028913832247449499 -0.023451951369740959 0 0.029285743254009528 -0.022855958633478859 0 0.0295212962251779 -0.023539971679074505 0 0.029885243032220912 -0.023165029754901832 0 0.029885243032220912 -0.023165029754901832 0 0.030472946277457148 -0.023196516095538529 0 0.030235392285462813 -0.023739639024835908 0 0.03054821781519353 -0.024069423926621748 0 0.030235392285462813 -0.023739639024835908 0 0.030850450104156116 -0.023748125255064503 0 0.030472946277457148 -0.023196516095538529 0 0.030235392285462813 -0.023739639024835908 0 0.030850450104156116 -0.023748125255064503 0 0.029726944835890119 -0.02397134011266347 0 0.0295212962251779 -0.023539971679074505 0 0.030235392285462813 -0.023739639024835908 0 0.0295212962251779 -0.023539971679074505 0 0.029885243032220912 -0.023165029754901832 0 0.030235392285462813 -0.023739639024835908 0 0.031407478362791709 -0.023753978973537641 0 0.031945396616403193 -0.023781516570597863 0 0.031173604458369291 -0.024216709058627568 0 0.031407478362791709 -0.023753978973537641 0 0.030850450104156116 -0.023748125255064503 0 0.031173604458369291 -0.024216709058627568 0 0.031407478362791709 -0.023753978973537641 0 0.031670125367094099 -0.02350133748885341 0 0.031945396616403193 -0.023781516570597863 0 0.031407478362791709 -0.023753978973537641 0 0.030850450104156116 -0.023748125255064503 0 0.03118923082142188 -0.023419475512788668 0 0.031407478362791709 -0.023753978973537641 0 0.03118923082142188 -0.023419475512788668 0 0.031670125367094099 -0.02350133748885341 0 0.030911286249541856 -0.022924244491293811 0 0.030472946277457148 -0.023196516095538529 0 0.03118923082142188 -0.023419475512788668 0 0.030472946277457148 -0.023196516095538529 0 0.030850450104156116 -0.023748125255064503 0 0.03118923082142188 -0.023419475512788668 0 0.03155676307254783 -0.023070221800759367 0 0.030911286249541856 -0.022924244491293811 0 0.03118923082142188 -0.023419475512788668 0 0.03155676307254783 -0.023070221800759367 0 0.03118923082142188 -0.023419475512788668 0 0.031670125367094099 -0.02350133748885341 0 0.032176418242530182 -0.023335034114217716 0 0.032390238376327707 -0.024113603010718271 0 0.03155676307254783 -0.023070221800759367 0 0.031670125367094099 -0.02350133748885341 0 0.032180246600898667 -0.023373058320465542 0 0.031670125367094099 -0.02350133748885341 0 0.032180246600898667 -0.023373058320465542 0 0.031945396616403193 -0.023781516570597863 0 0.032180246600898667 -0.023373058320465542 0 0.033075766964520525 -0.023387054572575956 0 0.033097960109077056 -0.023898800742037325 0 0.032180246600898667 -0.023373058320465542 0 0.033097960109077056 -0.023898800742037325 0 0.032700552384591575 -0.024204820171470111 0 0.033097960109077056 -0.023898800742037325 0 0.033054746426819326 -0.024175951140882716 0 0.033533077921327432 -0.024199074722852126 0 0.033097960109077056 -0.023898800742037325 0 0.032700552384591575 -0.024204820171470111 0 0.033054746426819326 -0.024175951140882716 0 0.033054746426819326 -0.024175951140882716 0 0.033181948780986258 -0.024418235465517558 0 0.033533077921327432 -0.024199074722852126 0 0.032700552384591575 -0.024204820171470111 0 0.033054746426819326 -0.024175951140882716 0 0.033181948780986258 -0.024418235465517558 0 0.032180246600898667 -0.023373058320465542 0 0.032079908573909854 -0.023753630611769716 0 0.031945396616403193 -0.023781516570597863 0 0.032079908573909854 -0.023753630611769716 0 0.031945396616403193 -0.023781516570597863 0 0.031984211668227742 -0.023860867089986543 0 0.031984211668227742 -0.023860867089986543 0 0.031892843930012335 -0.023974086466652392 0 0.032136260709520248 -0.023988476378102277 0 0.031945396616403193 -0.023781516570597863 0 0.031776351233216857 -0.023837273756140628 0 0.031984211668227742 -0.023860867089986543 0 0.031776351233216857 -0.023837273756140628 0 0.031984211668227742 -0.023860867089986543 0 0.031892843930012335 -0.023974086466652392 0 0.032390238376327707 -0.024113603010718271 0 0.033033750187647835 -0.023477949654794848 0 0.032700552384591575 -0.024204820171470111 0 0.033181948780986258 -0.024418235465517558 0 0.033058175757269971 -0.024885620890982705 0 0.032079908573909854 -0.023753630611769716 0 0.031984211668227742 -0.023860867089986543 0 0.032136260709520248 -0.023988476378102277 0 0.031635949525826185 -0.023870003821290949 0 0.033033750187647835 -0.023477949654794848 0 0.033181948780986258 -0.024418235465517558 0 0.033058175757269971 -0.024885620890982705 0 0.033561121575754714 -0.02452456609222484 0 0.03193557799804362 -0.023813160198780825 0 0.031812131918710219 -0.023984507643578075 0 0.032000975357582465 -0.024002162135607723 0 0.033033750187647835 -0.023477949654794848 0 0.033396678665757691 -0.023628108043902821 0 0.031725648372975528 -0.023806007151843171 0 0.031812131918710219 -0.023984507643578075 0 0.031633716075098697 -0.024062375458097012 0 0.031725648372975528 -0.023806007151843171 0 0.03193557799804362 -0.023813160198780825 0 0.031812131918710219 -0.023984507643578075 0 0.031725648372975528 -0.023806007151843171 0 0.03154032223349526 -0.023929662275311916 0 0.031544972197169056 -0.02381849900656284 0 0.031725648372975528 -0.023806007151843171 0 0.03154032223349526 -0.023929662275311916 0 0.031633716075098697 -0.024062375458097012 0 0.03154032223349526 -0.023929662275311916 0 0.031349692991727553 -0.023963260301450736 0 0.031430242797644177 -0.024115994966874998 0 0.03154032223349526 -0.023929662275311916 0 0.031633716075098697 -0.024062375458097012 0 0.031430242797644177 -0.024115994966874998 0 0.03154032223349526 -0.023929662275311916 0 0.031475571756388807 -0.023869702264308609 0 0.031349692991727553 -0.023963260301450736 0 0.03154032223349526 -0.023929662275311916 0 0.031475571756388807 -0.023869702264308609 0 0.031544972197169056 -0.02381849900656284 0 0.031475571756388807 -0.023869702264308609 0 0.031477216180243031 -0.023822394381711947 0 0.031379964444036623 -0.023841437176727112 0 0.031892323541469689 -0.02378641407551205 0 0.031338206996036393 -0.023980340442044511 0 0.031945396616403193 -0.023781516570597863 0 0.031776351233216857 -0.023837273756140628 0 0.031501574235853709 -0.023757892541465108 0 0.031635949525826185 -0.023870003821290949 0 0.031646355592546228 -0.023843093140149978 0 0.031776351233216857 -0.023837273756140628 0 0.031892843930012335 -0.023974086466652392 0 0.031544972197169056 -0.02381849900656284 0 0.031776351233216857 -0.023837273756140628 0 0.031544972197169056 -0.02381849900656284 0 0.031501574235853709 -0.023757892541465108 0 0.031477216180243031 -0.023822394381711947 0 0.031501574235853709 -0.023757892541465108 0 0.031379964444036623 -0.023841437176727112 0 0.031544972197169056 -0.02381849900656284 0 0.031477216180243031 -0.023822394381711947 0 0.031501574235853709 -0.023757892541465108 0 0.031475571756388807 -0.023869702264308609 0 0.031544972197169056 -0.02381849900656284 0 0.031477216180243031 -0.023822394381711947 0 0.03054821781519353 -0.024069423926621748 0 0.030850450104156116 -0.023748125255064503 0 0.031173604458369291 -0.024216709058627568 0 0.030349358856923834 -0.02448421610908276 0 0.03054821781519353 -0.024069423926621748 0 0.031173604458369291 -0.024216709058627568 0 0.030947360663761855 -0.02382604852539915 0 0.031379964444036623 -0.023841437176727112 0 0.031349692991727553 -0.023963260301450736 0 0.030642503167334946 -0.024177301605097214 0 0.031338206996036393 -0.023980340442044511 0 0.030947360663761855 -0.02382604852539915 0 0.031349692991727553 -0.023963260301450736 0 0.031164981860468892 -0.024273466764022394 0 0.030947360663761855 -0.02382604852539915 0 0.031501574235853709 -0.023757892541465108 0 0.031379964444036623 -0.023841437176727112 0 0.031475571756388807 -0.023869702264308609 0 0.031379964444036623 -0.023841437176727112 0 0.031349692991727553 -0.023963260301450736 0 0.031164981860468892 -0.024273466764022394 0 0.031430242797644177 -0.024115994966874998 0 0.031483568321151824 -0.024312651289395491 0 0.031349692991727553 -0.023963260301450736 0 0.031164981860468892 -0.024273466764022394 0 0.031430242797644177 -0.024115994966874998 0 0.031633716075098697 -0.024062375458097012 0 0.031430242797644177 -0.024115994966874998 0 0.031483568321151824 -0.024312651289395491 0 0.032744532349400668 -0.0099862169190581829 0 0.033342879059547657 -0.0098388776685475847 0 0.032891225668936347 -0.0099965550939860159 0 0.031194312382772465 -0.024314339092068742 0 0.031164981860468892 -0.024273466764022394 0 0.031483568321151824 -0.024312651289395491 0 0.033342879059547657 -0.0098388776685475847 0 0.032891225668936347 -0.0099965550939860159 0 0.033152429630624647 -0.010079126527533981 0 0.031894486358112636 -0.017339485550438648 0 0.032437626876182221 -0.017071276589155193 0 0.03277761431475746 -0.010235125647764954 0 0.032756780757245869 -0.010114053223163598 0 0.032941699248911688 -0.01014048860637951 0 0.032756780757245869 -0.010114053223163598 0 0.032891225668936347 -0.0099965550939860159 0 0.032941699248911688 -0.01014048860637951 0 0.03277761431475746 -0.010235125647764954 0 0.032941699248911688 -0.01014048860637951 0 0.033063963829485524 -0.010299557362098068 0 0.032941699248911688 -0.01014048860637951 0 0.033152429630624647 -0.010079126527533981 0 0.033063963829485524 -0.010299557362098068 0 0.032891225668936347 -0.0099965550939860159 0 0.032941699248911688 -0.01014048860637951 0 0.033152429630624647 -0.010079126527533981 0 0.033342879059547657 -0.0098388776685475847 0 0.033345191587607063 -0.010206892630069143 0 0.033666000579520433 -0.010212882827758554 0 0.033342879059547657 -0.0098388776685475847 0 0.033152429630624647 -0.010079126527533981 0 0.033345191587607063 -0.010206892630069143 0 0.033152429630624647 -0.010079126527533981 0 0.033345191587607063 -0.010206892630069143 0 0.033063963829485524 -0.010299557362098068 0 0.033345191587607063 -0.010206892630069143 0 0.033441828168049831 -0.010534720613098016 0 0.033666000579520433 -0.010212882827758554 0 0.033345191587607063 -0.010206892630069143 0 0.033441828168049831 -0.010534720613098016 0 0.033063963829485524 -0.010299557362098068 0 0.033441828168049831 -0.010534720613098016 0 0.033041950183151099 -0.010499084600078172 0 0.033063963829485524 -0.010299557362098068 0 0.03273326787870065 -0.010423111166120132 0 0.033041950183151099 -0.010499084600078172 0 0.033063963829485524 -0.010299557362098068 0 0.03273326787870065 -0.010423111166120132 0 0.03277761431475746 -0.010235125647764954 0 0.033063963829485524 -0.010299557362098068 0 0.034130144478125735 -0.010573110206564353 0 0.034192485850599239 -0.01023261597612332 0 0.034432682417918165 -0.010716597574404138 0 0.034207169641993322 -0.010264356402771024 0 0.034514983246624838 -0.010989448922204969 0 0.034130144478125735 -0.010573110206564353 0 0.03396993043624711 -0.010326559314092681 0 0.034192485850599239 -0.01023261597612332 0 0.034192485850599239 -0.01023261597612332 0 0.034534592821996904 -0.010845641014186018 0 0.034544907666829459 -0.011268279980387859 0 0.033848379726841162 -0.010515512090016591 0 0.033666000579520433 -0.010212882827758554 0 0.03396993043624711 -0.010326559314092681 0 0.033441828168049831 -0.010534720613098016 0 0.033848379726841162 -0.010515512090016591 0 0.033666000579520433 -0.010212882827758554 0 0.034130144478125735 -0.010573110206564353 0 0.033848379726841162 -0.010515512090016591 0 0.03396993043624711 -0.010326559314092681 0 0.033666000579520433 -0.010212882827758554 0 0.03396993043624711 -0.010326559314092681 0 0.033909914537065308 -0.009817210138049183 0 0.03396993043624711 -0.010326559314092681 0 0.034192485850599239 -0.01023261597612332 0 0.033909914537065308 -0.009817210138049183 0 0.034192485850599239 -0.01023261597612332 0 0.033909914537065308 -0.009817210138049183 0 0.034526593230276945 -0.0097739344300907909 0 0.032824817284007296 -0.016899584167210956 0 0.033519195693628816 -0.018479463374313106 0 0.033342879059547657 -0.0098388776685475847 0 0.033666000579520433 -0.010212882827758554 0 0.033909914537065308 -0.009817210138049183 0 0.031633716075098697 -0.024062375458097012 0 0.031483568321151824 -0.024312651289395491 0 0.031813786169097295 -0.024228894529587618 0 0.032437626876182221 -0.017071276589155193 0 0.032824817284007296 -0.016899584167210956 0 0.031812131918710219 -0.023984507643578075 0 0.031633716075098697 -0.024062375458097012 0 0.031813786169097295 -0.024228894529587618 0 0.031813786169097295 -0.024228894529587618 0 0.032000975357582465 -0.024002162135607723 0 0.032069634004124672 -0.024159473730192099 0 0.031812131918710219 -0.023984507643578075 0 0.031813786169097295 -0.024228894529587618 0 0.032000975357582465 -0.024002162135607723 0 0.033396678665757691 -0.023628108043902821 0 0.033519195693628816 -0.018479463374313106 0 0.034447227075981551 -0.021956881277092402 0 0.034385252015868617 -0.021936866621443268 0 0.034425077434732963 -0.021867059988789298 0 0.034385252015868617 -0.021936866621443268 0 0.034336444788783567 -0.021889652808256603 0 0.034347726105741383 -0.021959584263478275 0 0.034385252015868617 -0.021936866621443268 0 0.034425077434732963 -0.021867059988789298 0 0.034336444788783567 -0.021889652808256603 0 0.033519195693628816 -0.018479463374313106 0 0.035631546776996897 -0.020428968951246605 0 0.034564002953890241 -0.017565292774416257 0 0.035713408925585499 -0.018187922900739176 0 0.033884110781485649 -0.018393784040054498 0 0.035923599350015364 -0.018875905004648731 0 0.035631546776996897 -0.020428968951246605 0 0.033519195693628816 -0.018479463374313106 0 0.035522919456745086 -0.013705155872372006 0 0.034564002953890241 -0.017565292774416257 0 0.035713408925585499 -0.018187922900739176 0 0.035255074658833235 -0.016724998565840393 0 0.034192485850599239 -0.01023261597612332 0 0.034824021431677767 -0.010400308951162512 0 0.034534592821996904 -0.010845641014186018 0 0.034192485850599239 -0.01023261597612332 0 0.034526593230276945 -0.0097739344300907909 0 0.034824021431677767 -0.010400308951162512 0 0.035923599350015364 -0.018875905004648731 0 0.035522919456745086 -0.013705155872372006 0 0.037676243894313649 -0.019774386688717525 0 0.038429364185582862 -0.018845554636327429 0 0.036797065273689394 -0.018329877986421748 0 0.035522919456745086 -0.013705155872372006 0 0.036655383088990114 -0.014450298694960076 0 0.038429364185582862 -0.018845554636327429 0 0.036797065273689394 -0.018329877986421748 0 0.037894094272799647 -0.017187512463765493 0 0.034886812661110336 -0.010519555954193764 0 0.034797017706169074 -0.01108719691117945 0 0.034534592821996904 -0.010845641014186018 0 0.034886812661110336 -0.010519555954193764 0 0.034797017706169074 -0.01108719691117945 0 0.035088452834725482 -0.011242889602170611 0 0.034797017706169074 -0.01108719691117945 0 0.034534592821996904 -0.010845641014186018 0 0.034544907666829459 -0.011268279980387859 0 0.035522919456745086 -0.013705155872372006 0 0.035030801376263722 -0.010335877810778023 0 0.036797065273689394 -0.018329877986421748 0 0.034999980396166273 -0.018954410364538633 0 0.034999984476868681 -0.01696881724709514 0 0.037676243894313649 -0.019774386688717525 0 0.036797065273689394 -0.018329877986421748 0 0.036279638990456449 -0.019738669998375695 0 0.036797065273689394 -0.018329877986421748 0 0.034999980396166273 -0.018954410364538633 0 0.036279638990456449 -0.019738669998375695 0 0.034999980396166273 -0.018954410364538633 0 0.036279638990456449 -0.019738669998375695 0 0.034999978256314263 -0.020939964050942762 0 0.036279638990456449 -0.019738669998375695 0 0.036920504882370614 -0.020693833424531103 0 0.034999978256314263 -0.020939964050942762 0 0.037676243894313649 -0.019774386688717525 0 0.036279638990456449 -0.019738669998375695 0 0.036920504882370614 -0.020693833424531103 0 0.034336444788783567 -0.021889652808256603 0 0.034300679421838065 -0.021949597583393522 0 0.034347726105741383 -0.021959584263478275 0 0.035631546776996897 -0.020428968951246605 0 0.035136175041425827 -0.021922325711860161 0 0.035631546776996897 -0.020428968951246605 0 0.03500243146072643 -0.020940037074500435 0 0.036085533926183154 -0.021729097919763869 0 0.034999983477335919 -0.020940118455965315 0 0.035269951820275015 -0.022728343142953033 0 0.036889068622229869 -0.020764904403135252 0 0.036085533926183154 -0.021729097919763869 0 0.034999983477335919 -0.020940118455965315 0 0.034300679421838065 -0.021949597583393522 0 0.034268969907353959 -0.022000681275680792 0 0.034328690855532987 -0.022003736405484073 0 0.034999983477335919 -0.020940118455965315 0 0.035269951820275015 -0.022728343142953033 0 0.034999979747013577 -0.022712600523305773 0 0.034813041366043233 -0.022583723543246361 0 0.034438423959627061 -0.023154843112326746 0 0.035136175041425827 -0.021922325711860161 0 0.034813041366043233 -0.022583723543246361 0 0.034813041366043233 -0.022583723543246361 0 0.034999894672361871 -0.022712390777709264 0 0.035273778778894156 -0.022731251798459889 0 0.034999997992983943 -0.02271267802310108 0 0.035000000188286855 -0.023022357008883616 0 0.034813041366043233 -0.022583723543246361 0 0.034801726509595773 -0.022782792009524287 0 0.035000160407040716 -0.023024265066887779 0 0.035053786511821068 -0.023886002148930257 0 0.034999353885598924 -0.023854576088394214 0 0.035016807462042214 -0.023364619059021735 0 0.035000160407040716 -0.023024265066887779 0 0.035053786511821068 -0.023886002148930257 0 0.035016807462042214 -0.023364619059021735 0 0.035053786511821068 -0.023886002148930257 0 0.034806829024296146 -0.024365351742857356 0 0.035053786511821068 -0.023886002148930257 0 0.034999353885598924 -0.023854576088394214 0 0.03506809066001957 -0.024312105092331854 0 0.035053786511821068 -0.023886002148930257 0 0.034614085712652017 -0.02427536868576647 0 0.03486748982915347 -0.024214582517637546 0 0.035053786511821068 -0.023886002148930257 0 0.034614085712652017 -0.02427536868576647 0 0.034806829024296146 -0.024365351742857356 0 0.034300679421838065 -0.021949597583393522 0 0.034328690855532987 -0.022003736405484073 0 0.034347726105741383 -0.021959584263478275 0 0.034438423959627061 -0.023154843112326746 0 0.034321418763410536 -0.023396425198187833 0 0.034385252015868617 -0.021936866621443268 0 0.034347726105741383 -0.021959584263478275 0 0.034391100918419765 -0.022017684517483874 0 0.034328690855532987 -0.022003736405484073 0 0.034347726105741383 -0.021959584263478275 0 0.034391100918419765 -0.022017684517483874 0 0.034462167932275058 -0.022036056634223502 0 0.034447227075981551 -0.021956881277092402 0 0.034391100918419765 -0.022017684517483874 0 0.034447227075981551 -0.021956881277092402 0 0.034385252015868617 -0.021936866621443268 0 0.034391100918419765 -0.022017684517483874 0 0.033033750187647835 -0.023477949654794848 0 0.034321418763410536 -0.023396425198187833 0 0.033058175757269971 -0.024885620890982705 0 0.033967071344961318 -0.024803629534332589 0 0.033561121575754714 -0.02452456609222484 0 0.033561121575754714 -0.02452456609222484 0 0.034056114203748669 -0.024327211857602084 0 0.033533077921327432 -0.024199074722852126 0 0.033967071344961318 -0.024803629534332589 0 0.033561121575754714 -0.02452456609222484 0 0.034056114203748669 -0.024327211857602084 0 0.033181948780986258 -0.024418235465517558 0 0.033561121575754714 -0.02452456609222484 0 0.033533077921327432 -0.024199074722852126 0 0.034614085712652017 -0.02427536868576647 0 0.033967071344961318 -0.024803629534332589 0 0.034056114203748669 -0.024327211857602084 0 0.034614085712652017 -0.02427536868576647 0 0.034806829024296146 -0.024365351742857356 0 0.033967071344961318 -0.024803629534332589 0 0.034614085712652017 -0.02427536868576647 0 0.034056114203748669 -0.024327211857602084 0 0.034397276934463129 -0.024174238616848098 0 0.034056114203748669 -0.024327211857602084 0 0.034397276934463129 -0.024174238616848098 0 0.033990307246698617 -0.024043802193701259 0 0.034397276934463129 -0.024174238616848098 0 0.034334957156041956 -0.023967382764743982 0 0.034565612947767069 -0.024093647271085948 0 0.034397276934463129 -0.024174238616848098 0 0.033990307246698617 -0.024043802193701259 0 0.034334957156041956 -0.023967382764743982 0 0.034056114203748669 -0.024327211857602084 0 0.033990307246698617 -0.024043802193701259 0 0.033533077921327432 -0.024199074722852126 0 0.033990307246698617 -0.024043802193701259 0 0.033533077921327432 -0.024199074722852126 0 0.033562276621591718 -0.023783992033009564 0 0.033097960109077056 -0.023898800742037325 0 0.033533077921327432 -0.024199074722852126 0 0.033562276621591718 -0.023783992033009564 0 0.033075766964520525 -0.023387054572575956 0 0.033097960109077056 -0.023898800742037325 0 0.033562276621591718 -0.023783992033009564 0 0.033990307246698617 -0.024043802193701259 0 0.033562276621591718 -0.023783992033009564 0 0.033969769064271939 -0.02373816411935652 0 0.033562276621591718 -0.023783992033009564 0 0.033602160702565241 -0.02343207535165933 0 0.033969769064271939 -0.02373816411935652 0 0.033075766964520525 -0.023387054572575956 0 0.033562276621591718 -0.023783992033009564 0 0.033602160702565241 -0.02343207535165933 0 0.034334957156041956 -0.023967382764743982 0 0.033969769064271939 -0.02373816411935652 0 0.034288035863436234 -0.02365878385430677 0 0.033990307246698617 -0.024043802193701259 0 0.034334957156041956 -0.023967382764743982 0 0.033969769064271939 -0.02373816411935652 0 0.033937690102122969 -0.023451653218224205 0 0.033969769064271939 -0.02373816411935652 0 0.034288035863436234 -0.02365878385430677 0 0.033937690102122969 -0.023451653218224205 0 0.033602160702565241 -0.02343207535165933 0 0.033969769064271939 -0.02373816411935652 0 0.034288035863436234 -0.02365878385430677 0 0.034545708397620403 -0.023681345497289612 0 0.034630223360612181 -0.024031673621314201 0 0.034334957156041956 -0.023967382764743982 0 0.034288035863436234 -0.02365878385430677 0 0.034630223360612181 -0.024031673621314201 0 0.034334957156041956 -0.023967382764743982 0 0.034630223360612181 -0.024031673621314201 0 0.034565612947767069 -0.024093647271085948 0 0.034630223360612181 -0.024031673621314201 0 0.034775042007150571 -0.023845164085031297 0 0.034928259269365831 -0.02435044725792802 0 0.034545708397620403 -0.023681345497289612 0 0.034630223360612181 -0.024031673621314201 0 0.034775042007150571 -0.023845164085031297 0 0.034627885691992363 -0.023526904984978808 0 0.034545708397620403 -0.023681345497289612 0 0.034775042007150571 -0.023845164085031297 0 0.035247237147991016 -0.023805615448110575 0 0.035102193214367527 -0.02395352949728119 0 0.035000449189746284 -0.02499231451973619 0 0.034775042007150571 -0.023845164085031297 0 0.035102193214367527 -0.02395352949728119 0 0.034928259269365831 -0.02435044725792802 0 0.034999998855342607 -0.027080223372693647 0 0.035241520247432392 -0.026500862065882719 0 0.0349999990022965 -0.024995422329080013 0 0.035218499136757557 -0.025174491411537082 0 0.035000092017287023 -0.024995325877896067 0 0.034805378155244239 -0.02353120644687481 0 0.034775042007150571 -0.023845164085031297 0 0.035102193214367527 -0.02395352949728119 0 0.035102193214367527 -0.02395352949728119 0 0.034928259269365831 -0.02435044725792802 0 0.035000449189746284 -0.02499231451973619 0 0.034928259269365831 -0.02435044725792802 0 0.03506809066001957 -0.024312105092331854 0 0.03486748982915347 -0.024214582517637546 0 0.034999353885598924 -0.023854576088394214 0 0.035000449189746284 -0.02499231451973619 0 0.03506809066001957 -0.024312105092331854 0 0.034928259269365831 -0.02435044725792802 0 0.035000449189746284 -0.02499231451973619 0 0.03506809066001957 -0.024312105092331854 0 0.035053786511821068 -0.023886002148930257 0 0.03506809066001957 -0.024312105092331854 0 0.03486748982915347 -0.024214582517637546 0 0.034397276934463129 -0.024174238616848098 0 0.03486748982915347 -0.024214582517637546 0 0.034565612947767069 -0.024093647271085948 0 0.034614085712652017 -0.02427536868576647 0 0.034397276934463129 -0.024174238616848098 0 0.03486748982915347 -0.024214582517637546 0 0.034630223360612181 -0.024031673621314201 0 0.03486748982915347 -0.024214582517637546 0 0.034565612947767069 -0.024093647271085948 0 0.034630223360612181 -0.024031673621314201 0 0.034928259269365831 -0.02435044725792802 0 0.03486748982915347 -0.024214582517637546 0 0.036261978834338598 -0.0096872728539499561 0 0.035592543930663495 -0.0099397524340110645 0 0.036113661390859406 -0.0090697081736791484 0 0.036261978834338598 -0.0096872728539499561 0 0.036430254198633903 -0.010242429514052662 0 0.035592543930663495 -0.0099397524340110645 0 0.036261978834338598 -0.0096872728539499561 0 0.036430254198633903 -0.010242429514052662 0 0.036915335304602927 -0.0094960634266336372 0 0.035710492497861721 -0.01037242168258473 0 0.034999953711247846 -0.0090927147728464032 0 0.03500001738721694 -0.011045324980224864 0 0.035668043570171774 -0.010078000471170974 0 0.035135945439089107 -0.0086606052267037079 0 0.035592543930663495 -0.0099397524340110645 0 0.035647631969900333 -0.0089564441449738602 0 0.035107877781037064 -0.0085534092004156057 0 0.035592543930663495 -0.0099397524340110645 0 0.035647631969900333 -0.0089564441449738602 0 0.036113661390859406 -0.0090697081736791484 0 0.035710492497861721 -0.01037242168258473 0 0.034999953711247846 -0.0090927147728464032 0 0.035107877781037064 -0.0085534092004156057 0 0.035647631969900333 -0.0089564441449738602 0 0.036113661390859406 -0.0090697081736791484 0 0.035800486443299029 -0.0081936959633888314 0 0.036465636645213677 -0.0085532461238633541 0 0.036394432405241879 -0.0078698550617792625 0 0.036113661390859406 -0.0090697081736791484 0 0.036915335304602927 -0.0094960634266336372 0 0.036647905098249084 -0.008267758113599746 0 0.036261978834338598 -0.0096872728539499561 0 0.036113661390859406 -0.0090697081736791484 0 0.036915335304602927 -0.0094960634266336372 0 0.036196411676169341 -0.0074824158956243317 0 0.035917257884078055 -0.0077009041036601028 0 0.036191478502973183 -0.007481325201201117 0 0.036196411676169341 -0.0074824158956243317 0 0.035917257884078055 -0.0077009041036601028 0 0.036013651082137159 -0.0077223779303260921 0 0.036155053772782698 -0.0075504478094297663 0 0.036388820819707152 -0.0075598771935823173 0 0.036149649404177399 -0.0073306764882008222 0 0.036196411676169341 -0.0074824158956243317 0 0.036155053772782698 -0.0075504478094297663 0 0.036149649404177399 -0.0073306764882008222 0 0.036196411676169341 -0.0074824158956243317 0 0.036155053772782698 -0.0075504478094297663 0 0.036013651082137159 -0.0077223779303260921 0 0.036155053772782698 -0.0075504478094297663 0 0.036013651082137159 -0.0077223779303260921 0 0.036235880363907222 -0.007761866918041033 0 0.036013651082137159 -0.0077223779303260921 0 0.036068833650339846 -0.0079671884106121589 0 0.036235880363907222 -0.007761866918041033 0 0.036068833650339846 -0.0079671884106121589 0 0.036306391981917603 -0.0079527459142351119 0 0.036235880363907222 -0.007761866918041033 0 0.036068833650339846 -0.0079671884106121589 0 0.035770686511192203 -0.00801803700899896 0 0.035922069397061926 -0.0082550753394860857 0 0.036013651082137159 -0.0077223779303260921 0 0.036068833650339846 -0.0079671884106121589 0 0.035770686511192203 -0.00801803700899896 0 0.036430254198633903 -0.010242429514052662 0 0.036915335304602927 -0.0094960634266336372 0 0.037207136159483178 -0.010646732385235646 0 0.036465636645213677 -0.0085532461238633541 0 0.035758574404152484 -0.0098372857355696914 0 0.035917257884078055 -0.0077009041036601028 0 0.035770686511192203 -0.00801803700899896 0 0.035727284615455879 -0.0080506540769337449 0 0.035917257884078055 -0.0077009041036601028 0 0.036013651082137159 -0.0077223779303260921 0 0.035770686511192203 -0.00801803700899896 0 0.03608498341504892 -0.0086682241108017206 0 0.035758574404152484 -0.0098372857355696914 0 0.03528004155905607 -0.0082581029456875368 0 0.035682991750122142 -0.0082676084946262766 0 0.035677643107521619 -0.0085566546384142628 0 0.035770686511192203 -0.00801803700899896 0 0.03528004155905607 -0.0082581029456875368 0 0.035682991750122142 -0.0082676084946262766 0 0.03528004155905607 -0.0082581029456875368 0 0.035677643107521619 -0.0085566546384142628 0 0.035610089412794532 -0.0091221587795369072 0 0.035922069397061926 -0.0082550753394860857 0 0.036127461581070296 -0.0084183994415017345 0 0.036228584610095163 -0.0081854139535148668 0 0.036068833650339846 -0.0079671884106121589 0 0.035922069397061926 -0.0082550753394860857 0 0.036228584610095163 -0.0081854139535148668 0 0.035770686511192203 -0.00801803700899896 0 0.035922069397061926 -0.0082550753394860857 0 0.035682991750122142 -0.0082676084946262766 0 0.035922069397061926 -0.0082550753394860857 0 0.035682991750122142 -0.0082676084946262766 0 0.035677643107521619 -0.0085566546384142628 0 0.035922069397061926 -0.0082550753394860857 0 0.035677643107521619 -0.0085566546384142628 0 0.035950830820459544 -0.0086959733587821334 0 0.035922069397061926 -0.0082550753394860857 0 0.035950830820459544 -0.0086959733587821334 0 0.036127461581070296 -0.0084183994415017345 0 0.035950830820459544 -0.0086959733587821334 0 0.036127461581070296 -0.0084183994415017345 0 0.036289597852322192 -0.0086042603321900783 0 0.036279948433423144 -0.0092908972940716414 0 0.034220283577945737 -0.010001197010679651 0 0.035950830820459544 -0.0086959733587821334 0 0.035610089412794532 -0.0091221587795369072 0 0.036396133828250507 -0.008920080928221958 0 0.035677643107521619 -0.0085566546384142628 0 0.035950830820459544 -0.0086959733587821334 0 0.035610089412794532 -0.0091221587795369072 0 0.035138885956549674 -0.012141429595708107 0 0.035142808105010345 -0.012096392052643611 0 0.035067691892755999 -0.012063236835782188 0 0.035758574404152484 -0.0098372857355696914 0 0.035089102369518788 -0.01090499862778745 0 0.03528004155905607 -0.0082581029456875368 0 0.035610089412794532 -0.0091221587795369072 0 0.035249639978187461 -0.009581989451280571 0 0.035142808105010345 -0.012096392052643611 0 0.035067691892755999 -0.012063236835782188 0 0.035143243034049559 -0.012055851243306284 0 0.035924710870440142 -0.012082690210343857 0 0.035996019968561055 -0.012946262707135954 0 0.035212610766952791 -0.012114648978783152 0 0.035199940091911477 -0.01201229180411684 0 0.035143243034049559 -0.012055851243306284 0 0.035142808105010345 -0.012096392052643611 0 0.035212610766952791 -0.012114648978783152 0 0.035143243034049559 -0.012055851243306284 0 0.036430254198633903 -0.010242429514052662 0 0.037207136159483178 -0.010646732385235646 0 0.036064711097867297 -0.011390593902731167 0 0.035758574404152484 -0.0098372857355696914 0 0.035924710870440142 -0.012082690210343857 0 0.035138885956549674 -0.012141429595708107 0 0.035142808105010345 -0.012096392052643611 0 0.035212610766952791 -0.012114648978783152 0 0.036430254198633903 -0.010242429514052662 0 0.035592543930663495 -0.0099397524340110645 0 0.036064711097867297 -0.011390593902731167 0 0.035668043570171774 -0.010078000471170974 0 0.035924710870440142 -0.012082690210343857 0 0.035710492497861721 -0.01037242168258473 0 0.036291869388963297 -0.012165421621589446 0 0.03500001738721694 -0.011045324980224864 0 0.036291869388963297 -0.012165421621589446 0 0.03500001738721694 -0.011045324980224864 0 0.034999985277055112 -0.012997611922189392 0 0.036274848960124062 -0.01217930549460833 0 0.03499998461982546 -0.012997679975884647 0 0.036820953541152557 -0.013848666526041116 0 0.035924710870440142 -0.012082690210343857 0 0.035000594258428268 -0.012997356905145127 0 0.03499998461982546 -0.012997679975884647 0 0.036820953541152557 -0.013848666526041116 0 0.034999989118441023 -0.014983226747417663 0 0.036820953541152557 -0.013848666526041116 0 0.034999989118441023 -0.014983226747417663 0 0.037360201416618881 -0.015522135894445054 0 0.035996019968561055 -0.012946262707135954 0 0.036243781990488465 -0.013581775933694336 0 0.034999989118441023 -0.014983226747417663 0 0.036479856399731857 -0.016751838884316979 0 0.037360201416618881 -0.015522135894445054 0 0.034999989118441023 -0.014983226747417663 0 0.036479856399731857 -0.016751838884316979 0 0.034999984476868681 -0.01696881724709514 0 0.036797065273689394 -0.018329877986421748 0 0.036479856399731857 -0.016751838884316979 0 0.037894094272799647 -0.017187512463765493 0 0.036797065273689394 -0.018329877986421748 0 0.036479856399731857 -0.016751838884316979 0 0.034999984476868681 -0.01696881724709514 0 0.034797017706169074 -0.01108719691117945 0 0.034899115676274503 -0.011487407698455718 0 0.034544907666829459 -0.011268279980387859 0 0.034797017706169074 -0.01108719691117945 0 0.034899115676274503 -0.011487407698455718 0 0.035088452834725482 -0.011242889602170611 0 0.034899115676274503 -0.011487407698455718 0 0.035088452834725482 -0.011242889602170611 0 0.035182324104974343 -0.011768457287032619 0 0.036479856399731857 -0.016751838884316979 0 0.037894094272799647 -0.017187512463765493 0 0.037360201416618881 -0.015522135894445054 0 0.036655383088990114 -0.014450298694960076 0 0.036243781990488465 -0.013581775933694336 0 0.034899115676274503 -0.011487407698455718 0 0.035182324104974343 -0.011768457287032619 0 0.034876348869601448 -0.01183687892046451 0 0.034514983246624838 -0.010989448922204969 0 0.035019427824125961 -0.011294314235390891 0 0.034899115676274503 -0.011487407698455718 0 0.034544907666829459 -0.011268279980387859 0 0.034876348869601448 -0.01183687892046451 0 0.034789951095307477 -0.010778286965949345 0 0.035176975588403374 -0.010764976290787723 0 0.035667671925086596 -0.010529398740683505 0 0.034432682417918165 -0.010716597574404138 0 0.034789951095307477 -0.010778286965949345 0 0.035176975588403374 -0.010764976290787723 0 0.034892879668434351 -0.010723481569436241 0 0.035087282078910598 -0.01110611950231389 0 0.035176975588403374 -0.010764976290787723 0 0.035580795168283441 -0.0099440886506127583 0 0.035667671925086596 -0.010529398740683505 0 0.035182324104974343 -0.011768457287032619 0 0.034876348869601448 -0.01183687892046451 0 0.035098376329888333 -0.0119646895594977 0 0.035199940091911477 -0.01201229180411684 0 0.035182324104974343 -0.011768457287032619 0 0.035098376329888333 -0.0119646895594977 0 0.034876348869601448 -0.01183687892046451 0 0.035098376329888333 -0.0119646895594977 0 0.035067691892755999 -0.012063236835782188 0 0.035199940091911477 -0.01201229180411684 0 0.035098376329888333 -0.0119646895594977 0 0.035143243034049559 -0.012055851243306284 0 0.035098376329888333 -0.0119646895594977 0 0.035067691892755999 -0.012063236835782188 0 0.035143243034049559 -0.012055851243306284 0 0.035610089412794532 -0.0091221587795369072 0 0.035249639978187461 -0.009581989451280571 0 0.035580795168283441 -0.0099440886506127583 0 0.035019427824125961 -0.011294314235390891 0 0.035089102369518788 -0.01090499862778745 0 0.035610089412794532 -0.0091221587795369072 0 0.035580795168283441 -0.0099440886506127583 0 0.036096647471607325 -0.0096564001591425627 0 0.035176975588403374 -0.010764976290787723 0 0.035249639978187461 -0.009581989451280571 0 0.035580795168283441 -0.0099440886506127583 0 0.034220283577945737 -0.010001197010679651 0 0.035087282078910598 -0.01110611950231389 0 0.035580795168283441 -0.0099440886506127583 0 0.036096647471607325 -0.0096564001591425627 0 0.035667671925086596 -0.010529398740683505 0 0.030222967361587146 -0.0098589059979881082 0 0.031008150958576609 -0.010280882824473337 0 0.030541714621400567 -0.0095212770010157134 0 0.034220283577945737 -0.010001197010679651 0 0.031941517434435379 -0.011049306018816563 0 0.034281337477536242 -0.012096359520639258 0 0.033998624416311289 -0.011474542808405697 0 0.033583969809474083 -0.011704070772450847 0 0.033998624416311289 -0.011474542808405697 0 0.03347232501755109 -0.011078048740269688 0 0.033583969809474083 -0.011704070772450847 0 0.034281337477536242 -0.012096359520639258 0 0.033998624416311289 -0.011474542808405697 0 0.034482617717815259 -0.011534102884915116 0 0.033998624416311289 -0.011474542808405697 0 0.034482617717815259 -0.011534102884915116 0 0.034261867751058731 -0.011119501456594114 0 0.034789951095307477 -0.010778286965949345 0 0.034482617717815259 -0.011534102884915116 0 0.034261867751058731 -0.011119501456594114 0 0.034789951095307477 -0.010778286965949345 0 0.034261867751058731 -0.011119501456594114 0 0.034344582273880701 -0.010781979239278133 0 0.034261867751058731 -0.011119501456594114 0 0.03395517157068241 -0.010842579310446016 0 0.034344582273880701 -0.010781979239278133 0 0.033998624416311289 -0.011474542808405697 0 0.034261867751058731 -0.011119501456594114 0 0.03395517157068241 -0.010842579310446016 0 0.033998624416311289 -0.011474542808405697 0 0.03395517157068241 -0.010842579310446016 0 0.03347232501755109 -0.011078048740269688 0 0.034130144478125735 -0.010573110206564353 0 0.033848379726841162 -0.010515512090016591 0 0.03395517157068241 -0.010842579310446016 0 0.033441828168049831 -0.010534720613098016 0 0.033848379726841162 -0.010515512090016591 0 0.03395517157068241 -0.010842579310446016 0 0.034130144478125735 -0.010573110206564353 0 0.03395517157068241 -0.010842579310446016 0 0.034344582273880701 -0.010781979239278133 0 0.034130144478125735 -0.010573110206564353 0 0.034432682417918165 -0.010716597574404138 0 0.034344582273880701 -0.010781979239278133 0 0.034432682417918165 -0.010716597574404138 0 0.034789951095307477 -0.010778286965949345 0 0.034344582273880701 -0.010781979239278133 0 0.03273326787870065 -0.010423111166120132 0 0.033041950183151099 -0.010499084600078172 0 0.032940624790478101 -0.010735955651293322 0 0.033441828168049831 -0.010534720613098016 0 0.033041950183151099 -0.010499084600078172 0 0.032940624790478101 -0.010735955651293322 0 0.033441828168049831 -0.010534720613098016 0 0.032940624790478101 -0.010735955651293322 0 0.03347232501755109 -0.011078048740269688 0 0.033441828168049831 -0.010534720613098016 0 0.03395517157068241 -0.010842579310446016 0 0.03347232501755109 -0.011078048740269688 0 0.032940624790478101 -0.010735955651293322 0 0.03347232501755109 -0.011078048740269688 0 0.032924226833182454 -0.011299709233984653 0 0.031677697571837367 -0.010551359730588825 0 0.031008150958576609 -0.010280882824473337 0 0.03159312729694478 -0.010083028235255549 0 0.031677697571837367 -0.010551359730588825 0 0.03159312729694478 -0.010083028235255549 0 0.032043448104149358 -0.010322917808311427 0 0.03347232501755109 -0.011078048740269688 0 0.032924226833182454 -0.011299709233984653 0 0.033583969809474083 -0.011704070772450847 0 0.03237355181650034 -0.010918416331182287 0 0.031941517434435379 -0.011049306018816563 0 0.031008150958576609 -0.010280882824473337 0 0.03159312729694478 -0.010083028235255549 0 0.031343144125719806 -0.0094379831726232721 0 0.030881744452203333 -0.0088495867124537692 0 0.030720266689141528 -0.009113073222857631 0 0.030992357249668031 -0.0094183047827259402 0 0.031019877185728784 -0.0092814914256222781 0 0.031456223407727822 -0.009636817658490426 0 0.03159312729694478 -0.010083028235255549 0 0.031343144125719806 -0.0094379831726232721 0 0.031917427482828546 -0.0098463080658692179 0 0.030881744452203333 -0.0088495867124537692 0 0.030708472620010748 -0.0088548331244661348 0 0.030720266689141528 -0.009113073222857631 0 0.030708472620010748 -0.0088548331244661348 0 0.030720266689141528 -0.009113073222857631 0 0.03055477667522569 -0.0090209925967301968 0 0.031019877185728784 -0.0092814914256222781 0 0.030579281224431348 -0.0090402224353613794 0 0.031008150958576609 -0.010280882824473337 0 0.031343144125719806 -0.0094379831726232721 0 0.030541714621400567 -0.0095212770010157134 0 0.031343144125719806 -0.0094379831726232721 0 0.030541714621400567 -0.0095212770010157134 0 0.03055477667522569 -0.0090209925967301968 0 0.035610089412794532 -0.0091221587795369072 0 0.036497268229410226 -0.009533173589394258 0 0.036396133828250507 -0.008920080928221958 0 0.036497268229410226 -0.009533173589394258 0 0.036396133828250507 -0.008920080928221958 0 0.036724736356057761 -0.0084583785005273096 0 0.030222967361587146 -0.0098589059979881082 0 0.030541714621400567 -0.0095212770010157134 0 0.030447329410643407 -0.0090276133681497089 0 0.034220283577945737 -0.010001197010679651 0 0.033487301253137432 -0.0087268511586000731 0 0.036127461581070296 -0.0084183994415017345 0 0.036289597852322192 -0.0086042603321900783 0 0.036413619378210332 -0.0083937058081092041 0 0.035950830820459544 -0.0086959733587821334 0 0.036396133828250507 -0.008920080928221958 0 0.036289597852322192 -0.0086042603321900783 0 0.036396133828250507 -0.008920080928221958 0 0.036289597852322192 -0.0086042603321900783 0 0.0364560894488287 -0.0085917300787238977 0 0.036289597852322192 -0.0086042603321900783 0 0.0364560894488287 -0.0085917300787238977 0 0.036413619378210332 -0.0083937058081092041 0 0.036396133828250507 -0.008920080928221958 0 0.0364560894488287 -0.0085917300787238977 0 0.036724736356057761 -0.0084583785005273096 0 0.0364560894488287 -0.0085917300787238977 0 0.036413619378210332 -0.0083937058081092041 0 0.036724736356057761 -0.0084583785005273096 0 0.036413619378210332 -0.0083937058081092041 0 0.036724736356057761 -0.0084583785005273096 0 0.036469539949641624 -0.0080904391710695002 0 0.036228584610095163 -0.0081854139535148668 0 0.036413619378210332 -0.0083937058081092041 0 0.036469539949641624 -0.0080904391710695002 0 0.036127461581070296 -0.0084183994415017345 0 0.036228584610095163 -0.0081854139535148668 0 0.036413619378210332 -0.0083937058081092041 0 0.03055477667522569 -0.0090209925967301968 0 0.030447329410643407 -0.0090276133681497089 0 0.030551528976660174 -0.0086411968699112301 0 0.030541714621400567 -0.0095212770010157134 0 0.03055477667522569 -0.0090209925967301968 0 0.030447329410643407 -0.0090276133681497089 0 0.030708472620010748 -0.0088548331244661348 0 0.03055477667522569 -0.0090209925967301968 0 0.030551528976660174 -0.0086411968699112301 0 0.036724736356057761 -0.0084583785005273096 0 0.0367757149388609 -0.0077377044880985093 0 0.036469539949641624 -0.0080904391710695002 0 0.033487301253137432 -0.0087268511586000731 0 0.033656113580550935 -0.0081740883941733167 0 0.036068833650339846 -0.0079671884106121589 0 0.036228584610095163 -0.0081854139535148668 0 0.036306391981917603 -0.0079527459142351119 0 0.036228584610095163 -0.0081854139535148668 0 0.036306391981917603 -0.0079527459142351119 0 0.036469539949641624 -0.0080904391710695002 0 0.036306391981917603 -0.0079527459142351119 0 0.036469539949641624 -0.0080904391710695002 0 0.036518273326653396 -0.0077969389922289811 0 0.0367757149388609 -0.0077377044880985093 0 0.036469539949641624 -0.0080904391710695002 0 0.036518273326653396 -0.0077969389922289811 0 0.036306391981917603 -0.0079527459142351119 0 0.036518273326653396 -0.0077969389922289811 0 0.036235880363907222 -0.007761866918041033 0 0.0367757149388609 -0.0077377044880985093 0 0.036518273326653396 -0.0077969389922289811 0 0.036388820819707152 -0.0075598771935823173 0 0.036388820819707152 -0.0075598771935823173 0 0.036539437872719432 -0.0072743689603170228 0 0.036149649404177399 -0.0073306764882008222 0 0.0367757149388609 -0.0077377044880985093 0 0.036388820819707152 -0.0075598771935823173 0 0.036539437872719432 -0.0072743689603170228 0 0.036518273326653396 -0.0077969389922289811 0 0.036235880363907222 -0.007761866918041033 0 0.036388820819707152 -0.0075598771935823173 0 0.036155053772782698 -0.0075504478094297663 0 0.036235880363907222 -0.007761866918041033 0 0.036388820819707152 -0.0075598771935823173 0 0.033656113580550935 -0.0081740883941733167 0 0.033989558694294604 -0.0079567473414107626 0 0.0367757149388609 -0.0077377044880985093 0 0.036871552556814437 -0.0072346931442098519 0 0.036539437872719432 -0.0072743689603170228 0 0.030551528976660174 -0.0086411968699112301 0 0.030802355647083706 -0.0084349228346981761 0 0.030658120082906668 -0.0083316775394395234 0 0.030551528976660174 -0.0086411968699112301 0 0.030802355647083706 -0.0084349228346981761 0 0.03082253113511059 -0.0086220743484388372 0 0.030940988294957377 -0.0084509331906864708 0 0.03082253113511059 -0.0086220743484388372 0 0.031016594241828864 -0.0085709886678501414 0 0.030802355647083706 -0.0084349228346981761 0 0.030940988294957377 -0.0084509331906864708 0 0.03082253113511059 -0.0086220743484388372 0 0.030881744452203333 -0.0088495867124537692 0 0.030708472620010748 -0.0088548331244661348 0 0.03082253113511059 -0.0086220743484388372 0 0.030881744452203333 -0.0088495867124537692 0 0.03082253113511059 -0.0086220743484388372 0 0.031016594241828864 -0.0085709886678501414 0 0.030708472620010748 -0.0088548331244661348 0 0.030551528976660174 -0.0086411968699112301 0 0.03082253113511059 -0.0086220743484388372 0 0.031148193153256946 -0.0085387445494307587 0 0.031161924858190384 -0.0086286746391802741 0 0.031143573688347567 -0.0087622752898653747 0 0.031016594241828864 -0.0085709886678501414 0 0.031148193153256946 -0.0085387445494307587 0 0.031143573688347567 -0.0087622752898653747 0 0.030881744452203333 -0.0088495867124537692 0 0.031016594241828864 -0.0085709886678501414 0 0.031143573688347567 -0.0087622752898653747 0 0.031016594241828864 -0.0085709886678501414 0 0.031148193153256946 -0.0085387445494307587 0 0.031082064076979186 -0.008378445124779808 0 0.030940988294957377 -0.0084509331906864708 0 0.031016594241828864 -0.0085709886678501414 0 0.031082064076979186 -0.008378445124779808 0 0.031148193153256946 -0.0085387445494307587 0 0.031207609259476771 -0.0084139845672300227 0 0.031082064076979186 -0.008378445124779808 0 0.031140101586992094 -0.0082868279409436616 0 0.03107507274976969 -0.0083586542738032944 0 0.031207609259476771 -0.0084139845672300227 0 0.031424790485456856 -0.0083657087151444778 0 0.031235329727676776 -0.0084679145620906136 0 0.031148193153256946 -0.0085387445494307587 0 0.031207609259476771 -0.0084139845672300227 0 0.031235329727676776 -0.0084679145620906136 0 0.031424790485456856 -0.0083657087151444778 0 0.03126292907109058 -0.0083165607180262172 0 0.031235329727676776 -0.0084679145620906136 0 0.031140101586992094 -0.0082868279409436616 0 0.03092252884501108 -0.0080931003445677378 0 0.031087279939437398 -0.0081625847771537013 0 0.030505167269826029 -0.0078647061732744702 0 0.030708963511689322 -0.0082019126316369706 0 0.031424790485456856 -0.0083657087151444778 0 0.03126292907109058 -0.0083165607180262172 0 0.031045933124745569 -0.0080279248990732053 0 0.03126292907109058 -0.0083165607180262172 0 0.031235329727676776 -0.0084679145620906136 0 0.031202966074883126 -0.0085623853466323448 0 0.03126292907109058 -0.0083165607180262172 0 0.031202966074883126 -0.0085623853466323448 0 0.031313438048996639 -0.0085286871545910883 0 0.031161924858190384 -0.0086286746391802741 0 0.031235329727676776 -0.0084679145620906136 0 0.031202966074883126 -0.0085623853466323448 0 0.031148193153256946 -0.0085387445494307587 0 0.031161924858190384 -0.0086286746391802741 0 0.031235329727676776 -0.0084679145620906136 0 0.031161924858190384 -0.0086286746391802741 0 0.031202966074883126 -0.0085623853466323448 0 0.031092893385606227 -0.0087562958163518202 0 0.031202966074883126 -0.0085623853466323448 0 0.031284565066816226 -0.0087942023778885877 0 0.031092893385606227 -0.0087562958163518202 0 0.031202966074883126 -0.0085623853466323448 0 0.031284565066816226 -0.0087942023778885877 0 0.031313438048996639 -0.0085286871545910883 0 0.031284565066816226 -0.0087942023778885877 0 0.031092893385606227 -0.0087562958163518202 0 0.031379950242711799 -0.0092701085998211606 0 0.031851081792307404 -0.0093121812401838026 0 0.031981222172496278 -0.0098390295136968637 0 0.032297040822938224 -0.009974028358360457 0 0.031458167418110174 -0.0090487783104261643 0 0.031851288201240537 -0.0096139655912702553 0 0.031851081792307404 -0.0093121812401838026 0 0.03151553385363378 -0.0098609267841977925 0 0.031981222172496278 -0.0098390295136968637 0 0.031365251379027341 -0.0093388428560021823 0 0.030992357249668031 -0.0094183047827259402 0 0.03151553385363378 -0.0098609267841977925 0 0.031851081792307404 -0.0093121812401838026 0 0.031365251379027341 -0.0093388428560021823 0 0.03151553385363378 -0.0098609267841977925 0 0.031161924858190384 -0.0086286746391802741 0 0.031092893385606227 -0.0087562958163518202 0 0.031143573688347567 -0.0087622752898653747 0 0.031851081792307404 -0.0093121812401838026 0 0.031365251379027341 -0.0093388428560021823 0 0.031143573688347567 -0.0087622752898653747 0 0.031458167418110174 -0.0090487783104261643 0 0.031154483000813072 -0.0087725401162187487 0 0.030881744452203333 -0.0088495867124537692 0 0.031143573688347567 -0.0087622752898653747 0 0.030992357249668031 -0.0094183047827259402 0 0.031365251379027341 -0.0093388428560021823 0 0.031143573688347567 -0.0087622752898653747 0 0.030992357249668031 -0.0094183047827259402 0 0.03159312729694478 -0.010083028235255549 0 0.031917427482828546 -0.0098463080658692179 0 0.032043448104149358 -0.010322917808311427 0 0.031917427482828546 -0.0098463080658692179 0 0.032211725523933976 -0.010186014403150714 0 0.032043448104149358 -0.010322917808311427 0 0.031456223407727822 -0.009636817658490426 0 0.031866701497471117 -0.010013797303966709 0 0.032211725523933976 -0.010186014403150714 0 0.032043448104149358 -0.010322917808311427 0 0.032219587131868954 -0.010423360968349863 0 0.032043448104149358 -0.010322917808311427 0 0.032263723413110144 -0.010705262921325398 0 0.032219587131868954 -0.010423360968349863 0 0.031677697571837367 -0.010551359730588825 0 0.032043448104149358 -0.010322917808311427 0 0.032263723413110144 -0.010705262921325398 0 0.03237355181650034 -0.010918416331182287 0 0.032230096066245738 -0.010731864268575707 0 0.032940624790478101 -0.010735955651293322 0 0.032924226833182454 -0.011299709233984653 0 0.032263723413110144 -0.010705262921325398 0 0.032263723413110144 -0.010705262921325398 0 0.032227236780586754 -0.010549646233822582 0 0.032219587131868954 -0.010423360968349863 0 0.032263221755329433 -0.010390462751454686 0 0.032411042801519276 -0.010517705973631943 0 0.032227236780586754 -0.010549646233822582 0 0.032263723413110144 -0.010705262921325398 0 0.032411042801519276 -0.010517705973631943 0 0.032227236780586754 -0.010549646233822582 0 0.03273326787870065 -0.010423111166120132 0 0.032940624790478101 -0.010735955651293322 0 0.032411042801519276 -0.010517705973631943 0 0.032940624790478101 -0.010735955651293322 0 0.032263723413110144 -0.010705262921325398 0 0.032411042801519276 -0.010517705973631943 0 0.032172523909710531 -0.010479356660671974 0 0.032173290545037231 -0.010429876341201183 0 0.032146961331452395 -0.010471746858128734 0 0.032128869667446748 -0.010452088240341632 0 0.032172523909710531 -0.010479356660671974 0 0.032146961331452395 -0.010471746858128734 0 0.032172523909710531 -0.010479356660671974 0 0.032227236780586754 -0.010549646233822582 0 0.032173290545037231 -0.010429876341201183 0 0.032263221755329433 -0.010390462751454686 0 0.032172523909710531 -0.010479356660671974 0 0.032227236780586754 -0.010549646233822582 0 0.032227236780586754 -0.010549646233822582 0 0.032173290545037231 -0.010429876341201183 0 0.032219587131868954 -0.010423360968349863 0 0.032173290545037231 -0.010429876341201183 0 0.032185145951632549 -0.010351318347876951 0 0.032146961331452395 -0.010471746858128734 0 0.032173290545037231 -0.010429876341201183 0 0.032146915780956097 -0.010237726002399092 0 0.032185145951632549 -0.010351318347876951 0 0.032211725523933976 -0.010186014403150714 0 0.032146915780956097 -0.010237726002399092 0 0.032219587131868954 -0.010423360968349863 0 0.032173290545037231 -0.010429876341201183 0 0.032146915780956097 -0.010237726002399092 0 0.032219587131868954 -0.010423360968349863 0 0.03151553385363378 -0.0098609267841977925 0 0.032146915780956097 -0.010237726002399092 0 0.031981222172496278 -0.0098390295136968637 0 0.031866701497471117 -0.010013797303966709 0 0.032137261974820634 -0.010216893819033665 0 0.032146915780956097 -0.010237726002399092 0 0.031981222172496278 -0.0098390295136968637 0 0.032297040822938224 -0.009974028358360457 0 0.032146915780956097 -0.010237726002399092 0 0.032297040822938224 -0.009974028358360457 0 0.032233044040178363 -0.010165583315249612 0 0.032297040822938224 -0.009974028358360457 0 0.032264108053983255 -0.010037523527600171 0 0.032233044040178363 -0.010165583315249612 0 0.031851288201240537 -0.0096139655912702553 0 0.032255253746379997 -0.010014384912571204 0 0.031919993800297329 -0.0098611807971187918 0 0.032130852223650447 -0.0096183453476295019 0 0.031697404377200637 -0.0092112734022910103 0 0.032264108053983255 -0.010037523527600171 0 0.03239994861494204 -0.010288305911770252 0 0.032015928724149906 -0.0092829888002012237 0 0.031379950242711799 -0.0092701085998211606 0 0.032264108053983255 -0.010037523527600171 0 0.032015928724149906 -0.0092829888002012237 0 0.032160698400208736 -0.010060293059869815 0 0.031849233194135657 -0.0092563490303029464 0 0.032264108053983255 -0.010037523527600171 0 0.032235268386525857 -0.010251869654063725 0 0.032233044040178363 -0.010165583315249612 0 0.032264108053983255 -0.010037523527600171 0 0.03239994861494204 -0.010288305911770252 0 0.032235268386525857 -0.010251869654063725 0 0.032235268386525857 -0.010251869654063725 0 0.03221627181145835 -0.01036641659897989 0 0.032290579053397016 -0.010351390181737025 0 0.03239994861494204 -0.010288305911770252 0 0.032235268386525857 -0.010251869654063725 0 0.032290579053397016 -0.010351390181737025 0 0.032146915780956097 -0.010237726002399092 0 0.032233044040178363 -0.010165583315249612 0 0.032185145951632549 -0.010351318347876951 0 0.032235268386525857 -0.010251869654063725 0 0.032233044040178363 -0.010165583315249612 0 0.032185145951632549 -0.010351318347876951 0 0.032235268386525857 -0.010251869654063725 0 0.032185145951632549 -0.010351318347876951 0 0.03221627181145835 -0.01036641659897989 0 0.032185145951632549 -0.010351318347876951 0 0.032156960612970673 -0.010445911967188311 0 0.032146961331452395 -0.010471746858128734 0 0.032185145951632549 -0.010351318347876951 0 0.032156960612970673 -0.010445911967188311 0 0.03221627181145835 -0.01036641659897989 0 0.03221627181145835 -0.01036641659897989 0 0.032290579053397016 -0.010351390181737025 0 0.032258717332743402 -0.010419789234493378 0 0.03239994861494204 -0.010288305911770252 0 0.032290579053397016 -0.010351390181737025 0 0.032316888401761897 -0.010408125726868082 0 0.032290579053397016 -0.010351390181737025 0 0.032316888401761897 -0.010408125726868082 0 0.032258717332743402 -0.010419789234493378 0 0.032316888401761897 -0.010408125726868082 0 0.032258717332743402 -0.010419789234493378 0 0.032254576251941815 -0.010505989574920466 0 0.032156960612970673 -0.010445911967188311 0 0.03221627181145835 -0.01036641659897989 0 0.032258717332743402 -0.010419789234493378 0 0.032156960612970673 -0.010445911967188311 0 0.032258717332743402 -0.010419789234493378 0 0.032254576251941815 -0.010505989574920466 0 0.032156960612970673 -0.010445911967188311 0 0.032254576251941815 -0.010505989574920466 0 0.032086863717124138 -0.010549373069817304 0 0.032436165818592197 -0.010935651370070404 0 0.032254576251941815 -0.010505989574920466 0 0.032086863717124138 -0.010549373069817304 0 0.032156960612970673 -0.010445911967188311 0 0.032086863717124138 -0.010549373069817304 0 0.032146961331452395 -0.010471746858128734 0 0.032128869667446748 -0.010452088240341632 0 0.032086863717124138 -0.010549373069817304 0 0.032146961331452395 -0.010471746858128734 0 0.021033696835258492 -0.012641361048023643 0 0.02038154234398706 -0.011728661832618606 0 0.02129306490715762 -0.01176900857715199 0 0.016099633662590502 -0.014924799413971056 0 0.029392612659627386 -0.012663855412010388 0 0.029992781641811093 -0.014926408644289547 0 0.029392612659627386 -0.012663855412010388 0 0.032436165818592197 -0.010935651370070404 0 0.032254576251941815 -0.010505989574920466 0 0.032352562073479439 -0.010491202785016709 0 0.032436165818592197 -0.010935651370070404 0 0.032352562073479439 -0.010491202785016709 0 0.032455413243477879 -0.010458947179555273 0 0.032352562073479439 -0.010491202785016709 0 0.032455413243477879 -0.010458947179555273 0 0.032265394913478573 -0.01026470508904638 0 0.032370926504024074 -0.010442820161179613 0 0.032265394913478573 -0.01026470508904638 0 0.032261960986699083 -0.010013232251644168 0 0.031919993800297329 -0.0098611807971187918 0 0.032352562073479439 -0.010491202785016709 0 0.032265394913478573 -0.01026470508904638 0 0.03239994861494204 -0.010288305911770252 0 0.032316888401761897 -0.010408125726868082 0 0.032352562073479439 -0.010491202785016709 0 0.032160698400208736 -0.010060293059869815 0 0.032332662792266195 -0.010458486002438426 0 0.029392612659627386 -0.012663855412010388 0 0.031037574175122817 -0.011374199001887549 0 0.032316888401761897 -0.010408125726868082 0 0.032254576251941815 -0.010505989574920466 0 0.032352562073479439 -0.010491202785016709 0 0.029392612659627386 -0.012663855412010388 0 0.026307915452649221 -0.010283563353037475 0 0.02038154234398706 -0.011728661832618606 0 0.021008793880845252 -0.011260045272554926 0 0.02129306490715762 -0.01176900857715199 0 0.02038154234398706 -0.011728661832618606 0 0.020810896349459568 -0.01064634756773898 0 0.021008793880845252 -0.011260045272554926 0 0.032370926504024074 -0.010442820161179613 0 0.032548491970322169 -0.0097989131610497441 0 0.032261960986699083 -0.010013232251644168 0 0.031919993800297329 -0.0098611807971187918 0 0.032265394913478573 -0.01026470508904638 0 0.032261960986699083 -0.010013232251644168 0 0.032548491970322169 -0.0097989131610497441 0 0.032261960986699083 -0.010013232251644168 0 0.032130852223650447 -0.0096183453476295019 0 0.031919993800297329 -0.0098611807971187918 0 0.032261960986699083 -0.010013232251644168 0 0.032130852223650447 -0.0096183453476295019 0 0.032130852223650447 -0.0096183453476295019 0 0.032217781034732315 -0.0092245702015877201 0 0.031697404377200637 -0.0092112734022910103 0 0.032548491970322169 -0.0097989131610497441 0 0.032130852223650447 -0.0096183453476295019 0 0.032217781034732315 -0.0092245702015877201 0 0.032548491970322169 -0.0097989131610497441 0 0.032217781034732315 -0.0092245702015877201 0 0.032754837631040368 -0.0091441180391515411 0 0.032282530446116141 -0.0087639108717826701 0 0.032217781034732315 -0.0092245702015877201 0 0.032754837631040368 -0.0091441180391515411 0 0.030702087281624893 -0.0070888871614882198 0 0.026672018882600478 -0.0079130214332061612 0 0.028107780975923355 -0.005460290403240157 0 0.028081042986965208 -0.0069105644538527697 0 0.026973993153864111 -0.0060680655103794385 0 0.028107780975923355 -0.005460290403240157 0 0.026973993153864111 -0.0060680655103794385 0 0.026358985907529098 -0.0051129820629657536 0 0.032282530446116141 -0.0087639108717826701 0 0.031867206907438196 -0.0088067731070850374 0 0.031826701826722543 -0.0083982552158601669 0 0.030702087281624893 -0.0070888871614882198 0 0.030552288216790586 -0.0074418264248061897 0 0.032282530446116141 -0.0087639108717826701 0 0.032217781034732315 -0.0092245702015877201 0 0.031867206907438196 -0.0088067731070850374 0 0.032217781034732315 -0.0092245702015877201 0 0.031697404377200637 -0.0092112734022910103 0 0.031867206907438196 -0.0088067731070850374 0 0.031849233194135657 -0.0092563490303029464 0 0.031564723426636798 -0.0086494535451617418 0 0.031697404377200637 -0.0092112734022910103 0 0.031531411817522441 -0.008606272031547714 0 0.031867206907438196 -0.0088067731070850374 0 0.031284565066816226 -0.0087942023778885877 0 0.031379950242711799 -0.0092701085998211606 0 0.031531411817522441 -0.008606272031547714 0 0.031379950242711799 -0.0092701085998211606 0 0.032015928724149906 -0.0092829888002012237 0 0.031531411817522441 -0.008606272031547714 0 0.031284565066816226 -0.0087942023778885877 0 0.031531411817522441 -0.008606272031547714 0 0.031313438048996639 -0.0085286871545910883 0 0.031531411817522441 -0.008606272031547714 0 0.031313438048996639 -0.0085286871545910883 0 0.031339484773239827 -0.0083815639352918143 0 0.031531411817522441 -0.008606272031547714 0 0.031867206907438196 -0.0088067731070850374 0 0.031826701826722543 -0.0083982552158601669 0 0.029494506838503434 -0.0064781832788125175 0 0.031045933124745569 -0.0080279248990732053 0 0.029679982498014349 -0.0076602051154125751 0 0.029494506838503434 -0.0064781832788125175 0 0.029679982498014349 -0.0076602051154125751 0 0.028900916409018242 -0.0074958871159342298 0 0.030552288216790586 -0.0074418264248061897 0 0.031074335734365646 -0.0079752444618760143 0 0.031531411817522441 -0.008606272031547714 0 0.031826701826722543 -0.0083982552158601669 0 0.031339484773239827 -0.0083815639352918143 0 0.031826701826722543 -0.0083982552158601669 0 0.031339484773239827 -0.0083815639352918143 0 0.031045933124745569 -0.0080279248990732053 0 0.03126292907109058 -0.0083165607180262172 0 0.031313438048996639 -0.0085286871545910883 0 0.031339484773239827 -0.0083815639352918143 0 0.03126292907109058 -0.0083165607180262172 0 0.031339484773239827 -0.0083815639352918143 0 0.031045933124745569 -0.0080279248990732053 0 0.03092252884501108 -0.0080931003445677378 0 0.029786559915414568 -0.0077271236281689611 0 0.030505167269826029 -0.0078647061732744702 0 0.030285234200090466 -0.0081727695132543625 0 0.029927299366933811 -0.0080709605662309565 0 0.030505167269826029 -0.0078647061732744702 0 0.029679982498014349 -0.0076602051154125751 0 0.029927299366933811 -0.0080709605662309565 0 0.031424790485456856 -0.0083657087151444778 0 0.031045933124745569 -0.0080279248990732053 0 0.029679982498014349 -0.0076602051154125751 0 0.029679982498014349 -0.0076602051154125751 0 0.029273559285588602 -0.0082063067690315728 0 0.029927299366933811 -0.0080709605662309565 0 0.029679982498014349 -0.0076602051154125751 0 0.028900916409018242 -0.0074958871159342298 0 0.029273559285588602 -0.0082063067690315728 0 0.028900916409018242 -0.0074958871159342298 0 0.028487469726319846 -0.0079790175070943471 0 0.029273559285588602 -0.0082063067690315728 0 0.028900916409018242 -0.0074958871159342298 0 0.028487469726319846 -0.0079790175070943471 0 0.028081042986965208 -0.0069105644538527697 0 0.028487469726319846 -0.0079790175070943471 0 0.027607044007583972 -0.0077634818754002957 0 0.028081042986965208 -0.0069105644538527697 0 0.027607044007583972 -0.0077634818754002957 0 0.028081042986965208 -0.0069105644538527697 0 0.027023010090046998 -0.0069826422647275418 0 0.028081042986965208 -0.0069105644538527697 0 0.026973993153864111 -0.0060680655103794385 0 0.027023010090046998 -0.0069826422647275418 0 0.028107780975923355 -0.005460290403240157 0 0.029494506838503434 -0.0064781832788125175 0 0.028081042986965208 -0.0069105644538527697 0 0.029494506838503434 -0.0064781832788125175 0 0.028900916409018242 -0.0074958871159342298 0 0.028081042986965208 -0.0069105644538527697 0 0.028208380276200831 -0.00023326156724868673 0 0.029780718163039756 -0.00053140202629579621 0 0.028480109140866863 -0.0084711738391429533 0 0.027176340976416295 -0.008771785829500299 0 0.028619991663846784 -0.009136082742123906 0 0.028480109140866863 -0.0084711738391429533 0 0.027176340976416295 -0.008771785829500299 0 0.026958900288574783 -0.0080719055690213135 0 0.028706685296260893 -0.0087470980757555512 0 0.027120339761312461 -0.0083476547605929388 0 0.028937538553926022 -0.0090235176618195696 0 0.027292653312965848 -0.0086565929223003379 0 0.028240198788337181 -0.0084007219910694781 0 0.027607044007583972 -0.0077634818754002957 0 0.027292653312965848 -0.0086565929223003379 0 0.026691411952051405 -0.0076777304343025208 0 0.027607044007583972 -0.0077634818754002957 0 0.027292653312965848 -0.0086565929223003379 0 0.028240198788337181 -0.0084007219910694781 0 0.028487469726319846 -0.0079790175070943471 0 0.027607044007583972 -0.0077634818754002957 0 0.028240198788337181 -0.0084007219910694781 0 0.028487469726319846 -0.0079790175070943471 0 0.028240198788337181 -0.0084007219910694781 0 0.028812741967171283 -0.008488893179227958 0 0.028937538553926022 -0.0090235176618195696 0 0.028240198788337181 -0.0084007219910694781 0 0.028812741967171283 -0.008488893179227958 0 0.028812741967171283 -0.008488893179227958 0 0.029273559285588602 -0.0082063067690315728 0 0.029259271450577145 -0.0086232019790435602 0 0.028937538553926022 -0.0090235176618195696 0 0.028812741967171283 -0.008488893179227958 0 0.029259271450577145 -0.0086232019790435602 0 0.028487469726319846 -0.0079790175070943471 0 0.028812741967171283 -0.008488893179227958 0 0.029273559285588602 -0.0082063067690315728 0 0.029273559285588602 -0.0082063067690315728 0 0.029633526808859327 -0.0085078089628275264 0 0.029927299366933811 -0.0080709605662309565 0 0.029633526808859327 -0.0085078089628275264 0 0.029927299366933811 -0.0080709605662309565 0 0.029990270515832019 -0.0084050881682365495 0 0.029633526808859327 -0.0085078089628275264 0 0.029259271450577145 -0.0086232019790435602 0 0.029552262764584787 -0.0088422382879491321 0 0.029273559285588602 -0.0082063067690315728 0 0.029633526808859327 -0.0085078089628275264 0 0.029259271450577145 -0.0086232019790435602 0 0.030285234200090466 -0.0081727695132543625 0 0.029927299366933811 -0.0080709605662309565 0 0.029990270515832019 -0.0084050881682365495 0 0.029633526808859327 -0.0085078089628275264 0 0.029990270515832019 -0.0084050881682365495 0 0.029851784359978303 -0.0087053255001195134 0 0.029990270515832019 -0.0084050881682365495 0 0.030225810710747904 -0.0083930945802701846 0 0.030147631470796632 -0.0086678246242652829 0 0.030225810710747904 -0.0083930945802701846 0 0.030147631470796632 -0.0086678246242652829 0 0.030460229206031364 -0.0084216714107016293 0 0.030285234200090466 -0.0081727695132543625 0 0.030225810710747904 -0.0083930945802701846 0 0.030460229206031364 -0.0084216714107016293 0 0.030285234200090466 -0.0081727695132543625 0 0.029990270515832019 -0.0084050881682365495 0 0.030225810710747904 -0.0083930945802701846 0 0.030147631470796632 -0.0086678246242652829 0 0.0304528241834011 -0.0088578262765715426 0 0.030460229206031364 -0.0084216714107016293 0 0.030147631470796632 -0.0086678246242652829 0 0.029851784359978303 -0.0087053255001195134 0 0.029957817352538222 -0.0090347522568794032 0 0.029990270515832019 -0.0084050881682365495 0 0.030147631470796632 -0.0086678246242652829 0 0.029851784359978303 -0.0087053255001195134 0 0.030147631470796632 -0.0086678246242652829 0 0.029957817352538222 -0.0090347522568794032 0 0.0304528241834011 -0.0088578262765715426 0 0.028480109140866863 -0.0084711738391429533 0 0.029957817352538222 -0.0090347522568794032 0 0.028619991663846784 -0.009136082742123906 0 0.028706685296260893 -0.0087470980757555512 0 0.02986701997377816 -0.0090345927495691543 0 0.028937538553926022 -0.0090235176618195696 0 0.029957817352538222 -0.0090347522568794032 0 0.029552262764584787 -0.0088422382879491321 0 0.028937538553926022 -0.0090235176618195696 0 0.029259271450577145 -0.0086232019790435602 0 0.029552262764584787 -0.0088422382879491321 0 0.029851784359978303 -0.0087053255001195134 0 0.029957817352538222 -0.0090347522568794032 0 0.029552262764584787 -0.0088422382879491321 0 0.029633526808859327 -0.0085078089628275264 0 0.029851784359978303 -0.0087053255001195134 0 0.029552262764584787 -0.0088422382879491321 0 0.029957817352538222 -0.0090347522568794032 0 0.02998470896330839 -0.0094613550850574449 0 0.028619991663846784 -0.009136082742123906 0 0.031597440877930344 0.0077079520052855148 0 0.03207760148029061 0.0077602998430030216 0 0.030898042706107885 0.0080349043058379858 0 0.031158759959692004 -0.001128117933117273 0 0.029780718163039756 -0.00053140202629579621 0 0.031597440877930344 0.0077079520052855148 0 0.032194725153839282 0.0078729277861130775 0 0.031784883520839483 0.0072629710284633177 0 0.031597440877930344 0.0077079520052855148 0 0.03084789344295339 0.0074638565654936229 0 0.030898042706107885 0.0080349043058379858 0 0.029957817352538222 -0.0090347522568794032 0 0.02998470896330839 -0.0094613550850574449 0 0.0304528241834011 -0.0088578262765715426 0 0.032314289301385052 0.0042562412658358967 0 0.031158759959692004 -0.001128117933117273 0 0.032194725153839282 0.0078729277861130775 0 0.032288165383574693 0.0069313233374384596 0 0.031784883520839483 0.0072629710284633177 0 0.032288165383574693 0.0069313233374384596 0 0.032750855169329546 0.0062383116965630467 0 0.033322686272702982 0.0073001425882257007 0 0.032194725153839282 0.0078729277861130775 0 0.032288165383574693 0.0069313233374384596 0 0.033322686272702982 0.0073001425882257007 0 0.032288165383574693 0.0069313233374384596 0 0.031784883520839483 0.0072629710284633177 0 0.031576592528595494 0.0064754766769805645 0 0.031217334801744271 0.0070724878321437156 0 0.031784883520839483 0.0072629710284633177 0 0.031576592528595494 0.0064754766769805645 0 0.031597440877930344 0.0077079520052855148 0 0.031217334801744271 0.0070724878321437156 0 0.03084789344295339 0.0074638565654936229 0 0.031597440877930344 0.0077079520052855148 0 0.031217334801744271 0.0070724878321437156 0 0.031784883520839483 0.0072629710284633177 0 0.030498859192110154 0.0069393955362216072 0 0.03084789344295339 0.0074638565654936229 0 0.030072153855885828 0.0075599471041584319 0 0.031217334801744271 0.0070724878321437156 0 0.030498859192110154 0.0069393955362216072 0 0.030921495099438211 0.00634018581296753 0 0.031217334801744271 0.0070724878321437156 0 0.030498859192110154 0.0069393955362216072 0 0.03084789344295339 0.0074638565654936229 0 0.03084789344295339 0.0074638565654936229 0 0.030898042706107885 0.0080349043058379858 0 0.030072153855885828 0.0075599471041584319 0 0.029780553498647045 0.0082196632442422535 0 0.030072153855885828 0.0075599471041584319 0 0.029219420740918101 0.0077796538617748 0 0.029780553498647045 0.0082196632442422535 0 0.030898042706107885 0.0080349043058379858 0 0.030072153855885828 0.0075599471041584319 0 0.030498859192110154 0.0069393955362216072 0 0.029752361977458081 0.0068677902226930067 0 0.030189256985133917 0.0064015797356977719 0 0.030498859192110154 0.0069393955362216072 0 0.030072153855885828 0.0075599471041584319 0 0.029752361977458081 0.0068677902226930067 0 0.030072153855885828 0.0075599471041584319 0 0.029752361977458081 0.0068677902226930067 0 0.029174376172799093 0.0071603513324584468 0 0.030189256985133917 0.0064015797356977719 0 0.03086597445641855 0.0056618000346280043 0 0.029593064811968151 0.006068944677640074 0 0.029752361977458081 0.0068677902226930067 0 0.029611648978864681 0.0065068391846681327 0 0.030189256985133917 0.0064015797356977719 0 0.029611648978864681 0.0065068391846681327 0 0.030189256985133917 0.0064015797356977719 0 0.029593064811968151 0.006068944677640074 0 0.030498859192110154 0.0069393955362216072 0 0.030189256985133917 0.0064015797356977719 0 0.030921495099438211 0.00634018581296753 0 0.030189256985133917 0.0064015797356977719 0 0.030921495099438211 0.00634018581296753 0 0.03086597445641855 0.0056618000346280043 0 0.030921495099438211 0.00634018581296753 0 0.03086597445641855 0.0056618000346280043 0 0.031245530908294569 0.0060778000369194314 0 0.030965832094325504 0.0071281268019799575 0 0.030751177997371856 0.0068159032480553635 0 0.030248914691402402 0.0068202614300716573 0 0.030965832094325504 0.0071281268019799575 0 0.030751177997371856 0.0068159032480553635 0 0.031058582172860651 0.0068345007033287601 0 0.030852714039400105 0.0063571395713643052 0 0.029700759267988212 0.0065290152083112138 0 0.030965832094325504 0.0071281268019799575 0 0.029711874148746112 0.0069985688438473767 0 0.030248914691402402 0.0068202614300716573 0 0.030612148785420994 0.0067949737702141851 0 0.029816425176594798 0.0066969413378779119 0 0.030751177997371856 0.0068159032480553635 0 0.030248914691402402 0.0068202614300716573 0 0.029637563502727289 0.0063423870744873847 0 0.029711874148746112 0.0069985688438473767 0 0.030248914691402402 0.0068202614300716573 0 0.029637563502727289 0.0063423870744873847 0 0.030418717365404312 0.0065942032749002517 0 0.029834490488888643 0.0064434193130033166 0 0.029894882735674432 0.0070444966647161423 0 0.030751177997371856 0.0068159032480553635 0 0.030418717365404312 0.0065942032749002517 0 0.029894882735674432 0.0070444966647161423 0 0.030751177997371856 0.0068159032480553635 0 0.030418717365404312 0.0065942032749002517 0 0.031013443297999141 0.0064465933484014123 0 0.030418717365404312 0.0065942032749002517 0 0.031013443297999141 0.0064465933484014123 0 0.030479583320543457 0.0061725518949872276 0 0.030751177997371856 0.0068159032480553635 0 0.031058582172860651 0.0068345007033287601 0 0.031013443297999141 0.0064465933484014123 0 0.030973359735347507 0.0058591416010072882 0 0.030479583320543457 0.0061725518949872276 0 0.030531550729249717 0.0055182739361694664 0 0.031013443297999141 0.0064465933484014123 0 0.030973359735347507 0.0058591416010072882 0 0.031424043668636957 0.0058198508156136718 0 0.031013443297999141 0.0064465933484014123 0 0.030973359735347507 0.0058591416010072882 0 0.030479583320543457 0.0061725518949872276 0 0.030479583320543457 0.0061725518949872276 0 0.029834490488888643 0.0064434193130033166 0 0.029825554690337531 0.0058122978999889914 0 0.030418717365404312 0.0065942032749002517 0 0.030479583320543457 0.0061725518949872276 0 0.029834490488888643 0.0064434193130033166 0 0.033083716219811717 0.0060025854693651686 0 0.032666266164918079 0.0061345997587392703 0 0.032906680981637869 0.0056617835082938906 0 0.033083716219811717 0.0060025854693651686 0 0.033404369815674809 0.0058285503303188557 0 0.032906680981637869 0.0056617835082938906 0 0.032136035330232987 0.0063234940337514632 0 0.031786891935982012 0.0057178584696140856 0 0.031013443297999141 0.0064465933484014123 0 0.031580631215282935 0.0064093665395213934 0 0.031424043668636957 0.0058198508156136718 0 0.032666266164918079 0.0061345997587392703 0 0.032196555900475939 0.0057482341321840949 0 0.032906680981637869 0.0056617835082938906 0 0.031580631215282935 0.0064093665395213934 0 0.031837907263397462 0.0069756090207944727 0 0.031366541510655536 0.0068291013689951744 0 0.031013443297999141 0.0064465933484014123 0 0.031580631215282935 0.0064093665395213934 0 0.031366541510655536 0.0068291013689951744 0 0.031058582172860651 0.0068345007033287601 0 0.031013443297999141 0.0064465933484014123 0 0.031366541510655536 0.0068291013689951744 0 0.032666266164918079 0.0061345997587392703 0 0.033070799208189408 0.0062414894555876442 0 0.032988296564579689 0.0065359412959787146 0 0.032136035330232987 0.0063234940337514632 0 0.032401643489481019 0.006409881607605453 0 0.033083716219811717 0.0060025854693651686 0 0.032666266164918079 0.0061345997587392703 0 0.033070799208189408 0.0062414894555876442 0 0.033083716219811717 0.0060025854693651686 0 0.033070799208189408 0.0062414894555876442 0 0.033369454119327041 0.0061374270238609167 0 0.032401643489481019 0.006409881607605453 0 0.033000254871211103 0.0065141819364071627 0 0.032401643489481019 0.006409881607605453 0 0.03333068115608772 0.0063793782997384751 0 0.033070799208189408 0.0062414894555876442 0 0.032988296564579689 0.0065359412959787146 0 0.033321034671075583 0.0064388698276854001 0 0.033079455145871781 0.0064814866105858491 0 0.033270999607850141 0.0068647932271954943 0 0.033321034671075583 0.0064388698276854001 0 0.032278960156731235 0.0053377366922876222 0 0.03161940350246658 0.005833580181828793 0 0.032100349275917303 0.0061579574833695938 0 0.030965832094325504 0.0071281268019799575 0 0.031837907263397462 0.0069756090207944727 0 0.031366541510655536 0.0068291013689951744 0 0.030852714039400105 0.0063571395713643052 0 0.032401643489481019 0.006409881607605453 0 0.03086597445641855 0.0056618000346280043 0 0.032278960156731235 0.0053377366922876222 0 0.03161940350246658 0.005833580181828793 0 0.030965832094325504 0.0071281268019799575 0 0.031058582172860651 0.0068345007033287601 0 0.031366541510655536 0.0068291013689951744 0 0.03086597445641855 0.0056618000346280043 0 0.03161940350246658 0.005833580181828793 0 0.031245530908294569 0.0060778000369194314 0 0.030921495099438211 0.00634018581296753 0 0.031245530908294569 0.0060778000369194314 0 0.031576592528595494 0.0064754766769805645 0 0.03161940350246658 0.005833580181828793 0 0.031245530908294569 0.0060778000369194314 0 0.031576592528595494 0.0064754766769805645 0 0.03161940350246658 0.005833580181828793 0 0.031576592528595494 0.0064754766769805645 0 0.032100349275917303 0.0061579574833695938 0 0.031217334801744271 0.0070724878321437156 0 0.030921495099438211 0.00634018581296753 0 0.031576592528595494 0.0064754766769805645 0 0.032278960156731235 0.0053377366922876222 0 0.032750855169329546 0.0062383116965630467 0 0.032100349275917303 0.0061579574833695938 0 0.032288165383574693 0.0069313233374384596 0 0.031576592528595494 0.0064754766769805645 0 0.032100349275917303 0.0061579574833695938 0 0.032288165383574693 0.0069313233374384596 0 0.032750855169329546 0.0062383116965630467 0 0.032100349275917303 0.0061579574833695938 0 0.033270999607850141 0.0068647932271954943 0 0.033584789316315436 0.0069681684921969857 0 0.033322686272702982 0.0073001425882257007 0 0.033584789316315436 0.0069681684921969857 0 0.033861019247319234 0.0067422555675520262 0 0.033544545364548067 0.0066670549755283937 0 0.033270999607850141 0.0068647932271954943 0 0.033584789316315436 0.0069681684921969857 0 0.033544545364548067 0.0066670549755283937 0 0.033584789316315436 0.0069681684921969857 0 0.034082848605058752 0.0069958403501951868 0 0.033861019247319234 0.0067422555675520262 0 0.033584789316315436 0.0069681684921969857 0 0.034082848605058752 0.0069958403501951868 0 0.033878072790252227 0.0072365577474210749 0 0.034082848605058752 0.0069958403501951868 0 0.034241129423782428 0.0066906960658846184 0 0.034575145849971921 0.0069347960087044929 0 0.034082848605058752 0.0069958403501951868 0 0.033861019247319234 0.0067422555675520262 0 0.034241129423782428 0.0066906960658846184 0 0.034241129423782428 0.0066906960658846184 0 0.033924672421633877 0.0064727316959003632 0 0.034243936721590061 0.0064012676870781543 0 0.033861019247319234 0.0067422555675520262 0 0.033924672421633877 0.0064727316959003632 0 0.033544545364548067 0.0066670549755283937 0 0.033861019247319234 0.0067422555675520262 0 0.034241129423782428 0.0066906960658846184 0 0.033924672421633877 0.0064727316959003632 0 0.033924672421633877 0.0064727316959003632 0 0.033647900739761837 0.0062729149838851653 0 0.033985625985545762 0.0061895539931576113 0 0.033924672421633877 0.0064727316959003632 0 0.034243936721590061 0.0064012676870781543 0 0.033985625985545762 0.0061895539931576113 0 0.033544545364548067 0.0066670549755283937 0 0.033321034671075583 0.0064388698276854001 0 0.033647900739761837 0.0062729149838851653 0 0.033924672421633877 0.0064727316959003632 0 0.033544545364548067 0.0066670549755283937 0 0.033647900739761837 0.0062729149838851653 0 0.033270999607850141 0.0068647932271954943 0 0.033544545364548067 0.0066670549755283937 0 0.033321034671075583 0.0064388698276854001 0 0.033321034671075583 0.0064388698276854001 0 0.033369454119327041 0.0061374270238609167 0 0.033647900739761837 0.0062729149838851653 0 0.033070799208189408 0.0062414894555876442 0 0.033321034671075583 0.0064388698276854001 0 0.033369454119327041 0.0061374270238609167 0 0.033369454119327041 0.0061374270238609167 0 0.033647900739761837 0.0062729149838851653 0 0.033739241672992581 0.0060074875710095302 0 0.033369454119327041 0.0061374270238609167 0 0.033739241672992581 0.0060074875710095302 0 0.033404369815674809 0.0058285503303188557 0 0.033647900739761837 0.0062729149838851653 0 0.033985625985545762 0.0061895539931576113 0 0.033739241672992581 0.0060074875710095302 0 0.033985625985545762 0.0061895539931576113 0 0.033975857821355405 0.005964636083540276 0 0.034282077162209434 0.0061238550939655238 0 0.034243936721590061 0.0064012676870781543 0 0.033985625985545762 0.0061895539931576113 0 0.034282077162209434 0.0061238550939655238 0 0.033985625985545762 0.0061895539931576113 0 0.033975857821355405 0.005964636083540276 0 0.033739241672992581 0.0060074875710095302 0 0.033975857821355405 0.005964636083540276 0 0.033739241672992581 0.0060074875710095302 0 0.033794084418677331 0.0057875874495306647 0 0.033975857821355405 0.005964636083540276 0 0.033794084418677331 0.0057875874495306647 0 0.034063781538657231 0.005724076508214178 0 0.033794084418677331 0.0057875874495306647 0 0.034063781538657231 0.005724076508214178 0 0.033681374905793718 0.005543169013304464 0 0.033794084418677331 0.0057875874495306647 0 0.033404369815674809 0.0058285503303188557 0 0.033681374905793718 0.005543169013304464 0 0.033404369815674809 0.0058285503303188557 0 0.033325119154556201 0.0055646996626502205 0 0.033681374905793718 0.005543169013304464 0 0.033404369815674809 0.0058285503303188557 0 0.033325119154556201 0.0055646996626502205 0 0.032906680981637869 0.0056617835082938906 0 0.033083716219811717 0.0060025854693651686 0 0.033369454119327041 0.0061374270238609167 0 0.033404369815674809 0.0058285503303188557 0 0.033739241672992581 0.0060074875710095302 0 0.033794084418677331 0.0057875874495306647 0 0.033404369815674809 0.0058285503303188557 0 0.035785072784943736 0.0060905520871051329 0 0.035965391080521866 0.0060839611748119962 0 0.03589839746351145 0.0060239827400659267 0 0.035965391080521866 0.0060839611748119962 0 0.036056588081041438 0.0060147068876166112 0 0.03589839746351145 0.0060239827400659267 0 0.03589839746351145 0.0060239827400659267 0 0.035782744472059889 0.0060807772173910452 0 0.035780330824189605 0.0059686523610627835 0 0.035785072784943736 0.0060905520871051329 0 0.03589839746351145 0.0060239827400659267 0 0.035782744472059889 0.0060807772173910452 0 0.035160540524039788 0.0054885292902173291 0 0.03497111245744744 0.0054639663847219242 0 0.035061026623111217 0.0060876763612265333 0 0.034478610628679456 0.0054934757960186454 0 0.034682106793954844 0.0061637378271185116 0 0.035160540524039788 0.0054885292902173291 0 0.035061026623111217 0.0060876763612265333 0 0.035517830510944343 0.0061811379433954769 0 0.033975857821355405 0.005964636083540276 0 0.034063781538657231 0.005724076508214178 0 0.034282077162209434 0.0061238550939655238 0 0.035785072784943736 0.0060905520871051329 0 0.035782744472059889 0.0060807772173910452 0 0.035517830510944343 0.0061811379433954769 0 0.035476291343669177 0.0057900795491231567 0 0.035540132629737257 0.0061665842175478948 0 0.035061026623111217 0.0060876763612265333 0 0.035517830510944343 0.0061811379433954769 0 0.035283464947228324 0.0063574467582402025 0 0.035965391080521866 0.0060839611748119962 0 0.035517830510944343 0.0061811379433954769 0 0.035999656126411261 0.0061937801657850023 0 0.035785072784943736 0.0060905520871051329 0 0.035965391080521866 0.0060839611748119962 0 0.035517830510944343 0.0061811379433954769 0 0.035517830510944343 0.0061811379433954769 0 0.036201932098839672 0.0064228851531034368 0 0.035999656126411261 0.0061937801657850023 0 0.035517830510944343 0.0061811379433954769 0 0.035283464947228324 0.0063574467582402025 0 0.036201932098839672 0.0064228851531034368 0 0.035283464947228324 0.0063574467582402025 0 0.035783076469920412 0.0064087650748626676 0 0.036039007173426771 0.0059845355666817042 0 0.035360641733002379 0.0063448521089207559 0 0.03611460980719549 0.0061973114844689628 0 0.035283464947228324 0.0063574467582402025 0 0.035327927551324856 0.0065949021048874569 0 0.035783076469920412 0.0064087650748626676 0 0.035061026623111217 0.0060876763612265333 0 0.035283464947228324 0.0063574467582402025 0 0.034813092885303064 0.0066194543165076433 0 0.034243936721590061 0.0064012676870781543 0 0.034282077162209434 0.0061238550939655238 0 0.034813092885303064 0.0066194543165076433 0 0.034682106793954844 0.0061637378271185116 0 0.034800242676174917 0.006621241204818335 0 0.035283464947228324 0.0063574467582402025 0 0.034813092885303064 0.0066194543165076433 0 0.035327927551324856 0.0065949021048874569 0 0.034241129423782428 0.0066906960658846184 0 0.034243936721590061 0.0064012676870781543 0 0.034813092885303064 0.0066194543165076433 0 0.034241129423782428 0.0066906960658846184 0 0.034813092885303064 0.0066194543165076433 0 0.034575145849971921 0.0069347960087044929 0 0.034813092885303064 0.0066194543165076433 0 0.035044376522955493 0.0069940912962741728 0 0.035327927551324856 0.0065949021048874569 0 0.034813092885303064 0.0066194543165076433 0 0.035044376522955493 0.0069940912962741728 0 0.034575145849971921 0.0069347960087044929 0 0.035044376522955493 0.0069940912962741728 0 0.034575145849971921 0.0069347960087044929 0 0.034706022239982634 0.0073784372674395938 0 0.034082848605058752 0.0069958403501951868 0 0.034575145849971921 0.0069347960087044929 0 0.034706022239982634 0.0073784372674395938 0 0.035593803823178102 0.0066485677660219041 0 0.035759851577417887 0.0069361105814097091 0 0.035783076469920412 0.0064087650748626676 0 0.035044376522955493 0.0069940912962741728 0 0.035556495549457681 0.0068554686130077288 0 0.035807315861678422 0.0069869193234219501 0 0.035044376522955493 0.0069940912962741728 0 0.034706022239982634 0.0073784372674395938 0 0.035807315861678422 0.0069869193234219501 0 0.035593803823178102 0.0066485677660219041 0 0.035327927551324856 0.0065949021048874569 0 0.035556495549457681 0.0068554686130077288 0 0.035593803823178102 0.0066485677660219041 0 0.035327927551324856 0.0065949021048874569 0 0.035783076469920412 0.0064087650748626676 0 0.035044376522955493 0.0069940912962741728 0 0.035327927551324856 0.0065949021048874569 0 0.035556495549457681 0.0068554686130077288 0 0.035593803823178102 0.0066485677660219041 0 0.035556495549457681 0.0068554686130077288 0 0.035759851577417887 0.0069361105814097091 0 0.037334317801661153 0.0028120045791285909 0 0.0359247471097855 -0.00080054944925679551 0 0.033101008126735595 -0.0089809089427596665 0 0.033626844144894384 -0.0090163612360781228 0 0.033446814558650007 -0.0094803694418091489 0 0.033101008126735595 -0.0089809089427596665 0 0.032693491174426603 -0.0091524407353923594 0 0.033446814558650007 -0.0094803694418091489 0 0.033434665495575215 -0.00092094995015100628 0 0.0359247471097855 -0.00080054944925679551 0 0.033101008126735595 -0.0089809089427596665 0 0.033132634775593736 -0.0086208988010076804 0 0.033626844144894384 -0.0090163612360781228 0 0.033101008126735595 -0.0089809089427596665 0 0.033132634775593736 -0.0086208988010076804 0 0.032553661292066827 -0.0085356133429854864 0 0.033011544972764678 -0.0086622770466146873 0 0.032274311955136276 -0.008738081697917852 0 0.033101008126735595 -0.0089809089427596665 0 0.032553661292066827 -0.0085356133429854864 0 0.032693491174426603 -0.0091524407353923594 0 0.034706022239982634 0.0073784372674395938 0 0.033878072790252227 0.0072365577474210749 0 0.033668888384833597 0.0075656585319035944 0 0.033434665495575215 -0.00092094995015100628 0 0.032957436139688136 -0.00054159132959418366 0 0.034082848605058752 0.0069958403501951868 0 0.034706022239982634 0.0073784372674395938 0 0.033878072790252227 0.0072365577474210749 0 0.033000254871211103 0.0065141819364071627 0 0.033312315876189519 0.0072584318180421888 0 0.032194725153839282 0.0078729277861130775 0 0.033668888384833597 0.0075656585319035944 0 0.033322686272702982 0.0073001425882257007 0 0.033584789316315436 0.0069681684921969857 0 0.033878072790252227 0.0072365577474210749 0 0.033322686272702982 0.0073001425882257007 0 0.033878072790252227 0.0072365577474210749 0 0.033668888384833597 0.0075656585319035944 0 0.033322686272702982 0.0073001425882257007 0 0.031158759959692004 -0.001128117933117273 0 0.032957436139688136 -0.00054159132959418366 0 0.031170570888170445 -0.0084195338881241644 0 0.031958696068411688 -0.008816267841558284 0 0.031876251938618094 -0.0084776755829316843 0 0.031158759959692004 -0.001128117933117273 0 0.031094248529421473 -0.0094931689227860834 0 0.02998470896330839 -0.0094613550850574449 0 0.030793920803879504 -0.0092735684183062415 0 0.0304528241834011 -0.0088578262765715426 0 0.031888382552563384 -0.0090707755009675206 0 0.030793920803879504 -0.0092735684183062415 0 0.03084813641566389 -0.0088200326098506285 0 0.032274311955136276 -0.008738081697917852 0 0.031094248529421473 -0.0094931689227860834 0 0.032553661292066827 -0.0085356133429854864 0 0.032693491174426603 -0.0091524407353923594 0 0.031958696068411688 -0.008816267841558284 0 0.032553661292066827 -0.0085356133429854864 0 0.031958696068411688 -0.008816267841558284 0 0.031876251938618094 -0.0084776755829316843 0 0.031048696568561084 -0.0083634189027563931 0 0.031863334052271625 -0.0081238081965911476 0 0.031888382552563384 -0.0090707755009675206 0 0.031016696626638546 -0.0084070174000255189 0 0.03084813641566389 -0.0088200326098506285 0 0.031016696626638546 -0.0084070174000255189 0 0.0304528241834011 -0.0088578262765715426 0 0.030460229206031364 -0.0084216714107016293 0 0.031016696626638546 -0.0084070174000255189 0 0.0304528241834011 -0.0088578262765715426 0 0.03084813641566389 -0.0088200326098506285 0 0.030793920803879504 -0.0092735684183062415 0 0.0304528241834011 -0.0088578262765715426 0 0.03084813641566389 -0.0088200326098506285 0 0.031016696626638546 -0.0084070174000255189 0 0.030460229206031364 -0.0084216714107016293 0 0.030708963511689322 -0.0082019126316369706 0 0.030505167269826029 -0.0078647061732744702 0 0.030285234200090466 -0.0081727695132543625 0 0.030708963511689322 -0.0082019126316369706 0 0.030285234200090466 -0.0081727695132543625 0 0.030460229206031364 -0.0084216714107016293 0 0.030708963511689322 -0.0082019126316369706 0 0.031087279939437398 -0.0081625847771537013 0 0.031016696626638546 -0.0084070174000255189 0 0.031138626516263371 -0.0083131491089564382 0 0.031087279939437398 -0.0081625847771537013 0 0.031016696626638546 -0.0084070174000255189 0 0.030708963511689322 -0.0082019126316369706 0 0.031087279939437398 -0.0081625847771537013 0 0.031138626516263371 -0.0083131491089564382 0 0.031082064076979186 -0.008378445124779808 0 0.031863334052271625 -0.0081238081965911476 0 0.031967384819456442 -0.0080442098307506801 0 0.031138626516263371 -0.0083131491089564382 0 0.031082064076979186 -0.008378445124779808 0 0.030944154125667245 -0.0082986007000449662 0 0.033132634775593736 -0.0086208988010076804 0 0.032477068385216509 -0.0079079084571609705 0 0.033608905591663983 -0.007739860019667812 0 0.033132634775593736 -0.0086208988010076804 0 0.031888382552563384 -0.0090707755009675206 0 0.032477068385216509 -0.0079079084571609705 0 0.031888382552563384 -0.0090707755009675206 0 0.031016696626638546 -0.0084070174000255189 0 0.032477068385216509 -0.0079079084571609705 0 0.034457900884114094 -0.0080373848758961506 0 0.033989558694294604 -0.0079567473414107626 0 0.033132634775593736 -0.0086208988010076804 0 0.033608905591663983 -0.007739860019667812 0 0.033778505606657717 -0.008504494695462746 0 0.034319529176909412 -0.0082474689962855809 0 0.033608905591663983 -0.007739860019667812 0 0.033778505606657717 -0.008504494695462746 0 0.030940988294957377 -0.0084509331906864708 0 0.031082064076979186 -0.008378445124779808 0 0.030944154125667245 -0.0082986007000449662 0 0.030802355647083706 -0.0084349228346981761 0 0.030940988294957377 -0.0084509331906864708 0 0.030944154125667245 -0.0082986007000449662 0 0.030802355647083706 -0.0084349228346981761 0 0.030944154125667245 -0.0082986007000449662 0 0.030658120082906668 -0.0083316775394395234 0 0.031967384819456442 -0.0080442098307506801 0 0.033989558694294604 -0.0079567473414107626 0 0.034319529176909412 -0.0082474689962855809 0 0.033608905591663983 -0.007739860019667812 0 0.034501706713515282 -0.0076219495731423221 0 0.034811205507991959 -0.0073363942788872089 0 0.035517134530230005 -0.0073062026562395145 0 0.035210385288530148 -0.0078816860820894053 0 0.033989558694294604 -0.0079567473414107626 0 0.03635109638076197 -0.0072497266989182615 0 0.035517134530230005 -0.0073062026562395145 0 0.036107241375592077 -0.007973457340860874 0 0.036149649404177399 -0.0073306764882008222 0 0.03635109638076197 -0.0072497266989182615 0 0.036016954577429136 -0.0073302935126654603 0 0.035517134530230005 -0.0073062026562395145 0 0.035210385288530148 -0.0078816860820894053 0 0.036107241375592077 -0.007973457340860874 0 0.035210385288530148 -0.0078816860820894053 0 0.035291951482116959 -0.0085995376534392879 0 0.036107241375592077 -0.007973457340860874 0 0.034524024746563416 -0.0080108574495579756 0 0.034811205507991959 -0.0073363942788872089 0 0.035210385288530148 -0.0078816860820894053 0 0.034524024746563416 -0.0080108574495579756 0 0.035210385288530148 -0.0078816860820894053 0 0.034715270714810217 -0.0084953204995453484 0 0.03706783885867241 -0.0070847424996166196 0 0.03674943460802247 -0.0079505228368698319 0 0.035291951482116959 -0.0085995376534392879 0 0.034242305190550326 -0.0091785003432228261 0 0.034715270714810217 -0.0084953204995453484 0 0.035210385288530148 -0.0078816860820894053 0 0.035291951482116959 -0.0085995376534392879 0 0.034715270714810217 -0.0084953204995453484 0 0.038739246684212941 -0.0057936849744805357 0 0.037948381029725607 -0.0052407420017404546 0 0.037827947754049511 -0.0065435396371775366 0 0.03706783885867241 -0.0070847424996166196 0 0.036910068989061608 -0.0072769274617216616 0 0.038739246684212941 -0.0057936849744805357 0 0.037948381029725607 -0.0052407420017404546 0 0.038774725623196532 -0.0048562151068222998 0 0.038739246684212941 -0.0057936849744805357 0 0.038774725623196532 -0.0048562151068222998 0 0.039525455111054215 -0.0051390394730503556 0 0.034242305190550326 -0.0091785003432228261 0 0.034171165929829231 -0.008800859150330971 0 0.033626844144894384 -0.0090163612360781228 0 0.038774725623196532 -0.0048562151068222998 0 0.039525455111054215 -0.0051390394730503556 0 0.039289215183703111 -0.0042415211316922706 0 0.034457900884114094 -0.0080373848758961506 0 0.034191381909057614 -0.0087802433416414218 0 0.034524024746563416 -0.0080108574495579756 0 0.034171165929829231 -0.008800859150330971 0 0.034715270714810217 -0.0084953204995453484 0 0.034319529176909412 -0.0082474689962855809 0 0.034171165929829231 -0.008800859150330971 0 0.033778505606657717 -0.008504494695462746 0 0.034242305190550326 -0.0091785003432228261 0 0.034171165929829231 -0.008800859150330971 0 0.034715270714810217 -0.0084953204995453484 0 0.033132634775593736 -0.0086208988010076804 0 0.033778505606657717 -0.008504494695462746 0 0.033626844144894384 -0.0090163612360781228 0 0.034171165929829231 -0.008800859150330971 0 0.033778505606657717 -0.008504494695462746 0 0.033626844144894384 -0.0090163612360781228 0 0.034242305190550326 -0.0091785003432228261 0 0.033626844144894384 -0.0090163612360781228 0 0.033446814558650007 -0.0094803694418091489 0 0.03674943460802247 -0.0079505228368698319 0 0.0359247471097855 -0.00080054944925679551 0 0.035759851577417887 0.0069361105814097091 0 0.036699798096071518 0.0064866848979402442 0 0.035783076469920412 0.0064087650748626676 0 0.0359247471097855 -0.00080054944925679551 0 0.038396357686991359 0.0013693690459016094 0 0.039525455111054215 -0.0051390394730503556 0 0.04024963799875185 -0.0045952261003391233 0 0.039289215183703111 -0.0042415211316922706 0 0.036699798096071518 0.0064866848979402442 0 0.036039007173426771 0.0059845355666817042 0 0.036904208417898793 0.005716116921565477 0 0.036699798096071518 0.0064866848979402442 0 0.035783076469920412 0.0064087650748626676 0 0.036039007173426771 0.0059845355666817042 0 0.035965391080521866 0.0060839611748119962 0 0.035999656126411261 0.0061937801657850023 0 0.036284405705636381 0.0061502224152019738 0 0.036201932098839672 0.0064228851531034368 0 0.035999656126411261 0.0061937801657850023 0 0.036284405705636381 0.0061502224152019738 0 0.036201932098839672 0.0064228851531034368 0 0.036284405705636381 0.0061502224152019738 0 0.036650560069909695 0.0063071587338017782 0 0.03611460980719549 0.0061973114844689628 0 0.03678801435783189 0.0060170571906759387 0 0.036284405705636381 0.0061502224152019738 0 0.036521660263116637 0.0060223116407303523 0 0.036650560069909695 0.0063071587338017782 0 0.036521660263116637 0.0060223116407303523 0 0.036273616162015583 0.0060129555471668886 0 0.036489639457328062 0.0057295351691216724 0 0.036284405705636381 0.0061502224152019738 0 0.036521660263116637 0.0060223116407303523 0 0.036273616162015583 0.0060129555471668886 0 0.035965391080521866 0.0060839611748119962 0 0.036284405705636381 0.0061502224152019738 0 0.036273616162015583 0.0060129555471668886 0 0.035965391080521866 0.0060839611748119962 0 0.036056588081041438 0.0060147068876166112 0 0.036273616162015583 0.0060129555471668886 0 0.036056588081041438 0.0060147068876166112 0 0.036273616162015583 0.0060129555471668886 0 0.036157267730164401 0.0059143954399019389 0 0.037043841749355613 0.0059461912834181457 0 0.036800705347801985 0.0059224887681881971 0 0.037082690475387634 0.0061908635409468529 0 0.037043841749355613 0.0059461912834181457 0 0.037241305372947835 0.0059006203427836995 0 0.03703438100279266 0.0057485191871035849 0 0.037043841749355613 0.0059461912834181457 0 0.036800705347801985 0.0059224887681881971 0 0.03703438100279266 0.0057485191871035849 0 0.036521660263116637 0.0060223116407303523 0 0.036800705347801985 0.0059224887681881971 0 0.036489639457328062 0.0057295351691216724 0 0.036521660263116637 0.0060223116407303523 0 0.036800705347801985 0.0059224887681881971 0 0.036650560069909695 0.0063071587338017782 0 0.036800705347801985 0.0059224887681881971 0 0.036650560069909695 0.0063071587338017782 0 0.037082690475387634 0.0061908635409468529 0 0.03678801435783189 0.0060170571906759387 0 0.037322496189980577 0.0058210048393733047 0 0.036904208417898793 0.005716116921565477 0 0.037642273172296861 0.0055170034874244692 0 0.037538650501132677 0.006025744514023791 0 0.037948381029725607 -0.0052407420017404546 0 0.038774725623196532 -0.0048562151068222998 0 0.038176187315042756 -0.003765562483938585 0 0.038396357686991359 0.0013693690459016094 0 0.037722322531568611 0.0010825384357293949 0 0.036699798096071518 0.0064866848979402442 0 0.036904208417898793 0.005716116921565477 0 0.037538650501132677 0.006025744514023791 0 0.038774725623196532 -0.0048562151068222998 0 0.039289215183703111 -0.0042415211316922706 0 0.038176187315042756 -0.003765562483938585 0 0.037948381029725607 -0.0052407420017404546 0 0.038176187315042756 -0.003765562483938585 0 0.037294733494977965 -0.0044533159247740154 0 0.037294733494977965 -0.0044533159247740154 0 0.036581910747981089 -0.0041213083707147252 0 0.036496221162925252 -0.0048333242253414633 0 0.037294733494977965 -0.0044533159247740154 0 0.036581910747981089 -0.0041213083707147252 0 0.036969183880155819 -0.0032930702505036976 0 0.038176187315042756 -0.003765562483938585 0 0.037294733494977965 -0.0044533159247740154 0 0.036969183880155819 -0.0032930702505036976 0 0.037722322531568611 0.0010825384357293949 0 0.037782489811689926 0.0013862713314949941 0 0.037642273172296861 0.0055170034874244692 0 0.037538650501132677 0.006025744514023791 0 0.038176953701560136 0.0056375944178769536 0 0.037082690475387634 0.0061908635409468529 0 0.037503912991074341 0.0060653322146374334 0 0.037241305372947835 0.0059006203427836995 0 0.037642273172296861 0.0055170034874244692 0 0.038176953701560136 0.0056375944178769536 0 0.038215541479910589 0.0053453945791707789 0 0.037322496189980577 0.0058210048393733047 0 0.038063042321144082 0.0060091576816120188 0 0.037503912991074341 0.0060653322146374334 0 0.037460829908421665 0.0057964490239720513 0 0.037668990442384864 0.0058204684413481278 0 0.037503912991074341 0.0060653322146374334 0 0.037460829908421665 0.0057964490239720513 0 0.037241305372947835 0.0059006203427836995 0 0.037043841749355613 0.0059461912834181457 0 0.037082690475387634 0.0061908635409468529 0 0.037241305372947835 0.0059006203427836995 0 0.03592586681523275 -0.00096654561209248225 0 0.03553981927560991 -0.0002630766716004165 0 0.035898704132531926 0.00053516304723619712 0 0.037123677138683628 0.0028191944134088099 0 0.036904437633232784 0.0030649532470994494 0 0.03553981927560991 -0.0002630766716004165 0 0.03500000859270818 -0.0012832728698029853 0 0.03500000323413114 0.00032507561103150672 0 0.03592586681523275 -0.00096654561209248225 0 0.035518903657335239 -0.00090352190001234504 0 0.03553981927560991 -0.0002630766716004165 0 0.037123677138683628 0.0028191944134088099 0 0.036375250812067682 0.0018277900659794271 0 0.035518903657335239 -0.00090352190001234504 0 0.03553981927560991 -0.0002630766716004165 0 0.03500000859270818 -0.0012832728698029853 0 0.037900935751847296 0.0059467931164894012 0 0.037668990442384864 0.0058204684413481278 0 0.037905700085949207 0.0056062477986807456 0 0.037503912991074341 0.0060653322146374334 0 0.037900935751847296 0.0059467931164894012 0 0.037668990442384864 0.0058204684413481278 0 0.038176953701560136 0.0056375944178769536 0 0.038215541479910589 0.0053453945791707789 0 0.038685717795010663 0.0053499003280829353 0 0.037782489811689926 0.0013862713314949941 0 0.036127537369867624 -0.00034657262136980247 0 0.038063042321144082 0.0060091576816120188 0 0.037123677138683628 0.0028191944134088099 0 0.038215541479910589 0.0053453945791707789 0 0.038685548477849677 0.0051846650382337319 0 0.038685717795010663 0.0053499003280829353 0 0.035924986503121516 -0.0016008180492495206 0 0.035000056453684807 -0.0012832508664371027 0 0.034999862969669358 -0.0032359344768928236 0 0.037123677138683628 0.0028191944134088099 0 0.036127537369867624 -0.00034657262136980247 0 0.035919449461495709 -0.00096839882715237175 0 0.035518903657335239 -0.00090352190001234504 0 0.03593031917714367 -0.0015679364370214013 0 0.036127537369867624 -0.00034657262136980247 0 0.035000530097148506 -0.0012831948695467914 0 0.035518903657335239 -0.00090352190001234504 0 0.03593031917714367 -0.0015679364370214013 0 0.03500000859270818 -0.0012832728698029853 0 0.035924986503121516 -0.0016008180492495206 0 0.03594446821557875 -0.0029272183669590227 0 0.034999862969669358 -0.0032359344768928236 0 0.036127537369867624 -0.00034657262136980247 0 0.035861352570621362 -0.0036872127010538795 0 0.036581910747981089 -0.0041213083707147252 0 0.036969183880155819 -0.0032930702505036976 0 0.035800555372695074 -0.0037008202397362903 0 0.036969183880155819 -0.0032930702505036976 0 0.035782584464215339 -0.0028598973200569845 0 0.035800555372695074 -0.0037008202397362903 0 0.036581910747981089 -0.0041213083707147252 0 0.035800555372695074 -0.0037008202397362903 0 0.035830895405170676 -0.0044104705982004186 0 0.036581910747981089 -0.0041213083707147252 0 0.035830895405170676 -0.0044104705982004186 0 0.036496221162925252 -0.0048333242253414633 0 0.034999862969669358 -0.0032359344768928236 0 0.035830895405170676 -0.0044104705982004186 0 0.034999895619469139 -0.0051883612143674403 0 0.035861352570621362 -0.0036872127010538795 0 0.035845549830549092 -0.0041582182306575529 0 0.03594446821557875 -0.0029272183669590227 0 0.034999862969669358 -0.0032359344768928236 0 0.035830895405170676 -0.0044104705982004186 0 0.035830895405170676 -0.0044104705982004186 0 0.034999895619469139 -0.0051883612143674403 0 0.03611948529189745 -0.0056278290053431435 0 0.034999895619469139 -0.0051883612143674403 0 0.035586858322473915 -0.0061899213978412705 0 0.03611948529189745 -0.0056278290053431435 0 0.034999895619469139 -0.0051883612143674403 0 0.035586858322473915 -0.0061899213978412705 0 0.034999762607728496 -0.0071402381972286936 0 0.035586858322473915 -0.0061899213978412705 0 0.03611948529189745 -0.0056278290053431435 0 0.036158606065287993 -0.0067811875110467676 0 0.03611948529189745 -0.0056278290053431435 0 0.036806372000522392 -0.0063526438758628456 0 0.036158606065287993 -0.0067811875110467676 0 0.035830895405170676 -0.0044104705982004186 0 0.03611948529189745 -0.0056278290053431435 0 0.036496221162925252 -0.0048333242253414633 0 0.03611948529189745 -0.0056278290053431435 0 0.036496221162925252 -0.0048333242253414633 0 0.036996652935630293 -0.0053645816588906124 0 0.037294733494977965 -0.0044533159247740154 0 0.036496221162925252 -0.0048333242253414633 0 0.036996652935630293 -0.0053645816588906124 0 0.037948381029725607 -0.0052407420017404546 0 0.036996652935630293 -0.0053645816588906124 0 0.037405827600662904 -0.0058666290208601538 0 0.037948381029725607 -0.0052407420017404546 0 0.037294733494977965 -0.0044533159247740154 0 0.036996652935630293 -0.0053645816588906124 0 0.037405827600662904 -0.0058666290208601538 0 0.036806372000522392 -0.0063526438758628456 0 0.037827947754049511 -0.0065435396371775366 0 0.037948381029725607 -0.0052407420017404546 0 0.037405827600662904 -0.0058666290208601538 0 0.037827947754049511 -0.0065435396371775366 0 0.036996652935630293 -0.0053645816588906124 0 0.037405827600662904 -0.0058666290208601538 0 0.036806372000522392 -0.0063526438758628456 0 0.03611948529189745 -0.0056278290053431435 0 0.036996652935630293 -0.0053645816588906124 0 0.036806372000522392 -0.0063526438758628456 0 0.036806372000522392 -0.0063526438758628456 0 0.037827947754049511 -0.0065435396371775366 0 0.036513716555825262 -0.0073536933877914792 0 0.036806372000522392 -0.0063526438758628456 0 0.036513716555825262 -0.0073536933877914792 0 0.036158606065287993 -0.0067811875110467676 0 0.036910068989061608 -0.0072769274617216616 0 0.036552971930349384 -0.0073684660757271552 0 0.036107241375592077 -0.007973457340860874 0 0.036282197316390298 -0.0074569503967584017 0 0.036513716555825262 -0.0073536933877914792 0 0.036107241375592077 -0.007973457340860874 0 0.036282197316390298 -0.0074569503967584017 0 0.036149649404177399 -0.0073306764882008222 0 0.036196411676169341 -0.0074824158956243317 0 0.036282197316390298 -0.0074569503967584017 0 0.036149649404177399 -0.0073306764882008222 0 0.036196411676169341 -0.0074824158956243317 0 0.036513716555825262 -0.0073536933877914792 0 0.036191478502973183 -0.007481325201201117 0 0.036196411676169341 -0.0074824158956243317 0 0.036282197316390298 -0.0074569503967584017 0 0.036513716555825262 -0.0073536933877914792 0 0.036513716555825262 -0.0073536933877914792 0 0.036191478502973183 -0.007481325201201117 0 0.036158606065287993 -0.0067811875110467676 0 0.036647905098249084 -0.008267758113599746 0 0.035800486443299029 -0.0081936959633888314 0 0.036158606065287993 -0.0067811875110467676 0 0.036113661390859406 -0.0090697081736791484 0 0.036647905098249084 -0.008267758113599746 0 0.035800486443299029 -0.0081936959633888314 0 0.035800486443299029 -0.0081936959633888314 0 0.035107877781037064 -0.0085534092004156057 0 0.034999762607728496 -0.0071402381972286936 0 0.035647631969900333 -0.0089564441449738602 0 0.035800486443299029 -0.0081936959633888314 0 0.035107877781037064 -0.0085534092004156057 0 0.034999953711247846 -0.0090927147728464032 0 0.035107877781037064 -0.0085534092004156057 0 0.034999762607728496 -0.0071402381972286936 0 0.035800486443299029 -0.0081936959633888314 0 0.034999762607728496 -0.0071402381972286936 0 0.036158606065287993 -0.0067811875110467676 0 0.035586858322473915 -0.0061899213978412705 0 0.034999762607728496 -0.0071402381972286936 0 0.036158606065287993 -0.0067811875110467676 0 0.036394432405241879 -0.0078698550617792625 0 0.036181942607281366 -0.0068875070345416796 0 0.0051720694814670828 -0.0089884536857544085 0 0.0051958548027720777 -0.008978645250162294 0 0.0052075017337314027 -0.0089817227335279772 0 0.0051958548027720777 -0.008978645250162294 0 0.0051892315835674104 -0.0089715527407194795 0 0.0052075017337314027 -0.0089817227335279772 0 0.0051720694814670828 -0.0089884536857544085 0 0.0051831661942575869 -0.0089800770362031268 0 0.0051688746574397653 -0.0089793829822852351 0 0.0051720694814670828 -0.0089884536857544085 0 0.0051958548027720777 -0.008978645250162294 0 0.0051831661942575869 -0.0089800770362031268 0 0.0051958548027720777 -0.008978645250162294 0 0.0051831661942575869 -0.0089800770362031268 0 0.0051892315835674104 -0.0089715527407194795 0 0.0051831661942575869 -0.0089800770362031268 0 0.0051892315835674104 -0.0089715527407194795 0 0.0051688746574397653 -0.0089793829822852351 0 0.0040489698196277454 -0.0059508922186007011 0 0.005063834323244738 -0.0063260008146433103 0 0.005649057726733765 -0.0071719253164810792 0 0.0054747651461821735 -0.007253193461652852 0 0.005378502742590623 -0.0069073429912414781 0 0.0054747651461821735 -0.007253193461652852 0 0.005378502742590623 -0.0069073429912414781 0 0.0052062032000887212 -0.0070415933670244998 0 0.0052075017337314027 -0.0089817227335279772 0 0.0051157470995769096 -0.0090078683544457215 0 0.0050362099617237395 -0.0090467387694355035 0 0.0021780893529656877 -0.0021563475382033888 0 0.0017443076223658386 -0.0025815949653638804 0 0.001538402607087385 -0.0023430522744038581 0 0.0040489698196277454 -0.0059508922186007011 0 0.0032273386237397076 -0.0056690378344965474 0 0.0040489698196277454 -0.0059508922186007011 0 0.001819468928841112 -0.0021577913283113343 0 0.0050687711862432037 -0.009016725594851057 0 0.0051157470995769096 -0.0090078683544457215 0 0.0050362099617237395 -0.0090467387694355035 0 0.0050676422780431213 -0.0090007969348698674 0 0.0051189211425670044 -0.0089677333790155918 0 0.0049982159072654662 -0.0090122598107665423 0 0.0050687711862432037 -0.009016725594851057 0 0.0050676422780431213 -0.0090007969348698674 0 0.0049982159072654662 -0.0090122598107665423 0 0.0050687711862432037 -0.009016725594851057 0 0.0050676422780431213 -0.0090007969348698674 0 0.0051011429015009775 -0.0089943641208970054 0 0.0050687711862432037 -0.009016725594851057 0 0.0051011429015009775 -0.0089943641208970054 0 0.0051157470995769096 -0.0090078683544457215 0 0.0051011429015009775 -0.0089943641208970054 0 0.0051277386808314326 -0.0089796881268311354 0 0.0051189211425670044 -0.0089677333790155918 0 0.0050676422780431213 -0.0090007969348698674 0 0.0051011429015009775 -0.0089943641208970054 0 0.0051189211425670044 -0.0089677333790155918 0 0.0051720694814670828 -0.0089884536857544085 0 0.0052075017337314027 -0.0089817227335279772 0 0.0051157470995769096 -0.0090078683544457215 0 0.0051720694814670828 -0.0089884536857544085 0 0.0051157470995769096 -0.0090078683544457215 0 0.0051495884302692543 -0.0089893324694981201 0 0.0051011429015009775 -0.0089943641208970054 0 0.0051157470995769096 -0.0090078683544457215 0 0.0051292453430646125 -0.0089897617972462159 0 0.0051157470995769096 -0.0090078683544457215 0 0.0051292453430646125 -0.0089897617972462159 0 0.0051495884302692543 -0.0089893324694981201 0 0.0051292453430646125 -0.0089897617972462159 0 0.0051504039563101713 -0.008978178740198791 0 0.0051495884302692543 -0.0089893324694981201 0 0.0051292453430646125 -0.0089897617972462159 0 0.0051277386808314326 -0.0089796881268311354 0 0.0051504039563101713 -0.008978178740198791 0 0.0051011429015009775 -0.0089943641208970054 0 0.0051292453430646125 -0.0089897617972462159 0 0.0051277386808314326 -0.0089796881268311354 0 0.0051277386808314326 -0.0089796881268311354 0 0.0051504039563101713 -0.008978178740198791 0 0.0051533286260783346 -0.0089612804069732193 0 0.0051504039563101713 -0.008978178740198791 0 0.0051688746574397653 -0.0089793829822852351 0 0.0051696191950867925 -0.0089681754006163232 0 0.0051504039563101713 -0.008978178740198791 0 0.0051495884302692543 -0.0089893324694981201 0 0.0051688746574397653 -0.0089793829822852351 0 0.0051720694814670828 -0.0089884536857544085 0 0.0051495884302692543 -0.0089893324694981201 0 0.0051688746574397653 -0.0089793829822852351 0 0.0051892315835674104 -0.0089715527407194795 0 0.0051688746574397653 -0.0089793829822852351 0 0.0051696191950867925 -0.0089681754006163232 0 0.0049982159072654662 -0.0090122598107665423 0 0.0049975992112382805 -0.0090289985098771074 0 0.0050185227314657526 -0.009051387355982406 0 0.0051189211425670044 -0.0089677333790155918 0 0.0049982159072654662 -0.0090122598107665423 0 0.0051925866182975233 -0.0088990016562485903 0 0.0051892315835674104 -0.0089715527407194795 0 0.0051696191950867925 -0.0089681754006163232 0 0.0051773687402864891 -0.0089547624645089641 0 0.0050096661881592428 -0.0090158244237212772 0 0.0051055065597926967 -0.0089844563283660427 0 0.0051504039563101713 -0.008978178740198791 0 0.0051696191950867925 -0.0089681754006163232 0 0.0051533286260783346 -0.0089612804069732193 0 0.0051696191950867925 -0.0089681754006163232 0 0.0051773687402864891 -0.0089547624645089641 0 0.0051533286260783346 -0.0089612804069732193 0 0.0051277386808314326 -0.0089796881268311354 0 0.0051533286260783346 -0.0089612804069732193 0 0.0051189211425670044 -0.0089677333790155918 0 0.0051533286260783346 -0.0089612804069732193 0 0.0051189211425670044 -0.0089677333790155918 0 0.0051803253083561917 -0.0089319921225086696 0 0.0051773687402864891 -0.0089547624645089641 0 0.0051803253083561917 -0.0089319921225086696 0 0.0051960193559458584 -0.0089426219227557134 0 0.0051773687402864891 -0.0089547624645089641 0 0.0051533286260783346 -0.0089612804069732193 0 0.0051803253083561917 -0.0089319921225086696 0 0.0049975992112382805 -0.0090289985098771074 0 0.0050134255789248084 -0.0090460524894223938 0 0.0050185227314657526 -0.009051387355982406 0 0.0051189211425670044 -0.0089677333790155918 0 0.0051803253083561917 -0.0089319921225086696 0 0.0051925866182975233 -0.0088990016562485903 0 0.0051803253083561917 -0.0089319921225086696 0 0.0052184969555702163 -0.0089085408415720026 0 0.0051925866182975233 -0.0088990016562485903 0 0.0040489698196277454 -0.0059508922186007011 0 0.0053379198934093387 -0.0094826945078034849 0 0.005365950359506157 -0.0087613369918026519 0 0.0053752846334188843 -0.008915054748584712 0 0.0053093301639480402 -0.0089273664976191915 0 0.0040489698196277454 -0.0059508922186007011 0 0.0054967194792560452 -0.0085889822202219763 0 0.0055582526437951306 -0.0071740613651817163 0 0.0054747651461821735 -0.007253193461652852 0 0.0054579788810432111 -0.0076421435900683836 0 0.0052075017337314027 -0.0089817227335279772 0 0.0051960193559458584 -0.0089426219227557134 0 0.0052184969555702163 -0.0089085408415720026 0 0.0051803253083561917 -0.0089319921225086696 0 0.0051960193559458584 -0.0089426219227557134 0 0.0052184969555702163 -0.0089085408415720026 0 0.0051892315835674104 -0.0089715527407194795 0 0.0052075017337314027 -0.0089817227335279772 0 0.0051960193559458584 -0.0089426219227557134 0 0.0051892315835674104 -0.0089715527407194795 0 0.0051773687402864891 -0.0089547624645089641 0 0.0051960193559458584 -0.0089426219227557134 0 0.0054747651461821735 -0.007253193461652852 0 0.0053138277417568375 -0.0073901603722233066 0 0.0054579788810432111 -0.0076421435900683836 0 0.0053138277417568375 -0.0073901603722233066 0 0.0052560529409532925 -0.0076548948646453212 0 0.0054579788810432111 -0.0076421435900683836 0 0.0052560529409532925 -0.0076548948646453212 0 0.0051125356986897273 -0.0072776250902020249 0 0.0049933590808328961 -0.0074746909056686824 0 0.0053138277417568375 -0.0073901603722233066 0 0.0052560529409532925 -0.0076548948646453212 0 0.0051125356986897273 -0.0072776250902020249 0 0.0049133756544688786 -0.0071349792950772643 0 0.0051125356986897273 -0.0072776250902020249 0 0.0047612725040311601 -0.00666235806884988 0 0.0049133756544688786 -0.0071349792950772643 0 0.0051125356986897273 -0.0072776250902020249 0 0.0049933590808328961 -0.0074746909056686824 0 0.0049133756544688786 -0.0071349792950772643 0 0.0047612725040311601 -0.00666235806884988 0 0.0048138078484865681 -0.0071106750722519131 0 0.0051125356986897273 -0.0072776250902020249 0 0.0052062032000887212 -0.0070415933670244998 0 0.0047612725040311601 -0.00666235806884988 0 0.0054747651461821735 -0.007253193461652852 0 0.0053138277417568375 -0.0073901603722233066 0 0.0052062032000887212 -0.0070415933670244998 0 0.0053138277417568375 -0.0073901603722233066 0 0.0051125356986897273 -0.0072776250902020249 0 0.0052062032000887212 -0.0070415933670244998 0 0.005378502742590623 -0.0069073429912414781 0 0.0052062032000887212 -0.0070415933670244998 0 0.0051599522234142634 -0.006673411648226611 0 0.0051599522234142634 -0.006673411648226611 0 0.0047612725040311601 -0.00666235806884988 0 0.0048875561428036 -0.0062129528916860929 0 0.0052062032000887212 -0.0070415933670244998 0 0.0051599522234142634 -0.006673411648226611 0 0.0047612725040311601 -0.00666235806884988 0 0.0047612725040311601 -0.00666235806884988 0 0.0048875561428036 -0.0062129528916860929 0 0.004432821253303452 -0.0057362141323973508 0 0.0047612725040311601 -0.00666235806884988 0 0.0041458701763073761 -0.0057791367395519178 0 0.004432821253303452 -0.0057362141323973508 0 0.00478105915048967 -0.0057513188435924885 0 0.0048875561428036 -0.0062129528916860929 0 0.004432821253303452 -0.0057362141323973508 0 0.0038256120500951671 -0.0043347401016760861 0 0.0035346345174569992 -0.0046587082334252055 0 0.00478105915048967 -0.0057513188435924885 0 0.0054146562466692791 -0.0062501893695396157 0 0.0047149674073749502 -0.0052453692111824593 0 0.00478105915048967 -0.0057513188435924885 0 0.0048875561428036 -0.0062129528916860929 0 0.0054146562466692791 -0.0062501893695396157 0 0.0051599522234142634 -0.006673411648226611 0 0.0048875561428036 -0.0062129528916860929 0 0.0054146562466692791 -0.0062501893695396157 0 0.0040489698196277454 -0.0059508922186007011 0 0.0038256120500951671 -0.0043347401016760861 0 0.005649057726733765 -0.0071719253164810792 0 0.005378502742590623 -0.0069073429912414781 0 0.0054146562466692791 -0.0062501893695396157 0 0.005378502742590623 -0.0069073429912414781 0 0.0051599522234142634 -0.006673411648226611 0 0.0054146562466692791 -0.0062501893695396157 0 0.0022828594708635959 -0.0022129220102351491 0 0.0022793658638067 -0.0029645468634016086 0 0.0018723180413003225 -0.0026294466189813429 0 0.0018723180413003225 -0.0026294466189813429 0 0.0018209088894466136 -0.0030653899934820908 0 0.0013326943331740072 -0.0031110786714354534 0 0.0017443076223658386 -0.0025815949653638804 0 0.0015047919831986019 -0.002569737591848678 0 0.001538402607087385 -0.0023430522744038581 0 0.0022793658638067 -0.0029645468634016086 0 0.0018723180413003225 -0.0026294466189813429 0 0.0018209088894466136 -0.0030653899934820908 0 0.0022793658638067 -0.0029645468634016086 0 0.0018209088894466136 -0.0030653899934820908 0 0.0017743937522496105 -0.003525221383154367 0 0.0018209088894466136 -0.0030653899934820908 0 0.0013326943331740072 -0.0031110786714354534 0 0.0017743937522496105 -0.003525221383154367 0 0.0013326943331740072 -0.0031110786714354534 0 0.0017743937522496105 -0.003525221383154367 0 0.00097657120477521379 -0.0036802618409970574 0 0.0013326943331740072 -0.0031110786714354534 0 0.00083214080733085808 -0.0032761890302399612 0 0.00093361622583826309 -0.0029124035616040589 0 0.0013326943331740072 -0.0031110786714354534 0 0.00083214080733085808 -0.0032761890302399612 0 0.00097657120477521379 -0.0036802618409970574 0 0.00083214080733085808 -0.0032761890302399612 0 0.00040888784038648412 -0.0035125857980635553 0 0.00097657120477521379 -0.0036802618409970574 0 0.00040888784038648412 -0.0035125857980635553 0 0.00052556160495697429 -0.0031738499571144613 0 0.00023091458880415661 -0.0032211848829225738 0 0.00083214080733085808 -0.0032761890302399612 0 0.00040888784038648412 -0.0035125857980635553 0 0.00052556160495697429 -0.0031738499571144613 0 0.00052556160495697429 -0.0031738499571144613 0 0.00038794349356181194 -0.0029495819974279963 0 0.00023091458880415661 -0.0032211848829225738 0 0.00052556160495697429 -0.0031738499571144613 0 0.00038794349356181194 -0.0029495819974279963 0 0.00063121865583619992 -0.0028997031351516009 0 0.00052556160495697429 -0.0031738499571144613 0 0.00093361622583826309 -0.0029124035616040589 0 0.00063121865583619992 -0.0028997031351516009 0 0.00083214080733085808 -0.0032761890302399612 0 0.00052556160495697429 -0.0031738499571144613 0 0.00093361622583826309 -0.0029124035616040589 0 0.0045532691708693633 -0.009009595574148526 0 0.0048330830404764401 -0.0090828787934985594 0 0.0042298897913402933 -0.009328066057320698 0 0.00093361622583826309 -0.0029124035616040589 0 0.00078711367576026804 -0.0025637449986954256 0 0.0011015313277427437 -0.0026426897362887588 0 0.00038794349356181194 -0.0029495819974279963 0 0.00078711367576026804 -0.0025637449986954256 0 -2.3898884552561952e-05 -0.0028884722186875741 0 0.00093361622583826309 -0.0029124035616040589 0 0.00063121865583619992 -0.0028997031351516009 0 0.00078711367576026804 -0.0025637449986954256 0 0.0028301297389552596 -0.0058557486061185104 0 0.0019057779414915993 -0.0057630999029664644 0 0.00038794349356181194 -0.0029495819974279963 0 0.00063121865583619992 -0.0028997031351516009 0 0.00078711367576026804 -0.0025637449986954256 0 0.0045532691708693633 -0.009009595574148526 0 0.0048330830404764401 -0.0090828787934985594 0 0.0048713690532675808 -0.0090237804148639283 0 0.0048330830404764401 -0.0090828787934985594 0 0.0048713690532675808 -0.0090237804148639283 0 0.004956022993377592 -0.0090319924185267332 0 0.001819468928841112 -0.0021577913283113343 0 0.0013111290164982115 -0.0032131192733988695 0 0.0028301297389552596 -0.0058557486061185104 0 0.0032273386237397076 -0.0056690378344965474 0 0.00078711367576026804 -0.0025637449986954256 0 0.0011015313277427437 -0.0026426897362887588 0 0.001538402607087385 -0.0023430522744038581 0 0.0017443076223658386 -0.0025815949653638804 0 0.0013326943331740072 -0.0031110786714354534 0 0.0015047919831986019 -0.002569737591848678 0 0.0013326943331740072 -0.0031110786714354534 0 0.0015047919831986019 -0.002569737591848678 0 0.0012722032820714744 -0.0027170766632692305 0 0.0015047919831986019 -0.002569737591848678 0 0.0012722032820714744 -0.0027170766632692305 0 0.001538402607087385 -0.0023430522744038581 0 0.0011015313277427437 -0.0026426897362887588 0 0.0012722032820714744 -0.0027170766632692305 0 0.001538402607087385 -0.0023430522744038581 0 0.00093361622583826309 -0.0029124035616040589 0 0.0011015313277427437 -0.0026426897362887588 0 0.0012722032820714744 -0.0027170766632692305 0 0.0013326943331740072 -0.0031110786714354534 0 0.00093361622583826309 -0.0029124035616040589 0 0.0012722032820714744 -0.0027170766632692305 0 -0.00053458013751776919 -0.0061951174112031921 0 -0.00069856630273660452 -0.0065586726892108435 0 -0.00065618514932359656 -0.0055075137476915184 0 -1.1644951667788008e-05 -0.0043010453088943761 0 -4.5637892813646063e-05 -0.004179276691229453 0 -4.8489219454201891e-05 -0.0041998741020119624 0 0.00023998864090844774 -0.0058230684261670624 0 -0.00034024952318081176 -0.0047873286091171929 0 -0.0002982584586185389 -0.0065817339632839719 0 -0.00039352361439973877 -0.0065797990129108103 0 -0.00036593107355957299 -0.006315154293189823 0 -0.00039352361439973877 -0.0065797990129108103 0 -0.00046138490934922338 -0.0064006056680307637 0 -0.00055070874511831038 -0.0065090335964567304 0 -0.00046138490934922338 -0.0064006056680307637 0 -0.00036593107355957299 -0.006315154293189823 0 -0.00053458013751776919 -0.0061951174112031921 0 -0.00039352361439973877 -0.0065797990129108103 0 -0.00046138490934922338 -0.0064006056680307637 0 -0.00036593107355957299 -0.006315154293189823 0 -0.0003661780674050834 -0.005933818545088951 0 -0.00053458013751776919 -0.0061951174112031921 0 -0.00065618514932359656 -0.0055075137476915184 0 -0.00010548388327219184 -0.0060376146394964776 0 -0.00036593107355957299 -0.006315154293189823 0 -0.0003661780674050834 -0.005933818545088951 0 -0.00036593107355957299 -0.006315154293189823 0 -0.0003661780674050834 -0.005933818545088951 0 -0.00053458013751776919 -0.0061951174112031921 0 -0.00053458013751776919 -0.0061951174112031921 0 -0.00055070874511831038 -0.0065090335964567304 0 -0.00069856630273660452 -0.0065586726892108435 0 -0.00046138490934922338 -0.0064006056680307637 0 -0.00053458013751776919 -0.0061951174112031921 0 -0.00055070874511831038 -0.0065090335964567304 0 2.4161169765562168e-05 -0.0059401988999309742 0 0.00023998864090844774 -0.0058230684261670624 0 -0.00039352361439973877 -0.0065797990129108103 0 -0.00055070874511831038 -0.0065090335964567304 0 -0.00041467577969034959 -0.0066137525721271569 0 -0.00055070874511831038 -0.0065090335964567304 0 -0.00053030397423315539 -0.0065596664950962847 0 -0.00041467577969034959 -0.0066137525721271569 0 0.00023998864090844774 -0.0058230684261670624 0 0.00093504137610991996 -0.005501816415610713 0 -1.1644951667788008e-05 -0.0043010453088943761 0 -4.9614484734561595e-05 -0.004321414098545806 0 -4.8489219454201891e-05 -0.0041998741020119624 0 -3.5788582982802539e-05 -0.0043840352227539417 0 -1.1867743927088122e-05 -0.0043714374992228043 0 -6.5644981297293976e-05 -0.0042093124178319121 0 -1.1867743927088122e-05 -0.0043714374992228043 0 -6.5644981297293976e-05 -0.0042093124178319121 0 -4.8489219454201891e-05 -0.0041998741020119624 0 0.0019057779414915993 -0.0057630999029664644 0 -6.9844714812531842e-05 -0.0035041924444154026 0 0.00023091458880415661 -0.0032211848829225738 0 -2.3898884552561952e-05 -0.0028884722186875741 0 -4.1843752601402428e-05 -0.0035616734711337735 0 0.00093504137610991996 -0.005501816415610713 0 -6.0382691589386385e-05 -0.0038353862165866276 0 0.00040888784038648412 -0.0035125857980635553 0 0.00023091458880415661 -0.0032211848829225738 0 -4.1843752601402428e-05 -0.0035616734711337735 0 0.00038794349356181194 -0.0029495819974279963 0 0.00023091458880415661 -0.0032211848829225738 0 -2.3898884552561952e-05 -0.0028884722186875741 0 0.00093504137610991996 -0.005501816415610713 0 0.0028144128063441591 -0.0088058947356886401 0 0.00082758814848386548 -0.0060517445638546986 0 0.0012058794563580551 -0.0071002009799019184 0 0.00061465720253787266 -0.0080136574555942017 0 0.0045532691708693633 -0.009009595574148526 0 0.0042298897913402933 -0.009328066057320698 0 0.0042447515461586857 -0.0086177645623141796 0 0.0019057779414915993 -0.0057630999029664644 0 0.0028144128063441591 -0.0088058947356886401 0 0.0019051787238437382 -0.0057287420473850856 0 0.0022428160877238663 -0.005583112973040899 0 0.0019295168537778276 -0.0087002925104163759 0 0.0019057779414915993 -0.0057630999029664644 0 0.00093504137610991996 -0.005501816415610713 0 0.00023998864090844774 -0.0058230684261670624 0 0.00048919713376357912 -0.0068140259954216058 0 0.0013079817110545828 -0.005844809583966333 0 0.00082758814848386548 -0.0060517445638546986 0 0.0012058794563580551 -0.0071002009799019184 0 -0.00053030397423315539 -0.0065596664950962847 0 -0.00041467577969034959 -0.0066137525721271569 0 -0.0001709712688428833 -0.0066562215275902921 0 -0.00041467577969034959 -0.0066137525721271569 0 -0.0001709712688428833 -0.0066562215275902921 0 -0.00033320881843532622 -0.0066717746495056516 0 -0.00022422863054384344 -0.0066431442888732631 0 -0.0002530821404722996 -0.0066302360599184386 0 -0.00019506968102200729 -0.0066003269543054317 0 -0.0001709712688428833 -0.0066562215275902921 0 -0.00022422863054384344 -0.0066431442888732631 0 -0.00019506968102200729 -0.0066003269543054317 0 -0.0001709712688428833 -0.0066562215275902921 0 -0.00022422863054384344 -0.0066431442888732631 0 -0.00033320881843532622 -0.0066717746495056516 0 -0.00031719092972932653 -0.0067683666752780492 0 -0.0002530821404722996 -0.0066302360599184386 0 -0.00030044530762634794 -0.0064607426130670305 0 -0.00022422863054384344 -0.0066431442888732631 0 -0.0002530821404722996 -0.0066302360599184386 0 -0.00033320881843532622 -0.0066717746495056516 0 -0.00031719092972932653 -0.0067683666752780492 0 -0.0002530821404722996 -0.0066302360599184386 0 -0.00033320881843532622 -0.0066717746495056516 0 -0.00031719092972932653 -0.0067683666752780492 0 -0.00039352361439973877 -0.0065797990129108103 0 -0.00033320881843532622 -0.0066717746495056516 0 -0.00039352361439973877 -0.0065797990129108103 0 -0.00041467577969034959 -0.0066137525721271569 0 -0.00033320881843532622 -0.0066717746495056516 0 -0.00038160749674675723 -0.0058100340569004335 0 -0.00030044530762634794 -0.0064607426130670305 0 5.0942596136463016e-05 -0.0062691159578596601 0 -0.0001709712688428833 -0.0066562215275902921 0 -0.00012655111691072462 -0.006464164425150019 0 5.0942596136463016e-05 -0.0062691159578596601 0 0.00048919713376357912 -0.0068140259954216058 0 -4.381276973901212e-05 -0.0077636846956911122 0 -0.0002530821404722996 -0.0066302360599184386 0 -0.00030044530762634794 -0.0064607426130670305 0 -0.00012655111691072462 -0.006464164425150019 0 -0.0001709712688428833 -0.0066562215275902921 0 -0.00012655111691072462 -0.006464164425150019 0 -0.00019506968102200729 -0.0066003269543054317 0 -0.0002530821404722996 -0.0066302360599184386 0 -0.00012655111691072462 -0.006464164425150019 0 -0.00019506968102200729 -0.0066003269543054317 0 -0.00030044530762634794 -0.0064607426130670305 0 -0.00012655111691072462 -0.006464164425150019 0 5.0942596136463016e-05 -0.0062691159578596601 0 0.0012058794563580551 -0.0071002009799019184 0 0.0011337792304460608 -0.0082862360777717515 0 0.00061465720253787266 -0.0080136574555942017 0 -4.381276973901212e-05 -0.0077636846956911122 0 0.0028144128063441591 -0.0088058947356886401 0 0.0011272069548146852 -0.0082424290570723702 0 0.00096284232775999926 -0.0081539518469225299 0 0.0010963461904939724 -0.0083442920745319792 0 0.0049568386524846781 -0.0090497608372037894 0 0.00490429225674826 -0.0090453531311757082 0 0.004998808646456355 -0.0092271471471393057 0 0.004998808646456355 -0.0092271471471393057 0 0.0048302416114979199 -0.0093754707067064853 0 0.0050150279210794107 -0.0095424300082827349 0 0.00095118626931881998 -0.0084467771656560851 0 0.00093686096322741122 -0.0088713699196963699 0 0.0010939130183660174 -0.0087273920932597615 0 0.00490429225674826 -0.0090453531311757082 0 0.004998808646456355 -0.0092271471471393057 0 0.0048302416114979199 -0.0093754707067064853 0 0.0029471568561347155 -0.0088349242530760524 0 0.0028145876667788642 -0.0091687960000087602 0 0.00095118626931881998 -0.0084467771656560851 0 0.0010963461904939724 -0.0083442920745319792 0 0.0010939130183660174 -0.0087273920932597615 0 0.0028144128063441591 -0.0088058947356886401 0 0.0029471568561347155 -0.0088349242530760524 0 0.00096284232775999926 -0.0081539518469225299 0 0.00095118626931881998 -0.0084467771656560851 0 0.0010963461904939724 -0.0083442920745319792 0 -0.0012420099882653809 -0.0069335064690721499 0 -4.381276973901212e-05 -0.0077636846956911122 0 -0.0020786738898306884 -0.0081457002734225976 0 -0.0016962374237520456 -0.008338536583987078 0 -0.0016834650917529508 -0.007935789996558704 0 0.0011278454544228422 -0.0082366768633228039 0 0.0010963461904939724 -0.0083442920745319792 0 0.0010939130183660174 -0.0087273920932597615 0 -4.381276973901212e-05 -0.0077636846956911122 0 -0.00026366280437691177 -0.008352976828425205 0 -4.381276973901212e-05 -0.0077636846956911122 0 0.00012656612600604373 -0.0079167254223742167 0 0.0048330830404764401 -0.0090828787934985594 0 0.0050362099617237395 -0.0090467387694355035 0 0.004956022993377592 -0.0090319924185267332 0 0.0049692899199112227 -0.0090200064907526214 0 0.0049383666283959946 -0.0090228366590096934 0 0.0049326638742218792 -0.0090280551796097178 0 0.0049654152632123546 -0.0090204324817425123 0 0.0049692899199112227 -0.0090200064907526214 0 0.0049383666283959946 -0.0090228366590096934 0 0.0049692899199112227 -0.0090200064907526214 0 0.0049982159072654662 -0.0090122598107665423 0 0.0049975992112382805 -0.0090289985098771074 0 0.0049654152632123546 -0.0090204324817425123 0 0.0049692899199112227 -0.0090200064907526214 0 0.0049982159072654662 -0.0090122598107665423 0 0.0049654152632123546 -0.0090204324817425123 0 0.0049982159072654662 -0.0090122598107665423 0 0.004956022993377592 -0.0090319924185267332 0 0.0049982159072654662 -0.0090122598107665423 0 0.0050362099617237395 -0.0090467387694355035 0 0.004956022993377592 -0.0090319924185267332 0 0.0050687711862432037 -0.009016725594851057 0 0.0049982159072654662 -0.0090122598107665423 0 0.0050362099617237395 -0.0090467387694355035 0 0.0048713690532675808 -0.0090237804148639283 0 0.004956022993377592 -0.0090319924185267332 0 0.0049155216803818307 -0.0090257818337320436 0 0.0049654152632123546 -0.0090204324817425123 0 0.004956022993377592 -0.0090319924185267332 0 0.0049383666283959946 -0.0090228366590096934 0 0.004956022993377592 -0.0090319924185267332 0 0.0049383666283959946 -0.0090228366590096934 0 0.0049155216803818307 -0.0090257818337320436 0 0.0045532691708693633 -0.009009595574148526 0 0.0048713690532675808 -0.0090237804148639283 0 0.0042447515461586857 -0.0086177645623141796 0 0.0048713690532675808 -0.0090237804148639283 0 0.0049155216803818307 -0.0090257818337320436 0 0.004906210808118777 -0.0090291116877488694 0 0.0055181686099658933 -0.0091648340673640572 0 0.0028144128063441591 -0.0088058947356886401 0 0.0048713690532675808 -0.0090237804148639283 0 0.0049568386524846781 -0.0090497608372037894 0 0.00490429225674826 -0.0090453531311757082 0 0.0048713690532675808 -0.0090237804148639283 0 0.00490429225674826 -0.0090453531311757082 0 0.004906210808118777 -0.0090291116877488694 0 0.0049383666283959946 -0.0090228366590096934 0 0.0049155216803818307 -0.0090257818337320436 0 0.004906210808118777 -0.0090291116877488694 0 0.00490429225674826 -0.0090453531311757082 0 0.004906210808118777 -0.0090291116877488694 0 0.0049326638742218792 -0.0090280551796097178 0 0.0049383666283959946 -0.0090228366590096934 0 0.004906210808118777 -0.0090291116877488694 0 0.0049326638742218792 -0.0090280551796097178 0 0.00490429225674826 -0.0090453531311757082 0 0.0048302416114979199 -0.0093754707067064853 0 0.0045884847029142575 -0.0093542737299599013 0 0.0048889673340049783 -0.0090586106415361349 0 0.0047819347100098086 -0.0091929059124762572 0 0.00490429225674826 -0.0090453531311757082 0 0.0049326638742218792 -0.0090280551796097178 0 0.0049697561159204613 -0.0090208089635570518 0 0.0049692899199112227 -0.0090200064907526214 0 0.0049326638742218792 -0.0090280551796097178 0 0.0049697561159204613 -0.0090208089635570518 0 0.0049692899199112227 -0.0090200064907526214 0 0.0049697561159204613 -0.0090208089635570518 0 0.0049975992112382805 -0.0090289985098771074 0 0.0049697561159204613 -0.0090208089635570518 0 0.0049975992112382805 -0.0090289985098771074 0 0.0050134255789248084 -0.0090460524894223938 0 0.0049697561159204613 -0.0090208089635570518 0 0.0050134255789248084 -0.0090460524894223938 0 0.0050247123349896347 -0.0090572212417702799 0 0.0045884847029142575 -0.0093542737299599013 0 0.0046695441144557655 -0.0097069757292499968 0 0.0043060840079302779 -0.009727419198211143 0 0.0047819347100098086 -0.0091929059124762572 0 0.0046613813943059933 -0.0093995891592575098 0 0.0048302416114979199 -0.0093754707067064853 0 0.0045884847029142575 -0.0093542737299599013 0 0.0046695441144557655 -0.0097069757292499968 0 0.0029967565850754349 -0.010452916203449141 0 0.0042775217127583734 -0.011652614550480821 0 0.0046695441144557655 -0.0097069757292499968 0 0.0049622390194652005 -0.0099019683640166282 0 0.0044987974817202563 -0.010169621453535836 0 0.0043060840079302779 -0.009727419198211143 0 0.0044987974817202563 -0.010169621453535836 0 0.0040423122587486789 -0.01010124629841243 0 0.0046695441144557655 -0.0097069757292499968 0 0.0043060840079302779 -0.009727419198211143 0 0.0044987974817202563 -0.010169621453535836 0 -0.0020786738898306884 -0.0081457002734225976 0 -0.002059973312698248 -0.0077416490053262271 0 -0.0016834650917529508 -0.007935789996558704 0 -0.002059973312698248 -0.0077416490053262271 0 -0.0016834650917529508 -0.007935789996558704 0 -0.0016676893594558737 -0.0075451253424451787 0 -0.0040752955611916414 -0.0076441013890309198 0 -0.0017163202636990803 -0.0087381398297038081 0 0.0048302416114979199 -0.0093754707067064853 0 0.0046695441144557655 -0.0097069757292499968 0 0.0050150279210794107 -0.0095424300082827349 0 -0.00026366280437691177 -0.008352976828425205 0 -0.0017163202636990803 -0.0087381398297038081 0 0.0028145876667788642 -0.0091687960000087602 0 0.00091100196824240947 -0.0097098315169521516 0 0.00093686096322741122 -0.0088713699196963699 0 0.0010939130183660174 -0.0087273920932597615 0 0.0010524788544000298 -0.0092340448212443454 0 0.0046695441144557655 -0.0097069757292499968 0 0.0050150279210794107 -0.0095424300082827349 0 0.0049622390194652005 -0.0099019683640166282 0 0.0025958787491975549 -0.0090830576218077601 0 0.0023981472637020621 -0.010412897885650908 0 0.0025896745469977853 -0.010307879918013876 0 -0.0006097574407781869 -0.0097764308097579803 0 -0.00039751243468675012 -0.0096626322100584437 0 -0.00047785825036819873 -0.01140098718903663 0 0.0028145876667788642 -0.0091687960000087602 0 0.0029967565850754349 -0.010452916203449141 0 -0.00017686596167468783 -0.0088519289350598371 0 -0.00064144205828861448 -0.0091092054904152661 0 -0.00063037209853684017 -0.011170128679515568 0 0.00093686096322741122 -0.0088713699196963699 0 0.0010524788544000298 -0.0092340448212443454 0 0.00092421715294471447 -0.0093057771119404928 0 0.0029967565850754349 -0.010452916203449141 0 0.00091100196824240947 -0.0097098315169521516 0 -0.0017163202636990803 -0.0087381398297038081 0 0.00091100196824240947 -0.0097098315169521516 0 -0.0053009471929460067 -0.0073499014878005888 0 -0.005836233868152082 -0.0076283769502518408 0 -0.0053686128469941459 -0.0078959788517527513 0 -0.005836233868152082 -0.0076283769502518408 0 -0.0053686128469941459 -0.0078959788517527513 0 -0.0054199089442192334 -0.0081991708311772368 0 -0.005836233868152082 -0.0076283769502518408 0 -0.0054199089442192334 -0.0081991708311772368 0 -0.0059706975678877729 -0.0084967733206233083 0 -0.0054199089442192334 -0.0081991708311772368 0 -0.0059706975678877729 -0.0084967733206233083 0 -0.0054043378305400997 -0.008857544536263192 0 -0.0017163202636990803 -0.0087381398297038081 0 -0.0031541104707725337 -0.0095685151629676217 0 0.0044938158224966931 -0.012642781159605147 0 0.0044779610544683612 -0.013808152539066948 0 0.0041432465617692923 -0.013511587845492527 0 0.0029967565850754349 -0.010452916203449141 0 0.0018801949075096941 -0.012823417232263316 0 0.00091100196824240947 -0.0097098315169521516 0 -0.00063761976781486884 -0.011240443133581078 0 -0.00017686596167468783 -0.0088519289350598371 0 -0.00063037209853684017 -0.011170128679515568 0 -0.00030879217311898731 -0.011373054554890044 0 -0.0006097574407781869 -0.0097764308097579803 0 -0.00047785825036819873 -0.01140098718903663 0 -0.00086740631562652257 -0.011869897642494621 0 -0.0042557836110551708 -0.013033066288387624 0 -0.0031541104707725337 -0.0095685151629676217 0 -0.0005502947086648461 -0.01302175274516172 0 -0.00063761976781486884 -0.011240443133581078 0 -0.00056088944816679964 -0.013163530831217725 0 -0.00047785825036819873 -0.01140098718903663 0 -0.00086740631562652257 -0.011869897642494621 0 -0.0060697525848239517 -0.0096622286673781217 0 -0.0059706975678877729 -0.0084967733206233083 0 -0.0056840343603419465 -0.0090866662023408734 0 -0.00056088944816679964 -0.013163530831217725 0 -0.00063037209853684017 -0.011170128679515568 0 -0.00030879217311898731 -0.011373054554890044 0 -0.00038205431431426477 -0.013796662226900529 0 -0.00056088944816679964 -0.013163530831217725 0 -0.00030879217311898731 -0.011373054554890044 0 -0.0059706975678877729 -0.0084967733206233083 0 -0.0056840343603419465 -0.0090866662023408734 0 -0.0054043378305400997 -0.008857544536263192 0 -0.0052906885652918255 -0.0093408443081113724 0 -0.0056840343603419465 -0.0090866662023408734 0 -0.0054043378305400997 -0.008857544536263192 0 0.0035631691469290134 -0.013325928359299426 0 0.0035793007072608208 -0.013255319611543017 0 0.0032537576589652343 -0.013505872834974708 0 0.0042775217127583734 -0.011652614550480821 0 0.0042071489910438043 -0.012836926509810331 0 0.0035631691469290134 -0.013325928359299426 0 0.0035891928501174228 -0.013418097173879626 0 0.0032537576589652343 -0.013505872834974708 0 0.0035631691469290134 -0.013325928359299426 0 0.0036070988516771789 -0.013541044422225982 0 0.0035793007072608208 -0.013255319611543017 0 0.0041023045670984587 -0.013628032011107344 0 0.0045875140860932567 -0.014727130145289652 0 0.0044938158224966931 -0.012642781159605147 0 0.0035793007072608208 -0.013255319611543017 0 0.0041432465617692923 -0.013511587845492527 0 0.0045875140860932567 -0.014727130145289652 0 0.0037860455272733843 -0.013673670923404711 0 0.0036070988516771789 -0.013541044422225982 0 0.0035793007072608208 -0.013255319611543017 0 0.0041432465617692923 -0.013511587845492527 0 0.0034573979528135673 -0.014638245838720743 0 0.0032321683500651094 -0.01364851333098888 0 0.0038890797362580707 -0.014069612836614172 0 0.0032321683500651094 -0.01364851333098888 0 0.0041432465617692923 -0.013511587845492527 0 0.0038890797362580707 -0.014069612836614172 0 0.0048593146599327118 -0.015726426294374412 0 0.0045875140860932567 -0.014727130145289652 0 0.0044779610544683612 -0.013808152539066948 0 0.0041432465617692923 -0.013511587845492527 0 0.0038890797362580707 -0.014069612836614172 0 0.0039831776321241552 -0.014712091022665507 0 0.0044779610544683612 -0.013808152539066948 0 0.0038890797362580707 -0.014069612836614172 0 0.0034573979528135673 -0.014638245838720743 0 0.0039831776321241552 -0.014712091022665507 0 0.0038890797362580707 -0.014069612836614172 0 0.0062502425546172658 -0.016705662433107914 0 0.0059354791801912374 -0.017117469801113578 0 0.0055337225034508258 -0.016834195422357433 0 0.0063830884584892512 -0.017224861803479204 0 0.0062502425546172658 -0.016705662433107914 0 0.0059354791801912374 -0.017117469801113578 0 0.0045875140860932567 -0.014727130145289652 0 0.0042071489910438043 -0.012836926509810331 0 0.0054483875498079863 -0.017502721104612096 0 0.0059354791801912374 -0.017117469801113578 0 0.0055337225034508258 -0.016834195422357433 0 0.0042071489910438043 -0.012836926509810331 0 0.0048678899326001284 -0.013715748048256884 0 0.0054483875498079863 -0.017502721104612096 0 0.0055337225034508258 -0.016834195422357433 0 0.0048912901171984189 -0.017203144468427609 0 0.0041637865793224772 -0.010435513014426844 0 0.0044163206595227945 -0.010369957379455933 0 0.0045779097759654627 -0.010172098158743587 0 0.0044163206595227945 -0.010369957379455933 0 0.0045779097759654627 -0.010172098158743587 0 0.0046670585501189365 -0.010278317465434769 0 0.0042071489910438043 -0.012836926509810331 0 0.0046414770277295129 -0.009989201523009127 0 0.0046414770277295129 -0.009989201523009127 0 0.0050233230245020979 -0.0096532918542329375 0 0.0051994334182277925 -0.0089673376816448401 0 0.005245229463480181 -0.0090143805280683848 0 0.0053574174313501402 -0.0089830107643229136 0 0.0051885483403321447 -0.0090447467574338736 0 0.0051179909947219838 -0.0090942680553456057 0 0.0053398841547029402 -0.0090220861640379884 0 0.0053464623890125129 -0.0089784878848990016 0 0.0053455549252829793 -0.0090034920445393549 0 0.0053398841547029402 -0.0090220861640379884 0 0.0051994334182277925 -0.0089673376816448401 0 0.0051885483403321447 -0.0090447467574338736 0 0.0050760350807241483 -0.009061266466773835 0 0.0052316032733995639 -0.0090305751423278048 0 0.0053297769409224212 -0.009011603562171169 0 0.0046414770277295129 -0.009989201523009127 0 0.0045564766504427685 -0.0095454453294301963 0 0.0051994334182277925 -0.0089673376816448401 0 0.005245229463480181 -0.0090143805280683848 0 0.0051885483403321447 -0.0090447467574338736 0 0.005245229463480181 -0.0090143805280683848 0 0.0051885483403321447 -0.0090447467574338736 0 0.0053398841547029402 -0.0090220861640379884 0 0.0051885483403321447 -0.0090447467574338736 0 0.0051149313441117943 -0.0090722299882318724 0 0.0051179909947219838 -0.0090942680553456057 0 0.0051885483403321447 -0.0090447467574338736 0 0.0050760350807241483 -0.009061266466773835 0 0.0051149313441117943 -0.0090722299882318724 0 0.0044987974817202563 -0.010169621453535836 0 0.0040400553101386828 -0.010427571645317846 0 0.0040423122587486789 -0.01010124629841243 0 0.0040400553101386828 -0.010427571645317846 0 0.003789261041068471 -0.010468713554071245 0 0.0040423122587486789 -0.01010124629841243 0 0.0050247123349896347 -0.0090572212417702799 0 0.0050760350807241483 -0.009061266466773835 0 0.0050828612327058747 -0.0090757759950302885 0 0.0050247123349896347 -0.0090572212417702799 0 0.0050828612327058747 -0.0090757759950302885 0 0.0050479662319231943 -0.0090662238745871995 0 0.0046613813943059933 -0.0093995891592575098 0 0.0045564766504427685 -0.0095454453294301963 0 0.0050828612327058747 -0.0090757759950302885 0 0.0051179909947219838 -0.0090942680553456057 0 0.0050479662319231943 -0.0090662238745871995 0 0.0050760350807241483 -0.009061266466773835 0 0.0050828612327058747 -0.0090757759950302885 0 0.0051149313441117943 -0.0090722299882318724 0 0.0050828612327058747 -0.0090757759950302885 0 0.0051149313441117943 -0.0090722299882318724 0 0.0051179909947219838 -0.0090942680553456057 0 0.0053464623890125129 -0.0089784878848990016 0 0.0053428720448439587 -0.008988248641362051 0 0.0053455549252829793 -0.0090034920445393549 0 0.0053464623890125129 -0.0089784878848990016 0 0.0053383766855252708 -0.0089702881732992672 0 0.0053428720448439587 -0.008988248641362051 0 0.0053383766855252708 -0.0089702881732992672 0 0.0053170778617208578 -0.0089628313142151601 0 0.0053399789378230133 -0.0089501906337705953 0 0.0053383766855252708 -0.0089702881732992672 0 0.0053399789378230133 -0.0089501906337705953 0 0.0053371716130907569 -0.0089749475506657288 0 0.0053464623890125129 -0.0089784878848990016 0 0.0053383766855252708 -0.0089702881732992672 0 0.0053170778617208578 -0.0089628313142151601 0 0.0052316032733995639 -0.0090305751423278048 0 0.0051055065597926967 -0.0089844563283660427 0 0.0053116638065983015 -0.0087419056777178848 0 0.0053379198934093387 -0.0094826945078034849 0 0.0053170778617208578 -0.0089628313142151601 0 0.0053399789378230133 -0.0089501906337705953 0 0.0053752846334188843 -0.008915054748584712 0 0.0053170778617208578 -0.0089628313142151601 0 0.0052184969555702163 -0.0089085408415720026 0 0.0051925866182975233 -0.0088990016562485903 0 0.0053464623890125129 -0.0089784878848990016 0 0.0053170778617208578 -0.0089628313142151601 0 0.0051925866182975233 -0.0088990016562485903 0 0.0053399789378230133 -0.0089501906337705953 0 0.0053752846334188843 -0.008915054748584712 0 0.0053093301639480402 -0.0089273664976191915 0 0.0051179909947219838 -0.0090942680553456057 0 0.0050185227314657526 -0.009051387355982406 0 0.0050479662319231943 -0.0090662238745871995 0 0.0050134255789248084 -0.0090460524894223938 0 0.0050185227314657526 -0.009051387355982406 0 0.0050479662319231943 -0.0090662238745871995 0 0.0050134255789248084 -0.0090460524894223938 0 0.0050247123349896347 -0.0090572212417702799 0 0.0050479662319231943 -0.0090662238745871995 0 0.0052560529409532925 -0.0076548948646453212 0 0.0054860950877511985 -0.0081969292441506601 0 0.0050852903538787554 -0.0079914643993722438 0 0.0052560529409532925 -0.0076548948646453212 0 0.0054579788810432111 -0.0076421435900683836 0 0.0054860950877511985 -0.0081969292441506601 0 0.0053399789378230133 -0.0089501906337705953 0 0.0053093301639480402 -0.0089273664976191915 0 0.0053371716130907569 -0.0089749475506657288 0 0.0054967194792560452 -0.0085889822202219763 0 0.0054031959707915283 -0.008571906472209373 0 0.0053093301639480402 -0.0089273664976191915 0 0.0053371716130907569 -0.0089749475506657288 0 0.0053458769278417239 -0.0089933223687767034 0 0.0053371716130907569 -0.0089749475506657288 0 0.005349540691046469 -0.0090009471173000191 0 0.0053458769278417239 -0.0089933223687767034 0 0.005349540691046469 -0.0090009471173000191 0 0.0053458769278417239 -0.0089933223687767034 0 0.0053754652047615266 -0.0090223682920122679 0 0.0053383766855252708 -0.0089702881732992672 0 0.0053371716130907569 -0.0089749475506657288 0 0.0053428720448439587 -0.008988248641362051 0 0.0053371716130907569 -0.0089749475506657288 0 0.0053428720448439587 -0.008988248641362051 0 0.005349540691046469 -0.0090009471173000191 0 0.0053428720448439587 -0.008988248641362051 0 0.005349540691046469 -0.0090009471173000191 0 0.0053455549252829793 -0.0090034920445393549 0 0.0054031959707915283 -0.008571906472209373 0 0.0053495310110848789 -0.0089767548137555577 0 0.0053458769278417239 -0.0089933223687767034 0 0.0053754652047615266 -0.0090223682920122679 0 0.0053877675378686636 -0.0089905029945919219 0 0.0053754652047615266 -0.0090223682920122679 0 0.005403367165290259 -0.0090658067885006355 0 0.0053877675378686636 -0.0089905029945919219 0 0.0053754652047615266 -0.0090223682920122679 0 0.005403367165290259 -0.0090658067885006355 0 0.0053911746825457841 -0.009050638533774023 0 0.005349540691046469 -0.0090009471173000191 0 0.0053455549252829793 -0.0090034920445393549 0 0.0053754652047615266 -0.0090223682920122679 0 0.0053455549252829793 -0.0090034920445393549 0 0.0053754652047615266 -0.0090223682920122679 0 0.0053398841547029402 -0.0090220861640379884 0 0.0053754652047615266 -0.0090223682920122679 0 0.0053398841547029402 -0.0090220861640379884 0 0.0053911746825457841 -0.009050638533774023 0 0.005245229463480181 -0.0090143805280683848 0 0.0053398841547029402 -0.0090220861640379884 0 0.0053574174313501402 -0.0089830107643229136 0 0.0053398841547029402 -0.0090220861640379884 0 0.0053574174313501402 -0.0089830107643229136 0 0.0053911746825457841 -0.009050638533774023 0 0.005403367165290259 -0.0090658067885006355 0 0.0053911746825457841 -0.009050638533774023 0 0.0054241587838165179 -0.0092415936232025635 0 0.005403367165290259 -0.0090658067885006355 0 0.0054241587838165179 -0.0092415936232025635 0 0.0053877675378686636 -0.0089905029945919219 0 0.0050233230245020979 -0.0096532918542329375 0 0.0051934752778962324 -0.0097005566787286834 0 0.0053574174313501402 -0.0089830107643229136 0 0.0053911746825457841 -0.009050638533774023 0 0.0054241587838165179 -0.0092415936232025635 0 0.0054241587838165179 -0.0092415936232025635 0 0.0053877675378686636 -0.0089905029945919219 0 0.0052929071805384274 -0.0093334631313864158 0 0.0051795936145708817 -0.0098632479690530014 0 0.0051934752778962324 -0.0097005566787286834 0 0.0053877675378686636 -0.0089905029945919219 0 0.0052108900402982918 -0.0091008382625043151 0 0.0052929071805384274 -0.0093334631313864158 0 0.0053877675378686636 -0.0089905029945919219 0 0.0052108900402982918 -0.0091008382625043151 0 0.005113446106169062 -0.0086139204535620115 0 0.0050445177242359109 -0.0091082438244938831 0 0.0047957470604169132 -0.0088787379068089936 0 0.005113446106169062 -0.0086139204535620115 0 0.0052108900402982918 -0.0091008382625043151 0 0.0050445177242359109 -0.0091082438244938831 0 0.005113446106169062 -0.0086139204535620115 0 0.0052108900402982918 -0.0091008382625043151 0 0.0050445177242359109 -0.0091082438244938831 0 0.0051217283496483917 -0.0094353831903439492 0 0.0050445177242359109 -0.0091082438244938831 0 0.0051217283496483917 -0.0094353831903439492 0 0.0048961380485625398 -0.0093377067129161561 0 0.0052188656831748548 -0.0098936476246119752 0 0.0054241587838165179 -0.0092415936232025635 0 0.0052929071805384274 -0.0093334631313864158 0 0.0052108900402982918 -0.0091008382625043151 0 0.0051217283496483917 -0.0094353831903439492 0 0.0052929071805384274 -0.0093334631313864158 0 0.0052188656831748548 -0.0098936476246119752 0 0.0051217283496483917 -0.0094353831903439492 0 0.0052929071805384274 -0.0093334631313864158 0 0.0047370178452507579 -0.010181623765021085 0 0.0049242481307590564 -0.0097314323556309187 0 0.004570910785800142 -0.0095376980941314256 0 0.0052188656831748548 -0.0098936476246119752 0 0.0051217283496483917 -0.0094353831903439492 0 0.0049242481307590564 -0.0097314323556309187 0 0.0049242481307590564 -0.0097314323556309187 0 0.004570910785800142 -0.0095376980941314256 0 0.0048961380485625398 -0.0093377067129161561 0 0.0051217283496483917 -0.0094353831903439492 0 0.0049242481307590564 -0.0097314323556309187 0 0.0048961380485625398 -0.0093377067129161561 0 0.0043169857718152599 -0.010282909716090116 0 0.0047370178452507579 -0.010181623765021085 0 0.004570910785800142 -0.0095376980941314256 0 0.004570910785800142 -0.0095376980941314256 0 0.0046094854228717064 -0.009268936491882155 0 0.0044083778046210909 -0.0093671839759846085 0 0.0045389528990835105 -0.0093863013952856927 0 0.0044234782865052663 -0.0091593836493070405 0 0.004570910785800142 -0.0095376980941314256 0 0.0047957470604169132 -0.0088787379068089936 0 0.00424629686855711 -0.0086090110385238401 0 0.0050445177242359109 -0.0091082438244938831 0 0.0048961380485625398 -0.0093377067129161561 0 0.0047957470604169132 -0.0088787379068089936 0 0.004570910785800142 -0.0095376980941314256 0 0.0048961380485625398 -0.0093377067129161561 0 0.0047957470604169132 -0.0088787379068089936 0 0.0047957470604169132 -0.0088787379068089936 0 0.0047390392710372625 -0.008385486800064448 0 0.00424629686855711 -0.0086090110385238401 0 0.0044234782865052663 -0.0091593836493070405 0 0.0049342704680670792 -0.0073374787482198452 0 0.0046094854228717064 -0.009268936491882155 0 0.0046108149865764928 -0.0088652014559906338 0 0.0043635930067358253 -0.009027784735004445 0 0.0047390392710372625 -0.008385486800064448 0 0.00424629686855711 -0.0086090110385238401 0 0.0041820479645626922 -0.0079968309382278304 0 0.004540574287349562 -0.0084662891040483013 0 0.0049342704680670792 -0.0073374787482198452 0 0.0047390392710372625 -0.008385486800064448 0 0.0043011238982342027 -0.0078159521871836671 0 0.0047885580721808985 -0.00772184590811346 0 0.0047390392710372625 -0.008385486800064448 0 0.0047885580721808985 -0.00772184590811346 0 0.0050852903538787554 -0.0079914643993722438 0 0.0047885580721808985 -0.00772184590811346 0 0.0050852903538787554 -0.0079914643993722438 0 0.0049933590808328961 -0.0074746909056686824 0 0.0052560529409532925 -0.0076548948646453212 0 0.0050852903538787554 -0.0079914643993722438 0 0.0049933590808328961 -0.0074746909056686824 0 0.0054860950877511985 -0.0081969292441506601 0 0.0050852903538787554 -0.0079914643993722438 0 0.005113446106169062 -0.0086139204535620115 0 0.0054860950877511985 -0.0081969292441506601 0 0.0053877675378686636 -0.0089905029945919219 0 0.005113446106169062 -0.0086139204535620115 0 0.0047957470604169132 -0.0088787379068089936 0 0.0047390392710372625 -0.008385486800064448 0 0.005113446106169062 -0.0086139204535620115 0 0.0047390392710372625 -0.008385486800064448 0 0.0050852903538787554 -0.0079914643993722438 0 0.005113446106169062 -0.0086139204535620115 0 0.021008793880845252 -0.011260045272554926 0 0.02129306490715762 -0.01176900857715199 0 0.021557704588740918 -0.010888573143846249 0 0.012157671080059149 -0.010197368707553117 0 0.012127623513749505 -0.010561323023804515 0 0.0035894582840768387 -0.010260421283916351 0 0.0031284347336504666 -0.010403926505799303 0 0.0033179699779483001 -0.0098075702630321081 0 0.016099633662590502 -0.014924799413971056 0 0.012157671080059149 -0.010197368707553117 0 0.0035894582840768387 -0.010260421283916351 0 0.0038376917312748305 -0.0096093319825298704 0 0.0039661771024227651 -0.010079914920555487 0 0.0035894582840768387 -0.010260421283916351 0 0.0033179699779483001 -0.0098075702630321081 0 0.0038376917312748305 -0.0096093319825298704 0 0.0033179699779483001 -0.0098075702630321081 0 0.0038376917312748305 -0.0096093319825298704 0 0.0035524204545374894 -0.0092776948238486624 0 0.0038376917312748305 -0.0096093319825298704 0 0.004244858190068152 -0.009651112668441186 0 0.0041572766181510569 -0.0092527022364978749 0 0.0038376917312748305 -0.0096093319825298704 0 0.0039661771024227651 -0.010079914920555487 0 0.004244858190068152 -0.009651112668441186 0 0.0043169857718152599 -0.010282909716090116 0 0.0039661771024227651 -0.010079914920555487 0 0.004244858190068152 -0.009651112668441186 0 0.0043169857718152599 -0.010282909716090116 0 0.004570910785800142 -0.0095376980941314256 0 0.004244858190068152 -0.009651112668441186 0 0.004570910785800142 -0.0095376980941314256 0 0.0044083778046210909 -0.0093671839759846085 0 0.004244858190068152 -0.009651112668441186 0 0.0044083778046210909 -0.0093671839759846085 0 0.004244858190068152 -0.009651112668441186 0 0.0041572766181510569 -0.0092527022364978749 0 0.0044083778046210909 -0.0093671839759846085 0 0.0043635930067358253 -0.009027784735004445 0 0.0041572766181510569 -0.0092527022364978749 0 0.0046094854228717064 -0.009268936491882155 0 0.0044083778046210909 -0.0093671839759846085 0 0.0043635930067358253 -0.009027784735004445 0 0.0043635930067358253 -0.009027784735004445 0 0.004121088550614313 -0.0088681439931982547 0 0.0042952706295998283 -0.0085706491546724186 0 0.0046108149865764928 -0.0088652014559906338 0 0.0043635930067358253 -0.009027784735004445 0 0.0042952706295998283 -0.0085706491546724186 0 0.004121088550614313 -0.0088681439931982547 0 0.0039582735239116918 -0.0087568810207261771 0 0.0040910261448449435 -0.0085867460506349365 0 0.004121088550614313 -0.0088681439931982547 0 0.0039353578197465202 -0.0089168477614803877 0 0.0039582735239116918 -0.0087568810207261771 0 0.004121088550614313 -0.0088681439931982547 0 0.0039094806068274337 -0.0091474358621892165 0 0.0039353578197465202 -0.0089168477614803877 0 0.0043635930067358253 -0.009027784735004445 0 0.004121088550614313 -0.0088681439931982547 0 0.0041572766181510569 -0.0092527022364978749 0 0.0038376917312748305 -0.0096093319825298704 0 0.0041572766181510569 -0.0092527022364978749 0 0.0039094806068274337 -0.0091474358621892165 0 0.004121088550614313 -0.0088681439931982547 0 0.0041572766181510569 -0.0092527022364978749 0 0.0039094806068274337 -0.0091474358621892165 0 0.017682171209990601 -0.008325240588902898 0 0.012127623513749505 -0.010561323023804515 0 0.0039094806068274337 -0.0091474358621892165 0 0.0038018203048771427 -0.0090032795751835686 0 0.0035524204545374894 -0.0092776948238486624 0 0.0038376917312748305 -0.0096093319825298704 0 0.0039094806068274337 -0.0091474358621892165 0 0.0035524204545374894 -0.0092776948238486624 0 0.0037938961977469856 -0.0088325821682188731 0 0.0038018203048771427 -0.0090032795751835686 0 0.0035524204545374894 -0.0092776948238486624 0 0.0039353578197465202 -0.0089168477614803877 0 0.0037938961977469856 -0.0088325821682188731 0 0.0038018203048771427 -0.0090032795751835686 0 0.0039094806068274337 -0.0091474358621892165 0 0.0039353578197465202 -0.0089168477614803877 0 0.0038018203048771427 -0.0090032795751835686 0 0.0039353578197465202 -0.0089168477614803877 0 0.0039582735239116918 -0.0087568810207261771 0 0.0037938961977469856 -0.0088325821682188731 0 0.026307915452649221 -0.010283563353037475 0 0.026672018882600478 -0.0079130214332061612 0 0.021826586995573102 -0.0099972128071405229 0 0.02136857405253716 -0.010272269774286646 0 0.021279474614508246 -0.0095567630549888878 0 0.020810896349459568 -0.01064634756773898 0 0.02136857405253716 -0.010272269774286646 0 0.021279474614508246 -0.0095567630549888878 0 0.021826586995573102 -0.0099972128071405229 0 0.02136857405253716 -0.010272269774286646 0 0.021557704588740918 -0.010888573143846249 0 0.017682171209990601 -0.008325240588902898 0 0.026672018882600478 -0.0079130214332061612 0 0.020810896349459568 -0.01064634756773898 0 0.02136857405253716 -0.010272269774286646 0 0.021557704588740918 -0.010888573143846249 0 0.020810896349459568 -0.01064634756773898 0 0.021008793880845252 -0.011260045272554926 0 0.021557704588740918 -0.010888573143846249 0 0.026973993153864111 -0.0060680655103794385 0 0.025908239484579893 -0.0057017014778959806 0 0.02607618967250944 -0.0064308295774769854 0 0.026973993153864111 -0.0060680655103794385 0 0.026358985907529098 -0.0051129820629657536 0 0.025908239484579893 -0.0057017014778959806 0 0.028107780975923355 -0.005460290403240157 0 0.026653180801343563 -0.0044555563423135953 0 0.026358985907529098 -0.0051129820629657536 0 0.025670209823040767 -0.0039365904954542256 0 0.026560255199222973 -0.0045420813082915597 0 0.025989845030118607 -0.0046417497010182822 0 0.026672018882600478 -0.0079130214332061612 0 0.027023115309752144 -0.0047713371407300089 0 0.026560255199222973 -0.0045420813082915597 0 0.025989845030118607 -0.0046417497010182822 0 0.026358985907529098 -0.0051129820629657536 0 0.0039427102422292352 -0.008553966238068287 0 0.0040696025078942755 -0.0083046052847997962 0 0.0040910261448449435 -0.0085867460506349365 0 0.025989845030118607 -0.0046417497010182822 0 0.026358985907529098 -0.0051129820629657536 0 0.025412992875810114 -0.0048316803262282784 0 0.025670209823040767 -0.0039365904954542256 0 0.025989845030118607 -0.0046417497010182822 0 0.025412992875810114 -0.0048316803262282784 0 0.017682171209990601 -0.008325240588902898 0 0.014747965715714653 -0.0067262206704335505 0 0.0039582735239116918 -0.0087568810207261771 0 0.0039427102422292352 -0.008553966238068287 0 0.0040910261448449435 -0.0085867460506349365 0 0.0039582735239116918 -0.0087568810207261771 0 0.0037938961977469856 -0.0088325821682188731 0 0.0039427102422292352 -0.008553966238068287 0 0.025412992875810114 -0.0048316803262282784 0 0.025908239484579893 -0.0057017014778959806 0 0.025113736152963074 -0.0057905804554403079 0 0.014747965715714653 -0.0067262206704335505 0 0.014638230870559474 -0.0059624221938686063 0 0.026358985907529098 -0.0051129820629657536 0 0.025412992875810114 -0.0048316803262282784 0 0.025908239484579893 -0.0057017014778959806 0 0.025908239484579893 -0.0057017014778959806 0 0.025113736152963074 -0.0057905804554403079 0 0.02607618967250944 -0.0064308295774769854 0 0.014638230870559474 -0.0059624221938686063 0 0.027239005167370756 -0.0072607689169260203 0 0.014638230870559474 -0.0059624221938686063 0 0.0037174094612644434 -0.0062756736256216515 0 0.0072543240301978697 -0.005659256327054666 0 0.0068330680880317454 -0.0058071857233997996 0 0.0062656585026402301 -0.0048051021718235687 0 0.004121088550614313 -0.0088681439931982547 0 0.0040910261448449435 -0.0085867460506349365 0 0.0042952706295998283 -0.0085706491546724186 0 0.0040696025078942755 -0.0083046052847997962 0 0.0040910261448449435 -0.0085867460506349365 0 0.0042952706295998283 -0.0085706491546724186 0 0.0049342704680670792 -0.0073374787482198452 0 0.0037174094612644434 -0.0062756736256216515 0 0.0051582540356601902 -0.0040286687680949297 0 0.0062656585026402301 -0.0048051021718235687 0 0.0052757121064861811 -0.0050672219546245333 0 0.0068330680880317454 -0.0058071857233997996 0 0.0062656585026402301 -0.0048051021718235687 0 0.0059381830066548725 -0.0055330789121578721 0 0.0059381830066548725 -0.0055330789121578721 0 0.0052757121064861811 -0.0050672219546245333 0 0.0052890808469914412 -0.0061594574833222391 0 0.0062656585026402301 -0.0048051021718235687 0 0.0059381830066548725 -0.0055330789121578721 0 0.0052757121064861811 -0.0050672219546245333 0 0.0068330680880317454 -0.0058071857233997996 0 0.0059381830066548725 -0.0055330789121578721 0 0.0059786853732652608 -0.0060868277696761296 0 0.0059381830066548725 -0.0055330789121578721 0 0.0059786853732652608 -0.0060868277696761296 0 0.0052890808469914412 -0.0061594574833222391 0 0.0059205458051715702 -0.0068516904167411786 0 0.0052890808469914412 -0.0061594574833222391 0 0.0051781377498190699 -0.0072512031045862697 0 0.0068330680880317454 -0.0058071857233997996 0 0.0059786853732652608 -0.0060868277696761296 0 0.0059205458051715702 -0.0068516904167411786 0 0.0059786853732652608 -0.0060868277696761296 0 0.0059205458051715702 -0.0068516904167411786 0 0.0052890808469914412 -0.0061594574833222391 0 0.0059205458051715702 -0.0068516904167411786 0 0.0051781377498190699 -0.0072512031045862697 0 0.0050710651400077463 -0.0075638925266613265 0 0.0062958973286717885 -0.0067095334093564786 0 0.0069390304454502267 -0.0046117552642512922 0 0.0070866174872705121 -0.0059300482431571813 0 0.0071380666883230264 -0.0058224036396082209 0 0.0072935825814306387 -0.00576315291056339 0 0.0071380666883230264 -0.0058224036396082209 0 0.0070111205043069634 -0.0059651484851430091 0 0.0071217443051774486 -0.0056763050111150199 0 0.0249214221767079 -0.007048000769449482 0 0.025626739198222136 -0.0078358336993777141 0 0.024651746681622184 -0.0081814168592857384 0 0.0070866174872705121 -0.0059300482431571813 0 0.0071380666883230264 -0.0058224036396082209 0 0.0070111205043069634 -0.0059651484851430091 0 0.015654099059227832 -0.0075287231884775558 0 0.019213879709473525 -0.0015644762501217946 0 0.0068330680880317454 -0.0058071857233997996 0 0.0070866174872705121 -0.0059300482431571813 0 0.0070111205043069634 -0.0059651484851430091 0 0.0069151408821489877 -0.0057086964207935806 0 0.0062958973286717885 -0.0067095334093564786 0 0.014638230870559474 -0.0059624221938686063 0 0.015654099059227832 -0.0075287231884775558 0 0.0072543240301978697 -0.005659256327054666 0 0.0068330680880317454 -0.0058071857233997996 0 0.0070111205043069634 -0.0059651484851430091 0 0.0249214221767079 -0.007048000769449482 0 0.026059465934621218 -0.0071698454024452692 0 0.026120866716795258 -0.0062881145130547827 0 0.025240428934727648 -0.0056719624137558334 0 0.0249214221767079 -0.007048000769449482 0 0.026120866716795258 -0.0062881145130547827 0 0.0249214221767079 -0.007048000769449482 0 0.026059465934621218 -0.0071698454024452692 0 0.025626739198222136 -0.0078358336993777141 0 0.026059465934621218 -0.0071698454024452692 0 0.026691411952051405 -0.0076777304343025208 0 0.025626739198222136 -0.0078358336993777141 0 0.026059465934621218 -0.0071698454024452692 0 0.026691411952051405 -0.0076777304343025208 0 0.027023010090046998 -0.0069826422647275418 0 0.027607044007583972 -0.0077634818754002957 0 0.026691411952051405 -0.0076777304343025208 0 0.027023010090046998 -0.0069826422647275418 0 0.026973993153864111 -0.0060680655103794385 0 0.027023010090046998 -0.0069826422647275418 0 0.02607618967250944 -0.0064308295774769854 0 0.026059465934621218 -0.0071698454024452692 0 0.027023010090046998 -0.0069826422647275418 0 0.026120866716795258 -0.0062881145130547827 0 0.026516866658780683 -0.0066263947951090184 0 0.027239005167370756 -0.0072607689169260203 0 0.0047821836344068593 -0.007359446501589745 0 0.0048138078484865681 -0.0071106750722519131 0 0.0047034758788979539 -0.0071891483600745381 0 0.0049133756544688786 -0.0071349792950772643 0 0.0048138078484865681 -0.0071106750722519131 0 0.0049933590808328961 -0.0074746909056686824 0 0.0047821836344068593 -0.007359446501589745 0 0.0048138078484865681 -0.0071106750722519131 0 0.0049933590808328961 -0.0074746909056686824 0 0.0047885580721808985 -0.00772184590811346 0 0.0047821836344068593 -0.007359446501589745 0 0.0049933590808328961 -0.0074746909056686824 0 0.0047885580721808985 -0.00772184590811346 0 0.0047821836344068593 -0.007359446501589745 0 0.0046197442933833708 -0.0073866269220717986 0 0.0043011238982342027 -0.0078159521871836671 0 0.0047885580721808985 -0.00772184590811346 0 0.0046197442933833708 -0.0073866269220717986 0 0.0043011238982342027 -0.0078159521871836671 0 0.0046197442933833708 -0.0073866269220717986 0 0.0044137591800767284 -0.0073638919462960398 0 0.0049342704680670792 -0.0073374787482198452 0 0.0048156232962259524 -0.0059559672331892036 0 0.0046197442933833708 -0.0073866269220717986 0 0.0044137591800767284 -0.0073638919462960398 0 0.0046584587815518309 -0.0071584962580923785 0 0.0048156232962259524 -0.0059559672331892036 0 0.0050098064110580577 -0.0067427905137172738 0 0.0044137591800767284 -0.0073638919462960398 0 0.0046584587815518309 -0.0071584962580923785 0 0.0046994926126940114 -0.0071061397739896276 0 0.0047821836344068593 -0.007359446501589745 0 0.0046197442933833708 -0.0073866269220717986 0 0.0047034758788979539 -0.0071891483600745381 0 0.0046197442933833708 -0.0073866269220717986 0 0.0046584587815518309 -0.0071584962580923785 0 0.0047034758788979539 -0.0071891483600745381 0 0.004695446902342611 -0.0071266056336022152 0 0.0046509482541031173 -0.0071927810149533342 0 0.0047182043547735631 -0.0071075115093430005 0 0.0046584587815518309 -0.0071584962580923785 0 0.004695446902342611 -0.0071266056336022152 0 0.0048038314408191812 -0.0071401783080717388 0 0.0047034758788979539 -0.0071891483600745381 0 0.004695446902342611 -0.0071266056336022152 0 0.0047182043547735631 -0.0071075115093430005 0 0.0046584587815518309 -0.0071584962580923785 0 0.0047034758788979539 -0.0071891483600745381 0 0.004695446902342611 -0.0071266056336022152 0 0.0050098064110580577 -0.0067427905137172738 0 0.0051442381918242403 -0.0072190327799745877 0 0.0046584587815518309 -0.0071584962580923785 0 0.0046994926126940114 -0.0071061397739896276 0 0.0048038314408191812 -0.0071401783080717388 0 0.0046994926126940114 -0.0071061397739896276 0 0.0051781377498190699 -0.0072512031045862697 0 0.0048038314408191812 -0.0071401783080717388 0 0.0037999747232749567 -0.0066533480027006122 0 0.0069390304454502267 -0.0046117552642512922 0 0.0048038314408191812 -0.0071401783080717388 0 0.0046509482541031173 -0.0071927810149533342 0 0.0050710651400077463 -0.0075638925266613265 0 0.0051781377498190699 -0.0072512031045862697 0 0.0048038314408191812 -0.0071401783080717388 0 0.0050710651400077463 -0.0075638925266613265 0 0.004695446902342611 -0.0071266056336022152 0 0.0048038314408191812 -0.0071401783080717388 0 0.0046509482541031173 -0.0071927810149533342 0 0.0038513436327455414 -0.005767180616705822 0 0.0039862538562186545 -0.0057673015350197089 0 0.0039147868849041482 -0.0056313520571032536 0 0.0038212947937311024 -0.0057530877065144837 0 0.0038513436327455414 -0.005767180616705822 0 0.0040135940672285106 -0.0061098081259343606 0 0.0038513436327455414 -0.005767180616705822 0 0.0039862538562186545 -0.0057673015350197089 0 0.0040135940672285106 -0.0061098081259343606 0 0.0046509482541031173 -0.0071927810149533342 0 0.0047182043547735631 -0.0071075115093430005 0 0.0047725251128449353 -0.0070236931310431626 0 0.0037999747232749567 -0.0066533480027006122 0 0.0045241718410421504 -0.0065666292755269537 0 0.0048138078484865681 -0.0071106750722519131 0 0.0047034758788979539 -0.0071891483600745381 0 0.0047182043547735631 -0.0071075115093430005 0 0.0048138078484865681 -0.0071106750722519131 0 0.0047182043547735631 -0.0071075115093430005 0 0.0047725251128449353 -0.0070236931310431626 0 0.0047612725040311601 -0.00666235806884988 0 0.0048138078484865681 -0.0071106750722519131 0 0.0047725251128449353 -0.0070236931310431626 0 0.0047289858892466509 -0.0066664774109580008 0 0.0045241718410421504 -0.0065666292755269537 0 0.0047612725040311601 -0.00666235806884988 0 0.0040135940672285106 -0.0061098081259343606 0 0.0041458701763073761 -0.0057791367395519178 0 0.0039862538562186545 -0.0057673015350197089 0 0.0040135940672285106 -0.0061098081259343606 0 0.0041458701763073761 -0.0057791367395519178 0 0.0041458701763073761 -0.0057791367395519178 0 0.0040814705669913092 -0.00557151542860654 0 0.004432821253303452 -0.0057362141323973508 0 0.0040814705669913092 -0.00557151542860654 0 0.004432821253303452 -0.0057362141323973508 0 0.0042588731328571773 -0.0052857884449215306 0 0.0039862538562186545 -0.0057673015350197089 0 0.0041458701763073761 -0.0057791367395519178 0 0.0040814705669913092 -0.00557151542860654 0 0.0040954048263981465 -0.0053386844384777227 0 0.0041517669732854682 -0.0051521675342684047 0 0.0042588731328571773 -0.0052857884449215306 0 0.0040814705669913092 -0.00557151542860654 0 0.0040954048263981465 -0.0053386844384777227 0 0.0042588731328571773 -0.0052857884449215306 0 0.0039721481829867655 -0.005252708032998374 0 0.003942470802930826 -0.0054319757902499561 0 0.0037579194953816959 -0.0052538819903677385 0 0.0040954048263981465 -0.0053386844384777227 0 0.0039721481829867655 -0.005252708032998374 0 0.0041517669732854682 -0.0051521675342684047 0 0.0040954048263981465 -0.0053386844384777227 0 0.0039721481829867655 -0.005252708032998374 0 0.003942470802930826 -0.0054319757902499561 0 0.0040814705669913092 -0.00557151542860654 0 0.0040954048263981465 -0.0053386844384777227 0 0.003942470802930826 -0.0054319757902499561 0 0.003942470802930826 -0.0054319757902499561 0 0.0039147868849041482 -0.0056313520571032536 0 0.0037810431786823662 -0.0055206632018533633 0 0.0040814705669913092 -0.00557151542860654 0 0.003942470802930826 -0.0054319757902499561 0 0.0039147868849041482 -0.0056313520571032536 0 0.0039862538562186545 -0.0057673015350197089 0 0.0040814705669913092 -0.00557151542860654 0 0.0039147868849041482 -0.0056313520571032536 0 0.0038413502599397597 -0.0056570143517219356 0 0.0038368917567871458 -0.0057731668024151766 0 0.0038212947937311024 -0.0057530877065144837 0 0.0038169411078142154 -0.0056247982258573288 0 0.0039075656020669232 -0.0055672843646535856 0 0.0038212947937311024 -0.0057530877065144837 0 0.0038513436327455414 -0.005767180616705822 0 0.0039075656020669232 -0.0055672843646535856 0 0.0038513436327455414 -0.005767180616705822 0 0.0039147868849041482 -0.0056313520571032536 0 0.0037810431786823662 -0.0055206632018533633 0 0.0038169411078142154 -0.0056247982258573288 0 0.0039075656020669232 -0.0055672843646535856 0 0.0037958581650890566 -0.0055260957296810248 0 0.0038212947937311024 -0.0057530877065144837 0 0.0038169411078142154 -0.0056247982258573288 0 0.003765694358614491 -0.0056296419284897299 0 0.014126906427134718 -0.00050222410728460742 0 0.014304130918844828 -0.00024296966245764494 0 0.01408712277422315 -0.00018051701300990101 0 0.0038169411078142154 -0.0056247982258573288 0 0.003765694358614491 -0.0056296419284897299 0 0.0037958581650890566 -0.0055260957296810248 0 0.0069390304454502267 -0.0046117552642512922 0 0.0095036348934461994 -0.002231978594003503 0 0.014304130918844828 -0.00024296966245764494 0 0.014251032160559982 3.5605206747537102e-05 0 0.01408712277422315 -0.00018051701300990101 0 0.014304130918844828 -0.00024296966245764494 0 0.014251032160559982 3.5605206747537102e-05 0 0.014472208559494335 1.3548621507638458e-05 0 0.0039075656020669232 -0.0055672843646535856 0 0.0037958581650890566 -0.0055260957296810248 0 0.0039044263450823853 -0.0053497197608455256 0 0.003942470802930826 -0.0054319757902499561 0 0.0037810431786823662 -0.0055206632018533633 0 0.0037579194953816959 -0.0052538819903677385 0 0.0038368917567871458 -0.0057731668024151766 0 0.0062724604605064738 -0.0034665631487910162 0 0.0095036348934461994 -0.002231978594003503 0 0.0062724604605064738 -0.0034665631487910162 0 0.0039721481829867655 -0.005252708032998374 0 0.0037579194953816959 -0.0052538819903677385 0 0.0039119777949494948 -0.0050816493382726839 0 0.0062724604605064738 -0.0034665631487910162 0 0.0096223075874870573 -0.0019193584725806349 0 0.0043603029529033681 -0.0045118314954014655 0 0.0042422827294437667 -0.004674118605167382 0 0.0043824622989984676 -0.0047477642620772477 0 0.0062724604605064738 -0.0034665631487910162 0 0.0038833193142152893 -0.0052246267906052163 0 0.014251032160559982 3.5605206747537102e-05 0 0.014472208559494335 1.3548621507638458e-05 0 0.014419190175657003 0.00041784397321767457 0 0.014251032160559982 3.5605206747537102e-05 0 0.014419190175657003 0.00041784397321767457 0 0.013966217234405368 0.0001764281243851577 0 0.0096223075874870573 -0.0019193584725806349 0 0.0089392344101783955 -0.0026019964825655657 0 0.0042422827294437667 -0.004674118605167382 0 0.0042854324480832776 -0.004830727304749349 0 0.0041318897162158572 -0.0048880547322559548 0 0.0042422827294437667 -0.004674118605167382 0 0.0043824622989984676 -0.0047477642620772477 0 0.0042854324480832776 -0.004830727304749349 0 0.0043824622989984676 -0.0047477642620772477 0 0.0042854324480832776 -0.004830727304749349 0 0.004381777309443168 -0.0048073826721880221 0 0.0038833193142152893 -0.0052246267906052163 0 0.0041821031657196051 -0.0047828153903676004 0 0.0041318897162158572 -0.0048880547322559548 0 0.0042072318376550006 -0.0049996476823210506 0 0.0041799631491555647 -0.0048946769792454249 0 0.0041318897162158572 -0.0048880547322559548 0 0.0042072318376550006 -0.0049996476823210506 0 0.0041517669732854682 -0.0051521675342684047 0 0.0041517669732854682 -0.0051521675342684047 0 0.0042691489566756271 -0.0051653509965930312 0 0.0042588731328571773 -0.0052857884449215306 0 0.0042072318376550006 -0.0049996476823210506 0 0.0041517669732854682 -0.0051521675342684047 0 0.0042691489566756271 -0.0051653509965930312 0 0.0039721481829867655 -0.005252708032998374 0 0.0039119777949494948 -0.0050816493382726839 0 0.0041517669732854682 -0.0051521675342684047 0 0.0039119777949494948 -0.0050816493382726839 0 0.0041318897162158572 -0.0048880547322559548 0 0.0041517669732854682 -0.0051521675342684047 0 0.027176340976416295 -0.008771785829500299 0 0.026958900288574783 -0.0080719055690213135 0 0.025888064890792907 -0.0084873433809859299 0 0.029780553498647045 0.0082196632442422535 0 0.02878713554439833 0.0083844327221835203 0 0.029219420740918101 0.0077796538617748 0 0.028208380276200831 -0.00023326156724868673 0 0.028722647484896838 -8.2905361720326618e-05 0 0.027292653312965848 -0.0086565929223003379 0 0.026691411952051405 -0.0076777304343025208 0 0.025626739198222136 -0.0078358336993777141 0 0.027120339761312461 -0.0083476547605929388 0 0.025732687758169032 -0.0078696775262751557 0 0.026958900288574783 -0.0080719055690213135 0 0.025626739198222136 -0.0078358336993777141 0 0.025888064890792907 -0.0084873433809859299 0 0.028722647484896838 -8.2905361720326618e-05 0 0.019213879709473525 -0.0015644762501217946 0 0.025626739198222136 -0.0078358336993777141 0 0.025888064890792907 -0.0084873433809859299 0 0.024651746681622184 -0.0081814168592857384 0 0.02878713554439833 0.0083844327221835203 0 0.028647042077836339 0.0078216331339389742 0 0.029219420740918101 0.0077796538617748 0 0.02878713554439833 0.0083844327221835203 0 0.028136680226721639 0.0079193259885150594 0 0.028647042077836339 0.0078216331339389742 0 0.028136680226721639 0.0079193259885150594 0 0.027834499767222933 0.008560345117746079 0 0.027608448643645995 0.0075825015046822198 0 0.02878713554439833 0.0083844327221835203 0 0.028136680226721639 0.0079193259885150594 0 0.027834499767222933 0.008560345117746079 0 0.019213879709473525 -0.0015644762501217946 0 0.021052396993086694 0.0050798652303920893 0 0.0069390304454502267 -0.0046117552642512922 0 0.019213879709473525 -0.0015644762501217946 0 0.014126906427134718 -0.00050222410728460742 0 0.013821588409745188 -0.00036426337091265213 0 0.01408712277422315 -0.00018051701300990101 0 0.0071380666883230264 -0.0058224036396082209 0 0.0072935825814306387 -0.00576315291056339 0 0.0071217443051774486 -0.0056763050111150199 0 0.014251032160559982 3.5605206747537102e-05 0 0.01408712277422315 -0.00018051701300990101 0 0.013966217234405368 0.0001764281243851577 0 0.013821588409745188 -0.00036426337091265213 0 0.01408712277422315 -0.00018051701300990101 0 0.013966217234405368 0.0001764281243851577 0 0.014419190175657003 0.00041784397321767457 0 0.013966217234405368 0.0001764281243851577 0 0.014124381288324543 0.00070655809506177901 0 0.027608448643645995 0.0075825015046822198 0 0.027739491793073435 0.0071679099668436096 0 0.02745587123754455 0.0070159793879246415 0 0.021052396993086694 0.0050798652303920893 0 0.021394141743752464 0.0040207333097384227 0 0.027941760156009788 0.0074701229224228283 0 0.028466848081413799 0.0070359394860199116 0 0.028516030420747136 0.0066891715687322087 0 0.027957883420442368 0.0074797301374015567 0 0.028144639596369061 0.0068277874744155833 0 0.027739491793073435 0.0071679099668436096 0 0.027941760156009788 0.0074701229224228283 0 0.027855135078757181 0.0069940005629064239 0 0.027941760156009788 0.0074701229224228283 0 0.028597500398252589 0.0071892548016034745 0 0.028466848081413799 0.0070359394860199116 0 0.027608448643645995 0.0075825015046822198 0 0.027739491793073435 0.0071679099668436096 0 0.027941760156009788 0.0074701229224228283 0 0.027941760156009788 0.0074701229224228283 0 0.028429398813918216 0.0075662639302452777 0 0.028597500398252589 0.0071892548016034745 0 0.028136680226721639 0.0079193259885150594 0 0.027608448643645995 0.0075825015046822198 0 0.027941760156009788 0.0074701229224228283 0 0.028136680226721639 0.0079193259885150594 0 0.027941760156009788 0.0074701229224228283 0 0.028429398813918216 0.0075662639302452777 0 0.028647042077836339 0.0078216331339389742 0 0.028809964138730767 0.0074994451305703414 0 0.028429398813918216 0.0075662639302452777 0 0.028136680226721639 0.0079193259885150594 0 0.028647042077836339 0.0078216331339389742 0 0.028429398813918216 0.0075662639302452777 0 0.028647042077836339 0.0078216331339389742 0 0.028809964138730767 0.0074994451305703414 0 0.029219420740918101 0.0077796538617748 0 0.028809964138730767 0.0074994451305703414 0 0.028429398813918216 0.0075662639302452777 0 0.028597500398252589 0.0071892548016034745 0 0.028597500398252589 0.0071892548016034745 0 0.028466848081413799 0.0070359394860199116 0 0.028774183967520853 0.0068041312654767332 0 0.028597500398252589 0.0071892548016034745 0 0.029174376172799093 0.0071603513324584468 0 0.028774183967520853 0.0068041312654767332 0 0.028809964138730767 0.0074994451305703414 0 0.028597500398252589 0.0071892548016034745 0 0.029174376172799093 0.0071603513324584468 0 0.029174376172799093 0.0071603513324584468 0 0.029157826227324289 0.0066533987601327177 0 0.028774183967520853 0.0068041312654767332 0 0.029752361977458081 0.0068677902226930067 0 0.029174376172799093 0.0071603513324584468 0 0.029157826227324289 0.0066533987601327177 0 0.028809964138730767 0.0074994451305703414 0 0.029174376172799093 0.0071603513324584468 0 0.029219420740918101 0.0077796538617748 0 0.030072153855885828 0.0075599471041584319 0 0.029174376172799093 0.0071603513324584468 0 0.029219420740918101 0.0077796538617748 0 0.029189557650289112 0.0065525797939582162 0 0.028848567210402347 0.0062470528667335065 0 0.029637563502727289 0.0063423870744873847 0 0.029711874148746112 0.0069985688438473767 0 0.029189557650289112 0.0065525797939582162 0 0.028678191524655689 0.0066175459923465763 0 0.029711874148746112 0.0069985688438473767 0 0.029189557650289112 0.0065525797939582162 0 0.029637563502727289 0.0063423870744873847 0 0.029700759267988212 0.0065290152083112138 0 0.028768359201084063 0.0066160086304700629 0 0.029593064811968151 0.006068944677640074 0 0.029157826227324289 0.0066533987601327177 0 0.028678191524655689 0.0066175459923465763 0 0.029611648978864681 0.0065068391846681327 0 0.029593064811968151 0.006068944677640074 0 0.029157826227324289 0.0066533987601327177 0 0.029752361977458081 0.0068677902226930067 0 0.029611648978864681 0.0065068391846681327 0 0.029157826227324289 0.0066533987601327177 0 0.029157826227324289 0.0066533987601327177 0 0.028774183967520853 0.0068041312654767332 0 0.028678191524655689 0.0066175459923465763 0 0.028774183967520853 0.0068041312654767332 0 0.028678191524655689 0.0066175459923465763 0 0.028516030420747136 0.0066891715687322087 0 0.028466848081413799 0.0070359394860199116 0 0.028774183967520853 0.0068041312654767332 0 0.028516030420747136 0.0066891715687322087 0 0.028144639596369061 0.0068277874744155833 0 0.028643107821900497 0.006719187079032774 0 0.027789800700311586 0.0068415099882061141 0 0.027855135078757181 0.0069940005629064239 0 0.027896678993443044 0.0067262294943496491 0 0.028678191524655689 0.0066175459923465763 0 0.028516030420747136 0.0066891715687322087 0 0.028848567210402347 0.0062470528667335065 0 0.029189557650289112 0.0065525797939582162 0 0.028678191524655689 0.0066175459923465763 0 0.028848567210402347 0.0062470528667335065 0 0.027789800700311586 0.0068415099882061141 0 0.027729066452279325 0.006719665195271134 0 0.027896678993443044 0.0067262294943496491 0 0.027789800700311586 0.0068415099882061141 0 0.02762245177684983 0.0068468027205083578 0 0.027729066452279325 0.006719665195271134 0 0.027789800700311586 0.0068415099882061141 0 0.02773947925662678 0.0069150224469293007 0 0.02762245177684983 0.0068468027205083578 0 0.027789800700311586 0.0068415099882061141 0 0.027855135078757181 0.0069940005629064239 0 0.02773947925662678 0.0069150224469293007 0 0.027855135078757181 0.0069940005629064239 0 0.027690331621902785 0.0069775857472790838 0 0.02773947925662678 0.0069150224469293007 0 0.027739491793073435 0.0071679099668436096 0 0.027855135078757181 0.0069940005629064239 0 0.027690331621902785 0.0069775857472790838 0 0.027690331621902785 0.0069775857472790838 0 0.02773947925662678 0.0069150224469293007 0 0.02762245177684983 0.0068468027205083578 0 0.027690331621902785 0.0069775857472790838 0 0.02745587123754455 0.0070159793879246415 0 0.02762245177684983 0.0068468027205083578 0 0.027739491793073435 0.0071679099668436096 0 0.027690331621902785 0.0069775857472790838 0 0.02745587123754455 0.0070159793879246415 0 0.02762245177684983 0.0068468027205083578 0 0.027537882261736403 0.0067588702991611301 0 0.027361135231631445 0.0067564239236194501 0 0.02745587123754455 0.0070159793879246415 0 0.02762245177684983 0.0068468027205083578 0 0.027361135231631445 0.0067564239236194501 0 0.02762245177684983 0.0068468027205083578 0 0.027537882261736403 0.0067588702991611301 0 0.027729066452279325 0.006719665195271134 0 0.027537882261736403 0.0067588702991611301 0 0.027361135231631445 0.0067564239236194501 0 0.027369510823671089 0.0066804851608489669 0 0.027537882261736403 0.0067588702991611301 0 0.027634179257235832 0.0065590849848546342 0 0.027926174227682989 0.0066540647323896475 0 0.027537882261736403 0.0067588702991611301 0 0.027634179257235832 0.0065590849848546342 0 0.027369510823671089 0.0066804851608489669 0 0.026192230503199628 0.0066814094669952057 0 0.026993219673438661 0.007033556538986057 0 0.025931803999187049 0.0076054668664010793 0 0.027722874338733258 0.0064487252620692159 0 0.022005901600226734 0.0051270569355651666 0 0.026192230503199628 0.0066814094669952057 0 0.026993219673438661 0.007033556538986057 0 0.027077895419712519 0.0059722055059542051 0 0.027634179257235832 0.0065590849848546342 0 0.028020879179500132 0.0063381196259963144 0 0.027926174227682989 0.0066540647323896475 0 0.027722874338733258 0.0064487252620692159 0 0.027783598292250824 0.0064881567644146142 0 0.028020879179500132 0.0063381196259963144 0 0.027809126257480884 0.0056326663694511473 0 0.027077895419712519 0.0059722055059542051 0 0.026993219673438661 0.007033556538986057 0 0.028020879179500132 0.0063381196259963144 0 0.027077895419712519 0.0059722055059542051 0 0.028020879179500132 0.0063381196259963144 0 0.027926174227682989 0.0066540647323896475 0 0.028318729191809666 0.0067062874978848202 0 0.027926174227682989 0.0066540647323896475 0 0.02800130065968192 0.0070095724028250471 0 0.028318729191809666 0.0067062874978848202 0 0.027537882261736403 0.0067588702991611301 0 0.027926174227682989 0.0066540647323896475 0 0.02800130065968192 0.0070095724028250471 0 0.027619122713938713 0.0067947406251349643 0 0.027828014843800156 0.0068489921617712465 0 0.028659686645716845 0.0071827454725765221 0 0.028318729191809666 0.0067062874978848202 0 0.029100130749112687 0.0062541856518415562 0 0.028643107821900497 0.006719187079032774 0 0.029076484068538511 0.0064296325550447274 0 0.028938579283283691 0.007031002846599463 0 0.029100130749112687 0.0062541856518415562 0 0.029440196399243525 0.0067002405146175054 0 0.027828014843800156 0.0068489921617712465 0 0.028643107821900497 0.006719187079032774 0 0.02800130065968192 0.0070095724028250471 0 0.028659686645716845 0.0071827454725765221 0 0.028318729191809666 0.0067062874978848202 0 0.028020879179500132 0.0063381196259963144 0 0.028318729191809666 0.0067062874978848202 0 0.029100130749112687 0.0062541856518415562 0 0.028020879179500132 0.0063381196259963144 0 0.029100130749112687 0.0062541856518415562 0 0.028475835835860094 0.0055508618861820833 0 0.029100130749112687 0.0062541856518415562 0 0.029834490488888643 0.0064434193130033166 0 0.029825554690337531 0.0058122978999889914 0 0.029100130749112687 0.0062541856518415562 0 0.029834490488888643 0.0064434193130033166 0 0.029440196399243525 0.0067002405146175054 0 0.028938579283283691 0.007031002846599463 0 0.029440196399243525 0.0067002405146175054 0 0.029894882735674432 0.0070444966647161423 0 0.029834490488888643 0.0064434193130033166 0 0.029440196399243525 0.0067002405146175054 0 0.029894882735674432 0.0070444966647161423 0 0.028643107821900497 0.006719187079032774 0 0.029816425176594798 0.0066969413378779119 0 0.0041971043139531422 -0.004871174370930105 0 0.0042421345764080548 -0.0048572673809573405 0 0.0043072741640719555 -0.0048229218403309732 0 0.0092514188518379031 0.0072762401060912597 0 0.0080309543887443005 0.0075290629130107013 0 0.0088744598928731429 0.0079995614304749652 0 0.0092514188518379031 0.0072762401060912597 0 0.0092620337262978875 0.0066793124251500581 0 0.0080309543887443005 0.0075290629130107013 0 0.0052428473915470206 -0.00024302929890149106 0 0.0050999907475902974 0.0012764837266311545 0 0.0060753755656576935 0.0039983736742110207 0 0.0052428473915470206 -0.00024302929890149106 0 -0.0014167163662486581 -0.0019022327066872922 0 -0.001598929520402112 -0.0024923746689826725 0 -0.0010126680053181389 -0.0023964162429591547 0 0.0096439941662658304 0.0076267285893038324 0 0.0092514188518379031 0.0072762401060912597 0 0.0088744598928731429 0.0079995614304749652 0 0.0095543004142917762 0.0076013025475335097 0 0.0092514188518379031 0.0072762401060912597 0 0.0092620337262978875 0.0066793124251500581 0 0.0060753755656576935 0.0039983736742110207 0 0.0092182549533792926 0.0072421516320194026 0 0.0042072318376550006 -0.0049996476823210506 0 0.0041971043139531422 -0.004871174370930105 0 0.0042803729857821687 -0.0051113173657081909 0 0.0052428473915470206 -0.00024302929890149106 0 0.001076321254375522 -0.0044150684143708834 0 0.0042072318376550006 -0.0049996476823210506 0 0.0041971043139531422 -0.004871174370930105 0 0.0041799631491555647 -0.0048946769792454249 0 0.0041971043139531422 -0.004871174370930105 0 0.0041799631491555647 -0.0048946769792454249 0 0.0042421345764080548 -0.0048572673809573405 0 0.0041318897162158572 -0.0048880547322559548 0 0.0041799631491555647 -0.0048946769792454249 0 0.0042421345764080548 -0.0048572673809573405 0 0.0042854324480832776 -0.004830727304749349 0 0.0041318897162158572 -0.0048880547322559548 0 0.0042421345764080548 -0.0048572673809573405 0 0.0042854324480832776 -0.004830727304749349 0 0.0042421345764080548 -0.0048572673809573405 0 0.004381777309443168 -0.0048073826721880221 0 0.0042421345764080548 -0.0048572673809573405 0 0.004381777309443168 -0.0048073826721880221 0 0.0043797353315602515 -0.0047911805832632154 0 0.014419190175657003 0.00041784397321767457 0 0.014124381288324543 0.00070655809506177901 0 0.01436006600949708 0.00083137712587061905 0 0.014124381288324543 0.00070655809506177901 0 0.01436006600949708 0.00083137712587061905 0 0.014287861029799911 0.0012456686370559587 0 0.021394141743752464 0.0040207333097384227 0 0.016482306484061588 0.002470308579521283 0 0.0089392344101783955 -0.0026019964825655657 0 0.016482306484061588 0.002470308579521283 0 0.004381777309443168 -0.0048073826721880221 0 0.0043797353315602515 -0.0047911805832632154 0 0.0044470987981987857 -0.0047432025888411652 0 0.0043797353315602515 -0.0047911805832632154 0 0.0044470987981987857 -0.0047432025888411652 0 0.0044658830091287285 -0.0047313860356082349 0 0.0043797353315602515 -0.0047911805832632154 0 0.0043072741640719555 -0.0048229218403309732 0 0.0044658830091287285 -0.0047313860356082349 0 0.0050999907475902974 0.0012764837266311545 0 0.013601696769220191 0.0054559144332501745 0 0.0042421345764080548 -0.0048572673809573405 0 0.0043797353315602515 -0.0047911805832632154 0 0.0043072741640719555 -0.0048229218403309732 0 0.0080309543887443005 0.0075290629130107013 0 0.0081118842897596119 0.0083369459210650369 0 0.0070663101276524521 0.0082244366992937443 0 0.0081118842897596119 0.0083369459210650369 0 0.0070663101276524521 0.0082244366992937443 0 0.0080602079548697837 0.0090814786991500231 0 0.016482306484061588 0.002470308579521283 0 0.022005901600226734 0.0051270569355651666 0 0.01832728398382736 0.0035454369700246625 0 0.018936216346101604 0.0056195068937316961 0 0.01763517730436253 0.0063443024229040456 0 0.016482306484061588 0.002470308579521283 0 0.013601696769220191 0.0054559144332501745 0 0.013601696769220191 0.0054559144332501745 0 0.022005901600226734 0.0051270569355651666 0 0.025296407289267724 0.006977036443659124 0 0.022005901600226734 0.0051270569355651666 0 0.026192230503199628 0.0066814094669952057 0 0.025604755041045538 0.0077354544121801096 0 0.025886887495585181 0.0075892702183461835 0 0.026192230503199628 0.0066814094669952057 0 0.025604755041045538 0.0077354544121801096 0 0.025130666609852245 0.0059107332471255193 0 0.013601696769220191 0.0054559144332501745 0 0.017464951632725805 0.010896795531918416 0 0.026192230503199628 0.0066814094669952057 0 0.025130666609852245 0.0059107332471255193 0 0.027077895419712519 0.0059722055059542051 0 0.0070663101276524521 0.0082244366992937443 0 0.0080602079548697837 0.0090814786991500231 0 0.0074824021543715771 0.0094865751913675214 0 0.0067401565555685813 0.010147246490053972 0 0.017464951632725805 0.010896795531918416 0 0.007592045430225073 0.0095765241799599891 0 0.0084965362108989292 0.0097863293481483381 0 0.0079880703558771835 0.010720331507232115 0 0.0084965362108989292 0.0097863293481483381 0 0.0086989305054320752 0.0087752055194137459 0 0.0093352781242224542 0.009408752067141847 0 0.007592045430225073 0.0095765241799599891 0 0.0084965362108989292 0.0097863293481483381 0 0.0086989305054320752 0.0087752055194137459 0 0.0067401565555685813 0.010147246490053972 0 0.0089741227842074604 0.0085962073192153935 0 0.0081118842897596119 0.0083369459210650369 0 0.0086989305054320752 0.0087752055194137459 0 0.0088744598928731429 0.0079995614304749652 0 0.0081118842897596119 0.0083369459210650369 0 0.0080602079548697837 0.0090814786991500231 0 0.0086989305054320752 0.0087752055194137459 0 0.0086989305054320752 0.0087752055194137459 0 0.0088744598928731429 0.0079995614304749652 0 0.0093530422916277625 0.0085246858803419059 0 0.0080309543887443005 0.0075290629130107013 0 0.0081118842897596119 0.0083369459210650369 0 0.0088744598928731429 0.0079995614304749652 0 0.0060753755656576935 0.0039983736742110207 0 0.0097299781053780971 0.0085401378322652894 0 0.0096439941662658304 0.0076267285893038324 0 0.0093530422916277625 0.0085246858803419059 0 0.010199473982175286 0.0090558939180617297 0 0.0096439941662658304 0.0076267285893038324 0 0.0088744598928731429 0.0079995614304749652 0 0.0093530422916277625 0.0085246858803419059 0 0.0093530422916277625 0.0085246858803419059 0 0.0093352781242224542 0.009408752067141847 0 0.010199473982175286 0.0090558939180617297 0 0.0093352781242224542 0.009408752067141847 0 0.0098768751517032648 0.0099102608141052925 0 0.010199473982175286 0.0090558939180617297 0 0.0086989305054320752 0.0087752055194137459 0 0.0093530422916277625 0.0085246858803419059 0 0.0093352781242224542 0.009408752067141847 0 0.0093352781242224542 0.009408752067141847 0 0.0098768751517032648 0.0099102608141052925 0 0.0093130908615831325 0.010505655072087389 0 0.0084965362108989292 0.0097863293481483381 0 0.0093352781242224542 0.009408752067141847 0 0.0093130908615831325 0.010505655072087389 0 0.010107068714361123 0.0081839940992444737 0 0.011791320951775843 0.0086177044500557812 0 0.0097859665793201198 0.0097827622907268597 0 0.0098768751517032648 0.0099102608141052925 0 0.010199473982175286 0.0090558939180617297 0 0.010658864275079357 0.010671382556112777 0 0.0097299781053780971 0.0085401378322652894 0 0.010186996395340431 0.010119716812108021 0 0.0087071666507539478 0.007120998756322443 0 0.010107068714361123 0.0081839940992444737 0 0.0097859665793201198 0.0097827622907268597 0 0.0087071666507539478 0.007120998756322443 0 0.010107068714361123 0.0081839940992444737 0 0.0098749087764492226 0.0064443693170822478 0 0.010107068714361123 0.0081839940992444737 0 0.011791320951775843 0.0086177044500557812 0 0.0098749087764492226 0.0064443693170822478 0 -0.00038722497941948397 -0.00076263520975440732 0 -0.00026896435152351137 -0.0012756161039910714 0 -0.00088425667027673118 -0.0013244345140029324 0 -0.00038722497941948397 -0.00076263520975440732 0 -0.00026896435152351137 -0.0012756161039910714 0 7.1570060110294245e-05 -0.00092043547927644963 0 0.0062428988056707959 0.0042792482831524106 0 0.0038294381574677629 0.0019092648764267204 0 -0.00026896435152351137 -0.0012756161039910714 0 -0.00053377453325094155 -0.0016779665413553181 0 -0.00088425667027673118 -0.0013244345140029324 0 -0.00026896435152351137 -0.0012756161039910714 0 -0.00053377453325094155 -0.0016779665413553181 0 -7.5781259166348726e-05 -0.0017825082550745508 0 -0.0014167163662486581 -0.0019022327066872922 0 -0.00088425667027673118 -0.0013244345140029324 0 -0.00087281376869281693 -0.0018893657161507076 0 0.0076841712144522754 0.0041619514476301392 0 0.0087071666507539478 0.007120998756322443 0 0.0098749087764492226 0.0064443693170822478 0 -0.00053377453325094155 -0.0016779665413553181 0 -0.00088425667027673118 -0.0013244345140029324 0 -0.00087281376869281693 -0.0018893657161507076 0 0.0060753755656576935 0.0039983736742110207 0 0.0038294381574677629 0.0019092648764267204 0 0.00051833607188957675 -0.0010754376452521786 0 0.00035673982754362652 -0.00085538525856953781 0 0.00047988067690768406 -0.00091333512616429183 0 0.00051833607188957675 -0.0010754376452521786 0 0.00035673982754362652 -0.00085538525856953781 0 0.00029865703845928081 -0.0010404944869234927 0 0.00035673982754362652 -0.00085538525856953781 0 0.00029865703845928081 -0.0010404944869234927 0 0.00018732217042129426 -0.00085228577764109284 0 0.00051833607188957675 -0.0010754376452521786 0 0.00029865703845928081 -0.0010404944869234927 0 0.00049970658901703658 -0.0013813793715342832 0 0.00029865703845928081 -0.0010404944869234927 0 7.1570060110294245e-05 -0.00092043547927644963 0 0.00014927323246015809 -0.0013054462868240309 0 0.00029865703845928081 -0.0010404944869234927 0 0.00018732217042129426 -0.00085228577764109284 0 7.1570060110294245e-05 -0.00092043547927644963 0 -0.00026896435152351137 -0.0012756161039910714 0 7.1570060110294245e-05 -0.00092043547927644963 0 0.00014927323246015809 -0.0013054462868240309 0 -0.00026896435152351137 -0.0012756161039910714 0 -7.5781259166348726e-05 -0.0017825082550745508 0 0.00014927323246015809 -0.0013054462868240309 0 -7.5781259166348726e-05 -0.0017825082550745508 0 0.00032167575338162889 -0.0017148920799033753 0 0.00014927323246015809 -0.0013054462868240309 0 0.00032167575338162889 -0.0017148920799033753 0 0.00014927323246015809 -0.0013054462868240309 0 0.00049970658901703658 -0.0013813793715342832 0 0.00049970658901703658 -0.0013813793715342832 0 0.00079310870186580001 -0.0020328213512944516 0 0.00085454109135242606 -0.0014402154004911458 0 0.00032167575338162889 -0.0017148920799033753 0 0.00049970658901703658 -0.0013813793715342832 0 0.00079310870186580001 -0.0020328213512944516 0 0.00029865703845928081 -0.0010404944869234927 0 0.00014927323246015809 -0.0013054462868240309 0 0.00049970658901703658 -0.0013813793715342832 0 0.00051833607188957675 -0.0010754376452521786 0 0.00049970658901703658 -0.0013813793715342832 0 0.00085454109135242606 -0.0014402154004911458 0 0.00032167575338162889 -0.0017148920799033753 0 0.00079310870186580001 -0.0020328213512944516 0 0.00032436520356405398 -0.0021621681433673552 0 0.00079310870186580001 -0.0020328213512944516 0 0.00032436520356405398 -0.0021621681433673552 0 0.00056317140233103557 -0.0027105782491795801 0 -7.5781259166348726e-05 -0.0017825082550745508 0 0.00032436520356405398 -0.0021621681433673552 0 -3.5613061345043119e-05 -0.0024342494797782071 0 0.00032436520356405398 -0.0021621681433673552 0 -3.5613061345043119e-05 -0.0024342494797782071 0 0.00056317140233103557 -0.0027105782491795801 0 -7.5781259166348726e-05 -0.0017825082550745508 0 0.00032167575338162889 -0.0017148920799033753 0 0.00032436520356405398 -0.0021621681433673552 0 -3.5613061345043119e-05 -0.0024342494797782071 0 0.00011093360137309126 -0.0029572949077196339 0 0.00056317140233103557 -0.0027105782491795801 0 0.00011093360137309126 -0.0029572949077196339 0 0.00056317140233103557 -0.0027105782491795801 0 0.00043771005742399043 -0.0034147417745011743 0 0.00079310870186580001 -0.0020328213512944516 0 0.00056317140233103557 -0.0027105782491795801 0 0.0012477388851213069 -0.0030322827002313498 0 0.00056317140233103557 -0.0027105782491795801 0 0.00094052257386894353 -0.0033386978184106906 0 0.0012477388851213069 -0.0030322827002313498 0 0.00056317140233103557 -0.0027105782491795801 0 0.00043771005742399043 -0.0034147417745011743 0 0.00094052257386894353 -0.0033386978184106906 0 -0.0014167163662486581 -0.0019022327066872922 0 -0.0010126680053181389 -0.0023964162429591547 0 -0.00087281376869281693 -0.0018893657161507076 0 -0.0010126680053181389 -0.0023964162429591547 0 -0.00087281376869281693 -0.0018893657161507076 0 -0.00050691000915850063 -0.002162890739672416 0 -0.00053377453325094155 -0.0016779665413553181 0 -0.00087281376869281693 -0.0018893657161507076 0 -0.00050691000915850063 -0.002162890739672416 0 -7.5781259166348726e-05 -0.0017825082550745508 0 -3.5613061345043119e-05 -0.0024342494797782071 0 -0.00050691000915850063 -0.002162890739672416 0 -0.00053377453325094155 -0.0016779665413553181 0 -7.5781259166348726e-05 -0.0017825082550745508 0 -0.00050691000915850063 -0.002162890739672416 0 -0.0010126680053181389 -0.0023964162429591547 0 -0.00050691000915850063 -0.002162890739672416 0 -0.00039661616263127246 -0.0028065125781600634 0 -0.00039661616263127246 -0.0028065125781600634 0 -0.00086376618526487568 -0.0030623813457830301 0 -0.0001661469671210879 -0.0032194599825466456 0 -3.5613061345043119e-05 -0.0024342494797782071 0 0.00011093360137309126 -0.0029572949077196339 0 -0.00039661616263127246 -0.0028065125781600634 0 -3.5613061345043119e-05 -0.0024342494797782071 0 -0.00050691000915850063 -0.002162890739672416 0 -0.00039661616263127246 -0.0028065125781600634 0 0.00011093360137309126 -0.0029572949077196339 0 -0.00039661616263127246 -0.0028065125781600634 0 -0.0001661469671210879 -0.0032194599825466456 0 -0.0010126680053181389 -0.0023964162429591547 0 -0.00039661616263127246 -0.0028065125781600634 0 -0.00086376618526487568 -0.0030623813457830301 0 -0.001598929520402112 -0.0024923746689826725 0 -0.0010126680053181389 -0.0023964162429591547 0 -0.00086376618526487568 -0.0030623813457830301 0 0.0042803729857821687 -0.0051113173657081909 0 0.0042691489566756271 -0.0051653509965930312 0 0.0042364664864152982 -0.0052396834760403349 0 0.0042072318376550006 -0.0049996476823210506 0 0.0042803729857821687 -0.0051113173657081909 0 0.0042691489566756271 -0.0051653509965930312 0 0.0042691489566756271 -0.0051653509965930312 0 0.0042588731328571773 -0.0052857884449215306 0 0.0042712210881705043 -0.0051394774986897093 0 0.0042364664864152982 -0.0052396834760403349 0 0.0040079090792906457 -0.0050312631763471507 0 0.0042712210881705043 -0.0051394774986897093 0 0.0042691489566756271 -0.0051653509965930312 0 0.0042364664864152982 -0.0052396834760403349 0 0.0042712210881705043 -0.0051394774986897093 0 0.0042364664864152982 -0.0052396834760403349 0 0.0040266964194578692 -0.0055332359161426869 0 0.0040079090792906457 -0.0050312631763471507 0 0.001076321254375522 -0.0044150684143708834 0 0.0021066872116159794 -0.0046252093959926761 0 -0.00086376618526487568 -0.0030623813457830301 0 -0.0001661469671210879 -0.0032194599825466456 0 1.5614886007038522e-05 -0.0038509147809487145 0 0.0042803729857821687 -0.0051113173657081909 0 0.0042364664864152982 -0.0052396834760403349 0 0.0040266964194578692 -0.0055332359161426869 0 0.00043771005742399043 -0.0034147417745011743 0 1.5614886007038522e-05 -0.0038509147809487145 0 0.00097988548328256284 -0.0038231220070143717 0 0.00011093360137309126 -0.0029572949077196339 0 -0.0001661469671210879 -0.0032194599825466456 0 0.00043771005742399043 -0.0034147417745011743 0 -0.0001661469671210879 -0.0032194599825466456 0 0.00043771005742399043 -0.0034147417745011743 0 1.5614886007038522e-05 -0.0038509147809487145 0 0.00094052257386894353 -0.0033386978184106906 0 0.0015252792314665938 -0.0039399539909068786 0 0.0012477388851213069 -0.0030322827002313498 0 0.00043771005742399043 -0.0034147417745011743 0 0.00094052257386894353 -0.0033386978184106906 0 0.00097988548328256284 -0.0038231220070143717 0 0.00094052257386894353 -0.0033386978184106906 0 0.00097988548328256284 -0.0038231220070143717 0 0.0015252792314665938 -0.0039399539909068786 0 1.5614886007038522e-05 -0.0038509147809487145 0 0.00097988548328256284 -0.0038231220070143717 0 0.0017036161761631162 -0.0045650975795758515 0 0.00097988548328256284 -0.0038231220070143717 0 0.0017036161761631162 -0.0045650975795758515 0 0.0015252792314665938 -0.0039399539909068786 0 0.0021066872116159794 -0.0046252093959926761 0 0.0016683838796958581 -0.0045629616318521608 0 0.0040266964194578692 -0.0055332359161426869 0 0.0017036161761631162 -0.0045650975795758515 0 0.003134896189319834 -0.0049513350325333045 0 0.0040266964194578692 -0.0055332359161426869 0 0.003134896189319834 -0.0049513350325333045 0 0.0040079090792906457 -0.0050312631763471507 0 0.003134896189319834 -0.0049513350325333045 0 0.0040079090792906457 -0.0050312631763471507 0 0.0047149674073749502 -0.0052453692111824593 0 0.0040079090792906457 -0.0050312631763471507 0 0.0047149674073749502 -0.0052453692111824593 0 0.0042712210881705043 -0.0051394774986897093 0 0.0032028730852551915 -0.0050116721135545833 0 0.0035346345174569992 -0.0046587082334252055 0 0.0017036161761631162 -0.0045650975795758515 0 0.003134896189319834 -0.0049513350325333045 0 0.0023882992365037896 -0.0037531547933174637 0 0.0017036161761631162 -0.0045650975795758515 0 0.0023882992365037896 -0.0037531547933174637 0 0.00165689041205833 -0.0040538402110560463 0 0.0017743937522496105 -0.003525221383154367 0 0.0023882992365037896 -0.0037531547933174637 0 0.00165689041205833 -0.0040538402110560463 0 0.0022793658638067 -0.0029645468634016086 0 0.0017743937522496105 -0.003525221383154367 0 0.0023882992365037896 -0.0037531547933174637 0 0.00478105915048967 -0.0057513188435924885 0 0.0047149674073749502 -0.0052453692111824593 0 0.0044801548030343596 -0.0054083696600653467 0 0.00478105915048967 -0.0057513188435924885 0 0.0044801548030343596 -0.0054083696600653467 0 0.004432821253303452 -0.0057362141323973508 0 0.0044801548030343596 -0.0054083696600653467 0 0.004432821253303452 -0.0057362141323973508 0 0.0042588731328571773 -0.0052857884449215306 0 0.0044801548030343596 -0.0054083696600653467 0 0.0042588731328571773 -0.0052857884449215306 0 0.0042712210881705043 -0.0051394774986897093 0 0.0047149674073749502 -0.0052453692111824593 0 0.0044801548030343596 -0.0054083696600653467 0 0.0042712210881705043 -0.0051394774986897093 0 -9.6126475748166229e-06 -0.0041929761517553637 0 0.00033874542112133582 -0.0038631055485315335 0 0.00017069348281502405 -0.0042101920911286929 0 -9.6126475748166229e-06 -0.0041929761517553637 0 0.00017069348281502405 -0.0042101920911286929 0 -6.2920537813361359e-06 -0.0042773945261885271 0 -9.6126475748166229e-06 -0.0041929761517553637 0 -0.00011237338320924586 -0.0043925764456732054 0 -6.2920537813361359e-06 -0.0042773945261885271 0 -0.00010540684700360933 -0.0053564965637208006 0 0.00018280641529382546 -0.0048772695336653992 0 -0.00011237338320924586 -0.0043925764456732054 0 -9.6126475748166229e-06 -0.0041929761517553637 0 -0.00011237338320924586 -0.0043925764456732054 0 -4.5637892813646063e-05 -0.004179276691229453 0 -0.00017448058756687303 -0.0044884626043421184 0 -0.00034024952318081176 -0.0047873286091171929 0 -0.00010540684700360933 -0.0053564965637208006 0 -0.00011237338320924586 -0.0043925764456732054 0 -0.00065618514932359656 -0.0055075137476915184 0 -0.00010540684700360933 -0.0053564965637208006 0 -0.0003661780674050834 -0.005933818545088951 0 -0.00065618514932359656 -0.0055075137476915184 0 -9.6126475748166229e-06 -0.0041929761517553637 0 -4.5637892813646063e-05 -0.004179276691229453 0 -4.8489219454201891e-05 -0.0041998741020119624 0 -2.3688932989703067e-05 -0.0042953198409139632 0 -6.9844714812531842e-05 -0.0035041924444154026 0 -9.6126475748166229e-06 -0.0041929761517553637 0 -4.1843752601402428e-05 -0.0035616734711337735 0 0.00015864265794885785 -0.0037833635196715854 0 -9.6126475748166229e-06 -0.0041929761517553637 0 -6.5644981297293976e-05 -0.0042093124178319121 0 -4.8489219454201891e-05 -0.0041998741020119624 0 -9.6126475748166229e-06 -0.0041929761517553637 0 0.00015864265794885785 -0.0037833635196715854 0 0.00033874542112133582 -0.0038631055485315335 0 0.00040888784038648412 -0.0035125857980635553 0 -4.1843752601402428e-05 -0.0035616734711337735 0 0.00015864265794885785 -0.0037833635196715854 0 0.00040888784038648412 -0.0035125857980635553 0 0.00033874542112133582 -0.0038631055485315335 0 0.00097657120477521379 -0.0036802618409970574 0 0.00033874542112133582 -0.0038631055485315335 0 0.00097657120477521379 -0.0036802618409970574 0 0.00017069348281502405 -0.0042101920911286929 0 0.00040888784038648412 -0.0035125857980635553 0 0.00015864265794885785 -0.0037833635196715854 0 0.00033874542112133582 -0.0038631055485315335 0 0.0017743937522496105 -0.003525221383154367 0 0.00097657120477521379 -0.0036802618409970574 0 0.00165689041205833 -0.0040538402110560463 0 0.00097657120477521379 -0.0036802618409970574 0 0.00165689041205833 -0.0040538402110560463 0 0.0015258809694707806 -0.0044216417037673669 0 0.00095982007890258326 -0.0036672223552160171 0 0.00088354707989552969 -0.0042344838303730462 0 0.0017036161761631162 -0.0045650975795758515 0 0.00165689041205833 -0.0040538402110560463 0 0.0015258809694707806 -0.0044216417037673669 0 0.00097657120477521379 -0.0036802618409970574 0 0.00023114664650508373 -0.0042490464016823014 0 0.00017069348281502405 -0.0042101920911286929 0 0.00023114664650508373 -0.0042490464016823014 0 0.00017069348281502405 -0.0042101920911286929 0 4.9387718623431253e-06 -0.0041620208795176044 0 0.00023114664650508373 -0.0042490464016823014 0 -0.00030411358122820294 -0.0039554593410659807 0 4.9387718623431253e-06 -0.0041620208795176044 0 0.0017036161761631162 -0.0045650975795758515 0 0.0015258809694707806 -0.0044216417037673669 0 0.0015252792314665938 -0.0039399539909068786 0 0.0015258809694707806 -0.0044216417037673669 0 0.0019061033265682442 -0.0037691283211043502 0 0.0015252792314665938 -0.0039399539909068786 0 0.00088354707989552969 -0.0042344838303730462 0 0.00078809662954608525 -0.0038323818276676989 0 0.0019061033265682442 -0.0037691283211043502 0 0.0015252792314665938 -0.0039399539909068786 0 0.0012477388851213069 -0.0030322827002313498 0 -0.00030411358122820294 -0.0039554593410659807 0 4.9387718623431253e-06 -0.0041620208795176044 0 9.5029302364155511e-05 -0.0036668606352204605 0 4.9387718623431253e-06 -0.0041620208795176044 0 0.00015307571205199161 -0.0040885172646809038 0 9.5029302364155511e-05 -0.0036668606352204605 0 0.00017069348281502405 -0.0042101920911286929 0 4.9387718623431253e-06 -0.0041620208795176044 0 -6.2920537813361359e-06 -0.0042773945261885271 0 4.9387718623431253e-06 -0.0041620208795176044 0 -6.2920537813361359e-06 -0.0042773945261885271 0 0.00015307571205199161 -0.0040885172646809038 0 0.00025243400062282336 -0.0044198070034064145 0 -0.00011237338320924586 -0.0043925764456732054 0 0.00015307571205199161 -0.0040885172646809038 0 -0.00011237338320924586 -0.0043925764456732054 0 -6.2920537813361359e-06 -0.0042773945261885271 0 0.00015307571205199161 -0.0040885172646809038 0 0.00050933704609284634 -0.0037078648233910194 0 0.00015307571205199161 -0.0040885172646809038 0 9.5029302364155511e-05 -0.0036668606352204605 0 0.00050933704609284634 -0.0037078648233910194 0 9.5029302364155511e-05 -0.0036668606352204605 0 0.00051504852791839112 -0.0031110574003875941 0 7.2003382007545139e-05 -0.0029396290863145406 0 0.00051504852791839112 -0.0031110574003875941 0 0.00035347956849883294 -0.0021369213461922953 0 9.5029302364155511e-05 -0.0036668606352204605 0 7.2003382007545139e-05 -0.0029396290863145406 0 0.00051504852791839112 -0.0031110574003875941 0 0.00078809662954608525 -0.0038323818276676989 0 0.00057787645885296057 -0.0028365663516667613 0 0.0019061033265682442 -0.0037691283211043502 0 0.0012477388851213069 -0.0030322827002313498 0 0.0017223611606687675 -0.0024299971296653411 0 9.5029302364155511e-05 -0.0036668606352204605 0 7.2003382007545139e-05 -0.0029396290863145406 0 -0.00054718049539854855 -0.0032318246019336764 0 -0.00030411358122820294 -0.0039554593410659807 0 9.5029302364155511e-05 -0.0036668606352204605 0 -0.00054718049539854855 -0.0032318246019336764 0 7.2003382007545139e-05 -0.0029396290863145406 0 -0.00054718049539854855 -0.0032318246019336764 0 -8.6801980244504529e-05 -0.0023818210634492134 0 0.00057787645885296057 -0.0028365663516667613 0 0.00024329152715395368 -0.0017479747833767205 0 0.00079310870186580001 -0.0020328213512944516 0 0.0012477388851213069 -0.0030322827002313498 0 0.0017223611606687675 -0.0024299971296653411 0 0.00079310870186580001 -0.0020328213512944516 0 0.0017223611606687675 -0.0024299971296653411 0 0.00085454109135242606 -0.0014402154004911458 0 0.0017223611606687675 -0.0024299971296653411 0 0.00085454109135242606 -0.0014402154004911458 0 0.0011524678801964653 -0.0012657007338330516 0 0.00085454109135242606 -0.0014402154004911458 0 0.0011524678801964653 -0.0012657007338330516 0 0.00060746478269453445 -0.0010040590824190977 0 -0.00054718049539854855 -0.0032318246019336764 0 -0.00064658984095307805 -0.0021126278744677692 0 -8.6801980244504529e-05 -0.0023818210634492134 0 -0.00064658984095307805 -0.0021126278744677692 0 -8.6801980244504529e-05 -0.0023818210634492134 0 -0.00017686410270329915 -0.0016774507054821328 0 -0.00017686410270329915 -0.0016774507054821328 0 -0.000106572964113548 -0.00092223561006461328 0 -0.00013058820204198447 -0.0010353525015261195 0 0.00024329152715395368 -0.0017479747833767205 0 -3.5369163308464407e-05 -0.0010678876171970415 0 -0.00064658984095307805 -0.0021126278744677692 0 -0.00017686410270329915 -0.0016774507054821328 0 -0.000106572964113548 -0.00092223561006461328 0 0.0011524678801964653 -0.0012657007338330516 0 0.00060746478269453445 -0.0010040590824190977 0 -0.000106572964113548 -0.00092223561006461328 0 0.00060746478269453445 -0.0010040590824190977 0 0.00035550572989523387 -0.00091837583339357044 0 -0.000106572964113548 -0.00092223561006461328 0 0.00051833607188957675 -0.0010754376452521786 0 0.00060746478269453445 -0.0010040590824190977 0 0.00047988067690768406 -0.00091333512616429183 0 0.00060746478269453445 -0.0010040590824190977 0 0.00047988067690768406 -0.00091333512616429183 0 0.00035550572989523387 -0.00091837583339357044 0 0.00051833607188957675 -0.0010754376452521786 0 0.00085454109135242606 -0.0014402154004911458 0 0.00060746478269453445 -0.0010040590824190977 0 -0.0064621306528072631 -0.003163349393543566 0 -0.0064556444787589795 -0.0031277260080324852 0 -0.0064823261058028587 -0.0031046167966606794 0 -0.0030667194701770231 -0.0030414875698682874 0 -0.0025925287611417106 -0.0028889117692337497 0 -0.0064556444787589795 -0.0031277260080324852 0 -0.0064823261058028587 -0.0031046167966606794 0 -0.0064619793258558142 -0.0030799157654903858 0 7.2003382007545139e-05 -0.0029396290863145406 0 -8.6801980244504529e-05 -0.0023818210634492134 0 0.00035347956849883294 -0.0021369213461922953 0 -8.6801980244504529e-05 -0.0023818210634492134 0 -0.00017686410270329915 -0.0016774507054821328 0 0.00035347956849883294 -0.0021369213461922953 0 -0.0064823261058028587 -0.0031046167966606794 0 -0.0064619793258558142 -0.0030799157654903858 0 -0.0065224008060418689 -0.003008265505235308 0 -0.0025925287611417106 -0.0028889117692337497 0 -0.0065554086272170825 -0.0013819154733261912 0 -0.00017686410270329915 -0.0016774507054821328 0 0.00035347956849883294 -0.0021369213461922953 0 -0.00013058820204198447 -0.0010353525015261195 0 -0.0078355850599851513 -0.00052423147985979242 0 -0.0083855693314733859 0.00070089278547964763 0 -0.0095529097215008244 0.00031711811673475578 0 -0.0074699566777233564 -0.0017544107661252189 0 -0.0065554086272170825 -0.0013819154733261912 0 -0.007164381936815868 -0.00052446136070428561 0 -0.0078355850599851513 -0.00052423147985979242 0 -0.0074682843651178218 0.00054585852058111834 0 -0.0078355850599851513 -0.00052423147985979242 0 -0.0074682843651178218 0.00054585852058111834 0 -0.0083855693314733859 0.00070089278547964763 0 -0.0074682843651178218 0.00054585852058111834 0 -0.0083855693314733859 0.00070089278547964763 0 -0.0077718178868440256 0.0013785193250440615 0 -0.0074682843651178218 0.00054585852058111834 0 -0.0077718178868440256 0.0013785193250440615 0 -0.0071465279634151477 0.0014145024460569819 0 -0.0083855693314733859 0.00070089278547964763 0 -0.0086602109107948404 0.0019568837037253401 0 -0.0077718178868440256 0.0013785193250440615 0 -0.0083855693314733859 0.00070089278547964763 0 -0.0092408107706629643 0.0010431160719759519 0 -0.0095529097215008244 0.00031711811673475578 0 -0.0083855693314733859 0.00070089278547964763 0 -0.0092408107706629643 0.0010431160719759519 0 -0.0086602109107948404 0.0019568837037253401 0 -0.0086602109107948404 0.0019568837037253401 0 -0.0098412611512470136 0.0045091729033489144 0 -0.0074348716341482313 0.0047180879274616146 0 -0.0086602109107948404 0.0019568837037253401 0 -0.0097858045389418221 0.001951079371170222 0 -0.0098412611512470136 0.0045091729033489144 0 -0.0092408107706629643 0.0010431160719759519 0 -0.0086602109107948404 0.0019568837037253401 0 -0.0097858045389418221 0.001951079371170222 0 -0.0086602109107948404 0.0019568837037253401 0 -0.0074348716341482313 0.0047180879274616146 0 -0.0048064393807352472 0.0044047431077611455 0 -0.0086388076265698135 0.002027270138890301 0 -0.0059960927999480312 0.0030955288312187941 0 -0.0086602109107948404 0.0019568837037253401 0 -0.0077718178868440256 0.0013785193250440615 0 -0.0073672166601211472 0.0020383845087543376 0 -0.0077718178868440256 0.0013785193250440615 0 -0.0073672166601211472 0.0020383845087543376 0 -0.0071465279634151477 0.0014145024460569819 0 0.00050454745065446757 -0.00056293623531613799 0 0.00052815729651193417 -0.00069947032377900989 0 0.00043887323043984282 -0.00079102685569566039 0 0.00044566967165343739 -0.00073166272244868259 0 -0.0028019122927083711 0.00058079535482789043 0 0.00035550572989523387 -0.00091837583339357044 0 0.00052815729651193417 -0.00069947032377900989 0 0.00043887323043984282 -0.00079102685569566039 0 0.00047988067690768406 -0.00091333512616429183 0 0.00035550572989523387 -0.00091837583339357044 0 0.00043887323043984282 -0.00079102685569566039 0 0.00035550572989523387 -0.00091837583339357044 0 -0.00015835011709747836 -0.00083861179202853234 0 -0.000106572964113548 -0.00092223561006461328 0 -0.00095229921394143291 -0.00071278186850833719 0 -0.0028019122927083711 0.00058079535482789043 0 -0.0028019122927083711 0.00058079535482789043 0 -0.0065554086272170825 -0.0013819154733261912 0 -0.0121767503805509 0.00082051813466879002 0 -0.009085886530890503 -0.00048693866838153243 0 -0.0099585458025089717 0.00068484497381503012 0 -0.00015835011709747836 -0.00083861179202853234 0 -0.000106572964113548 -0.00092223561006461328 0 -0.00013058820204198447 -0.0010353525015261195 0 -0.0121767503805509 0.00082051813466879002 0 -0.0099585458025089717 0.00068484497381503012 0 -0.011137512808225242 0.0022859955461555924 0 -0.0065554086272170825 -0.0013819154733261912 0 -0.008882665028282442 0.00081278865702168136 0 -0.0092408107706629643 0.0010431160719759519 0 -0.0095529097215008244 0.00031711811673475578 0 -0.0099585458025089717 0.00068484497381503012 0 -0.0092408107706629643 0.0010431160719759519 0 -0.0099585458025089717 0.00068484497381503012 0 -0.0097858045389418221 0.001951079371170222 0 -0.0097858045389418221 0.001951079371170222 0 -0.011137512808225242 0.0022859955461555924 0 -0.0098412611512470136 0.0045091729033489144 0 -0.011137512808225242 0.0022859955461555924 0 -0.012169902315364833 0.0040817220436873344 0 -0.0098412611512470136 0.0045091729033489144 0 -0.0099585458025089717 0.00068484497381503012 0 -0.0097858045389418221 0.001951079371170222 0 -0.011137512808225242 0.0022859955461555924 0 -0.0121767503805509 0.00082051813466879002 0 -0.011137512808225242 0.0022859955461555924 0 -0.012169902315364833 0.0040817220436873344 0 0.00079287192504000662 -0.00069615512503244941 0 0.0005770554555717659 -0.00023366086595638614 0 0.00093749373962125429 0.00012159835569400148 0 -0.0028019122927083711 0.00058079535482789043 0 -0.0059940147249754831 0.0013885436048933174 0 0.0005770554555717659 -0.00023366086595638614 0 0.00093749373962125429 0.00012159835569400148 0 0.00031630836687398639 0.00010586224208764783 0 0.00050454745065446757 -0.00056293623531613799 0 0.00079287192504000662 -0.00069615512503244941 0 0.0005770554555717659 -0.00023366086595638614 0 -0.0059940147249754831 0.0013885436048933174 0 -0.0031378402255354525 0.0072293044082069133 0 -0.0031378402255354525 0.0072293044082069133 0 0.0025420813243776769 0.0046658428957716113 0 0.0045422678721038579 0.010741179063355703 0 0.0034993343242950559 0.010365959174257502 0 0.0036849671932074599 0.0097061275510428695 0 0.00093749373962125429 0.00012159835569400148 0 0.0010136947520360921 0.0011048296535928781 0 0.00031630836687398639 0.00010586224208764783 0 -0.0098412611512470136 0.0045091729033489144 0 -0.009665190724450828 0.0076019120463426985 0 -0.011959001586099914 0.0074786748380895945 0 -0.012169902315364833 0.0040817220436873344 0 -0.0098412611512470136 0.0045091729033489144 0 -0.011959001586099914 0.0074786748380895945 0 -0.009665190724450828 0.0076019120463426985 0 -0.011959001586099914 0.0074786748380895945 0 -0.0097569465834957576 0.010071227647314284 0 -0.0031378402255354525 0.0072293044082069133 0 -0.010236773182329561 0.010527495470559695 0 0.0020921183905923081 0.01637017417864256 0 -0.0031378402255354525 0.0072293044082069133 0 -0.010054736058208074 0.010966045202560823 0 -0.010116467881137089 0.010317191166445258 0 -0.008940648684684957 0.011570392227323888 0 0.0020921183905923081 0.01637017417864256 0 0.0054546588170406802 0.017756696906713543 0 0.0045422678721038579 0.010741179063355703 0 0.0037984652762638061 0.010928548431477997 0 0.0034993343242950559 0.010365959174257502 0 0.004584807828775018 0.011128122641955299 0 0.0045422678721038579 0.010741179063355703 0 0.0037984652762638061 0.010928548431477997 0 -0.0057849292934342642 0.0067374704467831155 0 -0.0074348716341482313 0.0047180879274616146 0 -0.0048064393807352472 0.0044047431077611455 0 -0.0057849292934342642 0.0067374704467831155 0 -0.0074348716341482313 0.0047180879274616146 0 -0.0079603673529642423 0.0066537468635576962 0 -0.0098412611512470136 0.0045091729033489144 0 -0.009665190724450828 0.0076019120463426985 0 -0.0079603673529642423 0.0066537468635576962 0 -0.0098412611512470136 0.0045091729033489144 0 -0.0074348716341482313 0.0047180879274616146 0 -0.0079603673529642423 0.0066537468635576962 0 -0.0079603673529642423 0.0066537468635576962 0 -0.0083880058693127906 0.0086719876886743909 0 -0.0069344752409722914 0.0082127044371304945 0 -0.009665190724450828 0.0076019120463426985 0 -0.0079603673529642423 0.0066537468635576962 0 -0.0083880058693127906 0.0086719876886743909 0 -0.009665190724450828 0.0076019120463426985 0 -0.0083880058693127906 0.0086719876886743909 0 -0.0097569465834957576 0.010071227647314284 0 -0.0083880058693127906 0.0086719876886743909 0 -0.0069344752409722914 0.0082127044371304945 0 -0.0071883016881985687 0.01005044103823066 0 -0.0069344752409722914 0.0082127044371304945 0 -0.0053376100575038407 0.0088063365403223508 0 -0.0071883016881985687 0.01005044103823066 0 -0.0057849292934342642 0.0067374704467831155 0 -0.0079603673529642423 0.0066537468635576962 0 -0.0069344752409722914 0.0082127044371304945 0 -0.0057849292934342642 0.0067374704467831155 0 -0.0069344752409722914 0.0082127044371304945 0 -0.0053376100575038407 0.0088063365403223508 0 -0.0057849292934342642 0.0067374704467831155 0 -0.0053376100575038407 0.0088063365403223508 0 -0.004102906453994924 0.0076856883188543678 0 -0.0052550079078731785 0.011513529900160958 0 -0.0073421136560094368 0.012743834895082946 0 -0.0071883016881985687 0.01005044103823066 0 -0.0053376100575038407 0.0088063365403223508 0 -0.0052550079078731785 0.011513529900160958 0 -0.0071883016881985687 0.01005044103823066 0 -0.0057054035945928727 0.018594050278196012 0 -0.0094906472196461082 0.021051683089087406 0 -0.0065242858748369064 0.025890826471564984 0 -0.006381096930849788 0.027808868733263055 0 -0.0089101402749737282 0.028306220303419335 0 -0.0052550079078731785 0.011513529900160958 0 -0.0078221595119801254 0.013956740626905498 0 -0.0073421136560094368 0.012743834895082946 0 -0.0078221595119801254 0.013956740626905498 0 -0.0073421136560094368 0.012743834895082946 0 -0.0087741181395209634 0.013011347406572742 0 -0.0073421136560094368 0.012743834895082946 0 -0.0087741181395209634 0.013011347406572742 0 -0.008940648684684957 0.011570392227323888 0 -0.0083880058693127906 0.0086719876886743909 0 -0.0071883016881985687 0.01005044103823066 0 -0.0097569465834957576 0.010071227647314284 0 -0.0073421136560094368 0.012743834895082946 0 -0.0071883016881985687 0.01005044103823066 0 -0.0097569465834957576 0.010071227647314284 0 -0.007213570117116523 0.012829738034160402 0 -0.010236773182329561 0.010527495470559695 0 0.0020921183905923081 0.01637017417864256 0 -0.0019238759879078411 0.01686211903917097 0 -0.010054736058208074 0.010966045202560823 0 -0.008940648684684957 0.011570392227323888 0 -0.010008164427228851 0.012641493939622156 0 -0.0087741181395209634 0.013011347406572742 0 -0.008940648684684957 0.011570392227323888 0 -0.010008164427228851 0.012641493939622156 0 0.0064630377430471711 0.024399480554208465 0 0.0067576472779329391 0.024246453617253572 0 0.0067933684133284124 0.024468669535008706 0 0.0064630377430471711 0.024399480554208465 0 0.0067576472779329391 0.024246453617253572 0 0.0063858129701206681 0.024135738254263975 0 0.0066891483926968323 0.023988516299964215 0 0.0063858129701206681 0.024135738254263975 0 0.0061740839456292003 0.023719568810946102 0 0.0067576472779329391 0.024246453617253572 0 0.0066891483926968323 0.023988516299964215 0 0.0063858129701206681 0.024135738254263975 0 -0.0087741181395209634 0.013011347406572742 0 -0.010008164427228851 0.012641493939622156 0 -0.0097532579246569408 0.015671977971278062 0 -0.0019238759879078411 0.01686211903917097 0 -0.0024702112686571017 0.026605459168050627 0 0.0066891483926968323 0.023988516299964215 0 0.0061740839456292003 0.023719568810946102 0 0.0069943311329030986 0.023689155365211132 0 -0.0024702112686571017 0.026605459168050627 0 0.0071442989503876534 0.030396595555907197 0 0.0061740839456292003 0.023719568810946102 0 0.0067278428661802954 0.023301594786854896 0 0.0069943311329030986 0.023689155365211132 0 -0.01115386779875605 0.030266946877784789 0 -0.0091662095957509397 0.03111560215467107 0 -0.010711684966668616 0.033674178670130006 0 -0.0024702112686571017 0.026605459168050627 0 -0.003473117022439885 0.03662784134130663 0 0.0040257071684913891 0.037353926036099751 0 0.0050063904742365731 0.036880965113245505 0 0.003773964036565376 0.036511937667377883 0 -0.0091662095957509397 0.03111560215467107 0 -0.0072184347854148132 0.03065866489523153 0 -0.0079251744824041688 0.032800426062602583 0 -0.0091662095957509397 0.03111560215467107 0 -0.0079251744824041688 0.032800426062602583 0 -0.010711684966668616 0.033674178670130006 0 -0.0072184347854148132 0.03065866489523153 0 -0.0079251744824041688 0.032800426062602583 0 -0.0051232445801690984 0.032219369589335176 0 -0.0072184347854148132 0.03065866489523153 0 -0.0063891119353359531 0.029626800634292304 0 -0.0051232445801690984 0.032219369589335176 0 -0.0089101402749737282 0.028306220303419335 0 -0.0072184347854148132 0.03065866489523153 0 -0.0063891119353359531 0.029626800634292304 0 -0.006381096930849788 0.027808868733263055 0 -0.0089101402749737282 0.028306220303419335 0 -0.0063891119353359531 0.029626800634292304 0 -0.0078221595119801254 0.013956740626905498 0 -0.0087741181395209634 0.013011347406572742 0 -0.0097532579246569408 0.015671977971278062 0 -0.0089101402749737282 0.028306220303419335 0 -0.0091662095957509397 0.03111560215467107 0 -0.0072184347854148132 0.03065866489523153 0 -0.0089101402749737282 0.028306220303419335 0 -0.01115386779875605 0.030266946877784789 0 -0.0091662095957509397 0.03111560215467107 0 -0.0094906472196461082 0.021051683089087406 0 -0.0024702112686571017 0.026605459168050627 0 0.0081603378970908375 0.023685665335262424 0 0.0077660056782946777 0.023680105620719403 0 0.0078329568551606509 0.0241748738613979 0 0.0085285949058870585 0.023369244550273883 0 0.0083837415558879781 0.023976438164152274 0 0.0087920094138851553 0.023745222663108866 0 0.0081603378970908375 0.023685665335262424 0 0.0085285949058870585 0.023369244550273883 0 0.0083837415558879781 0.023976438164152274 0 0.0083469812048992398 0.023013365646946567 0 0.0085285949058870585 0.023369244550273883 0 0.0091210382318540843 0.022519691739384083 0 0.0081603378970908375 0.023685665335262424 0 0.0083469812048992398 0.023013365646946567 0 0.0085285949058870585 0.023369244550273883 0 0.0079238245760071008 0.023593168629218283 0 0.0082403032912959431 0.023334841826652433 0 0.0081603378970908375 0.023685665335262424 0 0.0077660056782946777 0.023680105620719403 0 0.0083469812048992398 0.023013365646946567 0 0.0077660056782946777 0.023680105620719403 0 0.0085717403151501902 0.023463260999635367 0 0.0079801601736894726 0.023089352402472653 0 0.0077660056782946777 0.023680105620719403 0 0.007420198641395784 0.023352767646436484 0 0.0079801601736894726 0.023089352402472653 0 0.0077660056782946777 0.023680105620719403 0 0.007420198641395784 0.023352767646436484 0 0.0069943311329030986 0.023689155365211132 0 0.0067278428661802954 0.023301594786854896 0 0.007420198641395784 0.023352767646436484 0 0.0069943311329030986 0.023689155365211132 0 0.0066891483926968323 0.023988516299964215 0 0.0069943311329030986 0.023689155365211132 0 0.0071630166198775932 0.02408386328039059 0 0.0077660056782946777 0.023680105620719403 0 0.0069943311329030986 0.023689155365211132 0 0.0071630166198775932 0.02408386328039059 0 0.0077660056782946777 0.023680105620719403 0 0.0071630166198775932 0.02408386328039059 0 0.0078329568551606509 0.0241748738613979 0 0.0071630166198775932 0.02408386328039059 0 0.0073289936127730161 0.024514120244009431 0 0.0078329568551606509 0.0241748738613979 0 0.0067576472779329391 0.024246453617253572 0 0.0066891483926968323 0.023988516299964215 0 0.0071630166198775932 0.02408386328039059 0 0.0071132454610686085 0.023696125682755677 0 0.0073361451349884168 0.025591286277062763 0 0.0067576472779329391 0.024246453617253572 0 0.0070623043395222733 0.024303755994150474 0 0.0067933684133284124 0.024468669535008706 0 0.0067576472779329391 0.024246453617253572 0 0.0071630166198775932 0.02408386328039059 0 0.0070623043395222733 0.024303755994150474 0 0.0073289936127730161 0.024514120244009431 0 0.0077755294946532157 0.024643627824525827 0 0.0078329568551606509 0.0241748738613979 0 0.0077755294946532157 0.024643627824525827 0 0.0078329568551606509 0.0241748738613979 0 0.008344485829990235 0.024629735175242775 0 0.0081603378970908375 0.023685665335262424 0 0.0078329568551606509 0.0241748738613979 0 0.0083837415558879781 0.023976438164152274 0 0.0083837415558879781 0.023976438164152274 0 0.008344485829990235 0.024629735175242775 0 0.0088091552026615984 0.024226640903498707 0 0.0078329568551606509 0.0241748738613979 0 0.0083837415558879781 0.023976438164152274 0 0.008344485829990235 0.024629735175242775 0 0.0095535626245222428 0.020271749983222405 0 0.0084542867088356465 0.020827380687665518 0 0.010921789642054914 0.01528960558169115 0 0.012092019155872271 0.013865441066674183 0 0.00994126469025838 0.013265941435256369 0 0.0095535626245222428 0.020271749983222405 0 0.010545915872398936 0.016823043883594568 0 0.0077755294946532157 0.024643627824525827 0 0.008344485829990235 0.024629735175242775 0 0.0079569668232928482 0.024981659053939263 0 0.011701579194419854 0.013811101560965376 0 0.011993926498193473 0.013461072071166216 0 0.013558559728014927 0.014293981832444406 0 0.011716522547104697 0.013714146316002098 0 0.011993926498193473 0.013461072071166216 0 0.011293684522522291 0.012955971415375167 0 0.010545915872398936 0.016823043883594568 0 0.011651084222913098 0.015159967507609808 0 0.011993926498193473 0.013461072071166216 0 0.011293684522522291 0.012955971415375167 0 0.012077465081719457 0.012124957818117014 0 0.011716522547104697 0.013714146316002098 0 0.011293684522522291 0.012955971415375167 0 0.00994126469025838 0.013265941435256369 0 0.010545915872398936 0.016823043883594568 0 0.010467452979605447 0.012598190469421648 0 0.011293684522522291 0.012955971415375167 0 0.010955097029259262 0.012094329494223045 0 0.00994126469025838 0.013265941435256369 0 0.0070623043395222733 0.024303755994150474 0 0.0067933684133284124 0.024468669535008706 0 0.0070613311196274014 0.024491525914221636 0 0.0054546588170406802 0.017756696906713543 0 0.0077521586010416577 0.017828066262967058 0 0.0037984652762638061 0.010928548431477997 0 0.0029661415743518168 0.01075517399552061 0 0.0034993343242950559 0.010365959174257502 0 0.0077755294946532157 0.024643627824525827 0 0.0079569668232928482 0.024981659053939263 0 0.0074315280179010094 0.024876297472243233 0 0.0073361451349884168 0.025591286277062763 0 0.0077521586010416577 0.017828066262967058 0 0.0073289936127730161 0.024514120244009431 0 0.0077755294946532157 0.024643627824525827 0 0.0074315280179010094 0.024876297472243233 0 0.010545915872398936 0.016823043883594568 0 0.0077521586010416577 0.017828066262967058 0 0.0029661415743518168 0.01075517399552061 0 0.0028090229336346462 0.0096869087895234927 0 0.0034993343242950559 0.010365959174257502 0 0.0077521586010416577 0.017828066262967058 0 0.0083295881054160758 0.011002987384347657 0 0.011993926498193473 0.013461072071166216 0 0.013558559728014927 0.014293981832444406 0 0.013401002359838918 0.012480784740463508 0 0.011993926498193473 0.013461072071166216 0 0.013401002359838918 0.012480784740463508 0 0.012077465081719457 0.012124957818117014 0 0.0028090229336346462 0.0096869087895234927 0 0.0034993343242950559 0.010365959174257502 0 0.0036849671932074599 0.0097061275510428695 0 0.0025420813243776769 0.0046658428957716113 0 0.0035525565773349716 0.0050334325151702693 0 0.00031630836687398639 0.00010586224208764783 0 0.00032674528588273841 -0.00038198542173322934 0 1.1391634323470645e-05 -0.00057688402661202893 0 0.00050454745065446757 -0.00056293623531613799 0 0.0005770554555717659 -0.00023366086595638614 0 0.00032674528588273841 -0.00038198542173322934 0 0.0005770554555717659 -0.00023366086595638614 0 0.00031630836687398639 0.00010586224208764783 0 0.00032674528588273841 -0.00038198542173322934 0 0.013401002359838918 0.012480784740463508 0 0.013305121874506991 0.010489746164814488 0 0.012077465081719457 0.012124957818117014 0 0.0083295881054160758 0.011002987384347657 0 0.0035525565773349716 0.0050334325151702693 0 0.0028090229336346462 0.0096869087895234927 0 0.0036849671932074599 0.0097061275510428695 0 0.0026920627624246029 0.0085492632674366263 0 -0.00038722497941948397 -0.00076263520975440732 0 7.1570060110294245e-05 -0.00092043547927644963 0 0.00023946756568645193 -2.737527770425214e-05 0 0.00018732217042129426 -0.00085228577764109284 0 7.1570060110294245e-05 -0.00092043547927644963 0 1.1391634323470645e-05 -0.00057688402661202893 0 -0.00032932719929874707 -0.0028558865856921434 0 0.0035525565773349716 0.0050334325151702693 0 0.0062428988056707959 0.0042792482831524106 0 0.0035525565773349716 0.0050334325151702693 0 0.00018732217042129426 -0.00085228577764109284 0 1.1391634323470645e-05 -0.00057688402661202893 0 0.00021172428845544572 -0.00072624349686325692 0 1.1391634323470645e-05 -0.00057688402661202893 0 0.00029716200145012557 -0.00062209876730745842 0 0.00021172428845544572 -0.00072624349686325692 0 0.00032674528588273841 -0.00038198542173322934 0 1.1391634323470645e-05 -0.00057688402661202893 0 0.00029716200145012557 -0.00062209876730745842 0 0.00035673982754362652 -0.00085538525856953781 0 0.00018732217042129426 -0.00085228577764109284 0 0.00021172428845544572 -0.00072624349686325692 0 0.00035673982754362652 -0.00085538525856953781 0 0.00029716200145012557 -0.00062209876730745842 0 0.00021172428845544572 -0.00072624349686325692 0 0.00035673982754362652 -0.00085538525856953781 0 0.00047988067690768406 -0.00091333512616429183 0 0.00043887323043984282 -0.00079102685569566039 0 0.00035673982754362652 -0.00085538525856953781 0 0.00029716200145012557 -0.00062209876730745842 0 0.00043887323043984282 -0.00079102685569566039 0 0.00050454745065446757 -0.00056293623531613799 0 0.00032674528588273841 -0.00038198542173322934 0 0.00029716200145012557 -0.00062209876730745842 0 0.00050454745065446757 -0.00056293623531613799 0 0.00029716200145012557 -0.00062209876730745842 0 0.00043887323043984282 -0.00079102685569566039 0 0.010881942804653901 0.011957881082315205 0 0.010186996395340431 0.010119716812108021 0 0.010955097029259262 0.012094329494223045 0 0.010658864275079357 0.010671382556112777 0 0.0099842141329558182 0.01172468549523775 0 0.010955097029259262 0.012094329494223045 0 0.0099842141329558182 0.01172468549523775 0 0.00994126469025838 0.013265941435256369 0 0.011293684522522291 0.012955971415375167 0 0.010955097029259262 0.012094329494223045 0 0.012077465081719457 0.012124957818117014 0 0.013305121874506991 0.010489746164814488 0 0.012077465081719457 0.012124957818117014 0 0.011587475333813225 0.010568457530305136 0 0.010955097029259262 0.012094329494223045 0 0.012077465081719457 0.012124957818117014 0 0.011587475333813225 0.010568457530305136 0 0.011791320951775843 0.0086177044500557812 0 0.013305121874506991 0.010489746164814488 0 0.011587475333813225 0.010568457530305136 0 0.011791320951775843 0.0086177044500557812 0 0.011587475333813225 0.010568457530305136 0 0.0097859665793201198 0.0097827622907268597 0 0.010955097029259262 0.012094329494223045 0 0.011587475333813225 0.010568457530305136 0 0.0097859665793201198 0.0097827622907268597 0 0.010658864275079357 0.010671382556112777 0 0.0093130908615831325 0.010505655072087389 0 0.0099842141329558182 0.01172468549523775 0 0.0098768751517032648 0.0099102608141052925 0 0.010658864275079357 0.010671382556112777 0 0.0093130908615831325 0.010505655072087389 0 0.0093130908615831325 0.010505655072087389 0 0.0099842141329558182 0.01172468549523775 0 0.0088477107878796417 0.011976447118124798 0 0.0099842141329558182 0.01172468549523775 0 0.0088477107878796417 0.011976447118124798 0 0.00994126469025838 0.013265941435256369 0 0.0088477107878796417 0.011976447118124798 0 0.0079880703558771835 0.010720331507232115 0 0.0070951847441844285 0.012172372446899834 0 0.0088477107878796417 0.011976447118124798 0 0.0070951847441844285 0.012172372446899834 0 0.0086757173488417501 0.013332931218094323 0 0.0084965362108989292 0.0097863293481483381 0 0.0093130908615831325 0.010505655072087389 0 0.0079880703558771835 0.010720331507232115 0 0.0093130908615831325 0.010505655072087389 0 0.0088477107878796417 0.011976447118124798 0 0.0079880703558771835 0.010720331507232115 0 0.017464951632725805 0.010896795531918416 0 0.015993740502000125 0.016315909529910147 0 0.007592045430225073 0.0095765241799599891 0 0.0079880703558771835 0.010720331507232115 0 0.0065959174264472687 0.010289186906869842 0 0.0079880703558771835 0.010720331507232115 0 0.0065959174264472687 0.010289186906869842 0 0.0070951847441844285 0.012172372446899834 0 0.025037120086778816 0.018973423193708733 0 0.025098790318437071 0.01901849731253788 0 0.025073631029919292 0.019008967065495742 0 0.025037120086778816 0.018973423193708733 0 0.025098790318437071 0.01901849731253788 0 0.025198164159363889 0.01905809068737736 0 0.017464951632725805 0.010896795531918416 0 0.027341403716226845 0.011956093172782612 0 0.025098790318437071 0.01901849731253788 0 0.025106672060902956 0.019056503853431776 0 0.025198164159363889 0.01905809068737736 0 0.025098790318437071 0.01901849731253788 0 0.025073631029919292 0.019008967065495742 0 0.025106672060902956 0.019056503853431776 0 0.015993740502000125 0.016315909529910147 0 0.016333789297534644 0.016522322395458953 0 0.025073631029919292 0.019008967065495742 0 0.025106672060902956 0.019056503853431776 0 0.025090921892381286 0.019074195598556432 0 0.0070951847441844285 0.012172372446899834 0 0.0075791536237849854 0.014094771961192909 0 0.0086757173488417501 0.013332931218094323 0 0.02511775119376404 0.019123800145581418 0 0.025201978058879443 0.019180797405457882 0 0.02509264533388297 0.019132192246134758 0 0.025106672060902956 0.019056503853431776 0 0.02511775119376404 0.019123800145581418 0 0.025090921892381286 0.019074195598556432 0 0.02511775119376404 0.019123800145581418 0 0.025090921892381286 0.019074195598556432 0 0.02509264533388297 0.019132192246134758 0 0.0075791536237849854 0.014094771961192909 0 0.0091688130761080882 0.014791689309224932 0 0.0081235401249956391 0.01610669169159254 0 0.0075791536237849854 0.014094771961192909 0 0.0091688130761080882 0.014791689309224932 0 0.0086757173488417501 0.013332931218094323 0 0.016333789297534644 0.016522322395458953 0 0.01668027030319004 0.017254802551778206 0 0.010921789642054914 0.01528960558169115 0 0.0091688130761080882 0.014791689309224932 0 0.00994126469025838 0.013265941435256369 0 0.0091688130761080882 0.014791689309224932 0 0.00994126469025838 0.013265941435256369 0 0.0086757173488417501 0.013332931218094323 0 0.0088477107878796417 0.011976447118124798 0 0.00994126469025838 0.013265941435256369 0 0.0086757173488417501 0.013332931218094323 0 0.029195456721610853 0.0046812164375575173 0 0.029902925766505464 0.0050598778894099554 0 0.029846905307800431 0.0043597744355077924 0 0.029195456721610853 0.0046812164375575173 0 0.029144690705082247 0.0043033683983737664 0 0.029846905307800431 0.0043597744355077924 0 0.029195456721610853 0.0046812164375575173 0 0.029902925766505464 0.0050598778894099554 0 0.02924956542141896 0.005248516742466681 0 0.029100130749112687 0.0062541856518415562 0 0.029825554690337531 0.0058122978999889914 0 0.02924956542141896 0.005248516742466681 0 0.029902925766505464 0.0050598778894099554 0 0.029825554690337531 0.0058122978999889914 0 0.02924956542141896 0.005248516742466681 0 0.029100130749112687 0.0062541856518415562 0 0.02924956542141896 0.005248516742466681 0 0.028475835835860094 0.0055508618861820833 0 0.02924956542141896 0.005248516742466681 0 0.028475835835860094 0.0055508618861820833 0 0.028611781114331162 0.0049659577691925014 0 0.028475835835860094 0.0055508618861820833 0 0.028611781114331162 0.0049659577691925014 0 0.02799598977653784 0.0051079648021275887 0 0.028611781114331162 0.0049659577691925014 0 0.028195805760304313 0.0043937169881292136 0 0.02799598977653784 0.0051079648021275887 0 0.029195456721610853 0.0046812164375575173 0 0.028611781114331162 0.0049659577691925014 0 0.028195805760304313 0.0043937169881292136 0 0.029195456721610853 0.0046812164375575173 0 0.028195805760304313 0.0043937169881292136 0 0.029144690705082247 0.0043033683983737664 0 0.029195456721610853 0.0046812164375575173 0 0.02924956542141896 0.005248516742466681 0 0.028611781114331162 0.0049659577691925014 0 0.026866766676080182 0.011439824243024831 0 0.027341403716226845 0.011956093172782612 0 0.025767265203269617 0.018963139227111871 0 0.025198164159363889 0.01905809068737736 0 0.025353535652037587 0.018944972964931823 0 0.028195805760304313 0.0043937169881292136 0 0.02799598977653784 0.0051079648021275887 0 0.02680190761952006 0.0050035614455986562 0 0.028475835835860094 0.0055508618861820833 0 0.02799598977653784 0.0051079648021275887 0 0.027809126257480884 0.0056326663694511473 0 0.02799598977653784 0.0051079648021275887 0 0.027809126257480884 0.0056326663694511473 0 0.02680190761952006 0.0050035614455986562 0 0.028020879179500132 0.0063381196259963144 0 0.028475835835860094 0.0055508618861820833 0 0.027809126257480884 0.0056326663694511473 0 0.027809126257480884 0.0056326663694511473 0 0.027077895419712519 0.0059722055059542051 0 0.02680190761952006 0.0050035614455986562 0 0.025130666609852245 0.0059107332471255193 0 0.027077895419712519 0.0059722055059542051 0 0.02680190761952006 0.0050035614455986562 0 0.025106672060902956 0.019056503853431776 0 0.025198164159363889 0.01905809068737736 0 0.025353535652037587 0.018944972964931823 0 0.02531421431013842 0.018859350916529974 0 0.025279339708542025 0.019866565783085124 0 0.025106672060902956 0.019056503853431776 0 0.025353535652037587 0.018944972964931823 0 0.025579102925303285 0.018579897176235941 0 0.025106672060902956 0.019056503853431776 0 0.025201978058879443 0.019180797405457882 0 0.025490385668810057 0.019580147030434304 0 0.025106672060902956 0.019056503853431776 0 0.02511775119376404 0.019123800145581418 0 0.025201978058879443 0.019180797405457882 0 0.025201978058879443 0.019180797405457882 0 0.025497711749268341 0.019291422166815737 0 0.025557645114924379 0.019061402597861033 0 0.025201978058879443 0.019180797405457882 0 0.025497711749268341 0.019291422166815737 0 0.025490385668810057 0.019580147030434304 0 0.025497711749268341 0.019291422166815737 0 0.025768713605776077 0.019362180955938467 0 0.025557645114924379 0.019061402597861033 0 0.025497711749268341 0.019291422166815737 0 0.025490385668810057 0.019580147030434304 0 0.025768713605776077 0.019362180955938467 0 0.025767265203269617 0.018963139227111871 0 0.025353535652037587 0.018944972964931823 0 0.025579102925303285 0.018579897176235941 0 0.028195805760304313 0.0043937169881292136 0 0.029336585094857176 0.0037764222616832534 0 0.029144690705082247 0.0043033683983737664 0 0.025490385668810057 0.019580147030434304 0 0.02630889053165103 0.01963182484549052 0 0.026568946140121501 0.019815640092876226 0 0.025279339708542025 0.019866565783085124 0 0.027726018255277568 0.012959625177128606 0 0.025767265203269617 0.018963139227111871 0 0.025579102925303285 0.018579897176235941 0 0.026759060066451172 0.018276630332620624 0 0.026866766676080182 0.011439824243024831 0 0.027726018255277568 0.012959625177128606 0 0.025490385668810057 0.019580147030434304 0 0.025768713605776077 0.019362180955938467 0 0.02630889053165103 0.01963182484549052 0 0.025768713605776077 0.019362180955938467 0 0.026158199746880072 0.019258747681764287 0 0.025557645114924379 0.019061402597861033 0 0.026158199746880072 0.019258747681764287 0 0.02630889053165103 0.01963182484549052 0 0.026630564573157055 0.01945303347007668 0 0.025768713605776077 0.019362180955938467 0 0.026158199746880072 0.019258747681764287 0 0.02630889053165103 0.01963182484549052 0 0.026698763647039211 0.017480307108253223 0 0.027790421012119707 0.012898857813407636 0 0.02630889053165103 0.01963182484549052 0 0.026630564573157055 0.01945303347007668 0 0.026949294766707706 0.019857452730500606 0 0.026158199746880072 0.019258747681764287 0 0.026630564573157055 0.01945303347007668 0 0.026713858755477486 0.0191069378014204 0 0.026630564573157055 0.01945303347007668 0 0.026713858755477486 0.0191069378014204 0 0.027200757655495379 0.019284586656301835 0 0.026630564573157055 0.01945303347007668 0 0.027200757655495379 0.019284586656301835 0 0.026949294766707706 0.019857452730500606 0 0.027726018255277568 0.012959625177128606 0 0.03024629207826092 0.0063621712875807073 0 0.027790421012119707 0.012898857813407636 0 0.03024629207826092 0.0063621712875807073 0 0.02804269732546601 0.0098125779613028943 0 0.027248106421527366 0.010340535421100833 0 0.030143847235904207 0.010024302813411228 0 0.029336585094857176 0.0037764222616832534 0 0.029846905307800431 0.0043597744355077924 0 0.030213623539638506 0.0036760623377167811 0 0.027790421012119707 0.012898857813407636 0 0.027726018255277568 0.012959625177128606 0 0.02630889053165103 0.01963182484549052 0 0.026762436829372502 0.019675323563078249 0 0.026568946140121501 0.019815640092876226 0 0.029336585094857176 0.0037764222616832534 0 0.029144690705082247 0.0043033683983737664 0 0.029846905307800431 0.0043597744355077924 0 0.026836512748439678 0.018366222283575449 0 0.025938639609546489 0.017909863771270643 0 0.027322463861061786 0.016959271709020615 0 0.026836512748439678 0.018366222283575449 0 0.027322463861061786 0.016959271709020615 0 0.027695103912350149 0.018219450461554779 0 0.027335060467047208 0.018853132276479018 0 0.026836512748439678 0.018366222283575449 0 0.027695103912350149 0.018219450461554779 0 0.026713858755477486 0.0191069378014204 0 0.027335060467047208 0.018853132276479018 0 0.026836512748439678 0.018366222283575449 0 0.026713858755477486 0.0191069378014204 0 0.027200757655495379 0.019284586656301835 0 0.027335060467047208 0.018853132276479018 0 0.026713858755477486 0.0191069378014204 0 0.026836512748439678 0.018366222283575449 0 0.026227851669728498 0.018748930333386322 0 0.026227851669728498 0.018748930333386322 0 0.025938639609546489 0.017909863771270643 0 0.025557645114924379 0.019061402597861033 0 0.026158199746880072 0.019258747681764287 0 0.026713858755477486 0.0191069378014204 0 0.026227851669728498 0.018748930333386322 0 0.026158199746880072 0.019258747681764287 0 0.026227851669728498 0.018748930333386322 0 0.025557645114924379 0.019061402597861033 0 0.026836512748439678 0.018366222283575449 0 0.026227851669728498 0.018748930333386322 0 0.025938639609546489 0.017909863771270643 0 0.025938639609546489 0.017909863771270643 0 0.025557645114924379 0.019061402597861033 0 0.025102762561821455 0.019047118506269587 0 0.025489364398257448 0.018869300772653405 0 0.025184121256824246 0.019004404542039388 0 0.024890891673119923 0.019843506590275128 0 0.025102762561821455 0.019047118506269587 0 0.024984143806462182 0.019607824698617372 0 0.025201978058879443 0.019180797405457882 0 0.025557645114924379 0.019061402597861033 0 0.025102762561821455 0.019047118506269587 0 0.025201978058879443 0.019180797405457882 0 0.025102762561821455 0.019047118506269587 0 0.02509264533388297 0.019132192246134758 0 0.024988330676482099 0.019759987937166334 0 0.024984143806462182 0.019607824698617372 0 0.025115515511440048 0.0194934164117735 0 0.025102762561821455 0.019047118506269587 0 0.024984143806462182 0.019607824698617372 0 0.025115515511440048 0.0194934164117735 0 0.024988330676482099 0.019759987937166334 0 0.025115515511440048 0.0194934164117735 0 0.025102731548649396 0.019916185079417292 0 0.024988330676482099 0.019759987937166334 0 0.024923377278295855 0.019878916386816201 0 0.024890873137543731 0.019944674625753556 0 0.024988330676482099 0.019759987937166334 0 0.024923377278295855 0.019878916386816201 0 0.024984143806462182 0.019607824698617372 0 0.024890891673119923 0.019843506590275128 0 0.024923377278295855 0.019878916386816201 0 0.024984143806462182 0.019607824698617372 0 0.024890891673119923 0.019843506590275128 0 0.024923377278295855 0.019878916386816201 0 0.025042907085291895 0.020099950086881594 0 0.024923377278295855 0.019878916386816201 0 0.024959139102590976 0.020016607135541913 0 0.024890873137543731 0.019944674625753556 0 0.024923377278295855 0.019878916386816201 0 0.025042907085291895 0.020099950086881594 0 0.024959139102590976 0.020016607135541913 0 0.025042907085291895 0.020099950086881594 0 0.025269507798814719 0.020107256020289125 0 0.025612426447102068 0.020349049970318785 0 0.025042907085291895 0.020099950086881594 0 0.025269507798814719 0.020107256020289125 0 0.024959139102590976 0.020016607135541913 0 0.025042907085291895 0.020099950086881594 0 0.025325956783943289 0.02041825553103567 0 0.025612426447102068 0.020349049970318785 0 0.024890891673119923 0.019843506590275128 0 0.025042907085291895 0.020099950086881594 0 0.025325956783943289 0.02041825553103567 0 0.025489364398257448 0.018869300772653405 0 0.026388375241905366 0.018676456736897145 0 0.025128612643642419 0.019173424314764129 0 0.025108659851857732 0.01934923236778607 0 0.025130614027845034 0.019373707648995698 0 0.0098324441057847777 0.01669671686794863 0 0.0081235401249956391 0.01610669169159254 0 0.008743823269652529 0.018129388903453607 0 0.01668027030319004 0.017254802551778206 0 0.016005967434889815 0.020855412165146046 0 0.0084542867088356465 0.020827380687665518 0 0.016005967434889815 0.020855412165146046 0 0.0088091552026615984 0.024226640903498707 0 0.0093479602348001106 0.023726160001294849 0 0.0087920094138851553 0.023745222663108866 0 0.0083837415558879781 0.023976438164152274 0 0.0088091552026615984 0.024226640903498707 0 0.0087920094138851553 0.023745222663108866 0 0.010921789642054914 0.01528960558169115 0 0.0091688130761080882 0.014791689309224932 0 0.0098324441057847777 0.01669671686794863 0 0.0091688130761080882 0.014791689309224932 0 0.0098324441057847777 0.01669671686794863 0 0.0081235401249956391 0.01610669169159254 0 0.025102762561821455 0.019047118506269587 0 0.02509264533388297 0.019132192246134758 0 0.025115515511440048 0.0194934164117735 0 0.02509264533388297 0.019132192246134758 0 0.025108659851857732 0.01934923236778607 0 0.025115515511440048 0.0194934164117735 0 0.025090921892381286 0.019074195598556432 0 0.025128612643642419 0.019173424314764129 0 0.02509264533388297 0.019132192246134758 0 0.025128612643642419 0.019173424314764129 0 0.02509264533388297 0.019132192246134758 0 0.025108659851857732 0.01934923236778607 0 0.025108659851857732 0.01934923236778607 0 0.025039996533145651 0.019451700917429843 0 0.025130614027845034 0.019373707648995698 0 0.025108659851857732 0.01934923236778607 0 0.025115515511440048 0.0194934164117735 0 0.025039996533145651 0.019451700917429843 0 0.025115515511440048 0.0194934164117735 0 0.025019724471280216 0.019442936941324623 0 0.025039996533145651 0.019451700917429843 0 0.025115515511440048 0.0194934164117735 0 0.025019724471280216 0.019442936941324623 0 0.025213651897435234 0.01934881049436726 0 0.025046354112186094 0.019577323268959751 0 0.025426050379161381 0.019463809803574806 0 0.025019724471280216 0.019442936941324623 0 0.025039996533145651 0.019451700917429843 0 0.024761550439200596 0.019299461066727211 0 0.02313832120431062 0.021288682357493992 0 0.021023959647728945 0.021330321991888893 0 0.021696460588910522 0.020179377345473117 0 0.02313832120431062 0.021288682357493992 0 0.02152040089773791 0.023133423358072454 0 0.021023959647728945 0.021330321991888893 0 0.016005967434889815 0.020855412165146046 0 0.015283286671753766 0.022663796717943184 0 0.02514206878159482 0.019942022369742025 0 0.016005967434889815 0.020855412165146046 0 0.0093479602348001106 0.023726160001294849 0 0.0087920094138851553 0.023745222663108866 0 0.0088959072589602697 0.023401767477280414 0 0.0093479602348001106 0.023726160001294849 0 0.0088959072589602697 0.023401767477280414 0 0.0092107614323427098 0.023166340658824801 0 0.0085285949058870585 0.023369244550273883 0 0.0087920094138851553 0.023745222663108866 0 0.0088959072589602697 0.023401767477280414 0 0.0088959072589602697 0.023401767477280414 0 0.0092107614323427098 0.023166340658824801 0 0.0090546573440763532 0.022549770389734308 0 0.0077035441835766908 0.0238518660749664 0 0.011712614672287919 0.021710931812842768 0 0.0085285949058870585 0.023369244550273883 0 0.0088959072589602697 0.023401767477280414 0 0.0090546573440763532 0.022549770389734308 0 0.021023959647728945 0.021330321991888893 0 0.020514805072945074 0.01953209334631344 0 0.021696460588910522 0.020179377345473117 0 0.015283286671753766 0.022663796717943184 0 0.011712614672287919 0.021710931812842768 0 0.0083469812048992398 0.023013365646946567 0 0.0091210382318540843 0.022519691739384083 0 0.0090889689520487829 0.02240359354794888 0 0.011712614672287919 0.021710931812842768 0 0.014768272999742652 0.020816800238637415 0 0.012346723574886087 0.022828162017280898 0 0.012130804305158411 0.022078641672439305 0 0.013626703358741547 0.020829618390712564 0 0.020514805072945074 0.01953209334631344 0 0.021063774416148873 0.018729579404355004 0 0.021333264208116248 0.019459405450201056 0 0.011712614672287919 0.021710931812842768 0 0.010609525677406544 0.022484467633888637 0 0.010609525677406544 0.022484467633888637 0 0.014768272999742652 0.020816800238637415 0 0.010609525677406544 0.022484467633888637 0 0.009887500048747595 0.022655171776528055 0 0.0096059713824197188 0.022971117795940358 0 0.0096176506013135529 0.022506648150820846 0 0.0090966632132859857 0.022820572679083311 0 0.009926469117824183 0.023464593303937544 0 0.01042049834959634 0.023053793408911089 0 0.0096176506013135529 0.022506648150820846 0 0.01042049834959634 0.023053793408911089 0 0.0096176506013135529 0.022506648150820846 0 0.010371932844281249 0.021995279177284784 0 0.0096176506013135529 0.022506648150820846 0 0.0094301283359914476 0.021829918039975367 0 0.0089651109715385979 0.022404003141346374 0 0.0096176506013135529 0.022506648150820846 0 0.0094301283359914476 0.021829918039975367 0 0.010371932844281249 0.021995279177284784 0 0.021063774416148873 0.018729579404355004 0 0.02249588878639466 0.017665847398880056 0 0.022478481721672647 0.019288528625329305 0 0.01042049834959634 0.023053793408911089 0 0.010371932844281249 0.021995279177284784 0 0.01162167029717011 0.021359956006952611 0 0.014768272999742652 0.020816800238637415 0 0.014074762879294244 0.020644407155137826 0 0.015797472235561379 0.02116161445718464 0 0.017086112204562319 0.020103701807708554 0 0.017263987755021859 0.018897995767658431 0 0.014768272999742652 0.020816800238637415 0 0.020396138146594911 0.018392896777455169 0 0.02313832120431062 0.021288682357493992 0 0.022478481721672647 0.019288528625329305 0 0.021696460588910522 0.020179377345473117 0 0.022478481721672647 0.019288528625329305 0 0.021333264208116248 0.019459405450201056 0 0.021696460588910522 0.020179377345473117 0 0.021063774416148873 0.018729579404355004 0 0.022478481721672647 0.019288528625329305 0 0.021333264208116248 0.019459405450201056 0 0.020514805072945074 0.01953209334631344 0 0.021333264208116248 0.019459405450201056 0 0.021696460588910522 0.020179377345473117 0 0.02514206878159482 0.019942022369742025 0 0.024414157531901407 0.019615761362134134 0 0.02313832120431062 0.021288682357493992 0 0.023542353587232209 0.019580264037679887 0 0.024761550439200596 0.019299461066727211 0 0.02313832120431062 0.021288682357493992 0 0.022478481721672647 0.019288528625329305 0 0.023542353587232209 0.019580264037679887 0 0.023542353587232209 0.019580264037679887 0 0.024761550439200596 0.019299461066727211 0 0.02378722640815072 0.018540731395671459 0 0.022478481721672647 0.019288528625329305 0 0.023542353587232209 0.019580264037679887 0 0.02378722640815072 0.018540731395671459 0 0.025019724471280216 0.019442936941324623 0 0.024761550439200596 0.019299461066727211 0 0.025213651897435234 0.01934881049436726 0 0.024761550439200596 0.019299461066727211 0 0.025213651897435234 0.01934881049436726 0 0.024818770970225633 0.018454772410944689 0 0.024818770970225633 0.018454772410944689 0 0.024498422475047923 0.017808376854535967 0 0.025708124128073943 0.017156270340524398 0 0.025213651897435234 0.01934881049436726 0 0.024818770970225633 0.018454772410944689 0 0.025708124128073943 0.017156270340524398 0 0.024761550439200596 0.019299461066727211 0 0.024818770970225633 0.018454772410944689 0 0.02378722640815072 0.018540731395671459 0 0.024818770970225633 0.018454772410944689 0 0.024498422475047923 0.017808376854535967 0 0.02378722640815072 0.018540731395671459 0 0.02249588878639466 0.017665847398880056 0 0.022478481721672647 0.019288528625329305 0 0.02378722640815072 0.018540731395671459 0 0.024498422475047923 0.017808376854535967 0 0.02378722640815072 0.018540731395671459 0 0.023685060875429396 0.017681195085242778 0 0.02249588878639466 0.017665847398880056 0 0.02378722640815072 0.018540731395671459 0 0.023685060875429396 0.017681195085242778 0 0.017086112204562319 0.020103701807708554 0 0.018376977132562491 0.019045411285880453 0 0.017263987755021859 0.018897995767658431 0 0.020396138146594911 0.018392896777455169 0 0.020344465430108982 0.019048980616738383 0 0.02249588878639466 0.017665847398880056 0 0.023685060875429396 0.017681195085242778 0 0.023777617985372968 0.016762132683386451 0 0.024498422475047923 0.017808376854535967 0 0.023685060875429396 0.017681195085242778 0 0.023777617985372968 0.016762132683386451 0 0.020344465430108982 0.019048980616738383 0 0.014074762879294244 0.020644407155137826 0 0.01716768437462866 0.020693916620758684 0 0.01665740273471697 0.019465291985682063 0 0.015973945098890798 0.02053714508581923 0 0.024498422475047923 0.017808376854535967 0 0.023777617985372968 0.016762132683386451 0 0.025708124128073943 0.017156270340524398 0 0.020183767541348027 0.019655977536085556 0 0.020836857327941403 0.019506839406013627 0 0.021210478771690938 0.019795479099318516 0 0.020344465430108982 0.019048980616738383 0 0.023589933426312996 0.019090992196307128 0 0.020183767541348027 0.019655977536085556 0 0.020836857327941403 0.019506839406013627 0 0.020685661497736676 0.019237168461945887 0 0.020344465430108982 0.019048980616738383 0 0.018338538141295966 0.020462347674990725 0 0.020836857327941403 0.019506839406013627 0 0.020685661497736676 0.019237168461945887 0 0.021267413693216938 0.019338685407675405 0 0.018338538141295966 0.020462347674990725 0 0.020597309164775663 0.020158950654377304 0 0.016846974467423424 0.021594088620145845 0 0.017927121223166594 0.020685331966389831 0 0.019213064323863296 0.022016281141363621 0 0.018338538141295966 0.020462347674990725 0 0.017649437442429184 0.020986738504307843 0 0.016868482947906813 0.021561176772396103 0 0.01565298256607605 0.020334989452487746 0 0.015189352610723492 0.020703154840568814 0 0.016868482947906813 0.021561176772396103 0 0.016709572788023021 0.02018301535608211 0 0.01565298256607605 0.020334989452487746 0 0.016709572788023021 0.02018301535608211 0 0.01565298256607605 0.020334989452487746 0 0.015710000728225881 0.019153773046159756 0 0.016709572788023021 0.02018301535608211 0 0.017927121223166594 0.020685331966389831 0 0.017520306328717133 0.018615198976352738 0 0.016868482947906813 0.021561176772396103 0 0.016709572788023021 0.02018301535608211 0 0.017927121223166594 0.020685331966389831 0 0.016868482947906813 0.021561176772396103 0 0.014008203024152359 0.021055362331437885 0 0.015189352610723492 0.020703154840568814 0 0.018338538141295966 0.020462347674990725 0 0.014572540515172096 0.020163287667087228 0 0.01716768437462866 0.020693916620758684 0 0.018326594698057436 0.019724544107411392 0 0.01665740273471697 0.019465291985682063 0 0.014572540515172096 0.020163287667087228 0 0.014074762879294244 0.020644407155137826 0 0.014008203024152359 0.021055362331437885 0 0.015189352610723492 0.020703154840568814 0 0.014466411926410679 0.019982650375838837 0 0.01565298256607605 0.020334989452487746 0 0.015189352610723492 0.020703154840568814 0 0.014466411926410679 0.019982650375838837 0 0.01565298256607605 0.020334989452487746 0 0.014466411926410679 0.019982650375838837 0 0.015710000728225881 0.019153773046159756 0 0.014466411926410679 0.019982650375838837 0 0.013715859049578208 0.019915303540159055 0 0.0139350136025776 0.018924264863243136 0 0.014008203024152359 0.021055362331437885 0 0.013715859049578208 0.019915303540159055 0 0.012667391657992454 0.019841297999456456 0 0.014008203024152359 0.021055362331437885 0 0.014466411926410679 0.019982650375838837 0 0.013715859049578208 0.019915303540159055 0 0.013715859049578208 0.019915303540159055 0 0.012667391657992454 0.019841297999456456 0 0.0139350136025776 0.018924264863243136 0 0.012667391657992454 0.019841297999456456 0 0.01109140340815298 0.02012357403967379 0 0.011927680864329042 0.018564671444035195 0 0.014008203024152359 0.021055362331437885 0 0.012667391657992454 0.019841297999456456 0 0.01109140340815298 0.02012357403967379 0 0.012823501703997058 0.020442217697923898 0 0.011688885952944107 0.020798555775107645 0 0.01109140340815298 0.02012357403967379 0 0.014572540515172096 0.020163287667087228 0 0.010949706087007988 0.020206503454919873 0 0.012823501703997058 0.020442217697923898 0 0.011688885952944107 0.020798555775107645 0 0.012225288029979247 0.021489818041488633 0 0.011688885952944107 0.020798555775107645 0 0.01109140340815298 0.02012357403967379 0 0.010665546165648472 0.021278928044425674 0 0.01109140340815298 0.02012357403967379 0 0.0094058156454300528 0.020759321532700301 0 0.011927680864329042 0.018564671444035195 0 0.0096897006474767882 0.027611477618625025 0 0.011905578030116505 0.026217791149369923 0 0.01109140340815298 0.02012357403967379 0 0.0094058156454300528 0.020759321532700301 0 0.010665546165648472 0.021278928044425674 0 0.0094058156454300528 0.020759321532700301 0 0.0094301283359914476 0.021829918039975367 0 0.010665546165648472 0.021278928044425674 0 0.0094301283359914476 0.021829918039975367 0 0.010371932844281249 0.021995279177284784 0 0.010665546165648472 0.021278928044425674 0 0.010371932844281249 0.021995279177284784 0 0.01162167029717011 0.021359956006952611 0 0.010665546165648472 0.021278928044425674 0 0.011688885952944107 0.020798555775107645 0 0.012225288029979247 0.021489818041488633 0 0.010665546165648472 0.021278928044425674 0 0.014074762879294244 0.020644407155137826 0 0.010335043592413629 0.021089754011164391 0 0.025020627130065844 0.019839333071653569 0 0.024910587213494623 0.019998215559027793 0 0.024541781573736144 0.020015725514442789 0 0.025020627130065844 0.019839333071653569 0 0.025374389372410301 0.019472374819344898 0 0.025441529795645918 0.01990425316420328 0 0.025020627130065844 0.019839333071653569 0 0.024910587213494623 0.019998215559027793 0 0.025441529795645918 0.01990425316420328 0 0.025269507798814719 0.020107256020289125 0 0.024959139102590976 0.020016607135541913 0 0.024910587213494623 0.019998215559027793 0 0.025269507798814719 0.020107256020289125 0 0.024910587213494623 0.019998215559027793 0 0.025441529795645918 0.01990425316420328 0 0.024959139102590976 0.020016607135541913 0 0.024910587213494623 0.019998215559027793 0 0.024890873137543731 0.019944674625753556 0 0.024910587213494623 0.019998215559027793 0 0.024809201208909962 0.019962562844987954 0 0.024890873137543731 0.019944674625753556 0 0.024809201208909962 0.019962562844987954 0 0.024889056591962735 0.020115968639904506 0 0.024541781573736144 0.020015725514442789 0 0.024910587213494623 0.019998215559027793 0 0.024809201208909962 0.019962562844987954 0 0.024541781573736144 0.020015725514442789 0 0.02491154816840551 0.020018035909282039 0 0.024809201208909962 0.019962562844987954 0 0.024889056591962735 0.020115968639904506 0 0.02491154816840551 0.020018035909282039 0 0.024959727650293272 0.020065614752265374 0 0.024889056591962735 0.020115968639904506 0 0.02491154816840551 0.020018035909282039 0 0.02490758252562017 0.019958876731679443 0 0.024989891353772765 0.020006558464809643 0 0.02491154816840551 0.020018035909282039 0 0.02490758252562017 0.019958876731679443 0 0.024809201208909962 0.019962562844987954 0 0.02490758252562017 0.019958876731679443 0 0.024809201208909962 0.019962562844987954 0 0.024890873137543731 0.019944674625753556 0 0.024988330676482099 0.019759987937166334 0 0.024890873137543731 0.019944674625753556 0 0.024967991029210303 0.019909784788735212 0 0.02490758252562017 0.019958876731679443 0 0.024890873137543731 0.019944674625753556 0 0.024967991029210303 0.019909784788735212 0 0.02490758252562017 0.019958876731679443 0 0.024967991029210303 0.019909784788735212 0 0.024989891353772765 0.020006558464809643 0 0.024988330676482099 0.019759987937166334 0 0.025102731548649396 0.019916185079417292 0 0.024967991029210303 0.019909784788735212 0 0.025102731548649396 0.019916185079417292 0 0.024967991029210303 0.019909784788735212 0 0.024989891353772765 0.020006558464809643 0 0.024989891353772765 0.020006558464809643 0 0.024959727650293272 0.020065614752265374 0 0.025039749653559894 0.020119040527537064 0 0.025426050379161381 0.019463809803574806 0 0.023589933426312996 0.019090992196307128 0 0.025102731548649396 0.019916185079417292 0 0.024989891353772765 0.020006558464809643 0 0.025039749653559894 0.020119040527537064 0 0.02491154816840551 0.020018035909282039 0 0.024989891353772765 0.020006558464809643 0 0.024959727650293272 0.020065614752265374 0 0.022075580693359763 0.020004161686406695 0 0.022572478963549334 0.019802791782431117 0 0.023110208620296387 0.020148544356519478 0 0.023589933426312996 0.019090992196307128 0 0.024020882676574942 0.020149510582906458 0 0.024959727650293272 0.020065614752265374 0 0.025039749653559894 0.020119040527537064 0 0.024889056591962735 0.020115968639904506 0 0.022572478963549334 0.019802791782431117 0 0.022145208164661513 0.019460856225392856 0 0.022960774391149581 0.019598673462952375 0 0.023589933426312996 0.019090992196307128 0 0.020597309164775663 0.020158950654377304 0 0.022075580693359763 0.020004161686406695 0 0.022572478963549334 0.019802791782431117 0 0.022145208164661513 0.019460856225392856 0 0.020836857327941403 0.019506839406013627 0 0.021210478771690938 0.019795479099318516 0 0.021267413693216938 0.019338685407675405 0 0.019972382003627349 0.019802499362965194 0 0.021249611865737601 0.018740652263614297 0 0.019793722144170092 0.017585573197537677 0 0.017927121223166594 0.020685331966389831 0 0.019213064323863296 0.022016281141363621 0 0.019793722144170092 0.017585573197537677 0 0.020597309164775663 0.020158950654377304 0 0.019593586140260168 0.01808803407798697 0 0.020597309164775663 0.020158950654377304 0 0.022383745868846408 0.019791057562371171 0 0.019972382003627349 0.019802499362965194 0 0.021249611865737601 0.018740652263614297 0 0.021652079292056182 0.020019814714310441 0 0.021249611865737601 0.018740652263614297 0 0.022769255187879742 0.019111594264120051 0 0.021652079292056182 0.020019814714310441 0 0.021249611865737601 0.018740652263614297 0 0.022769255187879742 0.019111594264120051 0 0.022858142547320059 0.018139346348311217 0 0.022769255187879742 0.019111594264120051 0 0.021652079292056182 0.020019814714310441 0 0.023787979887993194 0.019735104378332573 0 0.022383745868846408 0.019791057562371171 0 0.023493762314884595 0.019806732705301113 0 0.022960774391149581 0.019598673462952375 0 0.023110208620296387 0.020148544356519478 0 0.023787979887993194 0.019735104378332573 0 0.022572478963549334 0.019802791782431117 0 0.022960774391149581 0.019598673462952375 0 0.023110208620296387 0.020148544356519478 0 0.023110208620296387 0.020148544356519478 0 0.024541781573736144 0.020015725514442789 0 0.023787979887993194 0.019735104378332573 0 0.024020882676574942 0.020149510582906458 0 0.024459442201661238 0.020055006374265674 0 0.024541781573736144 0.020015725514442789 0 0.023787979887993194 0.019735104378332573 0 0.024748741965740083 0.01941425123123253 0 0.022769255187879742 0.019111594264120051 0 0.023787979887993194 0.019735104378332573 0 0.023953025691626103 0.018868701167710784 0 0.023953025691626103 0.018868701167710784 0 0.023790470814031482 0.017884804439236214 0 0.022858142547320059 0.018139346348311217 0 0.022769255187879742 0.019111594264120051 0 0.023953025691626103 0.018868701167710784 0 0.022858142547320059 0.018139346348311217 0 0.023953025691626103 0.018868701167710784 0 0.02498508156247603 0.01860583854650381 0 0.023790470814031482 0.017884804439236214 0 0.023787979887993194 0.019735104378332573 0 0.023953025691626103 0.018868701167710784 0 0.024748741965740083 0.01941425123123253 0 0.023953025691626103 0.018868701167710784 0 0.02498508156247603 0.01860583854650381 0 0.024748741965740083 0.01941425123123253 0 0.02498508156247603 0.01860583854650381 0 0.025222945944173212 0.019090383702438752 0 0.024748741965740083 0.01941425123123253 0 0.02498508156247603 0.01860583854650381 0 0.025421914126362213 0.018131881466622823 0 0.025715247101667005 0.018822958144642115 0 0.02498508156247603 0.01860583854650381 0 0.025222945944173212 0.019090383702438752 0 0.025715247101667005 0.018822958144642115 0 0.025222945944173212 0.019090383702438752 0 0.025374389372410301 0.019472374819344898 0 0.024748741965740083 0.01941425123123253 0 0.025020627130065844 0.019839333071653569 0 0.024541781573736144 0.020015725514442789 0 0.024748741965740083 0.01941425123123253 0 0.025020627130065844 0.019839333071653569 0 0.025374389372410301 0.019472374819344898 0 0.024748741965740083 0.01941425123123253 0 0.024943252500945805 0.018346469049598118 0 0.025464389644176397 0.017701660184309582 0 0.025080158265709498 0.018723692656923818 0 0.0251408498173805 0.018644530854709636 0 0.025255373551301172 0.018680796390191629 0 0.025122446584130768 0.018810061406903812 0 0.025080158265709498 0.018723692656923818 0 0.025255373551301172 0.018680796390191629 0 0.025421914126362213 0.018131881466622823 0 0.024794355465963369 0.018133006987236123 0 0.025686313625122657 0.017096097347954697 0 0.024910622115274485 0.018366011969874901 0 0.024943252500945805 0.018346469049598118 0 0.02498508156247603 0.01860583854650381 0 0.025421914126362213 0.018131881466622823 0 0.024794355465963369 0.018133006987236123 0 0.02498508156247603 0.01860583854650381 0 0.024634120763268073 0.017697541940542266 0 0.023790470814031482 0.017884804439236214 0 0.024943252500945805 0.018346469049598118 0 0.024533346661520069 0.016292800460677683 0 0.024634120763268073 0.017697541940542266 0 0.023790470814031482 0.017884804439236214 0 0.024092354733521247 0.016190000667070152 0 0.023790470814031482 0.017884804439236214 0 0.022911071245212869 0.017251651589669278 0 0.024092354733521247 0.016190000667070152 0 0.023790470814031482 0.017884804439236214 0 0.022911071245212869 0.017251651589669278 0 0.022858142547320059 0.018139346348311217 0 0.022911071245212869 0.017251651589669278 0 0.024092354733521247 0.016190000667070152 0 0.021861802105829508 0.01635781891216494 0 0.024092354733521247 0.016190000667070152 0 0.021861802105829508 0.01635781891216494 0 0.022796475037712115 0.01311777039968909 0 0.021861802105829508 0.01635781891216494 0 0.019874081671163953 0.01544539191166365 0 0.022796475037712115 0.01311777039968909 0 0.021861802105829508 0.01635781891216494 0 0.021482293527442044 0.017689198560713694 0 0.019793722144170092 0.017585573197537677 0 0.022911071245212869 0.017251651589669278 0 0.021861802105829508 0.01635781891216494 0 0.021482293527442044 0.017689198560713694 0 0.022911071245212869 0.017251651589669278 0 0.022858142547320059 0.018139346348311217 0 0.021482293527442044 0.017689198560713694 0 0.021249611865737601 0.018740652263614297 0 0.022858142547320059 0.018139346348311217 0 0.021482293527442044 0.017689198560713694 0 0.021249611865737601 0.018740652263614297 0 0.021482293527442044 0.017689198560713694 0 0.019793722144170092 0.017585573197537677 0 0.019793722144170092 0.017585573197537677 0 0.019874081671163953 0.01544539191166365 0 0.015645669741856685 0.01573487273934198 0 0.021861802105829508 0.01635781891216494 0 0.019793722144170092 0.017585573197537677 0 0.019874081671163953 0.01544539191166365 0 0.016904985970255502 0.029626262364191261 0 0.016409687484564693 0.030016230636538882 0 0.018360992201731367 0.029617218989147327 0 0.016070724697502582 0.028306264162229942 0 0.018127213297964892 0.02529568457570951 0 0.016904985970255502 0.029626262364191261 0 0.016366989349630344 0.030054759745682124 0 0.016415228343524824 0.02903053698572821 0 0.016366989349630344 0.030054759745682124 0 0.016415228343524824 0.02903053698572821 0 0.015767499238654364 0.02924959129218601 0 0.016415228343524824 0.02903053698572821 0 0.015767499238654364 0.02924959129218601 0 0.015686760003872587 0.02877084182845191 0 0.016415228343524824 0.02903053698572821 0 0.016057450998169388 0.028484607354111634 0 0.015686760003872587 0.02877084182845191 0 0.016415228343524824 0.02903053698572821 0 0.016057450998169388 0.028484607354111634 0 0.016633117413383445 0.028247495410942878 0 0.016415228343524824 0.02903053698572821 0 0.017117226508806736 0.028606272111194705 0 0.016633117413383445 0.028247495410942878 0 0.016415228343524824 0.02903053698572821 0 0.017117226508806736 0.028606272111194705 0 0.017160771111947769 0.029122155851824441 0 0.016904985970255502 0.029626262364191261 0 0.017160771111947769 0.029122155851824441 0 0.017689743950394979 0.02927053199382483 0 0.016904985970255502 0.029626262364191261 0 0.016415228343524824 0.02903053698572821 0 0.017160771111947769 0.029122155851824441 0 0.022313531537243053 0.026681860486907825 0 0.020264247520293762 0.026768635086036281 0 0.022313531537243053 0.026681860486907825 0 0.025088647121107661 0.024270532530674738 0 0.016904985970255502 0.029626262364191261 0 0.017689743950394979 0.02927053199382483 0 0.018360992201731367 0.029617218989147327 0 0.017689743950394979 0.02927053199382483 0 0.017621547736687119 0.028785850614148772 0 0.018352012285270773 0.029159131641113323 0 0.017621547736687119 0.028785850614148772 0 0.018352012285270773 0.029159131641113323 0 0.017717185089345857 0.027796741107122293 0 0.017160771111947769 0.029122155851824441 0 0.017689743950394979 0.02927053199382483 0 0.017621547736687119 0.028785850614148772 0 0.017117226508806736 0.028606272111194705 0 0.017621547736687119 0.028785850614148772 0 0.017717185089345857 0.027796741107122293 0 0.017117226508806736 0.028606272111194705 0 0.017160771111947769 0.029122155851824441 0 0.017621547736687119 0.028785850614148772 0 0.017689743950394979 0.02927053199382483 0 0.018352012285270773 0.029159131641113323 0 0.018360992201731367 0.029617218989147327 0 0.018407045789811578 0.029066567189794036 0 0.018360992201731367 0.029617218989147327 0 0.018646216486593623 0.029726340104726797 0 0.022313531537243053 0.026681860486907825 0 0.02260929791366232 0.020876317598455704 0 0.022313531537243053 0.026681860486907825 0 0.02119698369137869 0.028695650569646639 0 0.016409687484564693 0.030016230636538882 0 0.018360992201731367 0.029617218989147327 0 0.018646216486593623 0.029726340104726797 0 0.019874081671163953 0.01544539191166365 0 0.019156495624435652 0.013388298871224778 0 0.022796475037712115 0.01311777039968909 0 0.018127213297964892 0.02529568457570951 0 0.02260929791366232 0.020876317598455704 0 0.024987443005170279 0.018582099090420183 0 0.025195773284295904 0.018547946441323522 0 0.0251408498173805 0.018644530854709636 0 0.02260929791366232 0.020876317598455704 0 0.026693473080030405 0.021429172407179797 0 0.025080158265709498 0.018723692656923818 0 0.024987443005170279 0.018582099090420183 0 0.0251408498173805 0.018644530854709636 0 0.024533346661520069 0.016292800460677683 0 0.02260929791366232 0.020876317598455704 0 0.026682223253396958 0.023710853038293213 0 0.026770676152314841 0.023698597773895835 0 0.026819202449510932 0.023624058498984295 0 0.026682223253396958 0.023710853038293213 0 0.026692729374936285 0.023759355584291493 0 0.026770676152314841 0.023698597773895835 0 0.026692729374936285 0.023759355584291493 0 0.026770676152314841 0.023698597773895835 0 0.026929068775546905 0.023716737107063179 0 0.026929068775546905 0.023716737107063179 0 0.02696950344134429 0.023594765094774942 0 0.026819202449510932 0.023624058498984295 0 0.026770676152314841 0.023698597773895835 0 0.026929068775546905 0.023716737107063179 0 0.026819202449510932 0.023624058498984295 0 0.025195773284295904 0.018547946441323522 0 0.0251408498173805 0.018644530854709636 0 0.025255373551301172 0.018680796390191629 0 0.012599367016967714 0.031481520276462283 0 0.010755011136763231 0.031677268326884944 0 0.011990635944656547 0.033616781858297466 0 0.010755011136763231 0.031677268326884944 0 0.0090596315820036331 0.031522314778942746 0 0.0097138669062753827 0.032928290141832912 0 0.0098482692624771526 0.034558214355082079 0 0.011990635944656547 0.033616781858297466 0 0.0097138669062753827 0.032928290141832912 0 0.010755011136763231 0.031677268326884944 0 0.011990635944656547 0.033616781858297466 0 0.0097138669062753827 0.032928290141832912 0 0.012667391657992454 0.019841297999456456 0 0.011927680864329042 0.018564671444035195 0 0.0139350136025776 0.018924264863243136 0 0.011905578030116505 0.026217791149369923 0 0.015813826347869295 0.023161643186605865 0 0.011927680864329042 0.018564671444035195 0 0.0139350136025776 0.018924264863243136 0 0.015645669741856685 0.01573487273934198 0 0.0139350136025776 0.018924264863243136 0 0.015710000728225881 0.019153773046159756 0 0.015645669741856685 0.01573487273934198 0 0.014466411926410679 0.019982650375838837 0 0.0139350136025776 0.018924264863243136 0 0.015710000728225881 0.019153773046159756 0 0.015710000728225881 0.019153773046159756 0 0.017520306328717133 0.018615198976352738 0 0.015645669741856685 0.01573487273934198 0 0.019793722144170092 0.017585573197537677 0 0.017520306328717133 0.018615198976352738 0 0.015645669741856685 0.01573487273934198 0 0.017927121223166594 0.020685331966389831 0 0.019793722144170092 0.017585573197537677 0 0.017520306328717133 0.018615198976352738 0 0.016709572788023021 0.02018301535608211 0 0.015710000728225881 0.019153773046159756 0 0.017520306328717133 0.018615198976352738 0 0.019874081671163953 0.01544539191166365 0 0.019156495624435652 0.013388298871224778 0 0.015645669741856685 0.01573487273934198 0 0.012599367016967714 0.031481520276462283 0 0.015133982876030355 0.032183192380039194 0 0.013848251166755135 0.030239475248038186 0 0.012599367016967714 0.031481520276462283 0 0.011990635944656547 0.033616781858297466 0 0.015133982876030355 0.032183192380039194 0 0.018127213297964892 0.02529568457570951 0 0.015813826347869295 0.023161643186605865 0 0.016366989349630344 0.030054759745682124 0 0.013848251166755135 0.030239475248038186 0 0.014947404566365093 0.029425172951395365 0 0.018127213297964892 0.02529568457570951 0 0.013913937878267899 0.031330684329734126 0 0.019499412862665728 0.028791181248481824 0 0.015133982876030355 0.032183192380039194 0 0.013848251166755135 0.030239475248038186 0 0.016366989349630344 0.030054759745682124 0 0.015767499238654364 0.02924959129218601 0 0.014947404566365093 0.029425172951395365 0 0.015767499238654364 0.02924959129218601 0 0.014947404566365093 0.029425172951395365 0 0.015206137111119828 0.028748658209942698 0 0.014947404566365093 0.029425172951395365 0 0.015206137111119828 0.028748658209942698 0 0.014444261867675235 0.028805240014279598 0 0.014881117340684083 0.028471099244406266 0 0.014444261867675235 0.028805240014279598 0 0.014724728915888444 0.02803925568691654 0 0.014881117340684083 0.028471099244406266 0 0.015206137111119828 0.028748658209942698 0 0.014444261867675235 0.028805240014279598 0 0.014881117340684083 0.028471099244406266 0 0.015206137111119828 0.028748658209942698 0 0.015143861238048315 0.028296269856190912 0 0.015206137111119828 0.028748658209942698 0 0.015583734480865337 0.028351737980678533 0 0.015143861238048315 0.028296269856190912 0 0.015206137111119828 0.028748658209942698 0 0.015583734480865337 0.028351737980678533 0 0.015686760003872587 0.02877084182845191 0 0.016057450998169388 0.028484607354111634 0 0.015583734480865337 0.028351737980678533 0 0.015686760003872587 0.02877084182845191 0 0.015767499238654364 0.02924959129218601 0 0.015206137111119828 0.028748658209942698 0 0.015686760003872587 0.02877084182845191 0 0.013848251166755135 0.030239475248038186 0 0.013590148539554267 0.028997430270560034 0 0.011870385751380845 0.029902858577108275 0 0.013848251166755135 0.030239475248038186 0 0.014947404566365093 0.029425172951395365 0 0.013590148539554267 0.028997430270560034 0 0.014947404566365093 0.029425172951395365 0 0.014444261867675235 0.028805240014279598 0 0.013590148539554267 0.028997430270560034 0 0.014444261867675235 0.028805240014279598 0 0.013590148539554267 0.028997430270560034 0 0.014724728915888444 0.02803925568691654 0 0.013590148539554267 0.028997430270560034 0 0.012009049992926285 0.028638238087803448 0 0.012910481486433235 0.027741221338404658 0 0.013590148539554267 0.028997430270560034 0 0.012009049992926285 0.028638238087803448 0 0.011870385751380845 0.029902858577108275 0 0.012009049992926285 0.028638238087803448 0 0.011870385751380845 0.029902858577108275 0 0.010658812267990352 0.028875943545941012 0 0.012599367016967714 0.031481520276462283 0 0.013848251166755135 0.030239475248038186 0 0.011870385751380845 0.029902858577108275 0 0.012599367016967714 0.031481520276462283 0 0.010755011136763231 0.031677268326884944 0 0.011870385751380845 0.029902858577108275 0 0.010755011136763231 0.031677268326884944 0 0.011870385751380845 0.029902858577108275 0 0.01011874562673669 0.03040294486128706 0 0.010755011136763231 0.031677268326884944 0 0.01011874562673669 0.03040294486128706 0 0.0090596315820036331 0.031522314778942746 0 0.01011874562673669 0.03040294486128706 0 0.010658812267990352 0.028875943545941012 0 0.0086739297671551314 0.029874475920394963 0 0.011870385751380845 0.029902858577108275 0 0.01011874562673669 0.03040294486128706 0 0.010658812267990352 0.028875943545941012 0 0.0086739297671551314 0.029874475920394963 0 0.0060915172295511726 0.02954881055448421 0 0.0055113220145113209 0.033432180704472271 0 0.008576753939977623 0.029998403778708677 0 0.0065562848042993874 0.032303884746909359 0 0.01011874562673669 0.03040294486128706 0 0.0086739297671551314 0.029874475920394963 0 0.0090596315820036331 0.031522314778942746 0 0.0086739297671551314 0.029874475920394963 0 0.0075500026196363935 0.031305836216249605 0 0.0090596315820036331 0.031522314778942746 0 0.0090596315820036331 0.031522314778942746 0 0.0081187743667275967 0.033244146723653459 0 0.0097138669062753827 0.032928290141832912 0 0.0075500026196363935 0.031305836216249605 0 0.0090596315820036331 0.031522314778942746 0 0.0081187743667275967 0.033244146723653459 0 0.0098482692624771526 0.034558214355082079 0 0.0081187743667275967 0.033244146723653459 0 0.0097138669062753827 0.032928290141832912 0 0.0030748698074603491 0.03548747991460334 0 0.0017737928709169572 0.035878436604275754 0 0.0014603436673281118 0.037049428523468639 0 0.0046233165004273538 0.034173683572342517 0 0.0032347551308560697 0.03562780964042149 0 0.0081187743667275967 0.033244146723653459 0 0.0061516058261184767 0.03285657402212764 0 0.0068779571964563647 0.033853209995958373 0 0.0061516058261184767 0.03285657402212764 0 0.0068779571964563647 0.033853209995958373 0 0.0058417221166767175 0.033973982188436655 0 0.0065562848042993874 0.032303884746909359 0 0.0046233165004273538 0.034173683572342517 0 0.0075500026196363935 0.031305836216249605 0 0.0081187743667275967 0.033244146723653459 0 0.0061516058261184767 0.03285657402212764 0 0.0055113220145113209 0.033432180704472271 0 0.0030748698074603491 0.03548747991460334 0 0.0024098999433060193 0.032817875050584859 0 0.0030748698074603491 0.03548747991460334 0 0.00077640434481426608 0.033551007346964618 0 0.0017737928709169572 0.035878436604275754 0 0.0030748698074603491 0.03548747991460334 0 0.0024098999433060193 0.032817875050584859 0 0.00077640434481426608 0.033551007346964618 0 0.0055113220145113209 0.033432180704472271 0 0.0024098999433060193 0.032817875050584859 0 0.0032061006917363361 0.030209436169694043 0 0.0060915172295511726 0.02954881055448421 0 0.0055113220145113209 0.033432180704472271 0 0.0032061006917363361 0.030209436169694043 0 0.0024098999433060193 0.032817875050584859 0 0.0032061006917363361 0.030209436169694043 0 -0.00035990618688226103 0.031156980537374812 0 -0.00035990618688226103 0.031156980537374812 0 -0.00058538829982316722 0.031975679368476409 0 0.00077640434481426608 0.033551007346964618 0 -0.00035990618688226103 0.031156980537374812 0 -0.00058538829982316722 0.031975679368476409 0 -0.00056892902612912114 0.032072908974728413 0 -0.00058538829982316722 0.031975679368476409 0 -0.00046491239359302964 0.033355382942542131 0 -0.0010551261716258272 0.032425604451095526 0 -0.00058538829982316722 0.031975679368476409 0 -0.00046491239359302964 0.033355382942542131 0 0.00077640434481426608 0.033551007346964618 0 0.0024098999433060193 0.032817875050584859 0 -0.00035990618688226103 0.031156980537374812 0 0.00077640434481426608 0.033551007346964618 0 -0.0044260167449309247 0.042998456846414297 0 -0.0045530897893192165 0.042807517437231303 0 -0.0040196768006628796 0.042554175059533898 0 -0.0044260167449309247 0.042998456846414297 0 -0.0045530897893192165 0.042807517437231303 0 -0.0050600616241979895 0.043253628532412353 0 -0.00058538829982316722 0.031975679368476409 0 -0.0010551261716258272 0.032425604451095526 0 -0.00011720613021355636 0.032148330801445503 0 -0.0026143680628079972 0.037735258342925598 0 -0.002072700509591378 0.037424983526738197 0 -0.0044260167449309247 0.042998456846414297 0 -0.0041219688857238998 0.043157357424848268 0 -0.0040196768006628796 0.042554175059533898 0 -0.00046491239359302964 0.033355382942542131 0 -0.0010551261716258272 0.032425604451095526 0 -0.0013044537909852824 0.034482892587542481 0 -0.0044260167449309247 0.042998456846414297 0 -0.0041219688857238998 0.043157357424848268 0 -0.0044252672177024612 0.043582907425989033 0 -0.0044260167449309247 0.042998456846414297 0 -0.0050600616241979895 0.043253628532412353 0 -0.0044252672177024612 0.043582907425989033 0 -0.0052003154190067517 0.043280596615863386 0 -0.0055385813819682425 0.043378448188230667 0 -0.0050600616241979895 0.043253628532412353 0 -0.0064222365417139675 0.043260980769836803 0 -0.0055050766742278847 0.043012287743313934 0 -0.0062081248555443192 0.042503192649001369 0 -0.0064222365417139675 0.043260980769836803 0 -0.0077403563840734609 0.042737990585495801 0 -0.0062081248555443192 0.042503192649001369 0 -0.0064222365417139675 0.043260980769836803 0 -0.0055050766742278847 0.043012287743313934 0 -0.0026143680628079972 0.037735258342925598 0 -0.0021446925701383078 0.03968828824073585 0 -0.0041219688857238998 0.043157357424848268 0 -0.0044252672177024612 0.043582907425989033 0 -0.0040223420576999836 0.043903060238333104 0 -0.0055385813819682425 0.043378448188230667 0 -0.0021446925701383078 0.03968828824073585 0 -0.0077403563840734609 0.042737990585495801 0 -0.0069420796518396572 0.041431388731230166 0 -0.0088367416349401737 0.040721913053785391 0 -0.0021446925701383078 0.03968828824073585 0 -0.0024590841696484778 0.039360328740522858 0 -0.0062081248555443192 0.042503192649001369 0 -0.0077403563840734609 0.042737990585495801 0 -0.0069420796518396572 0.041431388731230166 0 -0.0062081248555443192 0.042503192649001369 0 -0.0069420796518396572 0.041431388731230166 0 -0.0057736302044860896 0.041961404142402133 0 -0.0069420796518396572 0.041431388731230166 0 -0.0060693276860053743 0.04110046982508244 0 -0.0057736302044860896 0.041961404142402133 0 0.00077640434481426608 0.033551007346964618 0 4.4803314596120508e-05 0.034578346335808238 0 0.0017737928709169572 0.035878436604275754 0 -0.00046491239359302964 0.033355382942542131 0 -0.0013044537909852824 0.034482892587542481 0 4.4803314596120508e-05 0.034578346335808238 0 -0.00046491239359302964 0.033355382942542131 0 0.00077640434481426608 0.033551007346964618 0 4.4803314596120508e-05 0.034578346335808238 0 -0.0013044537909852824 0.034482892587542481 0 4.4803314596120508e-05 0.034578346335808238 0 -4.5512259280827264e-05 0.035859716257678018 0 0.0040016425271868347 0.039349974699104305 0 0.0029336940100676669 0.03826851184001482 0 0.003838736741614274 0.037428804169026414 0 -0.0021446925701383078 0.03968828824073585 0 0.0017196747720613942 0.036950613194075478 0 4.4803314596120508e-05 0.034578346335808238 0 -4.5512259280827264e-05 0.035859716257678018 0 0.0017737928709169572 0.035878436604275754 0 -4.5512259280827264e-05 0.035859716257678018 0 0.0017737928709169572 0.035878436604275754 0 0.0015092439979773225 0.03706353910996707 0 0.0017737928709169572 0.035878436604275754 0 0.0015092439979773225 0.03706353910996707 0 0.0014603436673281118 0.037049428523468639 0 0.0048892831003491165 0.034230142767742597 0 0.0053912067517354195 0.034404376783567038 0 0.0051678190754670516 0.034688475655679396 0 0.0015092439979773225 0.03706353910996707 0 0.0022889960939440723 0.036833178474369697 0 0.0025558961250053444 0.037261693811197379 0 0.0015092439979773225 0.03706353910996707 0 0.0014603436673281118 0.037049428523468639 0 0.0022889960939440723 0.036833178474369697 0 0.0029336940100676669 0.03826851184001482 0 0.0015092439979773225 0.03706353910996707 0 0.0025558961250053444 0.037261693811197379 0 0.0017196747720613942 0.036950613194075478 0 0.0014244149300543739 0.037042736650741551 0 0.0029336940100676669 0.03826851184001482 0 0.0031864767449879283 0.037180042171926317 0 0.0025558961250053444 0.037261693811197379 0 0.0029336940100676669 0.03826851184001482 0 0.0031864767449879283 0.037180042171926317 0 0.003838736741614274 0.037428804169026414 0 0.0031864767449879283 0.037180042171926317 0 0.003276600098675855 0.036273173114851912 0 0.003838736741614274 0.037428804169026414 0 0.0031864767449879283 0.037180042171926317 0 0.0028953533186741078 0.036759333717476236 0 0.003276600098675855 0.036273173114851912 0 0.0022889960939440723 0.036833178474369697 0 0.002734853297585868 0.037006253934120353 0 0.0025558961250053444 0.037261693811197379 0 0.0031864767449879283 0.037180042171926317 0 0.002734853297585868 0.037006253934120353 0 0.0025558961250053444 0.037261693811197379 0 0.0031864767449879283 0.037180042171926317 0 0.002734853297585868 0.037006253934120353 0 0.0028953533186741078 0.036759333717476236 0 0.0022889960939440723 0.036833178474369697 0 0.002734853297585868 0.037006253934120353 0 0.0028953533186741078 0.036759333717476236 0 0.003276600098675855 0.036273173114851912 0 0.0035609309844653022 0.035559647616567464 0 0.003838736741614274 0.037428804169026414 0 0.0022889960939440723 0.036833178474369697 0 0.003276600098675855 0.036273173114851912 0 0.0036200560386032803 0.035568125085053338 0 0.0022889960939440723 0.036833178474369697 0 0.0028953533186741078 0.036759333717476236 0 0.003276600098675855 0.036273173114851912 0 -0.0032405969711575607 0.036073620193703561 0 -0.0024590841696484778 0.039360328740522858 0 0.003276600098675855 0.036273173114851912 0 0.0035609309844653022 0.035559647616567464 0 0.0036200560386032803 0.035568125085053338 0 0.0032347551308560697 0.03562780964042149 0 0.0035259460300189741 0.035595083456057039 0 0.0048892831003491165 0.034230142767742597 0 0.0047187260430909816 0.035127724526188758 0 0.0036200560386032803 0.035568125085053338 0 0.0014603436673281118 0.037049428523468639 0 0.0022889960939440723 0.036833178474369697 0 0.0036200560386032803 0.035568125085053338 0 0.0047187260430909816 0.035127724526188758 0 0.0051491576864034442 0.035592247844960796 0 0.0052539048839162833 0.03510407491965635 0 0.0047187260430909816 0.035127724526188758 0 0.0051678190754670516 0.034688475655679396 0 0.0052539048839162833 0.03510407491965635 0 0.0048892831003491165 0.034230142767742597 0 0.0047187260430909816 0.035127724526188758 0 0.0051678190754670516 0.034688475655679396 0 -0.0060693276860053743 0.04110046982508244 0 -0.0068056954444113815 0.039959399937838605 0 -0.0055855369642213645 0.039296908280838504 0 -0.0061976887361318124 0.041011065407231637 0 -0.0063989544771014409 0.039030619304753746 0 -0.0069420796518396572 0.041431388731230166 0 -0.0060693276860053743 0.04110046982508244 0 -0.0068056954444113815 0.039959399937838605 0 -0.0068056954444113815 0.039959399937838605 0 -0.0078179506115758964 0.040005880825386926 0 -0.0075673365473444649 0.038838586014808621 0 -0.0069420796518396572 0.041431388731230166 0 -0.0068056954444113815 0.039959399937838605 0 -0.0078179506115758964 0.040005880825386926 0 -0.0069420796518396572 0.041431388731230166 0 -0.0078179506115758964 0.040005880825386926 0 -0.0088367416349401737 0.040721913053785391 0 -0.0078179506115758964 0.040005880825386926 0 -0.0088367416349401737 0.040721913053785391 0 -0.0086682133002238572 0.038791551016574617 0 -0.010051561366897589 0.03734041074463975 0 -0.0088367416349401737 0.040721913053785391 0 -0.0086682133002238572 0.038791551016574617 0 -0.010051561366897589 0.03734041074463975 0 -0.0086682133002238572 0.038791551016574617 0 -0.0090142445670432503 0.037728357185041722 0 -0.0090142445670432503 0.037728357185041722 0 -0.0082374070069418069 0.037827856345370857 0 -0.0088453746417282899 0.036732876818899619 0 -0.0086682133002238572 0.038791551016574617 0 -0.0090142445670432503 0.037728357185041722 0 -0.0082374070069418069 0.037827856345370857 0 -0.0082374070069418069 0.037827856345370857 0 -0.0075673365473444649 0.038838586014808621 0 -0.0072257512107647033 0.037644728141306621 0 -0.0086682133002238572 0.038791551016574617 0 -0.0082374070069418069 0.037827856345370857 0 -0.0075673365473444649 0.038838586014808621 0 -0.0078179506115758964 0.040005880825386926 0 -0.0086682133002238572 0.038791551016574617 0 -0.0075673365473444649 0.038838586014808621 0 -0.005587178486589529 0.039230249717599149 0 -0.0064071395316480546 0.036994039853441768 0 -0.0052031730134381735 0.035724969348049404 0 -0.0068056954444113815 0.039959399937838605 0 -0.0075673365473444649 0.038838586014808621 0 -0.0066003203727691253 0.038694079381437887 0 -0.0075673365473444649 0.038838586014808621 0 -0.0066003203727691253 0.038694079381437887 0 -0.0072257512107647033 0.037644728141306621 0 -0.0066003203727691253 0.038694079381437887 0 -0.0072257512107647033 0.037644728141306621 0 -0.0064071395316480546 0.036994039853441768 0 -0.0066003203727691253 0.038694079381437887 0 -0.005587178486589529 0.039230249717599149 0 -0.0064071395316480546 0.036994039853441768 0 -0.0068056954444113815 0.039959399937838605 0 -0.0066003203727691253 0.038694079381437887 0 -0.0055855369642213645 0.039296908280838504 0 -0.0063208645604260856 0.038971427395013164 0 -0.0063989544771014409 0.039030619304753746 0 -0.0064071395316480546 0.036994039853441768 0 -0.007757933752411671 0.036193696012438346 0 -0.006783447017261488 0.034526521847777596 0 -0.0064071395316480546 0.036994039853441768 0 -0.006783447017261488 0.034526521847777596 0 -0.0052031730134381735 0.035724969348049404 0 -0.0072257512107647033 0.037644728141306621 0 -0.0064071395316480546 0.036994039853441768 0 -0.007757933752411671 0.036193696012438346 0 -0.010051561366897589 0.03734041074463975 0 -0.0088453746417282899 0.036732876818899619 0 -0.0089872682068907767 0.034834422472866812 0 -0.007757933752411671 0.036193696012438346 0 -0.0089872682068907767 0.034834422472866812 0 -0.006783447017261488 0.034526521847777596 0 -0.010051561366897589 0.03734041074463975 0 -0.0089872682068907767 0.034834422472866812 0 -0.010711684966668616 0.033674178670130006 0 -0.007757933752411671 0.036193696012438346 0 -0.0088453746417282899 0.036732876818899619 0 -0.0089872682068907767 0.034834422472866812 0 -0.0082374070069418069 0.037827856345370857 0 -0.0072257512107647033 0.037644728141306621 0 -0.007757933752411671 0.036193696012438346 0 -0.0082374070069418069 0.037827856345370857 0 -0.007757933752411671 0.036193696012438346 0 -0.0088453746417282899 0.036732876818899619 0 -0.010051561366897589 0.03734041074463975 0 -0.0090142445670432503 0.037728357185041722 0 -0.0088453746417282899 0.036732876818899619 0 -0.0089872682068907767 0.034834422472866812 0 -0.0079251744824041688 0.032800426062602583 0 -0.010711684966668616 0.033674178670130006 0 -0.0089872682068907767 0.034834422472866812 0 -0.0079251744824041688 0.032800426062602583 0 -0.006783447017261488 0.034526521847777596 0 -0.0079251744824041688 0.032800426062602583 0 -0.006783447017261488 0.034526521847777596 0 -0.0051232445801690984 0.032219369589335176 0 0.0047187260430909816 0.035127724526188758 0 0.0044509380926190129 0.035727301855902546 0 0.0036200560386032803 0.035568125085053338 0 0.0047741635083368037 0.0361847415373854 0 0.0044509380926190129 0.035727301855902546 0 0.0039672161660623531 0.035891027076897855 0 0.0047741635083368037 0.0361847415373854 0 0.0044509380926190129 0.035727301855902546 0 0.0051491576864034442 0.035592247844960796 0 0.0047187260430909816 0.035127724526188758 0 0.0044509380926190129 0.035727301855902546 0 0.0051491576864034442 0.035592247844960796 0 -0.0032405969711575607 0.036073620193703561 0 -0.003473117022439885 0.03662784134130663 0 0.0044509380926190129 0.035727301855902546 0 0.0036200560386032803 0.035568125085053338 0 0.0039672161660623531 0.035891027076897855 0 0.0035609309844653022 0.035559647616567464 0 0.0039672161660623531 0.035891027076897855 0 0.003773964036565376 0.036511937667377883 0 0.0035609309844653022 0.035559647616567464 0 0.0036200560386032803 0.035568125085053338 0 0.0039672161660623531 0.035891027076897855 0 0.0047741635083368037 0.0361847415373854 0 0.0039672161660623531 0.035891027076897855 0 0.003773964036565376 0.036511937667377883 0 0.0050063904742365731 0.036880965113245505 0 0.0047741635083368037 0.0361847415373854 0 0.003773964036565376 0.036511937667377883 0 0.0050063904742365731 0.036880965113245505 0 0.0047741635083368037 0.0361847415373854 0 0.006412063356969931 0.036289950417734161 0 0.0071442989503876534 0.030396595555907197 0 0.0066980371992755167 0.029510505481300634 0 0.0067278428661802954 0.023301594786854896 0 0.007420198641395784 0.023352767646436484 0 0.0073956476905138223 0.02275834402096542 0 0.0060765732915589107 0.035547666778566189 0 0.0051491576864034442 0.035592247844960796 0 0.006412063356969931 0.036289950417734161 0 0.0047741635083368037 0.0361847415373854 0 0.0051491576864034442 0.035592247844960796 0 0.006412063356969931 0.036289950417734161 0 0.0060765732915589107 0.035547666778566189 0 0.006412063356969931 0.036289950417734161 0 0.0080620085324780814 0.035484345955681867 0 0.007420198641395784 0.023352767646436484 0 0.0073956476905138223 0.02275834402096542 0 0.0079801601736894726 0.023089352402472653 0 0.0085717403151501902 0.023463260999635367 0 0.0079801601736894726 0.023089352402472653 0 0.0085749950738463858 0.022766012460570129 0 0.0082403032912959431 0.023334841826652433 0 0.010609525677406544 0.022484467633888637 0 0.0085717403151501902 0.023463260999635367 0 0.0096059713824197188 0.022971117795940358 0 0.0090966632132859857 0.022820572679083311 0 0.0085717403151501902 0.023463260999635367 0 0.0090966632132859857 0.022820572679083311 0 0.0085749950738463858 0.022766012460570129 0 0.0085749950738463858 0.022766012460570129 0 0.0089651109715385979 0.022404003141346374 0 0.008204370836037686 0.022017542544286475 0 0.0096176506013135529 0.022506648150820846 0 0.0090966632132859857 0.022820572679083311 0 0.0089651109715385979 0.022404003141346374 0 0.0090966632132859857 0.022820572679083311 0 0.0085749950738463858 0.022766012460570129 0 0.0089651109715385979 0.022404003141346374 0 0.0073956476905138223 0.02275834402096542 0 0.0079801601736894726 0.023089352402472653 0 0.008204370836037686 0.022017542544286475 0 0.0079801601736894726 0.023089352402472653 0 0.0085749950738463858 0.022766012460570129 0 0.008204370836037686 0.022017542544286475 0 0.0066980371992755167 0.029510505481300634 0 0.0081871525692732393 0.028721962068867547 0 0.0098482692624771526 0.034558214355082079 0 0.0081187743667275967 0.033244146723653459 0 0.0080620085324780814 0.035484345955681867 0 0.0081187743667275967 0.033244146723653459 0 0.0080620085324780814 0.035484345955681867 0 0.0068779571964563647 0.033853209995958373 0 0.0094058156454300528 0.020759321532700301 0 0.0094301283359914476 0.021829918039975367 0 0.008204370836037686 0.022017542544286475 0 0.0096897006474767882 0.027611477618625025 0 0.0081871525692732393 0.028721962068867547 0 0.0094301283359914476 0.021829918039975367 0 0.0089651109715385979 0.022404003141346374 0 0.008204370836037686 0.022017542544286475 0 0.0068779571964563647 0.033853209995958373 0 0.0058417221166767175 0.033973982188436655 0 0.0064618404170293476 0.034743449464708316 0 0.0061516058261184767 0.03285657402212764 0 0.0048892831003491165 0.034230142767742597 0 0.0058417221166767175 0.033973982188436655 0 0.0058417221166767175 0.033973982188436655 0 0.0053912067517354195 0.034404376783567038 0 0.0056690741894942082 0.03472249661739564 0 0.0048892831003491165 0.034230142767742597 0 0.0058417221166767175 0.033973982188436655 0 0.0053912067517354195 0.034404376783567038 0 0.0058417221166767175 0.033973982188436655 0 0.0056690741894942082 0.03472249661739564 0 0.0064618404170293476 0.034743449464708316 0 0.0060765732915589107 0.035547666778566189 0 0.0056690741894942082 0.03472249661739564 0 0.0064618404170293476 0.034743449464708316 0 0.0053912067517354195 0.034404376783567038 0 0.0056690741894942082 0.03472249661739564 0 0.0051678190754670516 0.034688475655679396 0 0.0056690741894942082 0.03472249661739564 0 0.0051678190754670516 0.034688475655679396 0 0.0052539048839162833 0.03510407491965635 0 0.0060765732915589107 0.035547666778566189 0 0.0051491576864034442 0.035592247844960796 0 0.0052539048839162833 0.03510407491965635 0 0.0060765732915589107 0.035547666778566189 0 0.0056690741894942082 0.03472249661739564 0 0.0052539048839162833 0.03510407491965635 0 0.0080620085324780814 0.035484345955681867 0 0.0068779571964563647 0.033853209995958373 0 0.0064618404170293476 0.034743449464708316 0 0.0060765732915589107 0.035547666778566189 0 0.0080620085324780814 0.035484345955681867 0 0.0064618404170293476 0.034743449464708316 0 0.035904970953782978 0.0071692106975321549 0 0.03685070098397477 0.0072222106736523194 0 0.036372449198081233 0.0061662926008219394 0 0.035904970953782978 0.0071692106975321549 0 0.034999847937785308 0.0080017890762049213 0 0.034999890533345436 0.0059791804697774354 0 0.035904970953782978 0.0071692106975321549 0 0.034999847937785308 0.0080017890762049213 0 0.036199172462793257 0.0084476286726803632 0 0.035904970953782978 0.0071692106975321549 0 0.036199172462793257 0.0084476286726803632 0 0.03685070098397477 0.0072222106736523194 0 0.036199172462793257 0.0084476286726803632 0 0.03698793374351058 0.0081212355163369949 0 0.03685070098397477 0.0072222106736523194 0 0.036199172462793257 0.0084476286726803632 0 0.03698793374351058 0.0081212355163369949 0 0.037262001562133815 0.008904115671927058 0 0.03698793374351058 0.0081212355163369949 0 0.037460846460670355 0.0075672806507676429 0 0.037915919764792388 0.0081545352386066822 0 0.03698793374351058 0.0081212355163369949 0 0.037915919764792388 0.0081545352386066822 0 0.037262001562133815 0.008904115671927058 0 0.03698793374351058 0.0081212355163369949 0 0.037460846460670355 0.0075672806507676429 0 0.03685070098397477 0.0072222106736523194 0 0.037915919764792388 0.0081545352386066822 0 0.03848597077409624 0.0078006872736690342 0 0.038353277868532494 0.0084126063299030229 0 0.037460846460670355 0.0075672806507676429 0 0.037915919764792388 0.0081545352386066822 0 0.038099789410391841 0.0075744726895862532 0 0.037915919764792388 0.0081545352386066822 0 0.038099789410391841 0.0075744726895862532 0 0.03848597077409624 0.0078006872736690342 0 0.038099789410391841 0.0075744726895862532 0 0.037666961552467092 0.0069893586485855275 0 0.038170046504469118 0.0069363519378393829 0 0.037460846460670355 0.0075672806507676429 0 0.038099789410391841 0.0075744726895862532 0 0.037666961552467092 0.0069893586485855275 0 0.037666961552467092 0.0069893586485855275 0 0.037528922331971477 0.0062812638228503213 0 0.037988301979194852 0.0065173575414862852 0 0.038170046504469118 0.0069363519378393829 0 0.037988301979194852 0.0065173575414862852 0 0.038445398453508098 0.0063785334130277227 0 0.037666961552467092 0.0069893586485855275 0 0.038170046504469118 0.0069363519378393829 0 0.037988301979194852 0.0065173575414862852 0 0.037666961552467092 0.0069893586485855275 0 0.03685070098397477 0.0072222106736523194 0 0.037528922331971477 0.0062812638228503213 0 0.037460846460670355 0.0075672806507676429 0 0.037666961552467092 0.0069893586485855275 0 0.03685070098397477 0.0072222106736523194 0 0.037528922331971477 0.0062812638228503213 0 0.037183513219936702 0.0053901982813542929 0 0.036372449198081233 0.0061662926008219394 0 0.03685070098397477 0.0072222106736523194 0 0.037528922331971477 0.0062812638228503213 0 0.036372449198081233 0.0061662926008219394 0 0.037528922331971477 0.0062812638228503213 0 0.038028801474738451 0.0054991042665822609 0 0.037183513219936702 0.0053901982813542929 0 0.037988301979194852 0.0065173575414862852 0 0.038156949606401931 0.0060705002282635716 0 0.038445398453508098 0.0063785334130277227 0 0.037528922331971477 0.0062812638228503213 0 0.037988301979194852 0.0065173575414862852 0 0.038156949606401931 0.0060705002282635716 0 0.037528922331971477 0.0062812638228503213 0 0.038156949606401931 0.0060705002282635716 0 0.038028801474738451 0.0054991042665822609 0 0.038028801474738451 0.0054991042665822609 0 0.037756036066939322 0.0049217699260957542 0 0.037183513219936702 0.0053901982813542929 0 0.038028801474738451 0.0054991042665822609 0 0.038233271466950727 0.0048766493234717158 0 0.038481360270423121 0.0052229062555314764 0 0.038028801474738451 0.0054991042665822609 0 0.037756036066939322 0.0049217699260957542 0 0.038233271466950727 0.0048766493234717158 0 0.037183513219936702 0.0053901982813542929 0 0.036129214400839535 0.0049921447370232458 0 0.037174158337303226 0.0044283644347765331 0 0.037756036066939322 0.0049217699260957542 0 0.037183513219936702 0.0053901982813542929 0 0.037174158337303226 0.0044283644347765331 0 0.037183513219936702 0.0053901982813542929 0 0.036129214400839535 0.0049921447370232458 0 0.036372449198081233 0.0061662926008219394 0 0.035904970953782978 0.0071692106975321549 0 0.036372449198081233 0.0061662926008219394 0 0.034999890533345436 0.0059791804697774354 0 0.036129214400839535 0.0049921447370232458 0 0.036372449198081233 0.0061662926008219394 0 0.034999890533345436 0.0059791804697774354 0 0.036129214400839535 0.0049921447370232458 0 0.034999890533345436 0.0059791804697774354 0 0.034999884370393579 0.0039565863589068381 0 0.034999884370393579 0.0039565863589068381 0 0.036241217443404423 0.0038728813748659325 0 0.035821791172975827 0.0032682806944831738 0 0.036129214400839535 0.0049921447370232458 0 0.034999884370393579 0.0039565863589068381 0 0.036241217443404423 0.0038728813748659325 0 0.036241217443404423 0.0038728813748659325 0 0.036907909997869692 0.003604728754110473 0 0.037174158337303226 0.0044283644347765331 0 0.036129214400839535 0.0049921447370232458 0 0.036241217443404423 0.0038728813748659325 0 0.037174158337303226 0.0044283644347765331 0 0.036413879561802795 0.0030070347051788671 0 0.035757356896362259 0.0023117577271820288 0 0.037076961523830144 0.0028428229429072749 0 0.036241217443404423 0.0038728813748659325 0 0.036413879561802795 0.0030070347051788671 0 0.036907909997869692 0.003604728754110473 0 0.036241217443404423 0.0038728813748659325 0 0.036413879561802795 0.0030070347051788671 0 0.035821791172975827 0.0032682806944831738 0 0.03593829010699761 0.0027482869889822667 0 0.036413879561802795 0.0030070347051788671 0 0.035757356896362259 0.0023117577271820288 0 0.03593829010699761 0.0027482869889822667 0 0.036413879561802795 0.0030070347051788671 0 0.035821791172975827 0.0032682806944831738 0 0.036413879561802795 0.0030070347051788671 0 0.037076961523830144 0.0028428229429072749 0 0.036907909997869692 0.003604728754110473 0 0.035821791172975827 0.0032682806944831738 0 0.035756308323600758 0.0024338445756886323 0 0.034999914293699079 0.0019341318046673334 0 0.034999884370393579 0.0039565863589068381 0 0.035821791172975827 0.0032682806944831738 0 0.034999914293699079 0.0019341318046673334 0 0.03593829010699761 0.0027482869889822667 0 0.035821791172975827 0.0032682806944831738 0 0.035756308323600758 0.0024338445756886323 0 0.03593829010699761 0.0027482869889822667 0 0.035756308323600758 0.0024338445756886323 0 0.035757356896362259 0.0023117577271820288 0 0.034999801460090026 0.0019339600093490222 0 0.036646511958846287 0.0033557510221078621 0 0.035000008228325406 0.001933487858544031 0 0.035465727223497424 0.0012299081835623654 0 0.03500000323413114 0.00032507561103150672 0 0.035465727223497424 0.0012299081835623654 0 0.035875161023780647 0.0020470326919987234 0 0.035898704132531926 0.00053516304723619712 0 0.035000008228325406 0.001933487858544031 0 0.035465727223497424 0.0012299081835623654 0 0.035875161023780647 0.0020470326919987234 0 0.036646511958846287 0.0033557510221078621 0 0.036904437633232784 0.0030649532470994494 0 0.035756308323600758 0.0024338445756886323 0 0.034999914293699079 0.0019341318046673334 0 0.035763226000480368 0.0022673652072491644 0 0.036602764857640052 0.0031752059316269795 0 0.036646511958846287 0.0033557510221078621 0 0.036646511958846287 0.0033557510221078621 0 0.037340162060934948 0.0040641257565170391 0 0.037905236919932576 0.0052589126075781841 0 0.037705001714526225 0.005402654358057828 0 0.037905700085949207 0.0056062477986807456 0 0.037905236919932576 0.0052589126075781841 0 0.037705001714526225 0.005402654358057828 0 0.037535879125531212 0.0052318511889068112 0 0.037705001714526225 0.005402654358057828 0 0.037905700085949207 0.0056062477986807456 0 0.037566957429168074 0.0056043676340078296 0 0.037668990442384864 0.0058204684413481278 0 0.037905700085949207 0.0056062477986807456 0 0.037566957429168074 0.0056043676340078296 0 0.03553981927560991 -0.0002630766716004165 0 0.035898704132531926 0.00053516304723619712 0 0.03500000323413114 0.00032507561103150672 0 0.035465727223497424 0.0012299081835623654 0 0.035898704132531926 0.00053516304723619712 0 0.03500000323413114 0.00032507561103150672 0 0.037460829908421665 0.0057964490239720513 0 0.037241305372947835 0.0059006203427836995 0 0.037267724718644549 0.0055983571047449852 0 0.037241305372947835 0.0059006203427836995 0 0.037267724718644549 0.0055983571047449852 0 0.03703438100279266 0.0057485191871035849 0 0.037460829908421665 0.0057964490239720513 0 0.037267724718644549 0.0055983571047449852 0 0.037566957429168074 0.0056043676340078296 0 0.037267724718644549 0.0055983571047449852 0 0.037566957429168074 0.0056043676340078296 0 0.037459151790392317 0.0054339211821008843 0 0.037460829908421665 0.0057964490239720513 0 0.037668990442384864 0.0058204684413481278 0 0.037566957429168074 0.0056043676340078296 0 0.037705001714526225 0.005402654358057828 0 0.037459151790392317 0.0054339211821008843 0 0.037535879125531212 0.0052318511889068112 0 0.037705001714526225 0.005402654358057828 0 0.037566957429168074 0.0056043676340078296 0 0.037459151790392317 0.0054339211821008843 0 0.037459151790392317 0.0054339211821008843 0 0.037248675331978356 0.0053869428550545233 0 0.037535879125531212 0.0052318511889068112 0 0.037248675331978356 0.0053869428550545233 0 0.037156660570542017 0.0051945092577437508 0 0.037535879125531212 0.0052318511889068112 0 0.037267724718644549 0.0055983571047449852 0 0.037459151790392317 0.0054339211821008843 0 0.037248675331978356 0.0053869428550545233 0 0.037267724718644549 0.0055983571047449852 0 0.037248675331978356 0.0053869428550545233 0 0.037127052351789931 0.0054265182997941712 0 0.037267724718644549 0.0055983571047449852 0 0.037127052351789931 0.0054265182997941712 0 0.037024318133524262 0.0055341088395444906 0 0.037248675331978356 0.0053869428550545233 0 0.037127052351789931 0.0054265182997941712 0 0.037054584004146914 0.0052686201400581152 0 0.037248675331978356 0.0053869428550545233 0 0.037156660570542017 0.0051945092577437508 0 0.037064473416728222 0.0052593071648227574 0 0.037207003851367861 0.005313081241781429 0 0.037330007713902262 0.0051364831524337799 0 0.038637602759191168 0.0031359908331103498 0 0.037076961523830144 0.0028428229429072749 0 0.037628169681015865 0.0038303417325179531 0 0.037882603850691345 0.0041859100079454379 0 0.037340162060934948 0.0040641257565170391 0 0.037882603850691345 0.0041859100079454379 0 0.037940357586764492 0.0036640331287988055 0 0.038179228791821451 0.0037931965042588209 0 0.038103517478381733 0.0041043590520840161 0 0.037628169681015865 0.0038303417325179531 0 0.038179228791821451 0.0037931965042588209 0 0.038103517478381733 0.0041043590520840161 0 0.038408051083108928 0.0041388515470816819 0 0.037076961523830144 0.0028428229429072749 0 0.037628169681015865 0.0038303417325179531 0 0.036907909997869692 0.003604728754110473 0 0.037628169681015865 0.0038303417325179531 0 0.036907909997869692 0.003604728754110473 0 0.037174158337303226 0.0044283644347765331 0 0.037628169681015865 0.0038303417325179531 0 0.037174158337303226 0.0044283644347765331 0 0.037909465155360728 0.0044304431167036954 0 0.038103517478381733 0.0041043590520840161 0 0.037909465155360728 0.0044304431167036954 0 0.03837565919597892 0.0044766020881450404 0 0.038103517478381733 0.0041043590520840161 0 0.037628169681015865 0.0038303417325179531 0 0.037909465155360728 0.0044304431167036954 0 0.037756036066939322 0.0049217699260957542 0 0.037174158337303226 0.0044283644347765331 0 0.037909465155360728 0.0044304431167036954 0 0.037909465155360728 0.0044304431167036954 0 0.038233271466950727 0.0048766493234717158 0 0.03837565919597892 0.0044766020881450404 0 0.037756036066939322 0.0049217699260957542 0 0.037909465155360728 0.0044304431167036954 0 0.038233271466950727 0.0048766493234717158 0 0.038233271466950727 0.0048766493234717158 0 0.038632177726131117 0.0048611889058556039 0 0.03837565919597892 0.0044766020881450404 0 0.038632177726131117 0.0048611889058556039 0 0.038785575069296072 0.0045528546982625739 0 0.039010512308064391 0.004897107919780222 0 0.038632177726131117 0.0048611889058556039 0 0.039010512308064391 0.004897107919780222 0 0.038832677591098673 0.0051624427869163972 0 0.038632177726131117 0.0048611889058556039 0 0.038785575069296072 0.0045528546982625739 0 0.03837565919597892 0.0044766020881450404 0 0.038785575069296072 0.0045528546982625739 0 0.03837565919597892 0.0044766020881450404 0 0.038408051083108928 0.0041388515470816819 0 0.038785575069296072 0.0045528546982625739 0 0.039010512308064391 0.004897107919780222 0 0.039440104723520074 0.0050311186629636243 0 0.039010512308064391 0.004897107919780222 0 0.039440104723520074 0.0050311186629636243 0 0.03919535308241659 0.0049882371858958816 0 0.037788828372892033 0.0048901896798687642 0 0.036879776838177745 0.0053407803778255268 0 0.037788828372892033 0.0048901896798687642 0 0.038238580598633179 0.0049710972219111898 0 0.03741665095864196 0.0052729681418706422 0 0.037014779658666251 0.0052289072078876928 0 0.037103607654009059 0.0050843458324593216 0 0.038785575069296072 0.0045528546982625739 0 0.038729832082159618 0.0039339263999559199 0 0.039440104723520074 0.0050311186629636243 0 0.037440110379881458 0.0053235560961216004 0 0.03717438841748353 0.005422265771506638 0 0.037014779658666251 0.0052289072078876928 0 0.038103517478381733 0.0041043590520840161 0 0.03837565919597892 0.0044766020881450404 0 0.038408051083108928 0.0041388515470816819 0 0.038785575069296072 0.0045528546982625739 0 0.038408051083108928 0.0041388515470816819 0 0.038729832082159618 0.0039339263999559199 0 0.037788828372892033 0.0048901896798687642 0 0.037330007713902262 0.0051364831524337799 0 0.037882603850691345 0.0041859100079454379 0 0.037788828372892033 0.0048901896798687642 0 0.037609888799262921 0.0046554676745549101 0 0.037731218819278656 0.0046738027247214048 0 0.037657640126935919 0.0046238238804526335 0 0.038179228791821451 0.0037931965042588209 0 0.038408051083108928 0.0041388515470816819 0 0.038729832082159618 0.0039339263999559199 0 0.037882603850691345 0.0041859100079454379 0 0.037330007713902262 0.0051364831524337799 0 0.037440110379881458 0.0053235560961216004 0 0.03758956660470545 0.0054208753186905118 0 0.037318966702738356 0.0056307470678147202 0 0.037054584004146914 0.0052686201400581152 0 0.036770963196905739 0.0054862431912889144 0 0.037024318133524262 0.0055341088395444906 0 0.037330007713902262 0.0051364831524337799 0 0.037027862331392221 0.0055804320025497319 0 0.037127052351789931 0.0054265182997941712 0 0.037054584004146914 0.0052686201400581152 0 0.037024318133524262 0.0055341088395444906 0 0.03717438841748353 0.005422265771506638 0 0.037318966702738356 0.0056307470678147202 0 0.036891349510229494 0.00555537223997678 0 0.037440110379881458 0.0053235560961216004 0 0.03717438841748353 0.005422265771506638 0 0.037318966702738356 0.0056307470678147202 0 0.037027862331392221 0.0055804320025497319 0 0.036693828203928483 0.0057988343266136026 0 0.036800705347801985 0.0059224887681881971 0 0.036770963196905739 0.0054862431912889144 0 0.036489639457328062 0.0057295351691216724 0 0.036770963196905739 0.0054862431912889144 0 0.03703438100279266 0.0057485191871035849 0 0.037024318133524262 0.0055341088395444906 0 0.036800705347801985 0.0059224887681881971 0 0.036770963196905739 0.0054862431912889144 0 0.03703438100279266 0.0057485191871035849 0 0.037267724718644549 0.0055983571047449852 0 0.03703438100279266 0.0057485191871035849 0 0.037024318133524262 0.0055341088395444906 0 0.036273616162015583 0.0060129555471668886 0 0.036502436024893427 0.0057694479138899676 0 0.036157267730164401 0.0059143954399019389 0 0.036273616162015583 0.0060129555471668886 0 0.036502436024893427 0.0057694479138899676 0 0.036896559568059845 0.0059009351184836634 0 0.036502436024893427 0.0057694479138899676 0 0.036201846466990401 0.0057308808553652576 0 0.036157267730164401 0.0059143954399019389 0 0.036339726284368608 0.0059934273942130805 0 0.036693828203928483 0.0057988343266136026 0 0.036502436024893427 0.0057694479138899676 0 0.036896559568059845 0.0059009351184836634 0 0.036891349510229494 0.00555537223997678 0 0.03717438841748353 0.005422265771506638 0 0.036891349510229494 0.00555537223997678 0 0.037014779658666251 0.0052289072078876928 0 0.037318966702738356 0.0056307470678147202 0 0.036896559568059845 0.0059009351184836634 0 0.036891349510229494 0.00555537223997678 0 0.036502436024893427 0.0057694479138899676 0 0.036891349510229494 0.00555537223997678 0 0.036633371994231903 0.005441487617432246 0 0.036502436024893427 0.0057694479138899676 0 0.036633371994231903 0.005441487617432246 0 0.036201846466990401 0.0057308808553652576 0 0.036633371994231903 0.005441487617432246 0 0.037014779658666251 0.0052289072078876928 0 0.036802884434461232 0.005119690817002435 0 0.037014779658666251 0.0052289072078876928 0 0.036802884434461232 0.005119690817002435 0 0.037098552281731922 0.0050212628755371943 0 0.036633371994231903 0.005441487617432246 0 0.036802884434461232 0.005119690817002435 0 0.036413819838288473 0.0052929295669926482 0 0.036891349510229494 0.00555537223997678 0 0.036633371994231903 0.005441487617432246 0 0.037014779658666251 0.0052289072078876928 0 0.039440104723520074 0.0050311186629636243 0 0.037423900150310593 0.0047013846848712312 0 0.039078437109930551 0.0046932117054843663 0 0.037103607654009059 0.0050843458324593216 0 0.037098552281731922 0.0050212628755371943 0 0.037423900150310593 0.0047013846848712312 0 0.038238580598633179 0.0049710972219111898 0 0.037423445245663767 0.0046817907426276442 0 0.037014779658666251 0.0052289072078876928 0 0.037103607654009059 0.0050843458324593216 0 0.037098552281731922 0.0050212628755371943 0 0.039440104723520074 0.0050311186629636243 0 0.039078437109930551 0.0046932117054843663 0 0.03919535308241659 0.0049882371858958816 0 0.036802884434461232 0.005119690817002435 0 0.037098552281731922 0.0050212628755371943 0 0.037423900150310593 0.0047013846848712312 0 0.036802884434461232 0.005119690817002435 0 0.037423900150310593 0.0047013846848712312 0 0.036635763760580413 0.0048185804164399409 0 0.038912616651969968 0.0046737071137392932 0 0.039072255414504826 0.0046716899513383446 0 0.037423900150310593 0.0047013846848712312 0 0.036982304771963452 0.0034304555145911867 0 0.039078437109930551 0.0046932117054843663 0 0.040848736494019919 0.005740549096623207 0 0.039900274038455412 0.0059342969834165846 0 0.039078437109930551 0.0046932117054843663 0 0.040848736494019919 0.005740549096623207 0 0.039900274038455412 0.0059342969834165846 0 0.040784157512521214 0.0066920285716546976 0 0.039900274038455412 0.0059342969834165846 0 0.040784157512521214 0.0066920285716546976 0 0.039996279402491994 0.0067721398495545161 0 0.039521508151195747 0.0061092756236335302 0 0.039996279402491994 0.0067721398495545161 0 0.039434248310200044 0.0065885994204025987 0 0.039521508151195747 0.0061092756236335302 0 0.039085043086275577 0.0060147701052126346 0 0.039434248310200044 0.0065885994204025987 0 0.039900274038455412 0.0059342969834165846 0 0.039521508151195747 0.0061092756236335302 0 0.039996279402491994 0.0067721398495545161 0 0.039900274038455412 0.0059342969834165846 0 0.039521508151195747 0.0061092756236335302 0 0.039223165533873804 0.0054461535014869436 0 0.039521508151195747 0.0061092756236335302 0 0.039223165533873804 0.0054461535014869436 0 0.039085043086275577 0.0060147701052126346 0 0.039900274038455412 0.0059342969834165846 0 0.039223165533873804 0.0054461535014869436 0 0.039078437109930551 0.0046932117054843663 0 0.039223165533873804 0.0054461535014869436 0 0.039078437109930551 0.0046932117054843663 0 0.03919535308241659 0.0049882371858958816 0 0.03919535308241659 0.0049882371858958816 0 0.038832677591098673 0.0051624427869163972 0 0.03900464113311207 0.0054513842788076272 0 0.039010512308064391 0.004897107919780222 0 0.03919535308241659 0.0049882371858958816 0 0.038832677591098673 0.0051624427869163972 0 0.038832677591098673 0.0051624427869163972 0 0.03900464113311207 0.0054513842788076272 0 0.038636968596115609 0.0057770003968924816 0 0.039223165533873804 0.0054461535014869436 0 0.03919535308241659 0.0049882371858958816 0 0.03900464113311207 0.0054513842788076272 0 0.038028801474738451 0.0054991042665822609 0 0.038481360270423121 0.0052229062555314764 0 0.038636968596115609 0.0057770003968924816 0 0.038233271466950727 0.0048766493234717158 0 0.038632177726131117 0.0048611889058556039 0 0.038481360270423121 0.0052229062555314764 0 0.038632177726131117 0.0048611889058556039 0 0.038832677591098673 0.0051624427869163972 0 0.038481360270423121 0.0052229062555314764 0 0.038832677591098673 0.0051624427869163972 0 0.038481360270423121 0.0052229062555314764 0 0.038636968596115609 0.0057770003968924816 0 0.038156949606401931 0.0060705002282635716 0 0.038028801474738451 0.0054991042665822609 0 0.038636968596115609 0.0057770003968924816 0 0.038156949606401931 0.0060705002282635716 0 0.038636968596115609 0.0057770003968924816 0 0.038445398453508098 0.0063785334130277227 0 0.038636968596115609 0.0057770003968924816 0 0.038807223476202642 0.0063643202291450143 0 0.038445398453508098 0.0063785334130277227 0 0.039223165533873804 0.0054461535014869436 0 0.03900464113311207 0.0054513842788076272 0 0.039085043086275577 0.0060147701052126346 0 0.03900464113311207 0.0054513842788076272 0 0.038636968596115609 0.0057770003968924816 0 0.039085043086275577 0.0060147701052126346 0 0.038636968596115609 0.0057770003968924816 0 0.038807223476202642 0.0063643202291450143 0 0.039085043086275577 0.0060147701052126346 0 0.038807223476202642 0.0063643202291450143 0 0.039085043086275577 0.0060147701052126346 0 0.039124200942522766 0.0068362958448893313 0 0.039085043086275577 0.0060147701052126346 0 0.039124200942522766 0.0068362958448893313 0 0.039434248310200044 0.0065885994204025987 0 0.039124200942522766 0.0068362958448893313 0 0.039434248310200044 0.0065885994204025987 0 0.039609232774299952 0.0071235952129060686 0 0.038807223476202642 0.0063643202291450143 0 0.039124200942522766 0.0068362958448893313 0 0.038839298401757316 0.0069062062952583653 0 0.039124200942522766 0.0068362958448893313 0 0.038882714550290173 0.0073729939590088849 0 0.039277411912737363 0.0075027796452915027 0 0.039124200942522766 0.0068362958448893313 0 0.038882714550290173 0.0073729939590088849 0 0.038839298401757316 0.0069062062952583653 0 0.039124200942522766 0.0068362958448893313 0 0.039277411912737363 0.0075027796452915027 0 0.039609232774299952 0.0071235952129060686 0 0.038170046504469118 0.0069363519378393829 0 0.038445398453508098 0.0063785334130277227 0 0.038537696086610812 0.0068578013177686813 0 0.038807223476202642 0.0063643202291450143 0 0.038445398453508098 0.0063785334130277227 0 0.038537696086610812 0.0068578013177686813 0 0.038807223476202642 0.0063643202291450143 0 0.038537696086610812 0.0068578013177686813 0 0.038839298401757316 0.0069062062952583653 0 0.038882714550290173 0.0073729939590088849 0 0.038839298401757316 0.0069062062952583653 0 0.038542876587711661 0.0073003840756441082 0 0.038537696086610812 0.0068578013177686813 0 0.038839298401757316 0.0069062062952583653 0 0.038542876587711661 0.0073003840756441082 0 0.038099789410391841 0.0075744726895862532 0 0.038170046504469118 0.0069363519378393829 0 0.038542876587711661 0.0073003840756441082 0 0.038170046504469118 0.0069363519378393829 0 0.038537696086610812 0.0068578013177686813 0 0.038542876587711661 0.0073003840756441082 0 0.038099789410391841 0.0075744726895862532 0 0.038542876587711661 0.0073003840756441082 0 0.03848597077409624 0.0078006872736690342 0 0.038882714550290173 0.0073729939590088849 0 0.03848597077409624 0.0078006872736690342 0 0.038990823312022742 0.0079135835963332381 0 0.038882714550290173 0.0073729939590088849 0 0.038542876587711661 0.0073003840756441082 0 0.03848597077409624 0.0078006872736690342 0 0.03848597077409624 0.0078006872736690342 0 0.038990823312022742 0.0079135835963332381 0 0.038780305383449336 0.0083698237293797235 0 0.03848597077409624 0.0078006872736690342 0 0.038353277868532494 0.0084126063299030229 0 0.038780305383449336 0.0083698237293797235 0 0.039277411912737363 0.0075027796452915027 0 0.039357823679265783 0.0080451603770595303 0 0.039693013190549548 0.0077246889220403767 0 0.038882714550290173 0.0073729939590088849 0 0.039277411912737363 0.0075027796452915027 0 0.038990823312022742 0.0079135835963332381 0 0.039277411912737363 0.0075027796452915027 0 0.038990823312022742 0.0079135835963332381 0 0.039357823679265783 0.0080451603770595303 0 0.038990823312022742 0.0079135835963332381 0 0.039102800848093859 0.0083592880638328777 0 0.038780305383449336 0.0083698237293797235 0 0.038990823312022742 0.0079135835963332381 0 0.039357823679265783 0.0080451603770595303 0 0.039102800848093859 0.0083592880638328777 0 0.039696532382407688 0.0081731607491966202 0 0.039693013190549548 0.0077246889220403767 0 0.04005231462824009 0.0080878038232400258 0 0.039357823679265783 0.0080451603770595303 0 0.039696532382407688 0.0081731607491966202 0 0.039693013190549548 0.0077246889220403767 0 0.039277411912737363 0.0075027796452915027 0 0.039693013190549548 0.0077246889220403767 0 0.039609232774299952 0.0071235952129060686 0 0.039693013190549548 0.0077246889220403767 0 0.040066350577764587 0.0074522431602912541 0 0.039609232774299952 0.0071235952129060686 0 0.040066350577764587 0.0074522431602912541 0 0.04005231462824009 0.0080878038232400258 0 0.040319653679528895 0.0077879722304665354 0 0.039693013190549548 0.0077246889220403767 0 0.040066350577764587 0.0074522431602912541 0 0.04005231462824009 0.0080878038232400258 0 0.04005231462824009 0.0080878038232400258 0 0.04054214333575943 0.0081307812397656415 0 0.040319653679528895 0.0077879722304665354 0 0.04054214333575943 0.0081307812397656415 0 0.040981756578511594 0.0078462373928445978 0 0.040971245323930587 0.0081321044126478337 0 0.04054214333575943 0.0081307812397656415 0 0.040611978675311501 0.0074692264347782358 0 0.040981756578511594 0.0078462373928445978 0 0.04054214333575943 0.0081307812397656415 0 0.040611978675311501 0.0074692264347782358 0 0.040319653679528895 0.0077879722304665354 0 0.040066350577764587 0.0074522431602912541 0 0.040611978675311501 0.0074692264347782358 0 0.040319653679528895 0.0077879722304665354 0 0.040066350577764587 0.0074522431602912541 0 0.040611978675311501 0.0074692264347782358 0 0.039996279402491994 0.0067721398495545161 0 0.040611978675311501 0.0074692264347782358 0 0.040784157512521214 0.0066920285716546976 0 0.039996279402491994 0.0067721398495545161 0 0.039996279402491994 0.0067721398495545161 0 0.039434248310200044 0.0065885994204025987 0 0.039609232774299952 0.0071235952129060686 0 0.040066350577764587 0.0074522431602912541 0 0.039996279402491994 0.0067721398495545161 0 0.039609232774299952 0.0071235952129060686 0 0.041782711161184538 0.0073094318727647857 0 0.042453324125208164 0.0073015330230154418 0 0.04173849036999959 0.0066360248408494629 0 0.041782711161184538 0.0073094318727647857 0 0.041281780654050172 0.0073789816730666915 0 0.04173849036999959 0.0066360248408494629 0 0.035967618764763835 0.01010944206327421 0 0.038927745529482576 0.0041013817318925694 0 0.040784157512521214 0.0066920285716546976 0 0.041281780654050172 0.0073789816730666915 0 0.04173849036999959 0.0066360248408494629 0 0.040611978675311501 0.0074692264347782358 0 0.040784157512521214 0.0066920285716546976 0 0.041281780654050172 0.0073789816730666915 0 0.040981756578511594 0.0078462373928445978 0 0.040971245323930587 0.0081321044126478337 0 0.04162696126147087 0.0079076644180464326 0 0.041281780654050172 0.0073789816730666915 0 0.040981756578511594 0.0078462373928445978 0 0.04162696126147087 0.0079076644180464326 0 0.040611978675311501 0.0074692264347782358 0 0.041281780654050172 0.0073789816730666915 0 0.040981756578511594 0.0078462373928445978 0 0.03558010638256829 0.014327569339610683 0 0.034376077655138761 0.014396999948351499 0 0.035128019218740626 0.01361298225138266 0 0.038870099861706642 0.011282487592674638 0 0.035967618764763835 0.01010944206327421 0 0.03558010638256829 0.014327569339610683 0 0.034376077655138761 0.014396999948351499 0 0.034081262639649015 0.01541140667939199 0 0.041782711161184538 0.0073094318727647857 0 0.04162696126147087 0.0079076644180464326 0 0.042453324125208164 0.0073015330230154418 0 0.041782711161184538 0.0073094318727647857 0 0.041281780654050172 0.0073789816730666915 0 0.04162696126147087 0.0079076644180464326 0 0.034376077655138761 0.014396999948351499 0 0.033716398882646992 0.01465972077099517 0 0.033236185371409127 0.014072069815712211 0 0.033716398882646992 0.01465972077099517 0 0.033021029021490657 0.014909619149790245 0 0.034081262639649015 0.01541140667939199 0 0.034376077655138761 0.014396999948351499 0 0.033716398882646992 0.01465972077099517 0 0.034081262639649015 0.01541140667939199 0 0.033821751274978482 0.014784970158988652 0 0.035967618764763835 0.01010944206327421 0 0.033236185371409127 0.014072069815712211 0 0.033021029021490657 0.014909619149790245 0 0.030777683971166106 0.014835563879551025 0 0.033716398882646992 0.01465972077099517 0 0.033236185371409127 0.014072069815712211 0 0.033021029021490657 0.014909619149790245 0 0.033021029021490657 0.014909619149790245 0 0.034272176832470622 0.01568933860989441 0 0.031838180294539054 0.015770355083006581 0 0.034671552921758636 0.002076741349705247 0 0.034663826363365978 0.0032043356864166553 0 0.033380838467627981 0.0028497437271836619 0 0.035967618764763835 0.01010944206327421 0 0.032453399747098474 0.0098756732939773613 0 0.034272176832470622 0.01568933860989441 0 0.031982718126613935 0.01716781498248969 0 0.031838180294539054 0.015770355083006581 0 0.034671552921758636 0.002076741349705247 0 0.034663826363365978 0.0032043356864166553 0 0.035788265831145756 0.0027500582011109197 0 0.034663826363365978 0.0032043356864166553 0 0.033888656168495519 0.0035921833674766178 0 0.033380838467627981 0.0028497437271836619 0 0.033888656168495519 0.0035921833674766178 0 0.033113654523360882 0.0036646158704175917 0 0.033380838467627981 0.0028497437271836619 0 0.033888656168495519 0.0035921833674766178 0 0.033609937102608282 0.0042222263938478015 0 0.034776093278855322 0.0040660573854460497 0 0.033888656168495519 0.0035921833674766178 0 0.033609937102608282 0.0042222263938478015 0 0.033113654523360882 0.0036646158704175917 0 0.034663826363365978 0.0032043356864166553 0 0.034776093278855322 0.0040660573854460497 0 0.035556542111918589 0.0037393984627859733 0 0.034663826363365978 0.0032043356864166553 0 0.033888656168495519 0.0035921833674766178 0 0.034776093278855322 0.0040660573854460497 0 0.034776093278855322 0.0040660573854460497 0 0.035556542111918589 0.0037393984627859733 0 0.035801431715319333 0.0047021459719209365 0 0.035556542111918589 0.0037393984627859733 0 0.036300734363701119 0.0042350287199449587 0 0.035801431715319333 0.0047021459719209365 0 0.035556542111918589 0.0037393984627859733 0 0.036101394392634149 0.0034863037944417473 0 0.036300734363701119 0.0042350287199449587 0 0.034663826363365978 0.0032043356864166553 0 0.035556542111918589 0.0037393984627859733 0 0.035788265831145756 0.0027500582011109197 0 0.035556542111918589 0.0037393984627859733 0 0.035788265831145756 0.0027500582011109197 0 0.036101394392634149 0.0034863037944417473 0 0.040848736494019919 0.005740549096623207 0 0.040784157512521214 0.0066920285716546976 0 0.04173849036999959 0.0066360248408494629 0 0.038912616651969968 0.0046737071137392932 0 0.038927745529482576 0.0041013817318925694 0 0.036982304771963452 0.0034304555145911867 0 0.035788265831145756 0.0027500582011109197 0 0.036101394392634149 0.0034863037944417473 0 0.037423900150310593 0.0047013846848712312 0 0.036300734363701119 0.0042350287199449587 0 0.036635763760580413 0.0048185804164399409 0 0.037423900150310593 0.0047013846848712312 0 0.036982304771963452 0.0034304555145911867 0 0.036300734363701119 0.0042350287199449587 0 0.036982304771963452 0.0034304555145911867 0 0.036101394392634149 0.0034863037944417473 0 0.036300734363701119 0.0042350287199449587 0 0.036300734363701119 0.0042350287199449587 0 0.036635763760580413 0.0048185804164399409 0 0.035801431715319333 0.0047021459719209365 0 0.036635763760580413 0.0048185804164399409 0 0.036264695163773467 0.0050753413583931465 0 0.035801431715319333 0.0047021459719209365 0 0.036802884434461232 0.005119690817002435 0 0.036635763760580413 0.0048185804164399409 0 0.036264695163773467 0.0050753413583931465 0 0.036264695163773467 0.0050753413583931465 0 0.035801431715319333 0.0047021459719209365 0 0.03579228652971389 0.0053462375231482628 0 0.035801431715319333 0.0047021459719209365 0 0.03579228652971389 0.0053462375231482628 0 0.035069694345523941 0.0049083937640094282 0 0.03579228652971389 0.0053462375231482628 0 0.035551425728339921 0.0055913455319579995 0 0.035799830846667234 0.0057231476044428305 0 0.03579228652971389 0.0053462375231482628 0 0.036193630574356296 0.0055163507693117052 0 0.035799830846667234 0.0057231476044428305 0 0.03579228652971389 0.0053462375231482628 0 0.035275099096154811 0.0053831031725731409 0 0.035069694345523941 0.0049083937640094282 0 0.03579228652971389 0.0053462375231482628 0 0.035551425728339921 0.0055913455319579995 0 0.035275099096154811 0.0053831031725731409 0 0.03579228652971389 0.0053462375231482628 0 0.036413819838288473 0.0052929295669926482 0 0.036193630574356296 0.0055163507693117052 0 0.036264695163773467 0.0050753413583931465 0 0.03579228652971389 0.0053462375231482628 0 0.036413819838288473 0.0052929295669926482 0 0.036802884434461232 0.005119690817002435 0 0.036264695163773467 0.0050753413583931465 0 0.036413819838288473 0.0052929295669926482 0 0.036633371994231903 0.005441487617432246 0 0.036413819838288473 0.0052929295669926482 0 0.036193630574356296 0.0055163507693117052 0 0.036633371994231903 0.005441487617432246 0 0.036193630574356296 0.0055163507693117052 0 0.036201846466990401 0.0057308808553652576 0 0.036201846466990401 0.0057308808553652576 0 0.035799830846667234 0.0057231476044428305 0 0.035938863052113475 0.0058907451074238686 0 0.036193630574356296 0.0055163507693117052 0 0.036201846466990401 0.0057308808553652576 0 0.035799830846667234 0.0057231476044428305 0 0.035551425728339921 0.0055913455319579995 0 0.035799830846667234 0.0057231476044428305 0 0.035500473258036992 0.0059210261911410373 0 0.035799830846667234 0.0057231476044428305 0 0.035732762676065843 0.0058766302902463104 0 0.035500473258036992 0.0059210261911410373 0 0.035799830846667234 0.0057231476044428305 0 0.035732762676065843 0.0058766302902463104 0 0.035938863052113475 0.0058907451074238686 0 0.035732762676065843 0.0058766302902463104 0 0.035780330824189605 0.0059686523610627835 0 0.035938863052113475 0.0058907451074238686 0 0.035476291343669177 0.0057900795491231567 0 0.034907805084091387 0.0055450832034684835 0 0.035160540524039788 0.0054885292902173291 0 0.03497111245744744 0.0054639663847219242 0 0.034868656429467515 0.0049361567496319664 0 0.035782744472059889 0.0060807772173910452 0 0.035780330824189605 0.0059686523610627835 0 0.035500473258036992 0.0059210261911410373 0 0.035732762676065843 0.0058766302902463104 0 0.035780330824189605 0.0059686523610627835 0 0.035500473258036992 0.0059210261911410373 0 0.03589839746351145 0.0060239827400659267 0 0.036157267730164401 0.0059143954399019389 0 0.035938863052113475 0.0058907451074238686 0 0.03589839746351145 0.0060239827400659267 0 0.035780330824189605 0.0059686523610627835 0 0.035938863052113475 0.0058907451074238686 0 0.036056588081041438 0.0060147068876166112 0 0.03589839746351145 0.0060239827400659267 0 0.036157267730164401 0.0059143954399019389 0 0.036201846466990401 0.0057308808553652576 0 0.036157267730164401 0.0059143954399019389 0 0.035938863052113475 0.0058907451074238686 0 0.033268304456806355 0.0052449768077830741 0 0.033681374905793718 0.005543169013304464 0 0.033575410898969295 0.0050989640184731849 0 0.033268304456806355 0.0052449768077830741 0 0.033325119154556201 0.0055646996626502205 0 0.032906680981637869 0.0056617835082938906 0 0.033268304456806355 0.0052449768077830741 0 0.033325119154556201 0.0055646996626502205 0 0.033681374905793718 0.005543169013304464 0 0.033681374905793718 0.005543169013304464 0 0.033927531115255323 0.0052354566033130847 0 0.033575410898969295 0.0050989640184731849 0 0.034478610628679456 0.0054934757960186454 0 0.034907805084091387 0.0055450832034684835 0 0.034063781538657231 0.005724076508214178 0 0.033681374905793718 0.005543169013304464 0 0.033927531115255323 0.0052354566033130847 0 0.034907805084091387 0.0055450832034684835 0 0.034092151479480075 0.0050388622606459318 0 0.034907805084091387 0.0055450832034684835 0 0.035278357731101419 0.0058813526168717527 0 0.035430755104570485 0.0062656135117724514 0 0.035173628629386187 0.0056452399628707491 0 0.034652562925280593 0.0054028178902530422 0 0.033927531115255323 0.0052354566033130847 0 0.033575410898969295 0.0050989640184731849 0 0.033605094026277781 0.004676139833330718 0 0.035551425728339921 0.0055913455319579995 0 0.035500473258036992 0.0059210261911410373 0 0.035173628629386187 0.0056452399628707491 0 0.033575410898969295 0.0050989640184731849 0 0.033367036991113756 0.0048593642740466349 0 0.033605094026277781 0.004676139833330718 0 0.033268304456806355 0.0052449768077830741 0 0.033367036991113756 0.0048593642740466349 0 0.033046708491181041 0.0049481518480555516 0 0.033268304456806355 0.0052449768077830741 0 0.033575410898969295 0.0050989640184731849 0 0.033367036991113756 0.0048593642740466349 0 0.033367036991113756 0.0048593642740466349 0 0.033190426567338442 0.0047059401444516152 0 0.033046708491181041 0.0049481518480555516 0 0.033367036991113756 0.0048593642740466349 0 0.033605094026277781 0.004676139833330718 0 0.033190426567338442 0.0047059401444516152 0 0.035551425728339921 0.0055913455319579995 0 0.035173628629386187 0.0056452399628707491 0 0.035275099096154811 0.0053831031725731409 0 0.035173628629386187 0.0056452399628707491 0 0.035275099096154811 0.0053831031725731409 0 0.034652562925280593 0.0054028178902530422 0 0.035275099096154811 0.0053831031725731409 0 0.034652562925280593 0.0054028178902530422 0 0.035069694345523941 0.0049083937640094282 0 0.034776093278855322 0.0040660573854460497 0 0.035801431715319333 0.0047021459719209365 0 0.035069694345523941 0.0049083937640094282 0 0.033609937102608282 0.0042222263938478015 0 0.034776093278855322 0.0040660573854460497 0 0.035069694345523941 0.0049083937640094282 0 0.033609937102608282 0.0042222263938478015 0 0.034652562925280593 0.0054028178902530422 0 0.035069694345523941 0.0049083937640094282 0 0.033609937102608282 0.0042222263938478015 0 0.033605094026277781 0.004676139833330718 0 0.033190426567338442 0.0047059401444516152 0 0.033640278873443195 0.0042215668393046574 0 0.034092151479480075 0.0050388622606459318 0 0.033609937102608282 0.0042222263938478015 0 0.032738062919836323 0.0046224609060150435 0 0.033190426567338442 0.0047059401444516152 0 0.033609937102608282 0.0042222263938478015 0 0.032738062919836323 0.0046224609060150435 0 0.032599656077523624 0.0042020798601906427 0 0.032738062919836323 0.0046224609060150435 0 0.032195414702432638 0.0046932013279279384 0 0.031985946849245404 0.0051926655052372895 0 0.032738062919836323 0.0046224609060150435 0 0.032599656077523624 0.0042020798601906427 0 0.032195414702432638 0.0046932013279279384 0 0.031917655098979363 0.0043307772371724796 0 0.032599656077523624 0.0042020798601906427 0 0.032195414702432638 0.0046932013279279384 0 0.031917655098979363 0.0043307772371724796 0 0.032195414702432638 0.0046932013279279384 0 0.031660618310408235 0.0049887281675898478 0 0.032195414702432638 0.0046932013279279384 0 0.031985946849245404 0.0051926655052372895 0 0.031660618310408235 0.0049887281675898478 0 0.03181337537778027 0.003941541317108499 0 0.032296840578249365 0.0044682260419109318 0 0.033190426567338442 0.0047059401444516152 0 0.03181337537778027 0.003941541317108499 0 0.032296840578249365 0.0044682260419109318 0 0.03159041065361911 0.0045370784619084637 0 0.032296840578249365 0.0044682260419109318 0 0.033190426567338442 0.0047059401444516152 0 0.032475472781810587 0.0047991935923003531 0 0.031873661267890686 0.0043078100584361696 0 0.033070533182640159 0.0047606401998679096 0 0.032738062919836323 0.0046224609060150435 0 0.031985946849245404 0.0051926655052372895 0 0.033190426567338442 0.0047059401444516152 0 0.033190426567338442 0.0047059401444516152 0 0.033046708491181041 0.0049481518480555516 0 0.032475472781810587 0.0047991935923003531 0 0.033268304456806355 0.0052449768077830741 0 0.033046708491181041 0.0049481518480555516 0 0.032631941812368073 0.0052691813274294806 0 0.033046708491181041 0.0049481518480555516 0 0.032475472781810587 0.0047991935923003531 0 0.032631941812368073 0.0052691813274294806 0 0.032475472781810587 0.0047991935923003531 0 0.032631941812368073 0.0052691813274294806 0 0.031453663321916639 0.0050874522810460286 0 0.032475472781810587 0.0047991935923003531 0 0.031453663321916639 0.0050874522810460286 0 0.03159041065361911 0.0045370784619084637 0 0.032296840578249365 0.0044682260419109318 0 0.032475472781810587 0.0047991935923003531 0 0.03159041065361911 0.0045370784619084637 0 0.032196555900475939 0.0057482341321840949 0 0.032631941812368073 0.0052691813274294806 0 0.031453663321916639 0.0050874522810460286 0 0.031786891935982012 0.0057178584696140856 0 0.031473087963918636 0.0051102830212978786 0 0.033268304456806355 0.0052449768077830741 0 0.032906680981637869 0.0056617835082938906 0 0.032631941812368073 0.0052691813274294806 0 0.032196555900475939 0.0057482341321840949 0 0.032906680981637869 0.0056617835082938906 0 0.032631941812368073 0.0052691813274294806 0 0.030479583320543457 0.0061725518949872276 0 0.029825554690337531 0.0058122978999889914 0 0.030531550729249717 0.0055182739361694664 0 0.029902925766505464 0.0050598778894099554 0 0.029825554690337531 0.0058122978999889914 0 0.030531550729249717 0.0055182739361694664 0 0.030973359735347507 0.0058591416010072882 0 0.031424043668636957 0.0058198508156136718 0 0.031453663321916639 0.0050874522810460286 0 0.030973359735347507 0.0058591416010072882 0 0.030531550729249717 0.0055182739361694664 0 0.031453663321916639 0.0050874522810460286 0 0.030531550729249717 0.0055182739361694664 0 0.031453663321916639 0.0050874522810460286 0 0.030531741568465182 0.0048166039888974917 0 0.031453663321916639 0.0050874522810460286 0 0.030531741568465182 0.0048166039888974917 0 0.03093248198561932 0.0043447959675408827 0 0.031453663321916639 0.0050874522810460286 0 0.03159041065361911 0.0045370784619084637 0 0.03093248198561932 0.0043447959675408827 0 0.030531741568465182 0.0048166039888974917 0 0.030380488115630017 0.0043055606690406726 0 0.03093248198561932 0.0043447959675408827 0 0.029902925766505464 0.0050598778894099554 0 0.030531550729249717 0.0055182739361694664 0 0.030531741568465182 0.0048166039888974917 0 0.029902925766505464 0.0050598778894099554 0 0.029846905307800431 0.0043597744355077924 0 0.030531741568465182 0.0048166039888974917 0 0.029846905307800431 0.0043597744355077924 0 0.030531741568465182 0.0048166039888974917 0 0.030380488115630017 0.0043055606690406726 0 0.029846905307800431 0.0043597744355077924 0 0.030380488115630017 0.0043055606690406726 0 0.030213623539638506 0.0036760623377167811 0 0.030380488115630017 0.0043055606690406726 0 0.030213623539638506 0.0036760623377167811 0 0.03093248198561932 0.0043447959675408827 0 0.03024629207826092 0.0063621712875807073 0 0.031601597921598966 0.0048757078743196409 0 0.031985946849245404 0.0051926655052372895 0 0.030481136929912105 0.0052106718223315987 0 0.031660618310408235 0.0049887281675898478 0 0.03181337537778027 0.003941541317108499 0 0.030213623539638506 0.0036760623377167811 0 0.03093248198561932 0.0043447959675408827 0 0.031873661267890686 0.0043078100584361696 0 0.03024629207826092 0.0063621712875807073 0 0.03181337537778027 0.003941541317108499 0 0.03159041065361911 0.0045370784619084637 0 0.03093248198561932 0.0043447959675408827 0 0.031917655098979363 0.0043307772371724796 0 0.030912731587281191 0.0042353456462254123 0 0.031660618310408235 0.0049887281675898478 0 0.030118820888475836 0.0053773253128017529 0 0.030912731587281191 0.0042353456462254123 0 0.031660618310408235 0.0049887281675898478 0 0.027200757655495379 0.019284586656301835 0 0.026949294766707706 0.019857452730500606 0 0.028441975298451497 0.019161410566162565 0 0.027790421012119707 0.012898857813407636 0 0.029744931946444019 0.011637669876615665 0 0.029230416162655894 0.0053212380363743626 0 0.030118820888475836 0.0053773253128017529 0 0.030912731587281191 0.0042353456462254123 0 0.027335060467047208 0.018853132276479018 0 0.028441975298451497 0.019161410566162565 0 0.027695103912350149 0.018219450461554779 0 0.027200757655495379 0.019284586656301835 0 0.027335060467047208 0.018853132276479018 0 0.028441975298451497 0.019161410566162565 0 0.028441975298451497 0.019161410566162565 0 0.027695103912350149 0.018219450461554779 0 0.02859073600044745 0.017718660883764822 0 0.027322463861061786 0.016959271709020615 0 0.027695103912350149 0.018219450461554779 0 0.02859073600044745 0.017718660883764822 0 0.02859073600044745 0.017718660883764822 0 0.030045358635277863 0.018264286975934369 0 0.02957547256210533 0.017284846674168582 0 0.031917655098979363 0.0043307772371724796 0 0.030912731587281191 0.0042353456462254123 0 0.032215469399762844 0.0035565986347342411 0 0.029744931946444019 0.011637669876615665 0 0.031155517149124564 0.010926762604940977 0 0.028441975298451497 0.019161410566162565 0 0.02859073600044745 0.017718660883764822 0 0.030045358635277863 0.018264286975934369 0 0.031917655098979363 0.0043307772371724796 0 0.032599656077523624 0.0042020798601906427 0 0.032215469399762844 0.0035565986347342411 0 0.032599656077523624 0.0042020798601906427 0 0.032215469399762844 0.0035565986347342411 0 0.033113654523360882 0.0036646158704175917 0 0.033609937102608282 0.0042222263938478015 0 0.032599656077523624 0.0042020798601906427 0 0.033113654523360882 0.0036646158704175917 0 0.030045358635277863 0.018264286975934369 0 0.031982718126613935 0.01716781498248969 0 0.03071652624872908 0.016991440983068318 0 0.032215469399762844 0.0035565986347342411 0 0.033113654523360882 0.0036646158704175917 0 0.033380838467627981 0.0028497437271836619 0 0.031155517149124564 0.010926762604940977 0 0.032453399747098474 0.0098756732939773613 0 0.030045358635277863 0.018264286975934369 0 0.02957547256210533 0.017284846674168582 0 0.03071652624872908 0.016991440983068318 0 0.02957547256210533 0.017284846674168582 0 0.03071652624872908 0.016991440983068318 0 0.029011811553780256 0.016176697574262617 0 0.03071652624872908 0.016991440983068318 0 0.030738356975890693 0.015582636183606282 0 0.029011811553780256 0.016176697574262617 0 0.030972655686186269 0.0155873784144317 0 0.029249844313535209 0.018416962367823857 0 0.03071652624872908 0.016991440983068318 0 0.031838180294539054 0.015770355083006581 0 0.030777683971166106 0.014835563879551025 0 0.031982718126613935 0.01716781498248969 0 0.03071652624872908 0.016991440983068318 0 0.031838180294539054 0.015770355083006581 0 0.029257159051715113 0.020943436385561464 0 0.028221959715505444 0.021237511752518541 0 0.028661221357739058 0.020682745553719697 0 0.033021029021490657 0.014909619149790245 0 0.031838180294539054 0.015770355083006581 0 0.030777683971166106 0.014835563879551025 0 0.031279623546474518 0.017469754353948416 0 0.029249844313535209 0.018416962367823857 0 0.029249844313535209 0.018416962367823857 0 0.027537680087954809 0.018389931713007655 0 0.027033571711090446 0.020617677645459954 0 0.0261561468524329 0.020685635703471657 0 0.026192215088666693 0.020143077968997232 0 0.025612426447102068 0.020349049970318785 0 0.0261561468524329 0.020685635703471657 0 0.026192215088666693 0.020143077968997232 0 0.026388375241905366 0.018676456736897145 0 0.027537680087954809 0.018389931713007655 0 0.027322463861061786 0.016959271709020615 0 0.02859073600044745 0.017718660883764822 0 0.029011811553780256 0.016176697574262617 0 0.025325956783943289 0.02041825553103567 0 0.025612426447102068 0.020349049970318785 0 0.0261561468524329 0.020685635703471657 0 0.02859073600044745 0.017718660883764822 0 0.02957547256210533 0.017284846674168582 0 0.029011811553780256 0.016176697574262617 0 0.026192215088666693 0.020143077968997232 0 0.026633180776195663 0.019726546797815367 0 0.026071156009725375 0.019593498036086846 0 0.025374389372410301 0.019472374819344898 0 0.025441529795645918 0.01990425316420328 0 0.026071156009725375 0.019593498036086846 0 0.025441529795645918 0.01990425316420328 0 0.026192215088666693 0.020143077968997232 0 0.026071156009725375 0.019593498036086846 0 0.025269507798814719 0.020107256020289125 0 0.025441529795645918 0.01990425316420328 0 0.026192215088666693 0.020143077968997232 0 0.025269507798814719 0.020107256020289125 0 0.025612426447102068 0.020349049970318785 0 0.026192215088666693 0.020143077968997232 0 0.027033571711090446 0.020617677645459954 0 0.026192215088666693 0.020143077968997232 0 0.027319787309037311 0.019890356760628506 0 0.028221959715505444 0.021237511752518541 0 0.028661221357739058 0.020682745553719697 0 0.02823058673919996 0.020078217148820951 0 0.029249844313535209 0.018416962367823857 0 0.027534542287216798 0.020560979454570402 0 0.028661221357739058 0.020682745553719697 0 0.02823058673919996 0.020078217148820951 0 0.02899599812171046 0.020260671399038151 0 0.02823058673919996 0.020078217148820951 0 0.028827523430733304 0.019640689679840225 0 0.02899599812171046 0.020260671399038151 0 0.026192215088666693 0.020143077968997232 0 0.027319787309037311 0.019890356760628506 0 0.026633180776195663 0.019726546797815367 0 0.027319787309037311 0.019890356760628506 0 0.026633180776195663 0.019726546797815367 0 0.026900331128757109 0.019075043071130678 0 0.027319787309037311 0.019890356760628506 0 0.026900331128757109 0.019075043071130678 0 0.02802519959071896 0.018855606384041733 0 0.027534542287216798 0.020560979454570402 0 0.028071858001168976 0.018589391478211852 0 0.02823058673919996 0.020078217148820951 0 0.02802519959071896 0.018855606384041733 0 0.028827523430733304 0.019640689679840225 0 0.02802519959071896 0.018855606384041733 0 0.028460892620513108 0.018046712762064501 0 0.02932247142017216 0.018347981182680162 0 0.026900331128757109 0.019075043071130678 0 0.02802519959071896 0.018855606384041733 0 0.027431411587287954 0.017932868152992644 0 0.026900331128757109 0.019075043071130678 0 0.025715247101667005 0.018822958144642115 0 0.026538105468811343 0.01832572630332711 0 0.026900331128757109 0.019075043071130678 0 0.026538105468811343 0.01832572630332711 0 0.027431411587287954 0.017932868152992644 0 0.026633180776195663 0.019726546797815367 0 0.026900331128757109 0.019075043071130678 0 0.026071156009725375 0.019593498036086846 0 0.026900331128757109 0.019075043071130678 0 0.026071156009725375 0.019593498036086846 0 0.025715247101667005 0.018822958144642115 0 0.025374389372410301 0.019472374819344898 0 0.026071156009725375 0.019593498036086846 0 0.025715247101667005 0.018822958144642115 0 0.025222945944173212 0.019090383702438752 0 0.025374389372410301 0.019472374819344898 0 0.025715247101667005 0.018822958144642115 0 0.025421914126362213 0.018131881466622823 0 0.025900350159409054 0.018013626354551962 0 0.025686313625122657 0.017096097347954697 0 0.025715247101667005 0.018822958144642115 0 0.025900350159409054 0.018013626354551962 0 0.026538105468811343 0.01832572630332711 0 0.025421914126362213 0.018131881466622823 0 0.025715247101667005 0.018822958144642115 0 0.025900350159409054 0.018013626354551962 0 0.025900350159409054 0.018013626354551962 0 0.026538105468811343 0.01832572630332711 0 0.026335729448799351 0.017612342858499792 0 0.026538105468811343 0.01832572630332711 0 0.026335729448799351 0.017612342858499792 0 0.027431411587287954 0.017932868152992644 0 0.026335729448799351 0.017612342858499792 0 0.026986654194110199 0.017204718010250485 0 0.025686313625122657 0.017096097347954697 0 0.026335729448799351 0.017612342858499792 0 0.026986654194110199 0.017204718010250485 0 0.027431411587287954 0.017932868152992644 0 0.025900350159409054 0.018013626354551962 0 0.026335729448799351 0.017612342858499792 0 0.025686313625122657 0.017096097347954697 0 0.025195773284295904 0.018547946441323522 0 0.025255373551301172 0.018680796390191629 0 0.025411394888295854 0.018520896683777932 0 0.025464389644176397 0.017701660184309582 0 0.026332218766096184 0.018519732525904754 0 0.026986654194110199 0.017204718010250485 0 0.025686313625122657 0.017096097347954697 0 0.026587581900428571 0.016045356721344575 0 0.027112760687885255 0.023658788144167171 0 0.027098326499704162 0.023890895997494381 0 0.026693485459125407 0.024074440806374789 0 0.027112760687885255 0.023658788144167171 0 0.027088221837834849 0.023664843976353395 0 0.027098326499704162 0.023890895997494381 0 0.026332218766096184 0.018519732525904754 0 0.028860674765934399 0.020364972167735283 0 0.027121641963087272 0.023677920150587239 0 0.027340035528977968 0.023887323685686867 0 0.026929068775546905 0.023716737107063179 0 0.027088221837834849 0.023664843976353395 0 0.02696950344134429 0.023594765094774942 0 0.027088221837834849 0.023664843976353395 0 0.027098326499704162 0.023890895997494381 0 0.027697837543746873 0.024125154805103369 0 0.026929068775546905 0.023716737107063179 0 0.027112760687885255 0.023658788144167171 0 0.027088221837834849 0.023664843976353395 0 0.026693473080030405 0.021429172407179797 0 0.026332218766096184 0.018519732525904754 0 0.028410732294108822 0.015900157574645534 0 0.029366763837768105 0.016220036789390501 0 0.028015762769135859 0.015959062662299708 0 0.028581517746450416 0.016633392018058607 0 0.029542283418665799 0.016167413197795646 0 0.028464271938635585 0.016372358821882493 0 0.029542283418665799 0.016167413197795646 0 0.02901292939729987 0.01578981935994074 0 0.028464271938635585 0.016372358821882493 0 0.027867553439753379 0.01583107715696833 0 0.02901292939729987 0.01578981935994074 0 0.026332218766096184 0.018519732525904754 0 0.028410732294108822 0.015900157574645534 0 0.027303405189115889 0.016552422368982384 0 0.028464271938635585 0.016372358821882493 0 0.027867553439753379 0.01583107715696833 0 0.026587581900428571 0.016045356721344575 0 0.028015762769135859 0.015959062662299708 0 0.027810859868279122 0.016812216131175246 0 0.026986654194110199 0.017204718010250485 0 0.026587581900428571 0.016045356721344575 0 0.027810859868279122 0.016812216131175246 0 0.028015762769135859 0.015959062662299708 0 0.027810859868279122 0.016812216131175246 0 0.028581517746450416 0.016633392018058607 0 0.027810859868279122 0.016812216131175246 0 0.028581517746450416 0.016633392018058607 0 0.028290927839925862 0.017428755688314566 0 0.028581517746450416 0.016633392018058607 0 0.028290927839925862 0.017428755688314566 0 0.029220163830747221 0.016931535708289827 0 0.026986654194110199 0.017204718010250485 0 0.027810859868279122 0.016812216131175246 0 0.028290927839925862 0.017428755688314566 0 0.026986654194110199 0.017204718010250485 0 0.028290927839925862 0.017428755688314566 0 0.027431411587287954 0.017932868152992644 0 0.02802519959071896 0.018855606384041733 0 0.027431411587287954 0.017932868152992644 0 0.028460892620513108 0.018046712762064501 0 0.028290927839925862 0.017428755688314566 0 0.027431411587287954 0.017932868152992644 0 0.028460892620513108 0.018046712762064501 0 0.028290927839925862 0.017428755688314566 0 0.028460892620513108 0.018046712762064501 0 0.029226107124896157 0.017685189195900671 0 0.029226107124896157 0.017685189195900671 0 0.029857485564955169 0.017960115671808569 0 0.02932247142017216 0.018347981182680162 0 0.028460892620513108 0.018046712762064501 0 0.029226107124896157 0.017685189195900671 0 0.02932247142017216 0.018347981182680162 0 0.029857485564955169 0.017960115671808569 0 0.030539920498933119 0.017900970464402068 0 0.030158271618939771 0.018567725707458887 0 0.029857485564955169 0.017960115671808569 0 0.0300018580135504 0.017333086868647946 0 0.030539920498933119 0.017900970464402068 0 0.029226107124896157 0.017685189195900671 0 0.029857485564955169 0.017960115671808569 0 0.0300018580135504 0.017333086868647946 0 0.029226107124896157 0.017685189195900671 0 0.0300018580135504 0.017333086868647946 0 0.029220163830747221 0.016931535708289827 0 0.028290927839925862 0.017428755688314566 0 0.029226107124896157 0.017685189195900671 0 0.029220163830747221 0.016931535708289827 0 0.029220163830747221 0.016931535708289827 0 0.029800706458021336 0.016644415092075288 0 0.029542283418665799 0.016167413197795646 0 0.028581517746450416 0.016633392018058607 0 0.029220163830747221 0.016931535708289827 0 0.029542283418665799 0.016167413197795646 0 0.0300018580135504 0.017333086868647946 0 0.029800706458021336 0.016644415092075288 0 0.030485229723745556 0.016748098798757067 0 0.0300018580135504 0.017333086868647946 0 0.029220163830747221 0.016931535708289827 0 0.029800706458021336 0.016644415092075288 0 0.029800706458021336 0.016644415092075288 0 0.029542283418665799 0.016167413197795646 0 0.030172057567058722 0.015917754340942922 0 0.029800706458021336 0.016644415092075288 0 0.030485229723745556 0.016748098798757067 0 0.030172057567058722 0.015917754340942922 0 0.029542283418665799 0.016167413197795646 0 0.030172057567058722 0.015917754340942922 0 0.02901292939729987 0.01578981935994074 0 0.031370253620693948 0.016864223831681371 0 0.031704805401594552 0.016797919153853345 0 0.031581643296964126 0.016642485525960492 0 0.030485229723745556 0.016748098798757067 0 0.031370253620693948 0.016864223831681371 0 0.031581643296964126 0.016642485525960492 0 0.030485229723745556 0.016748098798757067 0 0.031581643296964126 0.016642485525960492 0 0.030172057567058722 0.015917754340942922 0 0.0300018580135504 0.017333086868647946 0 0.030485229723745556 0.016748098798757067 0 0.030819647309936145 0.017255863478697821 0 0.030485229723745556 0.016748098798757067 0 0.031370253620693948 0.016864223831681371 0 0.030819647309936145 0.017255863478697821 0 0.031370253620693948 0.016864223831681371 0 0.031484623748063829 0.017208287146119459 0 0.031763025233561594 0.016891154171572713 0 0.031370253620693948 0.016864223831681371 0 0.031484623748063829 0.017208287146119459 0 0.030819647309936145 0.017255863478697821 0 0.031484623748063829 0.017208287146119459 0 0.030819647309936145 0.017255863478697821 0 0.031083945142050963 0.017634186128703412 0 0.031484623748063829 0.017208287146119459 0 0.031083945142050963 0.017634186128703412 0 0.031577503107695637 0.017609381668660877 0 0.030819647309936145 0.017255863478697821 0 0.030539920498933119 0.017900970464402068 0 0.031083945142050963 0.017634186128703412 0 0.0300018580135504 0.017333086868647946 0 0.030819647309936145 0.017255863478697821 0 0.030539920498933119 0.017900970464402068 0 0.030539920498933119 0.017900970464402068 0 0.031083945142050963 0.017634186128703412 0 0.030843403236924586 0.018320433181894899 0 0.031083945142050963 0.017634186128703412 0 0.031338631780716476 0.018034566696193216 0 0.030843403236924586 0.018320433181894899 0 0.031083945142050963 0.017634186128703412 0 0.031338631780716476 0.018034566696193216 0 0.031577503107695637 0.017609381668660877 0 0.031338631780716476 0.018034566696193216 0 0.03130554884016349 0.018551188372559872 0 0.031551496766943479 0.018276811379568238 0 0.03130554884016349 0.018551188372559872 0 0.030846044904572392 0.019063874115868497 0 0.030843403236924586 0.018320433181894899 0 0.031338631780716476 0.018034566696193216 0 0.03130554884016349 0.018551188372559872 0 0.030843403236924586 0.018320433181894899 0 0.03130554884016349 0.018551188372559872 0 0.031422275497899804 0.019025884233079216 0 0.030846044904572392 0.019063874115868497 0 0.03130554884016349 0.018551188372559872 0 0.031422275497899804 0.019025884233079216 0 0.031712676735742282 0.018836025862545604 0 0.031422275497899804 0.019025884233079216 0 0.030846044904572392 0.019063874115868497 0 0.031171990592698581 0.019349189166191307 0 0.030846044904572392 0.019063874115868497 0 0.031171990592698581 0.019349189166191307 0 0.030753058584462541 0.01966217432346028 0 0.031422275497899804 0.019025884233079216 0 0.031171990592698581 0.019349189166191307 0 0.031547700398061651 0.019407281311224323 0 0.030846044904572392 0.019063874115868497 0 0.030143435229891651 0.019340384570443445 0 0.030158271618939771 0.018567725707458887 0 0.030846044904572392 0.019063874115868497 0 0.030143435229891651 0.019340384570443445 0 0.030753058584462541 0.01966217432346028 0 0.030846044904572392 0.019063874115868497 0 0.030843403236924586 0.018320433181894899 0 0.030158271618939771 0.018567725707458887 0 0.030539920498933119 0.017900970464402068 0 0.030843403236924586 0.018320433181894899 0 0.030158271618939771 0.018567725707458887 0 0.030158271618939771 0.018567725707458887 0 0.02932247142017216 0.018347981182680162 0 0.029350936170314524 0.019094355628969824 0 0.029857485564955169 0.017960115671808569 0 0.030158271618939771 0.018567725707458887 0 0.02932247142017216 0.018347981182680162 0 0.02802519959071896 0.018855606384041733 0 0.02932247142017216 0.018347981182680162 0 0.029350936170314524 0.019094355628969824 0 0.029350936170314524 0.019094355628969824 0 0.028827523430733304 0.019640689679840225 0 0.029524918059530204 0.019803620209532212 0 0.02802519959071896 0.018855606384041733 0 0.029350936170314524 0.019094355628969824 0 0.028827523430733304 0.019640689679840225 0 0.030143435229891651 0.019340384570443445 0 0.029350936170314524 0.019094355628969824 0 0.029524918059530204 0.019803620209532212 0 0.030143435229891651 0.019340384570443445 0 0.030158271618939771 0.018567725707458887 0 0.029350936170314524 0.019094355628969824 0 0.030143435229891651 0.019340384570443445 0 0.029524918059530204 0.019803620209532212 0 0.030184896184802343 0.020003257521973083 0 0.029524918059530204 0.019803620209532212 0 0.029670752093246787 0.02033417903045948 0 0.030184896184802343 0.020003257521973083 0 0.028827523430733304 0.019640689679840225 0 0.029524918059530204 0.019803620209532212 0 0.02899599812171046 0.020260671399038151 0 0.029524918059530204 0.019803620209532212 0 0.02899599812171046 0.020260671399038151 0 0.029670752093246787 0.02033417903045948 0 0.029257159051715113 0.020943436385561464 0 0.02899599812171046 0.020260671399038151 0 0.029670752093246787 0.02033417903045948 0 0.029257159051715113 0.020943436385561464 0 0.028661221357739058 0.020682745553719697 0 0.02899599812171046 0.020260671399038151 0 0.029670752093246787 0.02033417903045948 0 0.030408834879389796 0.02058463708234122 0 0.030184896184802343 0.020003257521973083 0 0.034376077655138761 0.014396999948351499 0 0.033236185371409127 0.014072069815712211 0 0.035128019218740626 0.01361298225138266 0 0.031279623546474518 0.017469754353948416 0 0.032855944414429544 0.017035489550261192 0 0.029257159051715113 0.020943436385561464 0 0.029670752093246787 0.02033417903045948 0 0.030408834879389796 0.02058463708234122 0 0.030408834879389796 0.02058463708234122 0 0.030184896184802343 0.020003257521973083 0 0.030581316493610483 0.020071943052320653 0 0.030408834879389796 0.02058463708234122 0 0.030977371167870294 0.02003806384396328 0 0.030581316493610483 0.020071943052320653 0 0.030408834879389796 0.02058463708234122 0 0.030977371167870294 0.02003806384396328 0 0.031532318233280829 0.020163075317310698 0 0.038870099861706642 0.011282487592674638 0 0.039102141071564206 0.010676412002633379 0 0.03558010638256829 0.014327569339610683 0 0.035128019218740626 0.01361298225138266 0 0.036567904847202702 0.013228702690242938 0 0.040971245323930587 0.0081321044126478337 0 0.04162696126147087 0.0079076644180464326 0 0.040725062817414108 0.0086417448981746803 0 0.032855944414429544 0.017035489550261192 0 0.033561535015723371 0.017122981997011812 0 0.03558010638256829 0.014327569339610683 0 0.036747655101295372 0.013526428242099667 0 0.036567904847202702 0.013228702690242938 0 0.030977371167870294 0.02003806384396328 0 0.03135932550838838 0.019914213349803877 0 0.031532318233280829 0.020163075317310698 0 0.030977371167870294 0.02003806384396328 0 0.03135932550838838 0.019914213349803877 0 0.031244974910754165 0.01969720032041743 0 0.031171990592698581 0.019349189166191307 0 0.031244974910754165 0.01969720032041743 0 0.031547700398061651 0.019407281311224323 0 0.031244974910754165 0.01969720032041743 0 0.031679248651995742 0.019760231961352348 0 0.031547700398061651 0.019407281311224323 0 0.03135932550838838 0.019914213349803877 0 0.031244974910754165 0.01969720032041743 0 0.031679248651995742 0.019760231961352348 0 0.030977371167870294 0.02003806384396328 0 0.031244974910754165 0.01969720032041743 0 0.030753058584462541 0.01966217432346028 0 0.031171990592698581 0.019349189166191307 0 0.031244974910754165 0.01969720032041743 0 0.030753058584462541 0.01966217432346028 0 0.030143435229891651 0.019340384570443445 0 0.030753058584462541 0.01966217432346028 0 0.030184896184802343 0.020003257521973083 0 0.030977371167870294 0.02003806384396328 0 0.030753058584462541 0.01966217432346028 0 0.030581316493610483 0.020071943052320653 0 0.030753058584462541 0.01966217432346028 0 0.030184896184802343 0.020003257521973083 0 0.030581316493610483 0.020071943052320653 0 0.032649138978551699 0.019763567876743507 0 0.031931264821774399 0.019500625917686643 0 0.032211132381963506 0.019312626504328561 0 0.037760164154100884 0.012898359534615687 0 0.036747655101295372 0.013526428242099667 0 0.036567904847202702 0.013228702690242938 0 0.032649138978551699 0.019763567876743507 0 0.031931264821774399 0.019500625917686643 0 0.031679248651995742 0.019760231961352348 0 0.037078091026142387 0.013494454759595096 0 0.039102141071564206 0.010676412002633379 0 0.032649138978551699 0.019763567876743507 0 0.031679248651995742 0.019760231961352348 0 0.031532318233280829 0.020163075317310698 0 0.037078091026142387 0.013494454759595096 0 0.033561535015723371 0.017122981997011812 0 0.031931264821774399 0.019500625917686643 0 0.031679248651995742 0.019760231961352348 0 0.031547700398061651 0.019407281311224323 0 0.03135932550838838 0.019914213349803877 0 0.031679248651995742 0.019760231961352348 0 0.031532318233280829 0.020163075317310698 0 0.039836818205298177 0.009427963294960472 0 0.040725062817414108 0.0086417448981746803 0 0.040185863608684209 0.0085800946887259182 0 0.04054214333575943 0.0081307812397656415 0 0.040971245323930587 0.0081321044126478337 0 0.040725062817414108 0.0086417448981746803 0 0.04005231462824009 0.0080878038232400258 0 0.04054214333575943 0.0081307812397656415 0 0.040185863608684209 0.0085800946887259182 0 0.04054214333575943 0.0081307812397656415 0 0.040725062817414108 0.0086417448981746803 0 0.040185863608684209 0.0085800946887259182 0 0.039836818205298177 0.009427963294960472 0 0.039785773987166158 0.0086035904531144361 0 0.039390966040372649 0.0086840263873796345 0 0.04005231462824009 0.0080878038232400258 0 0.040185863608684209 0.0085800946887259182 0 0.039785773987166158 0.0086035904531144361 0 0.039836818205298177 0.009427963294960472 0 0.040185863608684209 0.0085800946887259182 0 0.039785773987166158 0.0086035904531144361 0 0.039696532382407688 0.0081731607491966202 0 0.039785773987166158 0.0086035904531144361 0 0.039390966040372649 0.0086840263873796345 0 0.039696532382407688 0.0081731607491966202 0 0.04005231462824009 0.0080878038232400258 0 0.039785773987166158 0.0086035904531144361 0 0.039357823679265783 0.0080451603770595303 0 0.039390966040372649 0.0086840263873796345 0 0.039102800848093859 0.0083592880638328777 0 0.039836818205298177 0.009427963294960472 0 0.039390966040372649 0.0086840263873796345 0 0.039238570366032913 0.0091282559170674012 0 0.039357823679265783 0.0080451603770595303 0 0.039696532382407688 0.0081731607491966202 0 0.039390966040372649 0.0086840263873796345 0 0.039390966040372649 0.0086840263873796345 0 0.039102800848093859 0.0083592880638328777 0 0.038984796167336695 0.0087781848101124785 0 0.039238570366032913 0.0091282559170674012 0 0.038984796167336695 0.0087781848101124785 0 0.038868018035880074 0.0092260132589114183 0 0.039390966040372649 0.0086840263873796345 0 0.039238570366032913 0.0091282559170674012 0 0.038984796167336695 0.0087781848101124785 0 0.038353277868532494 0.0084126063299030229 0 0.038780305383449336 0.0083698237293797235 0 0.03852594728796474 0.0088834464082646579 0 0.038984796167336695 0.0087781848101124785 0 0.038780305383449336 0.0083698237293797235 0 0.03852594728796474 0.0088834464082646579 0 0.039102800848093859 0.0083592880638328777 0 0.038984796167336695 0.0087781848101124785 0 0.038780305383449336 0.0083698237293797235 0 0.038984796167336695 0.0087781848101124785 0 0.03852594728796474 0.0088834464082646579 0 0.038868018035880074 0.0092260132589114183 0 0.03852594728796474 0.0088834464082646579 0 0.038572267846161544 0.0093676822305567217 0 0.038234243736688656 0.0094313078615325101 0 0.03852594728796474 0.0088834464082646579 0 0.038572267846161544 0.0093676822305567217 0 0.038868018035880074 0.0092260132589114183 0 0.038572267846161544 0.0093676822305567217 0 0.038459372971845922 0.0099280124295083594 0 0.038234243736688656 0.0094313078615325101 0 0.038572267846161544 0.0093676822305567217 0 0.038792765467590279 0.0096095444494860658 0 0.038459372971845922 0.0099280124295083594 0 0.038572267846161544 0.0093676822305567217 0 0.038792765467590279 0.0096095444494860658 0 0.038868018035880074 0.0092260132589114183 0 0.038792765467590279 0.0096095444494860658 0 0.038868018035880074 0.0092260132589114183 0 0.039095565154104721 0.0095109806185393365 0 0.038792765467590279 0.0096095444494860658 0 0.038983277188275232 0.0099477247835031927 0 0.038459372971845922 0.0099280124295083594 0 0.038792765467590279 0.0096095444494860658 0 0.038983277188275232 0.0099477247835031927 0 0.039095565154104721 0.0095109806185393365 0 0.038549660884248882 0.011806076924429712 0 0.038624043163473884 0.011760400993223541 0 0.038643093347683725 0.011807309005374548 0 0.037078091026142387 0.013494454759595096 0 0.035768724324649052 0.015883958202418006 0 0.039836818205298177 0.009427963294960472 0 0.038983277188275232 0.0099477247835031927 0 0.039095565154104721 0.0095109806185393365 0 0.039836818205298177 0.009427963294960472 0 0.039238570366032913 0.0091282559170674012 0 0.039095565154104721 0.0095109806185393365 0 0.037078091026142387 0.013494454759595096 0 0.039306767356715219 0.010494802247198568 0 0.039238570366032913 0.0091282559170674012 0 0.038868018035880074 0.0092260132589114183 0 0.039095565154104721 0.0095109806185393365 0 0.032649138978551699 0.019763567876743507 0 0.032920796226691577 0.019068363963054249 0 0.033678703000851552 0.019161790435780854 0 0.032920796226691577 0.019068363963054249 0 0.033293901887094586 0.018881601047617342 0 0.033678703000851552 0.019161790435780854 0 0.033293901887094586 0.018881601047617342 0 0.033629285780186161 0.018808597367780174 0 0.033678703000851552 0.019161790435780854 0 0.033293901887094586 0.018881601047617342 0 0.033629285780186161 0.018808597367780174 0 0.033596006596065653 0.018551541903019265 0 0.033293901887094586 0.018881601047617342 0 0.033230829081299242 0.01852793938282786 0 0.033596006596065653 0.018551541903019265 0 0.032920796226691577 0.019068363963054249 0 0.033293901887094586 0.018881601047617342 0 0.032907000801488805 0.018634924850510475 0 0.033293901887094586 0.018881601047617342 0 0.032907000801488805 0.018634924850510475 0 0.033230829081299242 0.01852793938282786 0 0.039306767356715219 0.010494802247198568 0 0.037959217976836539 0.011318235595387726 0 0.038624043163473884 0.011760400993223541 0 0.038643093347683725 0.011807309005374548 0 0.038200404590576734 0.011727707195208381 0 0.038643093347683725 0.011807309005374548 0 0.038335495059711164 0.012196830556812142 0 0.038200404590576734 0.011727707195208381 0 0.038983277188275232 0.0099477247835031927 0 0.038459372971845922 0.0099280124295083594 0 0.038113352924778493 0.010735368707034241 0 0.033678703000851552 0.019161790435780854 0 0.033970492451257946 0.018640482149154532 0 0.034971211689160273 0.018264593866433851 0 0.035768724324649052 0.015883958202418006 0 0.03671632609503251 0.015156950020064857 0 0.033629285780186161 0.018808597367780174 0 0.033678703000851552 0.019161790435780854 0 0.033970492451257946 0.018640482149154532 0 0.033629285780186161 0.018808597367780174 0 0.033970492451257946 0.018640482149154532 0 0.033596006596065653 0.018551541903019265 0 0.033970492451257946 0.018640482149154532 0 0.034083772450648753 0.018312671269168041 0 0.034971211689160273 0.018264593866433851 0 0.034083772450648753 0.018312671269168041 0 0.034280168108731836 0.017864409305775812 0 0.034971211689160273 0.018264593866433851 0 0.034083772450648753 0.018312671269168041 0 0.033792814413636497 0.018110369798155869 0 0.033596006596065653 0.018551541903019265 0 0.033970492451257946 0.018640482149154532 0 0.034083772450648753 0.018312671269168041 0 0.033596006596065653 0.018551541903019265 0 0.034083772450648753 0.018312671269168041 0 0.033792814413636497 0.018110369798155869 0 0.034280168108731836 0.017864409305775812 0 0.033792814413636497 0.018110369798155869 0 0.034280168108731836 0.017864409305775812 0 0.033875126269835409 0.017735161641192352 0 0.033792814413636497 0.018110369798155869 0 0.033460430389941523 0.017881061674609136 0 0.033875126269835409 0.017735161641192352 0 0.032865400760045849 0.018316876582382152 0 0.033230829081299242 0.01852793938282786 0 0.033178943372863923 0.018214903090101479 0 0.032865400760045849 0.018316876582382152 0 0.032907000801488805 0.018634924850510475 0 0.033230829081299242 0.01852793938282786 0 0.033792814413636497 0.018110369798155869 0 0.033596006596065653 0.018551541903019265 0 0.033475634239224686 0.018230447810384746 0 0.033230829081299242 0.01852793938282786 0 0.033596006596065653 0.018551541903019265 0 0.033475634239224686 0.018230447810384746 0 0.033230829081299242 0.01852793938282786 0 0.033475634239224686 0.018230447810384746 0 0.033178943372863923 0.018214903090101479 0 0.033475634239224686 0.018230447810384746 0 0.033460430389941523 0.017881061674609136 0 0.033178943372863923 0.018214903090101479 0 0.033792814413636497 0.018110369798155869 0 0.033475634239224686 0.018230447810384746 0 0.033460430389941523 0.017881061674609136 0 0.033460430389941523 0.017881061674609136 0 0.033090284374985589 0.017920270469316692 0 0.033178943372863923 0.018214903090101479 0 0.033090284374985589 0.017920270469316692 0 0.033178943372863923 0.018214903090101479 0 0.032793846105821263 0.018023905719081381 0 0.032865400760045849 0.018316876582382152 0 0.033178943372863923 0.018214903090101479 0 0.032793846105821263 0.018023905719081381 0 0.032865400760045849 0.018316876582382152 0 0.032496226137993828 0.018091477795015482 0 0.032552642851486784 0.018381174401102859 0 0.032865400760045849 0.018316876582382152 0 0.032793846105821263 0.018023905719081381 0 0.032496226137993828 0.018091477795015482 0 0.032496226137993828 0.018091477795015482 0 0.032219510636950513 0.018143943650947292 0 0.032419467230175671 0.017801900696463042 0 0.032496226137993828 0.018091477795015482 0 0.032219510636950513 0.018143943650947292 0 0.032552642851486784 0.018381174401102859 0 0.032552642851486784 0.018381174401102859 0 0.03252781529302122 0.018788267736829168 0 0.032122427699107871 0.018561212311735169 0 0.032219510636950513 0.018143943650947292 0 0.032552642851486784 0.018381174401102859 0 0.032122427699107871 0.018561212311735169 0 0.032907000801488805 0.018634924850510475 0 0.032552642851486784 0.018381174401102859 0 0.03252781529302122 0.018788267736829168 0 0.032865400760045849 0.018316876582382152 0 0.032907000801488805 0.018634924850510475 0 0.032552642851486784 0.018381174401102859 0 0.032920796226691577 0.019068363963054249 0 0.03252781529302122 0.018788267736829168 0 0.032507373524882331 0.019168321751265219 0 0.032920796226691577 0.019068363963054249 0 0.032907000801488805 0.018634924850510475 0 0.03252781529302122 0.018788267736829168 0 0.03252781529302122 0.018788267736829168 0 0.032153743435157277 0.018961208429621592 0 0.032122427699107871 0.018561212311735169 0 0.03252781529302122 0.018788267736829168 0 0.032507373524882331 0.019168321751265219 0 0.032153743435157277 0.018961208429621592 0 0.032649138978551699 0.019763567876743507 0 0.032507373524882331 0.019168321751265219 0 0.032211132381963506 0.019312626504328561 0 0.032507373524882331 0.019168321751265219 0 0.032211132381963506 0.019312626504328561 0 0.032153743435157277 0.018961208429621592 0 0.032649138978551699 0.019763567876743507 0 0.032920796226691577 0.019068363963054249 0 0.032507373524882331 0.019168321751265219 0 0.031931264821774399 0.019500625917686643 0 0.031819532910850143 0.019167856714103017 0 0.031547700398061651 0.019407281311224323 0 0.031422275497899804 0.019025884233079216 0 0.031819532910850143 0.019167856714103017 0 0.031547700398061651 0.019407281311224323 0 0.032211132381963506 0.019312626504328561 0 0.031819532910850143 0.019167856714103017 0 0.032153743435157277 0.018961208429621592 0 0.031931264821774399 0.019500625917686643 0 0.032211132381963506 0.019312626504328561 0 0.031819532910850143 0.019167856714103017 0 0.032153743435157277 0.018961208429621592 0 0.031712676735742282 0.018836025862545604 0 0.032122427699107871 0.018561212311735169 0 0.031819532910850143 0.019167856714103017 0 0.032153743435157277 0.018961208429621592 0 0.031712676735742282 0.018836025862545604 0 0.031422275497899804 0.019025884233079216 0 0.031819532910850143 0.019167856714103017 0 0.031712676735742282 0.018836025862545604 0 0.03130554884016349 0.018551188372559872 0 0.031735232832420905 0.018499003070381336 0 0.031551496766943479 0.018276811379568238 0 0.03130554884016349 0.018551188372559872 0 0.031712676735742282 0.018836025862545604 0 0.031735232832420905 0.018499003070381336 0 0.031735232832420905 0.018499003070381336 0 0.032122427699107871 0.018561212311735169 0 0.031917267316225274 0.018274736943203244 0 0.031712676735742282 0.018836025862545604 0 0.031735232832420905 0.018499003070381336 0 0.032122427699107871 0.018561212311735169 0 0.032219510636950513 0.018143943650947292 0 0.032122427699107871 0.018561212311735169 0 0.031917267316225274 0.018274736943203244 0 0.031917267316225274 0.018274736943203244 0 0.031983094428221247 0.01806226736659854 0 0.031758382093181117 0.017995549178701557 0 0.032219510636950513 0.018143943650947292 0 0.031917267316225274 0.018274736943203244 0 0.031983094428221247 0.01806226736659854 0 0.031917267316225274 0.018274736943203244 0 0.031551496766943479 0.018276811379568238 0 0.031758382093181117 0.017995549178701557 0 0.031735232832420905 0.018499003070381336 0 0.031917267316225274 0.018274736943203244 0 0.031551496766943479 0.018276811379568238 0 0.031338631780716476 0.018034566696193216 0 0.031758382093181117 0.017995549178701557 0 0.031577503107695637 0.017609381668660877 0 0.031338631780716476 0.018034566696193216 0 0.031551496766943479 0.018276811379568238 0 0.031758382093181117 0.017995549178701557 0 0.031758382093181117 0.017995549178701557 0 0.031988318660711834 0.017578359661040103 0 0.032112388997208086 0.017848314100816637 0 0.031983094428221247 0.01806226736659854 0 0.031758382093181117 0.017995549178701557 0 0.032112388997208086 0.017848314100816637 0 0.031758382093181117 0.017995549178701557 0 0.031988318660711834 0.017578359661040103 0 0.031577503107695637 0.017609381668660877 0 0.031988318660711834 0.017578359661040103 0 0.031577503107695637 0.017609381668660877 0 0.03183481610676165 0.017344685200247675 0 0.03271761631836425 0.017744526633210137 0 0.032419467230175671 0.017801900696463042 0 0.032623943703599605 0.017475513738971004 0 0.032793846105821263 0.018023905719081381 0 0.032496226137993828 0.018091477795015482 0 0.03271761631836425 0.017744526633210137 0 0.032496226137993828 0.018091477795015482 0 0.03271761631836425 0.017744526633210137 0 0.032419467230175671 0.017801900696463042 0 0.032419467230175671 0.017801900696463042 0 0.032112388997208086 0.017848314100816637 0 0.032305737841996786 0.017522047337652627 0 0.032219510636950513 0.018143943650947292 0 0.031983094428221247 0.01806226736659854 0 0.032112388997208086 0.017848314100816637 0 0.032219510636950513 0.018143943650947292 0 0.032419467230175671 0.017801900696463042 0 0.032112388997208086 0.017848314100816637 0 0.031988318660711834 0.017578359661040103 0 0.032305737841996786 0.017522047337652627 0 0.032131318034806657 0.017253449930300972 0 0.032305737841996786 0.017522047337652627 0 0.032470842880105238 0.017216642306643472 0 0.032131318034806657 0.017253449930300972 0 0.031988318660711834 0.017578359661040103 0 0.032112388997208086 0.017848314100816637 0 0.032305737841996786 0.017522047337652627 0 0.032419467230175671 0.017801900696463042 0 0.032305737841996786 0.017522047337652627 0 0.032623943703599605 0.017475513738971004 0 0.032305737841996786 0.017522047337652627 0 0.032623943703599605 0.017475513738971004 0 0.032470842880105238 0.017216642306643472 0 0.032623943703599605 0.017475513738971004 0 0.032470842880105238 0.017216642306643472 0 0.03290952917203116 0.017287809012937749 0 0.032470842880105238 0.017216642306643472 0 0.032131318034806657 0.017253449930300972 0 0.03226988970143696 0.01692031767108064 0 0.032470842880105238 0.017216642306643472 0 0.03226988970143696 0.01692031767108064 0 0.032680596071386542 0.016948991671853077 0 0.032131318034806657 0.017253449930300972 0 0.03226988970143696 0.01692031767108064 0 0.03194040667007482 0.017057717084086273 0 0.03226988970143696 0.01692031767108064 0 0.03194040667007482 0.017057717084086273 0 0.032038933389324606 0.016847850396922315 0 0.03226988970143696 0.01692031767108064 0 0.032214937908400736 0.016776916713733422 0 0.032484046101572295 0.016637247944533057 0 0.031484623748063829 0.017208287146119459 0 0.031577503107695637 0.017609381668660877 0 0.03183481610676165 0.017344685200247675 0 0.032131318034806657 0.017253449930300972 0 0.03183481610676165 0.017344685200247675 0 0.03194040667007482 0.017057717084086273 0 0.031988318660711834 0.017578359661040103 0 0.032131318034806657 0.017253449930300972 0 0.03183481610676165 0.017344685200247675 0 0.031484623748063829 0.017208287146119459 0 0.03183481610676165 0.017344685200247675 0 0.03194040667007482 0.017057717084086273 0 0.031484623748063829 0.017208287146119459 0 0.03194040667007482 0.017057717084086273 0 0.031763025233561594 0.016891154171572713 0 0.031370253620693948 0.016864223831681371 0 0.031763025233561594 0.016891154171572713 0 0.031704805401594552 0.016797919153853345 0 0.031763025233561594 0.016891154171572713 0 0.032038933389324606 0.016847850396922315 0 0.031908963208331975 0.016842130130898622 0 0.03194040667007482 0.017057717084086273 0 0.031763025233561594 0.016891154171572713 0 0.032038933389324606 0.016847850396922315 0 0.03226988970143696 0.01692031767108064 0 0.032038933389324606 0.016847850396922315 0 0.032214937908400736 0.016776916713733422 0 0.032038933389324606 0.016847850396922315 0 0.032214937908400736 0.016776916713733422 0 0.032085988899246895 0.016813705780000705 0 0.032038933389324606 0.016847850396922315 0 0.031908963208331975 0.016842130130898622 0 0.032085988899246895 0.016813705780000705 0 0.031908963208331975 0.016842130130898622 0 0.031704805401594552 0.016797919153853345 0 0.031784512997878961 0.017000332340818981 0 0.031908963208331975 0.016842130130898622 0 0.032085988899246895 0.016813705780000705 0 0.031784512997878961 0.017000332340818981 0 0.031763025233561594 0.016891154171572713 0 0.031908963208331975 0.016842130130898622 0 0.031704805401594552 0.016797919153853345 0 0.032271515647590329 0.018957900414537432 0 0.033230412158070273 0.019733990332928757 0 0.033276875215508407 0.018425097513125717 0 0.031737826389906354 0.01697338721209676 0 0.032085988899246895 0.016813705780000705 0 0.031784512997878961 0.017000332340818981 0 0.031940386440122551 0.018190838996167295 0 0.032848611594869216 0.017571191846235186 0 0.031737826389906354 0.01697338721209676 0 0.032085988899246895 0.016813705780000705 0 0.032180981709597239 0.016710991865057003 0 0.032085988899246895 0.016813705780000705 0 0.032180981709597239 0.016710991865057003 0 0.032484046101572295 0.016637247944533057 0 0.032214937908400736 0.016776916713733422 0 0.032085988899246895 0.016813705780000705 0 0.032484046101572295 0.016637247944533057 0 0.032271515647590329 0.018957900414537432 0 0.032232265905572259 0.020201093729818126 0 0.033230412158070273 0.019733990332928757 0 0.032848611594869216 0.017571191846235186 0 0.034072091985952666 0.01776909676650925 0 0.035035531923844086 0.015573312427976072 0 0.034082467305668315 0.016312697612661586 0 0.034927501944413512 0.016266671168142514 0 0.033294384605744985 0.015977129921770743 0 0.035035531923844086 0.015573312427976072 0 0.034082467305668315 0.016312697612661586 0 0.034082467305668315 0.016312697612661586 0 0.034252480146070262 0.016775613168784034 0 0.034927501944413512 0.016266671168142514 0 0.034082467305668315 0.016312697612661586 0 0.034252480146070262 0.016775613168784034 0 0.033619076234024416 0.016886981152865115 0 0.034252480146070262 0.016775613168784034 0 0.033619076234024416 0.016886981152865115 0 0.033806529107930243 0.017141624896471336 0 0.034252480146070262 0.016775613168784034 0 0.034892604217402617 0.016752050975968574 0 0.034927501944413512 0.016266671168142514 0 0.03226988970143696 0.01692031767108064 0 0.032484046101572295 0.016637247944533057 0 0.032680596071386542 0.016948991671853077 0 0.032848611594869216 0.017571191846235186 0 0.032801026033169374 0.017146348876344496 0 0.032484046101572295 0.016637247944533057 0 0.033159258819871147 0.016662520642833831 0 0.032680596071386542 0.016948991671853077 0 0.033294384605744985 0.015977129921770743 0 0.034082467305668315 0.016312697612661586 0 0.033159258819871147 0.016662520642833831 0 0.034082467305668315 0.016312697612661586 0 0.033159258819871147 0.016662520642833831 0 0.033619076234024416 0.016886981152865115 0 0.033084248681372427 0.016238971855593091 0 0.032484046101572295 0.016637247944533057 0 0.033159258819871147 0.016662520642833831 0 0.032848611594869216 0.017571191846235186 0 0.032997847405969269 0.016626496226780009 0 0.033619076234024416 0.016886981152865115 0 0.03312443467071037 0.017008948840626887 0 0.033337444252958141 0.01727228085706068 0 0.033159258819871147 0.016662520642833831 0 0.033619076234024416 0.016886981152865115 0 0.03312443467071037 0.017008948840626887 0 0.032470842880105238 0.017216642306643472 0 0.032680596071386542 0.016948991671853077 0 0.03290952917203116 0.017287809012937749 0 0.03312443467071037 0.017008948840626887 0 0.032680596071386542 0.016948991671853077 0 0.03290952917203116 0.017287809012937749 0 0.033159258819871147 0.016662520642833831 0 0.03312443467071037 0.017008948840626887 0 0.032680596071386542 0.016948991671853077 0 0.032623943703599605 0.017475513738971004 0 0.03290952917203116 0.017287809012937749 0 0.033082773451151959 0.017604716725938684 0 0.03290952917203116 0.017287809012937749 0 0.033337444252958141 0.01727228085706068 0 0.033082773451151959 0.017604716725938684 0 0.033337444252958141 0.01727228085706068 0 0.03363196308995299 0.017493571468794804 0 0.033082773451151959 0.017604716725938684 0 0.03312443467071037 0.017008948840626887 0 0.03290952917203116 0.017287809012937749 0 0.033337444252958141 0.01727228085706068 0 0.033619076234024416 0.016886981152865115 0 0.033337444252958141 0.01727228085706068 0 0.033806529107930243 0.017141624896471336 0 0.033337444252958141 0.01727228085706068 0 0.03363196308995299 0.017493571468794804 0 0.033806529107930243 0.017141624896471336 0 0.033460430389941523 0.017881061674609136 0 0.03363196308995299 0.017493571468794804 0 0.033082773451151959 0.017604716725938684 0 0.033460430389941523 0.017881061674609136 0 0.03363196308995299 0.017493571468794804 0 0.033875126269835409 0.017735161641192352 0 0.033460430389941523 0.017881061674609136 0 0.033090284374985589 0.017920270469316692 0 0.033082773451151959 0.017604716725938684 0 0.03271761631836425 0.017744526633210137 0 0.032623943703599605 0.017475513738971004 0 0.033082773451151959 0.017604716725938684 0 0.033090284374985589 0.017920270469316692 0 0.03271761631836425 0.017744526633210137 0 0.033082773451151959 0.017604716725938684 0 0.033090284374985589 0.017920270469316692 0 0.032793846105821263 0.018023905719081381 0 0.03271761631836425 0.017744526633210137 0 0.034252480146070262 0.016775613168784034 0 0.034231101793780389 0.017303315024689712 0 0.034892604217402617 0.016752050975968574 0 0.034252480146070262 0.016775613168784034 0 0.033806529107930243 0.017141624896471336 0 0.034231101793780389 0.017303315024689712 0 0.03363196308995299 0.017493571468794804 0 0.033806529107930243 0.017141624896471336 0 0.034231101793780389 0.017303315024689712 0 0.034280168108731836 0.017864409305775812 0 0.033875126269835409 0.017735161641192352 0 0.034231101793780389 0.017303315024689712 0 0.03363196308995299 0.017493571468794804 0 0.033875126269835409 0.017735161641192352 0 0.034231101793780389 0.017303315024689712 0 0.034280168108731836 0.017864409305775812 0 0.034231101793780389 0.017303315024689712 0 0.03504381405120547 0.017220331053562909 0 0.03504381405120547 0.017220331053562909 0 0.034892604217402617 0.016752050975968574 0 0.035616994849756826 0.016416238837050123 0 0.034231101793780389 0.017303315024689712 0 0.03504381405120547 0.017220331053562909 0 0.034892604217402617 0.016752050975968574 0 0.03504381405120547 0.017220331053562909 0 0.036064982868546064 0.016832481570425051 0 0.035616994849756826 0.016416238837050123 0 0.036064982868546064 0.016832481570425051 0 0.035616994849756826 0.016416238837050123 0 0.036039463966142445 0.015830921002542984 0 0.036039463966142445 0.015830921002542984 0 0.035916763078136751 0.015965104449937543 0 0.036046393745238374 0.015681816790827204 0 0.035616994849756826 0.016416238837050123 0 0.036039463966142445 0.015830921002542984 0 0.035916763078136751 0.015965104449937543 0 0.035616994849756826 0.016416238837050123 0 0.035916763078136751 0.015965104449937543 0 0.035444415513475235 0.016246526045635274 0 0.035916763078136751 0.015965104449937543 0 0.035444415513475235 0.016246526045635274 0 0.035686684481048989 0.015961869080802726 0 0.034892604217402617 0.016752050975968574 0 0.035444415513475235 0.016246526045635274 0 0.034927501944413512 0.016266671168142514 0 0.034892604217402617 0.016752050975968574 0 0.035616994849756826 0.016416238837050123 0 0.035444415513475235 0.016246526045635274 0 0.035444415513475235 0.016246526045635274 0 0.034927501944413512 0.016266671168142514 0 0.035686684481048989 0.015961869080802726 0 0.035035531923844086 0.015573312427976072 0 0.035686684481048989 0.015961869080802726 0 0.036205100474777756 0.016120532955604758 0 0.035035531923844086 0.015573312427976072 0 0.034927501944413512 0.016266671168142514 0 0.035686684481048989 0.015961869080802726 0 0.035686684481048989 0.015961869080802726 0 0.036052952916327541 0.016036193321227476 0 0.036205100474777756 0.016120532955604758 0 0.036052952916327541 0.016036193321227476 0 0.036205100474777756 0.016120532955604758 0 0.035979641931011164 0.016246465163563671 0 0.035916763078136751 0.015965104449937543 0 0.036052952916327541 0.016036193321227476 0 0.036046393745238374 0.015681816790827204 0 0.035916763078136751 0.015965104449937543 0 0.035686684481048989 0.015961869080802726 0 0.036052952916327541 0.016036193321227476 0 0.035276699034283092 0.017697154460577128 0 0.035769969722546736 0.017833188787549192 0 0.034072091985952666 0.01776909676650925 0 0.035276699034283092 0.017697154460577128 0 0.033230412158070273 0.019733990332928757 0 0.034501285514159138 0.019231326851254844 0 0.033276875215508407 0.018425097513125717 0 0.035504177037011045 0.017058431469396465 0 0.034999890230946316 0.016093292408286532 0 0.034999437924009412 0.018116228237910689 0 0.035504177037011045 0.017058431469396465 0 0.035979641931011164 0.016246465163563671 0 0.034999890230946316 0.016093292408286532 0 0.036205100474777756 0.016120532955604758 0 0.035885551218743796 0.016858192917010011 0 0.035941946235312001 0.017844277149301636 0 0.035504177037011045 0.017058431469396465 0 0.035885551218743796 0.016858192917010011 0 0.035941946235312001 0.017844277149301636 0 0.034501285514159138 0.019231326851254844 0 0.03575393231305226 0.018060913478497483 0 0.035941946235312001 0.017844277149301636 0 0.036205100474777756 0.016120532955604758 0 0.035885551218743796 0.016858192917010011 0 0.035979641931011164 0.016246465163563671 0 0.035504177037011045 0.017058431469396465 0 0.035885551218743796 0.016858192917010011 0 0.035979641931011164 0.016246465163563671 0 0.035979641931011164 0.016246465163563671 0 0.034999890230946316 0.016093292408286532 0 0.036046393745238374 0.015681816790827204 0 0.036052952916327541 0.016036193321227476 0 0.035979641931011164 0.016246465163563671 0 0.036046393745238374 0.015681816790827204 0 0.034999890230946316 0.016093292408286532 0 0.035939570990091804 0.014784469143687525 0 0.036046393745238374 0.015681816790827204 0 0.034999890230946316 0.016093292408286532 0 0.035939570990091804 0.014784469143687525 0 0.034999765665344754 0.014071558425861663 0 0.036039463966142445 0.015830921002542984 0 0.035939570990091804 0.014784469143687525 0 0.036046393745238374 0.015681816790827204 0 0.037372777146914726 0.013167138925438866 0 0.035939570990091804 0.014784469143687525 0 0.036084628598631312 0.012773009492957489 0 0.036064982868546064 0.016832481570425051 0 0.036039463966142445 0.015830921002542984 0 0.035939570990091804 0.014784469143687525 0 0.036574275282228286 0.015029964859829478 0 0.035942237307461197 0.014934072160215625 0 0.035939570990091804 0.014784469143687525 0 0.035450210953859397 0.013352248418608043 0 0.036084628598631312 0.012773009492957489 0 0.034999765665344754 0.014071558425861663 0 0.035450210953859397 0.013352248418608043 0 0.034999813938016794 0.012047166491093997 0 0.035939570990091804 0.014784469143687525 0 0.034999765665344754 0.014071558425861663 0 0.035450210953859397 0.013352248418608043 0 0.034999813938016794 0.012047166491093997 0 0.036045635659912048 0.011167539790704966 0 0.036084628598631312 0.012773009492957489 0 0.035450210953859397 0.013352248418608043 0 0.034999813938016794 0.012047166491093997 0 0.036084628598631312 0.012773009492957489 0 0.034999813938016794 0.012047166491093997 0 0.036045635659912048 0.011167539790704966 0 0.034999884429744242 0.010024509262040097 0 0.036045635659912048 0.011167539790704966 0 0.036084628598631312 0.012773009492957489 0 0.037020065001571116 0.011776674464331772 0 0.036045635659912048 0.011167539790704966 0 0.037020065001571116 0.011776674464331772 0 0.036837225586355091 0.010644389163457344 0 0.037372777146914726 0.013167138925438866 0 0.036084628598631312 0.012773009492957489 0 0.037020065001571116 0.011776674464331772 0 0.036574275282228286 0.015029964859829478 0 0.03671632609503251 0.015156950020064857 0 0.037372777146914726 0.013167138925438866 0 0.038335495059711164 0.012196830556812142 0 0.037020065001571116 0.011776674464331772 0 0.03504381405120547 0.017220331053562909 0 0.036064982868546064 0.016832481570425051 0 0.034971211689160273 0.018264593866433851 0 0.034280168108731836 0.017864409305775812 0 0.03504381405120547 0.017220331053562909 0 0.034971211689160273 0.018264593866433851 0 0.038335495059711164 0.012196830556812142 0 0.038200404590576734 0.011727707195208381 0 0.037020065001571116 0.011776674464331772 0 0.038113352924778493 0.010735368707034241 0 0.037020065001571116 0.011776674464331772 0 0.036837225586355091 0.010644389163457344 0 0.037959217976836539 0.011318235595387726 0 0.037096847497153765 0.011710236102473674 0 0.038113352924778493 0.010735368707034241 0 0.037491888590934913 0.010013910476043938 0 0.036837225586355091 0.010644389163457344 0 0.037491888590934913 0.010013910476043938 0 0.036438283422836407 0.0098673185217419482 0 0.036837225586355091 0.010644389163457344 0 0.037491888590934913 0.010013910476043938 0 0.037262001562133815 0.008904115671927058 0 0.036438283422836407 0.0098673185217419482 0 0.038459372971845922 0.0099280124295083594 0 0.038113352924778493 0.010735368707034241 0 0.038019771873722213 0.0099038549550125934 0 0.038113352924778493 0.010735368707034241 0 0.037491888590934913 0.010013910476043938 0 0.038019771873722213 0.0099038549550125934 0 0.038019771873722213 0.0099038549550125934 0 0.037816957133946047 0.0094231560460692008 0 0.038234243736688656 0.0094313078615325101 0 0.037491888590934913 0.010013910476043938 0 0.038019771873722213 0.0099038549550125934 0 0.037816957133946047 0.0094231560460692008 0 0.038459372971845922 0.0099280124295083594 0 0.038019771873722213 0.0099038549550125934 0 0.038234243736688656 0.0094313078615325101 0 0.037915919764792388 0.0081545352386066822 0 0.038034239791855273 0.0088546377590509075 0 0.037262001562133815 0.008904115671927058 0 0.037816957133946047 0.0094231560460692008 0 0.038034239791855273 0.0088546377590509075 0 0.037262001562133815 0.008904115671927058 0 0.03852594728796474 0.0088834464082646579 0 0.038234243736688656 0.0094313078615325101 0 0.038034239791855273 0.0088546377590509075 0 0.037816957133946047 0.0094231560460692008 0 0.038234243736688656 0.0094313078615325101 0 0.038034239791855273 0.0088546377590509075 0 0.038353277868532494 0.0084126063299030229 0 0.03852594728796474 0.0088834464082646579 0 0.038034239791855273 0.0088546377590509075 0 0.037915919764792388 0.0081545352386066822 0 0.038353277868532494 0.0084126063299030229 0 0.038034239791855273 0.0088546377590509075 0 0.037491888590934913 0.010013910476043938 0 0.037816957133946047 0.0094231560460692008 0 0.037262001562133815 0.008904115671927058 0 0.036199172462793257 0.0084476286726803632 0 0.037262001562133815 0.008904115671927058 0 0.036438283422836407 0.0098673185217419482 0 0.036199172462793257 0.0084476286726803632 0 0.034999884429744242 0.010024509262040097 0 0.036438283422836407 0.0098673185217419482 0 0.034999847937785308 0.0080017890762049213 0 0.036199172462793257 0.0084476286726803632 0 0.034999884429744242 0.010024509262040097 0 0.036045635659912048 0.011167539790704966 0 0.034999884429744242 0.010024509262040097 0 0.036438283422836407 0.0098673185217419482 0 0.036045635659912048 0.011167539790704966 0 0.036438283422836407 0.0098673185217419482 0 0.036837225586355091 0.010644389163457344 0 0.036748989233653884 0.025083070779311174 0 0.037484077009764069 0.024576856606511075 0 0.036672928884659325 0.023892965176025325 0 0.036748989233653884 0.025083070779311174 0 0.035863023354458262 0.025081259966740359 0 0.036672928884659325 0.023892965176025325 0 0.036748989233653884 0.025083070779311174 0 0.037286129537825993 0.025722902086878684 0 0.037484077009764069 0.024576856606511075 0 0.034999982459190698 0.02418456090754726 0 0.035863023354458262 0.025081259966740359 0 0.036672928884659325 0.023892965176025325 0 0.034999982459190698 0.02418456090754726 0 0.035863023354458262 0.025081259966740359 0 0.034999930055674089 0.026207253962550772 0 0.035863023354458262 0.025081259966740359 0 0.034999930055674089 0.026207253962550772 0 0.036215766444801047 0.026121054415429463 0 0.036748989233653884 0.025083070779311174 0 0.035863023354458262 0.025081259966740359 0 0.036215766444801047 0.026121054415429463 0 0.036748989233653884 0.025083070779311174 0 0.036215766444801047 0.026121054415429463 0 0.037286129537825993 0.025722902086878684 0 0.037286129537825993 0.025722902086878684 0 0.038677728438605126 0.024581892159199127 0 0.03780789574762513 0.026565163514491928 0 0.036289278723775083 0.023266908427602737 0 0.035266291823323581 0.028346929903454686 0 0.034323356348490153 0.025645293355356383 0 0.035266291823323581 0.028346929903454686 0 0.036386752524451137 0.025753067671883106 0 0.035506829357793306 0.024455571114596932 0 0.034321656135469558 0.027224900327807233 0 0.034941350798765432 0.029423382045863169 0 0.034745839296087419 0.030177061435232546 0 0.034037680116668842 0.030104591491602946 0 0.034323356348490153 0.025645293355356383 0 0.036289278723775083 0.023266908427602737 0 0.036289278723775083 0.023266908427602737 0 0.037369677631450174 0.022810712849670407 0 0.036289278723775083 0.023266908427602737 0 0.036030289649379238 0.019655844692065692 0 0.037286129537825993 0.025722902086878684 0 0.038677728438605126 0.024581892159199127 0 0.037484077009764069 0.024576856606511075 0 0.038677728438605126 0.024581892159199127 0 0.037484077009764069 0.024576856606511075 0 0.038032362762414076 0.023588644518073305 0 0.038032362762414076 0.023588644518073305 0 0.037390489814034721 0.022564752724414005 0 0.036672928884659325 0.023892965176025325 0 0.036523187465533478 0.021723096876945364 0 0.036587916756023776 0.021712954909895936 0 0.03648662538027217 0.021663253498878914 0 0.037484077009764069 0.024576856606511075 0 0.038032362762414076 0.023588644518073305 0 0.036672928884659325 0.023892965176025325 0 0.036030289649379238 0.019655844692065692 0 0.0367196330657669 0.021716817100801356 0 0.037369677631450174 0.022810712849670407 0 0.0367196330657669 0.021716817100801356 0 0.036560203055789497 0.021792115285425583 0 0.036523187465533478 0.021723096876945364 0 0.036587916756023776 0.021712954909895936 0 0.036030289649379238 0.019655844692065692 0 0.036528060298662346 0.019138064118783264 0 0.036308022950993502 0.020495682350449199 0 0.036348803682402495 0.02062731665585775 0 0.036230520435806102 0.020475321498165281 0 0.036308022950993502 0.020495682350449199 0 0.036348803682402495 0.02062731665585775 0 0.036363192409202591 0.020816645163370246 0 0.036348803682402495 0.02062731665585775 0 0.0364448646436367 0.020667056029734357 0 0.036317890885312253 0.020511855211478993 0 0.036348803682402495 0.02062731665585775 0 0.036317890885312253 0.020511855211478993 0 0.036230520435806102 0.020475321498165281 0 0.036348803682402495 0.02062731665585775 0 0.036363192409202591 0.020816645163370246 0 0.036378767859327671 0.020831856227742283 0 0.036348803682402495 0.02062731665585775 0 0.036378767859327671 0.020831856227742283 0 0.0364448646436367 0.020667056029734357 0 0.036363192409202591 0.020816645163370246 0 0.036378767859327671 0.020831856227742283 0 0.036296030323028208 0.021100913452120937 0 0.037390489814034721 0.022564752724414005 0 0.035934820105546161 0.022902179837054882 0 0.035812974733900202 0.021640163674552303 0 0.0367196330657669 0.021716817100801356 0 0.035929990195912045 0.021604514474340728 0 0.036467206065768844 0.021032779668852371 0 0.036296030323028208 0.021100913452120937 0 0.035812974733900202 0.021640163674552303 0 0.0367196330657669 0.021716817100801356 0 0.036295969816445742 0.021038159205986354 0 0.037390489814034721 0.022564752724414005 0 0.036672928884659325 0.023892965176025325 0 0.035934820105546161 0.022902179837054882 0 0.034999982459190698 0.02418456090754726 0 0.035934820105546161 0.022902179837054882 0 0.034999831196584022 0.022160904045386221 0 0.034999982459190698 0.02418456090754726 0 0.036672928884659325 0.023892965176025325 0 0.035934820105546161 0.022902179837054882 0 0.035934820105546161 0.022902179837054882 0 0.035812974733900202 0.021640163674552303 0 0.034999831196584022 0.022160904045386221 0 0.035812974733900202 0.021640163674552303 0 0.034999831196584022 0.022160904045386221 0 0.035720389496506071 0.020793603175193819 0 0.034999831196584022 0.022160904045386221 0 0.035720389496506071 0.020793603175193819 0 0.03499980722286862 0.020138688844561076 0 0.036296030323028208 0.021100913452120937 0 0.036100429510869517 0.020966651543228083 0 0.036363002772675006 0.020755416445811085 0 0.035812974733900202 0.021640163674552303 0 0.035720389496506071 0.020793603175193819 0 0.036100429510869517 0.020966651543228083 0 0.036296030323028208 0.021100913452120937 0 0.035812974733900202 0.021640163674552303 0 0.036100429510869517 0.020966651543228083 0 0.035720389496506071 0.020793603175193819 0 0.036100429510869517 0.020966651543228083 0 0.036111345003792782 0.0203855429128539 0 0.036100429510869517 0.020966651543228083 0 0.036111345003792782 0.0203855429128539 0 0.036363002772675006 0.020755416445811085 0 0.036111345003792782 0.0203855429128539 0 0.035728553714472359 0.019965612256504513 0 0.036087509071483205 0.019466702137874905 0 0.035720389496506071 0.020793603175193819 0 0.036111345003792782 0.0203855429128539 0 0.035728553714472359 0.019965612256504513 0 0.035720389496506071 0.020793603175193819 0 0.035728553714472359 0.019965612256504513 0 0.03499980722286862 0.020138688844561076 0 0.035728553714472359 0.019965612256504513 0 0.03499980722286862 0.020138688844561076 0 0.035548986290902043 0.018997015130074006 0 0.03499980722286862 0.020138688844561076 0 0.035548986290902043 0.018997015130074006 0 0.034999437924009412 0.018116228237910689 0 0.035728553714472359 0.019965612256504513 0 0.035548986290902043 0.018997015130074006 0 0.036087509071483205 0.019466702137874905 0 0.035548986290902043 0.018997015130074006 0 0.036087509071483205 0.019466702137874905 0 0.035768327027051731 0.018466032067258997 0 0.036087509071483205 0.019466702137874905 0 0.035768327027051731 0.018466032067258997 0 0.03575393231305226 0.018060913478497483 0 0.035504177037011045 0.017058431469396465 0 0.035941946235312001 0.017844277149301636 0 0.035528356439234625 0.018074870919657034 0 0.035768327027051731 0.018466032067258997 0 0.035941946235312001 0.017844277149301636 0 0.035528356439234625 0.018074870919657034 0 0.035768327027051731 0.018466032067258997 0 0.03575393231305226 0.018060913478497483 0 0.035941946235312001 0.017844277149301636 0 0.035504177037011045 0.017058431469396465 0 0.035528356439234625 0.018074870919657034 0 0.034999437924009412 0.018116228237910689 0 0.035548986290902043 0.018997015130074006 0 0.035528356439234625 0.018074870919657034 0 0.034999437924009412 0.018116228237910689 0 0.035548986290902043 0.018997015130074006 0 0.035768327027051731 0.018466032067258997 0 0.035528356439234625 0.018074870919657034 0 0.033276875215508407 0.018425097513125717 0 0.034353917656383771 0.018265426561945384 0 0.034066305351061615 0.017562918399281337 0 0.034501285514159138 0.019231326851254844 0 0.033276875215508407 0.018425097513125717 0 0.034353917656383771 0.018265426561945384 0 0.034501285514159138 0.019231326851254844 0 0.03575393231305226 0.018060913478497483 0 0.034353917656383771 0.018265426561945384 0 0.035701817723188291 0.018176070893915579 0 0.035389786756328173 0.018547194733362762 0 0.03575393231305226 0.018060913478497483 0 0.034353917656383771 0.018265426561945384 0 0.034066305351061615 0.017562918399281337 0 0.036087509071483205 0.019466702137874905 0 0.036722781399978782 0.019499640191195405 0 0.036554915142863527 0.020469235442042568 0 0.036087509071483205 0.019466702137874905 0 0.03575393231305226 0.018060913478497483 0 0.036722781399978782 0.019499640191195405 0 0.034066305351061615 0.017562918399281337 0 0.033082676767918269 0.017800476096924447 0 0.032845350338835851 0.017448259024926648 0 0.033276875215508407 0.018425097513125717 0 0.034066305351061615 0.017562918399281337 0 0.033082676767918269 0.017800476096924447 0 0.035389786756328173 0.018547194733362762 0 0.03474421821854011 0.019043869634420819 0 0.036722781399978782 0.019499640191195405 0 0.03664304583626668 0.020650880414661614 0 0.036554915142863527 0.020469235442042568 0 0.03664304583626668 0.020650880414661614 0 0.036554915142863527 0.020469235442042568 0 0.036505349627413017 0.02058444920462757 0 0.036111345003792782 0.0203855429128539 0 0.036554915142863527 0.020469235442042568 0 0.036363002772675006 0.020755416445811085 0 0.036111345003792782 0.0203855429128539 0 0.036087509071483205 0.019466702137874905 0 0.036554915142863527 0.020469235442042568 0 0.036554915142863527 0.020469235442042568 0 0.036363002772675006 0.020755416445811085 0 0.0364448646436367 0.020667056029734357 0 0.036378767859327671 0.020831856227742283 0 0.036363002772675006 0.020755416445811085 0 0.0364448646436367 0.020667056029734357 0 0.036378767859327671 0.020831856227742283 0 0.036296030323028208 0.021100913452120937 0 0.036363002772675006 0.020755416445811085 0 0.036505349627413017 0.02058444920462757 0 0.036317890885312253 0.020511855211478993 0 0.035704277621963411 0.020400458200457806 0 0.036554915142863527 0.020469235442042568 0 0.036505349627413017 0.02058444920462757 0 0.0364448646436367 0.020667056029734357 0 0.036505349627413017 0.02058444920462757 0 0.0364448646436367 0.020667056029734357 0 0.036317890885312253 0.020511855211478993 0 0.032845350338835851 0.017448259024926648 0 0.032024498619724374 0.017619783069698844 0 0.031993238978494015 0.017631745689130299 0 0.03664304583626668 0.020650880414661614 0 0.03532624224685775 0.020322077293332845 0 0.035704277621963411 0.020400458200457806 0 0.036317890885312253 0.020511855211478993 0 0.035704277621963411 0.020400458200457806 0 0.036230520435806102 0.020475321498165281 0 0.03474421821854011 0.019043869634420819 0 0.033662296888130418 0.018843551738480405 0 0.03664304583626668 0.020650880414661614 0 0.036505349627413017 0.02058444920462757 0 0.035704277621963411 0.020400458200457806 0 0.03532624224685775 0.020322077293332845 0 0.035704277621963411 0.020400458200457806 0 0.035647771204278915 0.019166898339342368 0 0.031801533585657855 0.017705559544779675 0 0.031864274693020618 0.017686720289184939 0 0.031579808434083242 0.017840879814359941 0 0.032024498619724374 0.017619783069698844 0 0.031801533585657855 0.017705559544779675 0 0.031864274693020618 0.017686720289184939 0 0.031864274693020618 0.017686720289184939 0 0.031706534567791211 0.017717921966890489 0 0.031993238978494015 0.017631745689130299 0 0.032024498619724374 0.017619783069698844 0 0.031864274693020618 0.017686720289184939 0 0.031993238978494015 0.017631745689130299 0 0.031864274693020618 0.017686720289184939 0 0.031706534567791211 0.017717921966890489 0 0.031579808434083242 0.017840879814359941 0 0.03198121460499824 0.017600713382331216 0 0.031964416492817248 0.017603749613358689 0 0.031993238978494015 0.017631745689130299 0 0.031555561220040433 0.017416947191920409 0 0.031613959889470127 0.017672977566879727 0 0.031706534567791211 0.017717921966890489 0 0.031993238978494015 0.017631745689130299 0 0.031613959889470127 0.017672977566879727 0 0.032845350338835851 0.017448259024926648 0 0.031993238978494015 0.017631745689130299 0 0.03233057495823053 0.017899242750987622 0 0.033082676767918269 0.017800476096924447 0 0.032845350338835851 0.017448259024926648 0 0.03233057495823053 0.017899242750987622 0 0.033276875215508407 0.018425097513125717 0 0.033082676767918269 0.017800476096924447 0 0.03233057495823053 0.017899242750987622 0 0.031555561220040433 0.017416947191920409 0 0.031643067074693103 0.017351590502064789 0 0.031613959889470127 0.017672977566879727 0 0.031737826389906354 0.01697338721209676 0 0.031555561220040433 0.017416947191920409 0 0.031784512997878961 0.017000332340818981 0 0.031940386440122551 0.018190838996167295 0 0.031964416492817248 0.017603749613358689 0 0.032271515647590329 0.018957900414537432 0 0.033276875215508407 0.018425097513125717 0 0.03233057495823053 0.017899242750987622 0 0.031704805401594552 0.016797919153853345 0 0.03165920466604448 0.017088146882217794 0 0.031581643296964126 0.016642485525960492 0 0.031704805401594552 0.016797919153853345 0 0.03165920466604448 0.017088146882217794 0 0.031784512997878961 0.017000332340818981 0 0.031555561220040433 0.017416947191920409 0 0.031784512997878961 0.017000332340818981 0 0.031643067074693103 0.017351590502064789 0 0.03165920466604448 0.017088146882217794 0 0.031784512997878961 0.017000332340818981 0 0.031643067074693103 0.017351590502064789 0 0.03165920466604448 0.017088146882217794 0 0.031643067074693103 0.017351590502064789 0 0.031592186922712137 0.01759160151663661 0 0.03165920466604448 0.017088146882217794 0 0.031592186922712137 0.01759160151663661 0 0.031727752555037778 0.017352025298905626 0 0.031592186922712137 0.01759160151663661 0 0.031434142452756247 0.017870231381075678 0 0.031660848748768455 0.018069241433291368 0 0.031592186922712137 0.01759160151663661 0 0.031613959889470127 0.017672977566879727 0 0.031434142452756247 0.017870231381075678 0 0.031643067074693103 0.017351590502064789 0 0.031592186922712137 0.01759160151663661 0 0.031613959889470127 0.017672977566879727 0 0.031706534567791211 0.017717921966890489 0 0.031613959889470127 0.017672977566879727 0 0.031434142452756247 0.017870231381075678 0 0.031434142452756247 0.017870231381075678 0 0.031366880918354899 0.018354807400440803 0 0.031213484849688125 0.0180903454836389 0 0.031706534567791211 0.017717921966890489 0 0.031434142452756247 0.017870231381075678 0 0.031579808434083242 0.017840879814359941 0 0.031434142452756247 0.017870231381075678 0 0.031579808434083242 0.017840879814359941 0 0.031213484849688125 0.0180903454836389 0 0.031801533585657855 0.017705559544779675 0 0.031579808434083242 0.017840879814359941 0 0.031213484849688125 0.0180903454836389 0 0.031434142452756247 0.017870231381075678 0 0.031366880918354899 0.018354807400440803 0 0.031660848748768455 0.018069241433291368 0 0.031366880918354899 0.018354807400440803 0 0.031006044104886117 0.018808371595104803 0 0.031213484849688125 0.0180903454836389 0 0.031366880918354899 0.018354807400440803 0 0.031490205825836094 0.019345228184693409 0 0.031006044104886117 0.018808371595104803 0 0.031490205825836094 0.019345228184693409 0 0.031006044104886117 0.018808371595104803 0 0.030704179455298367 0.020143332698854152 0 0.031006044104886117 0.018808371595104803 0 0.029432082309928387 0.019695497017184333 0 0.030704179455298367 0.020143332698854152 0 0.0304202108986232 0.019190192544203864 0 0.031327757010581492 0.018365298600216753 0 0.031733193807402783 0.015571812315482832 0 0.031213484849688125 0.0180903454836389 0 0.032012118589056456 0.017157226157690355 0 0.031327757010581492 0.018365298600216753 0 0.03119177814117961 0.017646501730245717 0 0.031006044104886117 0.018808371595104803 0 0.030655375862868133 0.019050801705850235 0 0.031213484849688125 0.0180903454836389 0 0.031801533585657855 0.017705559544779675 0 0.031213484849688125 0.0180903454836389 0 0.032012118589056456 0.017157226157690355 0 0.032024498619724374 0.017619783069698844 0 0.031801533585657855 0.017705559544779675 0 0.032012118589056456 0.017157226157690355 0 0.03532624224685775 0.020322077293332845 0 0.034596157521756536 0.017899600428694186 0 0.032012118589056456 0.017157226157690355 0 0.033662296888130418 0.018843551738480405 0 0.032099853245648062 0.017276394922840978 0 0.034596157521756536 0.017899600428694186 0 0.032012118589056456 0.017157226157690355 0 0.033327282661724453 0.016045116152172859 0 0.035704277621963411 0.020400458200457806 0 0.035647771204278915 0.019166898339342368 0 0.036698707083763292 0.018343920383299784 0 0.03580023978130123 0.020435950586374572 0 0.036528060298662346 0.019138064118783264 0 0.034596157521756536 0.017899600428694186 0 0.035647771204278915 0.019166898339342368 0 0.036698707083763292 0.018343920383299784 0 0.03532624224685775 0.020322077293332845 0 0.034596157521756536 0.017899600428694186 0 0.035647771204278915 0.019166898339342368 0 0.034596157521756536 0.017899600428694186 0 0.036698707083763292 0.018343920383299784 0 0.035219763865014624 0.016395486773262531 0 0.036030289649379238 0.019655844692065692 0 0.033785963999869391 0.019892944881892874 0 0.037736222677699403 0.015813601374590574 0 0.035219763865014624 0.016395486773262531 0 0.033762809056096445 0.013908641182466127 0 0.037736222677699403 0.015813601374590574 0 0.036698707083763292 0.018343920383299784 0 0.035219763865014624 0.016395486773262531 0 0.035219763865014624 0.016395486773262531 0 0.033327282661724453 0.016045116152172859 0 0.033762809056096445 0.013908641182466127 0 0.031733193807402783 0.015571812315482832 0 0.032012118589056456 0.017157226157690355 0 0.033327282661724453 0.016045116152172859 0 0.034596157521756536 0.017899600428694186 0 0.035219763865014624 0.016395486773262531 0 0.033327282661724453 0.016045116152172859 0 0.031733193807402783 0.015571812315482832 0 0.033327282661724453 0.016045116152172859 0 0.033762809056096445 0.013908641182466127 0 0.032016519788439127 0.019746106947133805 0 0.03180423707675651 0.019908634179733219 0 0.031976349094289092 0.020002421482245614 0 0.033631057096775267 0.023053792153047616 0 0.033400569714258921 0.024464539162796652 0 0.034524552115944851 0.023508756915265893 0 0.031327757010581492 0.018365298600216753 0 0.033785963999869391 0.019892944881892874 0 0.033785963999869391 0.019892944881892874 0 0.03094253702277323 0.021618493397026227 0 0.034452312221666011 0.021992055104433472 0 0.034644576672028499 0.021535267305293329 0 0.035359450093515585 0.02190314494302038 0 0.034323356348490153 0.025645293355356383 0 0.033785963999869391 0.019892944881892874 0 0.034712615309719724 0.022391674773368748 0 0.034452312221666011 0.021992055104433472 0 0.035359450093515585 0.02190314494302038 0 0.034323356348490153 0.025645293355356383 0 0.03432074907532235 0.028404060801265705 0 0.031808472548076533 0.024376417437510789 0 0.033400569714258921 0.024464539162796652 0 0.032833556544712622 0.025912137823839998 0 0.031808472548076533 0.024376417437510789 0 0.033631057096775267 0.023053792153047616 0 0.033400569714258921 0.024464539162796652 0 0.03094253702277323 0.021618493397026227 0 0.030822496486457761 0.024080233282201643 0 0.033400569714258921 0.024464539162796652 0 0.034524552115944851 0.023508756915265893 0 0.034206621526159144 0.025479302467412823 0 0.029060668505639268 0.02215034288335193 0 0.0295938672935574 0.023091345751169542 0 0.027819373906718878 0.023189560346330313 0 0.029060668505639268 0.02215034288335193 0 0.028296964149675717 0.020604338755504971 0 0.027819373906718878 0.023189560346330313 0 0.029575372706391507 0.021255222481360914 0 0.03094253702277323 0.021618493397026227 0 0.029060668505639268 0.02215034288335193 0 0.030520185105936556 0.021727171065974573 0 0.028296964149675717 0.020604338755504971 0 0.029060668505639268 0.02215034288335193 0 0.030520185105936556 0.021727171065974573 0 0.0295938672935574 0.023091345751169542 0 0.030520185105936556 0.021727171065974573 0 0.031525949884429486 0.02220053483521902 0 0.0295938672935574 0.023091345751169542 0 0.030520185105936556 0.021727171065974573 0 0.031384201969718986 0.020678581781776024 0 0.031525949884429486 0.02220053483521902 0 0.030520185105936556 0.021727171065974573 0 0.030704179455298367 0.020143332698854152 0 0.029852811119939305 0.02037812519055749 0 0.031490205825836094 0.019345228184693409 0 0.030704179455298367 0.020143332698854152 0 0.031384201969718986 0.020678581781776024 0 0.030520185105936556 0.021727171065974573 0 0.030704179455298367 0.020143332698854152 0 0.031384201969718986 0.020678581781776024 0 0.029432082309928387 0.019695497017184333 0 0.030704179455298367 0.020143332698854152 0 0.029852811119939305 0.02037812519055749 0 0.030520185105936556 0.021727171065974573 0 0.029852811119939305 0.02037812519055749 0 0.029227237787260232 0.020837525402720356 0 0.031327757010581492 0.018365298600216753 0 0.03094253702277323 0.021618493397026227 0 0.029432082309928387 0.019695497017184333 0 0.029852811119939305 0.02037812519055749 0 0.029227237787260232 0.020837525402720356 0 0.024337975985514491 0.026445998825531641 0 0.024955496806369857 0.027929456814480388 0 0.025375783637658543 0.026452435007117966 0 0.028281724745957484 0.023324614867837538 0 0.027298371765817717 0.02527221131165365 0 0.031490205825836094 0.019345228184693409 0 0.031384201969718986 0.020678581781776024 0 0.032312921518855439 0.020092798814814333 0 0.031384201969718986 0.020678581781776024 0 0.032312921518855439 0.020092798814814333 0 0.031525949884429486 0.02220053483521902 0 0.024337975985514491 0.026445998825531641 0 0.022892266828053068 0.028248305955988748 0 0.023819656540608403 0.028548603582623532 0 0.024337975985514491 0.026445998825531641 0 0.024955496806369857 0.027929456814480388 0 0.023819656540608403 0.028548603582623532 0 0.023590786161796953 0.029050242358646804 0 0.024450690097236719 0.028644767245525525 0 0.024405883869359088 0.029587255287960877 0 0.024450690097236719 0.028644767245525525 0 0.025305183395830051 0.02893180155047162 0 0.024405883869359088 0.029587255287960877 0 0.024450690097236719 0.028644767245525525 0 0.024184552991666285 0.027538255716642278 0 0.025545743774163736 0.027428276478154903 0 0.024450690097236719 0.028644767245525525 0 0.025545743774163736 0.027428276478154903 0 0.025305183395830051 0.02893180155047162 0 0.024255070715165642 0.028484811915160436 0 0.024799120698816693 0.027021337954466536 0 0.023590786161796953 0.029050242358646804 0 0.024450690097236719 0.028644767245525525 0 0.024184552991666285 0.027538255716642278 0 0.025375783637658543 0.026452435007117966 0 0.02533641604771238 0.02599361122833797 0 0.02515204680301103 0.025846586954969799 0 0.024337975985514491 0.026445998825531641 0 0.025375783637658543 0.026452435007117966 0 0.02515204680301103 0.025846586954969799 0 0.024799120698816693 0.027021337954466536 0 0.025284880128391619 0.026071811078446087 0 0.024184552991666285 0.027538255716642278 0 0.02533641604771238 0.02599361122833797 0 0.025545743774163736 0.027428276478154903 0 0.02533641604771238 0.02599361122833797 0 0.02515204680301103 0.025846586954969799 0 0.025556570029387694 0.02539021393631756 0 0.032540312178354729 0.018915952908059849 0 0.03190979519630624 0.018725652291363259 0 0.032087466227064383 0.018175566203357158 0 0.032312921518855439 0.020092798814814333 0 0.032540312178354729 0.018915952908059849 0 0.03190979519630624 0.018725652291363259 0 0.028281724745957484 0.023324614867837538 0 0.02883452070144616 0.022400626365855724 0 0.031490205825836094 0.019345228184693409 0 0.032312921518855439 0.020092798814814333 0 0.03190979519630624 0.018725652291363259 0 0.031366880918354899 0.018354807400440803 0 0.031490205825836094 0.019345228184693409 0 0.03190979519630624 0.018725652291363259 0 0.031366880918354899 0.018354807400440803 0 0.03190979519630624 0.018725652291363259 0 0.031660848748768455 0.018069241433291368 0 0.03190979519630624 0.018725652291363259 0 0.031660848748768455 0.018069241433291368 0 0.032087466227064383 0.018175566203357158 0 0.031660848748768455 0.018069241433291368 0 0.032087466227064383 0.018175566203357158 0 0.031799431661034633 0.017765584499243432 0 0.032087466227064383 0.018175566203357158 0 0.032108429168779769 0.017687889599380953 0 0.032389859034344957 0.018071262993642267 0 0.032087466227064383 0.018175566203357158 0 0.032108429168779769 0.017687889599380953 0 0.031799431661034633 0.017765584499243432 0 0.031592186922712137 0.01759160151663661 0 0.031660848748768455 0.018069241433291368 0 0.031799431661034633 0.017765584499243432 0 0.032108429168779769 0.017687889599380953 0 0.031799431661034633 0.017765584499243432 0 0.031727752555037778 0.017352025298905626 0 0.031592186922712137 0.01759160151663661 0 0.031799431661034633 0.017765584499243432 0 0.031727752555037778 0.017352025298905626 0 0.032108429168779769 0.017687889599380953 0 0.032070465336915592 0.01726238090077685 0 0.032480722116360161 0.017587156826962911 0 0.032108429168779769 0.017687889599380953 0 0.031727752555037778 0.017352025298905626 0 0.032070465336915592 0.01726238090077685 0 0.031544781728393555 0.016591956216336818 0 0.031161325084998241 0.016545016590373836 0 0.032070465336915592 0.01726238090077685 0 0.031581643296964126 0.016642485525960492 0 0.032383112736289153 0.017009899356242333 0 0.03165920466604448 0.017088146882217794 0 0.031727752555037778 0.017352025298905626 0 0.031581643296964126 0.016642485525960492 0 0.031727752555037778 0.017352025298905626 0 0.032070465336915592 0.01726238090077685 0 0.031581643296964126 0.016642485525960492 0 0.031161325084998241 0.016545016590373836 0 0.031269572410594484 0.016052329863063361 0 0.032655334845933186 0.017356439769361021 0 0.032383112736289153 0.017009899356242333 0 0.032814132284730159 0.017241859568746402 0 0.032070465336915592 0.01726238090077685 0 0.032383112736289153 0.017009899356242333 0 0.032480722116360161 0.017587156826962911 0 0.032655334845933186 0.017356439769361021 0 0.032383112736289153 0.017009899356242333 0 0.032480722116360161 0.017587156826962911 0 0.032655334845933186 0.017356439769361021 0 0.032480722116360161 0.017587156826962911 0 0.032962905493044613 0.017661051550032079 0 0.032480722116360161 0.017587156826962911 0 0.032672058807455419 0.018273758225200987 0 0.032962905493044613 0.017661051550032079 0 0.032108429168779769 0.017687889599380953 0 0.032480722116360161 0.017587156826962911 0 0.032389859034344957 0.018071262993642267 0 0.032480722116360161 0.017587156826962911 0 0.032389859034344957 0.018071262993642267 0 0.032672058807455419 0.018273758225200987 0 0.032540312178354729 0.018915952908059849 0 0.032087466227064383 0.018175566203357158 0 0.032389859034344957 0.018071262993642267 0 0.02883452070144616 0.022400626365855724 0 0.029086605911376382 0.021844586280740645 0 0.032540312178354729 0.018915952908059849 0 0.032389859034344957 0.018071262993642267 0 0.032672058807455419 0.018273758225200987 0 0.02533641604771238 0.02599361122833797 0 0.025556570029387694 0.02539021393631756 0 0.025762380728379948 0.025712378308159943 0 0.025762380728379948 0.025712378308159943 0 0.025943746062390187 0.025228665500564598 0 0.026293053863842321 0.025813880210885376 0 0.025556570029387694 0.02539021393631756 0 0.025762380728379948 0.025712378308159943 0 0.025943746062390187 0.025228665500564598 0 0.025961660997963661 0.025295364646612421 0 0.026229019071737629 0.026130708278562394 0 0.026343496456310449 0.025677783561847977 0 0.025943746062390187 0.025228665500564598 0 0.026155375523793774 0.026445368687419177 0 0.026343496456310449 0.025677783561847977 0 0.026801192403830408 0.025891426171027333 0 0.026155375523793774 0.026445368687419177 0 0.026801192403830408 0.025891426171027333 0 0.026791297440569333 0.026720269135576472 0 0.026155375523793774 0.026445368687419177 0 0.026343496456310449 0.025677783561847977 0 0.026456998440849717 0.025209273269716448 0 0.026801192403830408 0.025891426171027333 0 0.026343496456310449 0.025677783561847977 0 0.026456998440849717 0.025209273269716448 0 0.025943746062390187 0.025228665500564598 0 0.029086605911376382 0.021844586280740645 0 0.029640400263798536 0.021321177562010709 0 0.025556570029387694 0.02539021393631756 0 0.025943746062390187 0.025228665500564598 0 0.026000142693346759 0.024924446202118703 0 0.026456998440849717 0.025209273269716448 0 0.025943746062390187 0.025228665500564598 0 0.026000142693346759 0.024924446202118703 0 0.026456998440849717 0.025209273269716448 0 0.02646544612466966 0.024726898007002483 0 0.026782878276171027 0.024664724503157855 0 0.026000142693346759 0.024924446202118703 0 0.02646544612466966 0.024726898007002483 0 0.026620364946591073 0.024098360443091289 0 0.026456998440849717 0.025209273269716448 0 0.026000142693346759 0.024924446202118703 0 0.02646544612466966 0.024726898007002483 0 0.029640400263798536 0.021321177562010709 0 0.028860674765934399 0.020364972167735283 0 0.02646544612466966 0.024726898007002483 0 0.026620364946591073 0.024098360443091289 0 0.026782878276171027 0.024664724503157855 0 0.032962905493044613 0.017661051550032079 0 0.033127287839082656 0.017326367935344734 0 0.032814132284730159 0.017241859568746402 0 0.028860674765934399 0.020364972167735283 0 0.031269572410594484 0.016052329863063361 0 0.032655334845933186 0.017356439769361021 0 0.032962905493044613 0.017661051550032079 0 0.032814132284730159 0.017241859568746402 0 0.027098326499704162 0.023890895997494381 0 0.027697837543746873 0.024125154805103369 0 0.02723718089818292 0.024192227516761255 0 0.027289553808789373 0.024553437268684631 0 0.027697837543746873 0.024125154805103369 0 0.028254633680798273 0.024769283165438558 0 0.027289553808789373 0.024553437268684631 0 0.027697837543746873 0.024125154805103369 0 0.02723718089818292 0.024192227516761255 0 0.027098326499704162 0.023890895997494381 0 0.02723718089818292 0.024192227516761255 0 0.02692340494463814 0.024102305723691805 0 0.027098326499704162 0.023890895997494381 0 0.026693485459125407 0.024074440806374789 0 0.02692340494463814 0.024102305723691805 0 0.028860674765934399 0.020364972167735283 0 0.026890332275820883 0.022157767875441547 0 0.026620364946591073 0.024098360443091289 0 0.02692340494463814 0.024102305723691805 0 0.026782878276171027 0.024664724503157855 0 0.027289553808789373 0.024553437268684631 0 0.02692340494463814 0.024102305723691805 0 0.026782878276171027 0.024664724503157855 0 0.027289553808789373 0.024553437268684631 0 0.02723718089818292 0.024192227516761255 0 0.02692340494463814 0.024102305723691805 0 0.026456998440849717 0.025209273269716448 0 0.026782878276171027 0.024664724503157855 0 0.027060256199084434 0.025208978557968473 0 0.027289553808789373 0.024553437268684631 0 0.026782878276171027 0.024664724503157855 0 0.027060256199084434 0.025208978557968473 0 0.027289553808789373 0.024553437268684631 0 0.027688875749338569 0.025205334205009918 0 0.028254633680798273 0.024769283165438558 0 0.027289553808789373 0.024553437268684631 0 0.027688875749338569 0.025205334205009918 0 0.027060256199084434 0.025208978557968473 0 0.027688875749338569 0.025205334205009918 0 0.027466648284992241 0.025797878502720938 0 0.027060256199084434 0.025208978557968473 0 0.027688875749338569 0.025205334205009918 0 0.027466648284992241 0.025797878502720938 0 0.028063136056552352 0.025957151837756473 0 0.027466648284992241 0.025797878502720938 0 0.027060256199084434 0.025208978557968473 0 0.026801192403830408 0.025891426171027333 0 0.026456998440849717 0.025209273269716448 0 0.027060256199084434 0.025208978557968473 0 0.026801192403830408 0.025891426171027333 0 0.027466648284992241 0.025797878502720938 0 0.026801192403830408 0.025891426171027333 0 0.027274994212191879 0.026351199801930937 0 0.026801192403830408 0.025891426171027333 0 0.027274994212191879 0.026351199801930937 0 0.026791297440569333 0.026720269135576472 0 0.027466648284992241 0.025797878502720938 0 0.027274994212191879 0.026351199801930937 0 0.027841801213992698 0.026481574978757496 0 0.027466648284992241 0.025797878502720938 0 0.027841801213992698 0.026481574978757496 0 0.028063136056552352 0.025957151837756473 0 0.027274994212191879 0.026351199801930937 0 0.027369008755628588 0.026987135089049926 0 0.027841801213992698 0.026481574978757496 0 0.027369008755628588 0.026987135089049926 0 0.027841801213992698 0.026481574978757496 0 0.02788944452461551 0.027034758868782684 0 0.027369008755628588 0.026987135089049926 0 0.027690872956047895 0.027344254982975522 0 0.02788944452461551 0.027034758868782684 0 0.027369008755628588 0.026987135089049926 0 0.027690872956047895 0.027344254982975522 0 0.027396445409610247 0.027626024168245812 0 0.027690872956047895 0.027344254982975522 0 0.027973127950440883 0.02739346767908768 0 0.02788944452461551 0.027034758868782684 0 0.027690872956047895 0.027344254982975522 0 0.027793261227204828 0.027694645594834987 0 0.027973127950440883 0.02739346767908768 0 0.027690872956047895 0.027344254982975522 0 0.027396445409610247 0.027626024168245812 0 0.027793261227204828 0.027694645594834987 0 0.027369008755628588 0.026987135089049926 0 0.026791297440569333 0.026720269135576472 0 0.026509692467677023 0.027484253125529268 0 0.027369008755628588 0.026987135089049926 0 0.027396445409610247 0.027626024168245812 0 0.026509692467677023 0.027484253125529268 0 0.027274994212191879 0.026351199801930937 0 0.027369008755628588 0.026987135089049926 0 0.026791297440569333 0.026720269135576472 0 0.026791297440569333 0.026720269135576472 0 0.026155375523793774 0.026445368687419177 0 0.026509692467677023 0.027484253125529268 0 0.026293053863842321 0.025813880210885376 0 0.02589914327635329 0.026412600385243665 0 0.026752343594681042 0.027154162618132298 0 0.026229019071737629 0.026130708278562394 0 0.026624569442358074 0.027331492144949742 0 0.025762380728379948 0.025712378308159943 0 0.026293053863842321 0.025813880210885376 0 0.02589914327635329 0.026412600385243665 0 0.02533641604771238 0.02599361122833797 0 0.025762380728379948 0.025712378308159943 0 0.02589914327635329 0.026412600385243665 0 0.02589914327635329 0.026412600385243665 0 0.026752343594681042 0.027154162618132298 0 0.025545743774163736 0.027428276478154903 0 0.02533641604771238 0.02599361122833797 0 0.02589914327635329 0.026412600385243665 0 0.025545743774163736 0.027428276478154903 0 0.026752343594681042 0.027154162618132298 0 0.026199039527100055 0.028146514035525854 0 0.026973380746582318 0.028590803974688727 0 0.026624569442358074 0.027331492144949742 0 0.026958754232811584 0.028497368623582785 0 0.026199039527100055 0.028146514035525854 0 0.025545743774163736 0.027428276478154903 0 0.025305183395830051 0.02893180155047162 0 0.026752343594681042 0.027154162618132298 0 0.026199039527100055 0.028146514035525854 0 0.025545743774163736 0.027428276478154903 0 0.026199039527100055 0.028146514035525854 0 0.025305183395830051 0.02893180155047162 0 0.026093048812886759 0.029098554288532384 0 0.026093048812886759 0.029098554288532384 0 0.026973380746582318 0.028590803974688727 0 0.026765255523256849 0.029946733960070242 0 0.026199039527100055 0.028146514035525854 0 0.026093048812886759 0.029098554288532384 0 0.026973380746582318 0.028590803974688727 0 0.026973380746582318 0.028590803974688727 0 0.027580591728903037 0.028917779838307438 0 0.026765255523256849 0.029946733960070242 0 0.026973380746582318 0.028590803974688727 0 0.027580591728903037 0.028917779838307438 0 0.027619048988189825 0.028225425241291076 0 0.026300501442330631 0.030828458878293302 0 0.025639860890232957 0.03102431084415247 0 0.027580591728903037 0.028917779838307438 0 0.027619048988189825 0.028225425241291076 0 0.028082182841095562 0.02806779671643006 0 0.027619048988189825 0.028225425241291076 0 0.027899068661948797 0.027933306454403568 0 0.028082182841095562 0.02806779671643006 0 0.027619048988189825 0.028225425241291076 0 0.027793261227204828 0.027694645594834987 0 0.027899068661948797 0.027933306454403568 0 0.027396445409610247 0.027626024168245812 0 0.027619048988189825 0.028225425241291076 0 0.027143429176667441 0.028013487797514228 0 0.027396445409610247 0.027626024168245812 0 0.027619048988189825 0.028225425241291076 0 0.027793261227204828 0.027694645594834987 0 0.026973380746582318 0.028590803974688727 0 0.027619048988189825 0.028225425241291076 0 0.027143429176667441 0.028013487797514228 0 0.027396445409610247 0.027626024168245812 0 0.026509692467677023 0.027484253125529268 0 0.027143429176667441 0.028013487797514228 0 0.026509692467677023 0.027484253125529268 0 0.026973380746582318 0.028590803974688727 0 0.027143429176667441 0.028013487797514228 0 0.024927838851754855 0.03214858700689667 0 0.025143617397823878 0.03230365794281826 0 0.025130121173131337 0.031865303434189515 0 0.024927838851754855 0.03214858700689667 0 0.024857163907672834 0.032470557294555849 0 0.025143617397823878 0.03230365794281826 0 0.024927838851754855 0.03214858700689667 0 0.02464148184652323 0.032416204876272031 0 0.024857163907672834 0.032470557294555849 0 0.024803516851916868 0.032878223860230898 0 0.024857163907672834 0.032470557294555849 0 0.024404903177992338 0.032797583321275206 0 0.02464148184652323 0.032416204876272031 0 0.024857163907672834 0.032470557294555849 0 0.024404903177992338 0.032797583321275206 0 0.024803516851916868 0.032878223860230898 0 0.024857163907672834 0.032470557294555849 0 0.025143617397823878 0.03230365794281826 0 0.026300501442330631 0.030828458878293302 0 0.025853872823153174 0.031146512238463743 0 0.026093048812886759 0.029098554288532384 0 0.026765255523256849 0.029946733960070242 0 0.025196174642970408 0.0300088774836102 0 0.025305183395830051 0.02893180155047162 0 0.026093048812886759 0.029098554288532384 0 0.025196174642970408 0.0300088774836102 0 0.026765255523256849 0.029946733960070242 0 0.025196174642970408 0.0300088774836102 0 0.025262706412358511 0.031250622683741125 0 0.025143617397823878 0.03230365794281826 0 0.025262706412358511 0.031250622683741125 0 0.025130121173131337 0.031865303434189515 0 0.025853872823153174 0.031146512238463743 0 0.025302577674686154 0.03130068778615662 0 0.025130121173131337 0.031865303434189515 0 0.02509170559483101 0.031876696535836954 0 0.025057800041084051 0.032012343517391913 0 0.025262706412358511 0.031250622683741125 0 0.025130121173131337 0.031865303434189515 0 0.02509170559483101 0.031876696535836954 0 0.02509170559483101 0.031876696535836954 0 0.025054180944910784 0.032110474624030765 0 0.025057800041084051 0.032012343517391913 0 0.025262706412358511 0.031250622683741125 0 0.02509170559483101 0.031876696535836954 0 0.024761803892848901 0.031851863307571185 0 0.024761803892848901 0.031851863307571185 0 0.02492000253361179 0.032225651672941266 0 0.024481121209029445 0.0325349860243309 0 0.02509170559483101 0.031876696535836954 0 0.024761803892848901 0.031851863307571185 0 0.02492000253361179 0.032225651672941266 0 0.02492000253361179 0.032225651672941266 0 0.025054180944910784 0.032110474624030765 0 0.025030027870114577 0.032340504341422827 0 0.02509170559483101 0.031876696535836954 0 0.02492000253361179 0.032225651672941266 0 0.025054180944910784 0.032110474624030765 0 0.025029660919990013 0.032206078115021505 0 0.025054180944910784 0.032110474624030765 0 0.025030027870114577 0.032340504341422827 0 0.025029660919990013 0.032206078115021505 0 0.024970715045270035 0.032135196011227975 0 0.025054180944910784 0.032110474624030765 0 0.024970715045270035 0.032135196011227975 0 0.025054180944910784 0.032110474624030765 0 0.025057800041084051 0.032012343517391913 0 0.024927838851754855 0.03214858700689667 0 0.024970715045270035 0.032135196011227975 0 0.025057800041084051 0.032012343517391913 0 0.024927838851754855 0.03214858700689667 0 0.025130121173131337 0.031865303434189515 0 0.025057800041084051 0.032012343517391913 0 0.024803846402078548 0.032229915174898718 0 0.024827891610656867 0.032207835351847389 0 0.02449451050370316 0.032368631963657357 0 0.024927838851754855 0.03214858700689667 0 0.024970715045270035 0.032135196011227975 0 0.024803846402078548 0.032229915174898718 0 0.024927838851754855 0.03214858700689667 0 0.02464148184652323 0.032416204876272031 0 0.024803846402078548 0.032229915174898718 0 0.02464148184652323 0.032416204876272031 0 0.024803846402078548 0.032229915174898718 0 0.02449451050370316 0.032368631963657357 0 0.024827891610656867 0.032207835351847389 0 0.024958546698120938 0.03220178448188192 0 0.025019171613824987 0.032216896770989586 0 0.024970715045270035 0.032135196011227975 0 0.024803846402078548 0.032229915174898718 0 0.024827891610656867 0.032207835351847389 0 0.024970715045270035 0.032135196011227975 0 0.024827891610656867 0.032207835351847389 0 0.024958546698120938 0.03220178448188192 0 0.025029660919990013 0.032206078115021505 0 0.024970715045270035 0.032135196011227975 0 0.024958546698120938 0.03220178448188192 0 0.025029660919990013 0.032206078115021505 0 0.024958546698120938 0.03220178448188192 0 0.02501766475667995 0.032233665722011126 0 0.025019171613824987 0.032216896770989586 0 0.025058604048158368 0.032322444925420878 0 0.025189741214564763 0.032813642461159392 0 0.024958546698120938 0.03220178448188192 0 0.02501766475667995 0.032233665722011126 0 0.025019171613824987 0.032216896770989586 0 0.02501766475667995 0.032233665722011126 0 0.025019171613824987 0.032216896770989586 0 0.025058604048158368 0.032322444925420878 0 0.025030027870114577 0.032340504341422827 0 0.025058604048158368 0.032322444925420878 0 0.025189741214564763 0.032813642461159392 0 0.025029660919990013 0.032206078115021505 0 0.02501766475667995 0.032233665722011126 0 0.025058604048158368 0.032322444925420878 0 0.025029660919990013 0.032206078115021505 0 0.025030027870114577 0.032340504341422827 0 0.025058604048158368 0.032322444925420878 0 0.025030027870114577 0.032340504341422827 0 0.025189741214564763 0.032813642461159392 0 0.024852977066054837 0.032726059926610526 0 0.017814578752612137 0.038729268803469774 0 0.018232002682126346 0.037630837624728228 0 0.017304699969841783 0.037232433846563003 0 0.017814578752612137 0.038729268803469774 0 0.018985522563150895 0.037226422760207434 0 0.018232002682126346 0.037630837624728228 0 0.020087982120590115 0.035412875355431105 0 0.021086382392960373 0.035669078709231222 0 0.021086382392960373 0.035669078709231222 0 0.017911722017326479 0.03769295447199103 0 0.018945355195672364 0.037252213502730024 0 0.018232002682126346 0.037630837624728228 0 0.018316452964237256 0.036962580930728163 0 0.018232002682126346 0.037630837624728228 0 0.018316452964237256 0.036962580930728163 0 0.017304699969841783 0.037232433846563003 0 0.017845566376421058 0.036297815705437615 0 0.018316452964237256 0.036962580930728163 0 0.017304699969841783 0.037232433846563003 0 0.017845566376421058 0.036297815705437615 0 0.01881613483447174 0.036539222826179468 0 0.018803295193317537 0.035816932915647373 0 0.017845566376421058 0.036297815705437615 0 0.018316452964237256 0.036962580930728163 0 0.01881613483447174 0.036539222826179468 0 0.018945355195672364 0.037252213502730024 0 0.019596431270393542 0.036425990110819977 0 0.01881613483447174 0.036539222826179468 0 0.021086382392960373 0.035669078709231222 0 0.022837515101202608 0.034815042251936774 0 0.018945355195672364 0.037252213502730024 0 0.018316452964237256 0.036962580930728163 0 0.01881613483447174 0.036539222826179468 0 0.019010340296859565 0.037175211321488544 0 0.019596431270393542 0.036425990110819977 0 0.020342579278367075 0.036496046661820526 0 0.021086382392960373 0.035669078709231222 0 0.019124157748640902 0.037150798029023616 0 0.019596431270393542 0.036425990110819977 0 0.01881613483447174 0.036539222826179468 0 0.018803295193317537 0.035816932915647373 0 0.019330444670632906 0.034999977236189091 0 0.018803295193317537 0.035816932915647373 0 0.020026366283908314 0.035738820834277263 0 0.019596431270393542 0.036425990110819977 0 0.018803295193317537 0.035816932915647373 0 0.020026366283908314 0.035738820834277263 0 0.017845566376421058 0.036297815705437615 0 0.018803295193317537 0.035816932915647373 0 0.017405847105379318 0.034999977964591512 0 0.019330444670632906 0.034999977236189091 0 0.018803295193317537 0.035816932915647373 0 0.017405847105379318 0.034999977964591512 0 0.020845752608913679 0.035748811933382592 0 0.021762470124669569 0.035758232389959586 0 0.020342579278367075 0.036496046661820526 0 0.020845752608913679 0.035748811933382592 0 0.021762470124669569 0.035758232389959586 0 0.021255009912269255 0.034999982070270906 0 0.020845752608913679 0.035748811933382592 0 0.021255009912269255 0.034999982070270906 0 0.020026366283908314 0.035738820834277263 0 0.019330444670632906 0.034999977236189091 0 0.021255009912269255 0.034999982070270906 0 0.020026366283908314 0.035738820834277263 0 0.020845752608913679 0.035748811933382592 0 0.020026366283908314 0.035738820834277263 0 0.020342579278367075 0.036496046661820526 0 0.019596431270393542 0.036425990110819977 0 0.020026366283908314 0.035738820834277263 0 0.020342579278367075 0.036496046661820526 0 0.024311659044384148 0.034152199904222316 0 0.024942141213639836 0.033362245680983851 0 0.024474624864256871 0.03316158500235953 0 0.022967199558832817 0.034980933437094408 0 0.022837515101202608 0.034815042251936774 0 0.024474624864256871 0.03316158500235953 0 0.024852977066054837 0.032726059926610526 0 0.024481121209029445 0.0325349860243309 0 0.024942141213639836 0.033362245680983851 0 0.024474624864256871 0.03316158500235953 0 0.024852977066054837 0.032726059926610526 0 0.025189741214564763 0.032813642461159392 0 0.024942141213639836 0.033362245680983851 0 0.024852977066054837 0.032726059926610526 0 0.02492000253361179 0.032225651672941266 0 0.025030027870114577 0.032340504341422827 0 0.024852977066054837 0.032726059926610526 0 0.02492000253361179 0.032225651672941266 0 0.024852977066054837 0.032726059926610526 0 0.024481121209029445 0.0325349860243309 0 0.024481121209029445 0.0325349860243309 0 0.023863108460566641 0.032989612382218106 0 0.023890875818851885 0.032065549451250619 0 0.023863108460566641 0.032989612382218106 0 0.023110911209157457 0.032931028685211736 0 0.023890875818851885 0.032065549451250619 0 0.023863108460566641 0.032989612382218106 0 0.024185317418852881 0.033815944669332694 0 0.023256381769097514 0.033653565994436169 0 0.023863108460566641 0.032989612382218106 0 0.023256381769097514 0.033653565994436169 0 0.023110911209157457 0.032931028685211736 0 0.024481121209029445 0.0325349860243309 0 0.023863108460566641 0.032989612382218106 0 0.024185317418852881 0.033815944669332694 0 0.024474624864256871 0.03316158500235953 0 0.024481121209029445 0.0325349860243309 0 0.023681405715573926 0.033401684474247066 0 0.024423394430559221 0.032618997717129276 0 0.02394824807549006 0.033599481679357592 0 0.024311659044384148 0.034152199904222316 0 0.024474624864256871 0.03316158500235953 0 0.023681405715573926 0.033401684474247066 0 0.024185317418852881 0.033815944669332694 0 0.023522935880301223 0.034360492315707022 0 0.023256381769097514 0.033653565994436169 0 0.024185317418852881 0.033815944669332694 0 0.023522935880301223 0.034360492315707022 0 0.023373832738386516 0.035000260848543685 0 0.02394824807549006 0.033599481679357592 0 0.023370920388464164 0.034999635729390667 0 0.023522935880301223 0.034360492315707022 0 0.023546853455991869 0.034999539728023457 0 0.02282635699577627 0.03424593499248367 0 0.023681405715573926 0.033401684474247066 0 0.023185610406869794 0.03499803912490753 0 0.023364896807343379 0.035001600377068801 0 0.023522935880301223 0.034360492315707022 0 0.023546853455991869 0.034999539728023457 0 0.023373832738386516 0.035000260848543685 0 0.022967199558832817 0.034980933437094408 0 0.023179618074088418 0.034999946403260554 0 0.021762470124669569 0.035758232389959586 0 0.021255009912269255 0.034999982070270906 0 0.023179607510785311 0.035000000174005855 0 0.024311659044384148 0.034152199904222316 0 0.023681405715573926 0.033401684474247066 0 0.023185610406869794 0.03499803912490753 0 0.02550846838375451 0.034999974439079325 0 0.024921437642202976 0.036135005991197136 0 0.026334264520949977 0.03599788095864026 0 0.023549798481973298 0.035000107838725723 0 0.023831471385285415 0.035138813255595695 0 0.023549654722561132 0.034999998209633544 0 0.02550846838375451 0.034999974439079325 0 0.024921437642202976 0.036135005991197136 0 0.023522935880301223 0.034360492315707022 0 0.02282635699577627 0.03424593499248367 0 0.023256381769097514 0.033653565994436169 0 0.02282635699577627 0.03424593499248367 0 0.023256381769097514 0.033653565994436169 0 0.022104367215548194 0.033545386790176365 0 0.023831471385285415 0.035138813255595695 0 0.02436382357248849 0.03570616303623645 0 0.024921437642202976 0.036135005991197136 0 0.026273892319599441 0.0372455450917678 0 0.026334264520949977 0.03599788095864026 0 0.023110911209157457 0.032931028685211736 0 0.02219071311666039 0.032791995680700535 0 0.022104367215548194 0.033545386790176365 0 0.023256381769097514 0.033653565994436169 0 0.023110911209157457 0.032931028685211736 0 0.022104367215548194 0.033545386790176365 0 0.023110911209157457 0.032931028685211736 0 0.022870812864483028 0.03218548161888974 0 0.023890875818851885 0.032065549451250619 0 0.02219071311666039 0.032791995680700535 0 0.022870812864483028 0.03218548161888974 0 0.021991497992711079 0.032159814575956985 0 0.023110911209157457 0.032931028685211736 0 0.02219071311666039 0.032791995680700535 0 0.022870812864483028 0.03218548161888974 0 0.022706067974543921 0.031401122355159142 0 0.022870812864483028 0.03218548161888974 0 0.021991497992711079 0.032159814575956985 0 0.02309956580021973 0.031091240001351571 0 0.022164040489398795 0.031710923908919789 0 0.023405509270014203 0.030794380226900675 0 0.023036195529691456 0.03026421064397581 0 0.023468044607372146 0.030377759844406483 0 0.023405509270014203 0.030794380226900675 0 0.023036195529691456 0.03026421064397581 0 0.022526877320744682 0.030875867432779334 0 0.023405509270014203 0.030794380226900675 0 0.023468044607372146 0.030377759844406483 0 0.023686353142128198 0.030490910777731414 0 0.022706067974543921 0.031401122355159142 0 0.02350831451332485 0.031358746780170373 0 0.023686353142128198 0.030490910777731414 0 0.02309956580021973 0.031091240001351571 0 0.023628890815808996 0.030538557162861708 0 0.022706067974543921 0.031401122355159142 0 0.02350831451332485 0.031358746780170373 0 0.022870812864483028 0.03218548161888974 0 0.02350831451332485 0.031358746780170373 0 0.022870812864483028 0.03218548161888974 0 0.023890875818851885 0.032065549451250619 0 0.024761803892848901 0.031851863307571185 0 0.024481121209029445 0.0325349860243309 0 0.023890875818851885 0.032065549451250619 0 0.025262706412358511 0.031250622683741125 0 0.024761803892848901 0.031851863307571185 0 0.024308911838244216 0.030895155868936083 0 0.024761803892848901 0.031851863307571185 0 0.023890875818851885 0.032065549451250619 0 0.024308911838244216 0.030895155868936083 0 0.02350831451332485 0.031358746780170373 0 0.024308911838244216 0.030895155868936083 0 0.023686353142128198 0.030490910777731414 0 0.02350831451332485 0.031358746780170373 0 0.023890875818851885 0.032065549451250619 0 0.024308911838244216 0.030895155868936083 0 0.024308911838244216 0.030895155868936083 0 0.023863824421648326 0.029953055312477644 0 0.023686353142128198 0.030490910777731414 0 0.025196174642970408 0.0300088774836102 0 0.025262706412358511 0.031250622683741125 0 0.024308911838244216 0.030895155868936083 0 0.025196174642970408 0.0300088774836102 0 0.024308911838244216 0.030895155868936083 0 0.024405883869359088 0.029587255287960877 0 0.025305183395830051 0.02893180155047162 0 0.025196174642970408 0.0300088774836102 0 0.024405883869359088 0.029587255287960877 0 0.024308911838244216 0.030895155868936083 0 0.024405883869359088 0.029587255287960877 0 0.023863824421648326 0.029953055312477644 0 0.023590786161796953 0.029050242358646804 0 0.024405883869359088 0.029587255287960877 0 0.023863824421648326 0.029953055312477644 0 0.024255070715165642 0.028484811915160436 0 0.023690031876589121 0.029725535556059134 0 0.024955496806369857 0.027929456814480388 0 0.023819656540608403 0.028548603582623532 0 0.023640259187741371 0.029845645248533722 0 0.023590786161796953 0.029050242358646804 0 0.023863824421648326 0.029953055312477644 0 0.023640259187741371 0.029845645248533722 0 0.023819656540608403 0.028548603582623532 0 0.023640259187741371 0.029845645248533722 0 0.023080334090203169 0.02942745146918916 0 0.022892266828053068 0.028248305955988748 0 0.023819656540608403 0.028548603582623532 0 0.023080334090203169 0.02942745146918916 0 0.023640259187741371 0.029845645248533722 0 0.023080334090203169 0.02942745146918916 0 0.023036195529691456 0.03026421064397581 0 0.023640259187741371 0.029845645248533722 0 0.023036195529691456 0.03026421064397581 0 0.023468044607372146 0.030377759844406483 0 0.023863824421648326 0.029953055312477644 0 0.023640259187741371 0.029845645248533722 0 0.023686353142128198 0.030490910777731414 0 0.023640259187741371 0.029845645248533722 0 0.023468044607372146 0.030377759844406483 0 0.023686353142128198 0.030490910777731414 0 0.029832029566254237 0.02490912009410361 0 0.027917347421627041 0.02685173812872383 0 0.027686210245856047 0.027910213247743346 0 0.028440962494988956 0.024778663747245612 0 0.029832029566254237 0.02490912009410361 0 0.027917347421627041 0.02685173812872383 0 0.025400603039186679 0.027071301526569419 0 0.028737200635432177 0.031809595855008602 0 0.023036195529691456 0.03026421064397581 0 0.022178332814201767 0.029892891196095204 0 0.022526877320744682 0.030875867432779334 0 0.023080334090203169 0.02942745146918916 0 0.023036195529691456 0.03026421064397581 0 0.022178332814201767 0.029892891196095204 0 0.022892266828053068 0.028248305955988748 0 0.023080334090203169 0.02942745146918916 0 0.022178332814201767 0.029892891196095204 0 0.031525949884429486 0.02220053483521902 0 0.029832029566254237 0.02490912009410361 0 0.0295938672935574 0.023091345751169542 0 0.027298371765817717 0.02527221131165365 0 0.025400603039186679 0.027071301526569419 0 0.028440962494988956 0.024778663747245612 0 0.029832029566254237 0.02490912009410361 0 0.0295938672935574 0.023091345751169542 0 0.028440962494988956 0.024778663747245612 0 0.0295938672935574 0.023091345751169542 0 0.027819373906718878 0.023189560346330313 0 0.034206621526159144 0.025479302467412823 0 0.032833556544712622 0.025912137823839998 0 0.033874948373391438 0.027468888639791474 0 0.030822496486457761 0.024080233282201643 0 0.033481151174579372 0.028641910174032545 0 0.028440962494988956 0.024778663747245612 0 0.027819373906718878 0.023189560346330313 0 0.027361156908224282 0.025883872175304197 0 0.033400569714258921 0.024464539162796652 0 0.034206621526159144 0.025479302467412823 0 0.032833556544712622 0.025912137823839998 0 0.035478622131602515 0.030250594501992759 0 0.034760396867195682 0.030782858466699668 0 0.034745839296087419 0.030177061435232546 0 0.034941350798765432 0.029423382045863169 0 0.035478622131602515 0.030250594501992759 0 0.034745839296087419 0.030177061435232546 0 0.035478622131602515 0.030250594501992759 0 0.03531817462565328 0.031249271217406407 0 0.035998223219741832 0.031065974722188951 0 0.035478622131602515 0.030250594501992759 0 0.03531817462565328 0.031249271217406407 0 0.034760396867195682 0.030782858466699668 0 0.028440962494988956 0.024778663747245612 0 0.027361156908224282 0.025883872175304197 0 0.02800264301261771 0.026720250064407418 0 0.03432074907532235 0.028404060801265705 0 0.033481151174579372 0.028641910174032545 0 0.02851299899527919 0.024691663068403598 0 0.030014141722763711 0.028401920113354153 0 0.03531817462565328 0.031249271217406407 0 0.035998223219741832 0.031065974722188951 0 0.035672356565514332 0.031419406144286212 0 0.033481151174579372 0.028641910174032545 0 0.030014141722763711 0.028401920113354153 0 0.030014141722763711 0.028401920113354153 0 0.028737200635432177 0.031809595855008602 0 0.036201648225624758 0.031328432553769735 0 0.035862087399438893 0.031734939224119754 0 0.036111792217054496 0.031744477049029787 0 0.035923199311058467 0.0309661264130997 0 0.036201648225624758 0.031328432553769735 0 0.035862087399438893 0.031734939224119754 0 0.035998223219741832 0.031065974722188951 0 0.035672356565514332 0.031419406144286212 0 0.035862087399438893 0.031734939224119754 0 0.033481151174579372 0.028641910174032545 0 0.035518706363207898 0.032128674016717672 0 0.035672356565514332 0.031419406144286212 0 0.035862087399438893 0.031734939224119754 0 0.035525963038002678 0.031605987718939091 0 0.03531817462565328 0.031249271217406407 0 0.035245941280182255 0.032015593707249906 0 0.034675616368339587 0.031630111688765013 0 0.03531817462565328 0.031249271217406407 0 0.035525963038002678 0.031605987718939091 0 0.035245941280182255 0.032015593707249906 0 0.03531817462565328 0.031249271217406407 0 0.035672356565514332 0.031419406144286212 0 0.035525963038002678 0.031605987718939091 0 0.035862087399438893 0.031734939224119754 0 0.035525963038002678 0.031605987718939091 0 0.035245941280182255 0.032015593707249906 0 0.035245941280182255 0.032015593707249906 0 0.035431488199667932 0.032719740208536532 0 0.034719868644656461 0.032497860458709442 0 0.035862087399438893 0.031734939224119754 0 0.035245941280182255 0.032015593707249906 0 0.035431488199667932 0.032719740208536532 0 0.028737200635432177 0.031809595855008602 0 0.033680556240635109 0.034869626563303342 0 0.035862087399438893 0.031734939224119754 0 0.036111792217054496 0.031744477049029787 0 0.035431488199667932 0.032719740208536532 0 0.030654777313401042 0.036371516008662938 0 0.030650524692143036 0.036667859941582212 0 0.030655539353738943 0.036636095745617707 0 0.028737200635432177 0.031809595855008602 0 0.02589543101695747 0.034524339265574668 0 0.021769436985712175 0.030801570717823495 0 0.022102674417760836 0.03128647133721054 0 0.021682061756920844 0.031576080060540516 0 0.022102674417760836 0.03128647133721054 0 0.021682061756920844 0.031576080060540516 0 0.021943708146096214 0.031704977876306065 0 0.022102674417760836 0.03128647133721054 0 0.022166290353394322 0.031585431332739798 0 0.021943708146096214 0.031704977876306065 0 0.022102674417760836 0.03128647133721054 0 0.022443898430242564 0.03152781276017444 0 0.022526877320744682 0.030875867432779334 0 0.022102674417760836 0.03128647133721054 0 0.022443898430242564 0.03152781276017444 0 0.022166290353394322 0.031585431332739798 0 0.022178332814201767 0.029892891196095204 0 0.021769436985712175 0.030801570717823495 0 0.022526877320744682 0.030875867432779334 0 0.021769436985712175 0.030801570717823495 0 0.022102674417760836 0.03128647133721054 0 0.022526877320744682 0.030875867432779334 0 0.023405509270014203 0.030794380226900675 0 0.022526877320744682 0.030875867432779334 0 0.022829078362213855 0.031413356267070758 0 0.022443898430242564 0.03152781276017444 0 0.022526877320744682 0.030875867432779334 0 0.022829078362213855 0.031413356267070758 0 0.02219071311666039 0.032791995680700535 0 0.021991497992711079 0.032159814575956985 0 0.021330111807902865 0.032860063734158076 0 0.022443898430242564 0.03152781276017444 0 0.022829078362213855 0.031413356267070758 0 0.022326984127799487 0.03196063171878423 0 0.022164040489398795 0.031710923908919789 0 0.023996917017820273 0.03378740492250764 0 0.022166290353394322 0.031585431332739798 0 0.022195642928722021 0.03184515490785534 0 0.021943708146096214 0.031704977876306065 0 0.022443898430242564 0.03152781276017444 0 0.022166290353394322 0.031585431332739798 0 0.022195642928722021 0.03184515490785534 0 0.022443898430242564 0.03152781276017444 0 0.022326984127799487 0.03196063171878423 0 0.022195642928722021 0.03184515490785534 0 0.023996917017820273 0.03378740492250764 0 0.022665458905266975 0.032546082535230801 0 0.022195642928722021 0.03184515490785534 0 0.022014876343353747 0.031995246017213007 0 0.021943708146096214 0.031704977876306065 0 0.022328120641355361 0.03196433418237659 0 0.022195642928722021 0.03184515490785534 0 0.022014876343353747 0.031995246017213007 0 0.023996917017820273 0.03378740492250764 0 0.025548504743121595 0.035123599937603139 0 0.022328120641355361 0.03196433418237659 0 0.021788154291136851 0.032597200107658826 0 0.022014876343353747 0.031995246017213007 0 0.027587113441775279 0.038343735570667246 0 0.027501061794860712 0.036589776111882716 0 0.029090164118891145 0.036978527492230004 0 0.023996917017820273 0.03378740492250764 0 0.02436382357248849 0.03570616303623645 0 0.02219071311666039 0.032791995680700535 0 0.021330111807902865 0.032860063734158076 0 0.022104367215548194 0.033545386790176365 0 0.027587113441775279 0.038343735570667246 0 0.026273892319599441 0.0372455450917678 0 0.027501061794860712 0.036589776111882716 0 0.026273892319599441 0.0372455450917678 0 0.027501061794860712 0.036589776111882716 0 0.026334264520949977 0.03599788095864026 0 0.027501061794860712 0.036589776111882716 0 0.028426312336613628 0.035877547927528966 0 0.029090164118891145 0.036978527492230004 0 0.027501061794860712 0.036589776111882716 0 0.027467224706157672 0.034999992660072858 0 0.028426312336613628 0.035877547927528966 0 0.02550846838375451 0.034999974439079325 0 0.027467224706157672 0.034999992660072858 0 0.026334264520949977 0.03599788095864026 0 0.027501061794860712 0.036589776111882716 0 0.027467224706157672 0.034999992660072858 0 0.026334264520949977 0.03599788095864026 0 0.029398679109055279 0.035858210494546315 0 0.029883660247438312 0.036286634802574748 0 0.030714981216190328 0.035534321789336319 0 0.029426112958584903 0.034999963035370819 0 0.029398679109055279 0.035858210494546315 0 0.030714981216190328 0.035534321789336319 0 0.029426112958584903 0.034999963035370819 0 0.031385081220495686 0.034999890243763564 0 0.030714981216190328 0.035534321789336319 0 0.026943252841196669 0.034664654079074458 0 0.030698027615171007 0.035117146251304313 0 0.027467224706157672 0.034999992660072858 0 0.029426112958584903 0.034999963035370819 0 0.028426312336613628 0.035877547927528966 0 0.029426112958584903 0.034999963035370819 0 0.028426312336613628 0.035877547927528966 0 0.029398679109055279 0.035858210494546315 0 0.029398679109055279 0.035858210494546315 0 0.029090164118891145 0.036978527492230004 0 0.029883660247438312 0.036286634802574748 0 0.021788154291136851 0.032597200107658826 0 0.021562876243733691 0.032898341636043701 0 0.021617472876061174 0.032265549121897781 0 0.028426312336613628 0.035877547927528966 0 0.029398679109055279 0.035858210494546315 0 0.029090164118891145 0.036978527492230004 0 0.025548504743121595 0.035123599937603139 0 0.026943252841196669 0.034664654079074458 0 0.026943252841196669 0.034664654079074458 0 0.026070380447435263 0.034279986327932187 0 0.03050801274611457 0.035990913598289584 0 0.030774568860160834 0.036355195835797896 0 0.030579038913199463 0.036561043794235505 0 0.03050801274611457 0.035990913598289584 0 0.031020814566680596 0.036126613229133291 0 0.030714981216190328 0.035534321789336319 0 0.03050801274611457 0.035990913598289584 0 0.030774568860160834 0.036355195835797896 0 0.031020814566680596 0.036126613229133291 0 0.030774568860160834 0.036355195835797896 0 0.030579038913199463 0.036561043794235505 0 0.030987263014646139 0.036654164390805592 0 0.021788154291136851 0.032597200107658826 0 0.021812045953969524 0.0320174238727838 0 0.022014876343353747 0.031995246017213007 0 0.021788154291136851 0.032597200107658826 0 0.021617472876061174 0.032265549121897781 0 0.021812045953969524 0.0320174238727838 0 0.021617472876061174 0.032265549121897781 0 0.021812045953969524 0.0320174238727838 0 0.021682061756920844 0.031576080060540516 0 0.030650524692143036 0.036667859941582212 0 0.030579038913199463 0.036561043794235505 0 0.030655539353738943 0.036636095745617707 0 0.026070380447435263 0.034279986327932187 0 0.02589543101695747 0.034524339265574668 0 0.021812045953969524 0.0320174238727838 0 0.022014876343353747 0.031995246017213007 0 0.021943708146096214 0.031704977876306065 0 0.021812045953969524 0.0320174238727838 0 0.021682061756920844 0.031576080060540516 0 0.021943708146096214 0.031704977876306065 0 0.030650524692143036 0.036667859941582212 0 0.030579038913199463 0.036561043794235505 0 0.030987263014646139 0.036654164390805592 0 0.033680556240635109 0.034869626563303342 0 0.032779045458825033 0.035146725570502253 0 0.034133712365247385 0.03285857345695227 0 0.034712069414834401 0.033673486467711143 0 0.034719868644656461 0.032497860458709442 0 0.035431488199667932 0.032719740208536532 0 0.034712069414834401 0.033673486467711143 0 0.034719868644656461 0.032497860458709442 0 0.034133712365247385 0.03285857345695227 0 0.033690155503328684 0.033610428594551024 0 0.033395559642807229 0.032436298266750735 0 0.034133712365247385 0.03285857345695227 0 0.033690155503328684 0.033610428594551024 0 0.034712069414834401 0.033673486467711143 0 0.033690155503328684 0.033610428594551024 0 0.034712069414834401 0.033673486467711143 0 0.033968459485261011 0.03452832838300833 0 0.032779045458825033 0.035146725570502253 0 0.033005540554803522 0.035305074752293199 0 0.030774568860160834 0.036355195835797896 0 0.030987263014646139 0.036654164390805592 0 0.031020814566680596 0.036126613229133291 0 0.030987263014646139 0.036654164390805592 0 0.031020814566680596 0.036126613229133291 0 0.031977746230435623 0.036177220122216774 0 0.031020814566680596 0.036126613229133291 0 0.031977746230435623 0.036177220122216774 0 0.031421579420176808 0.03574704247823729 0 0.031385081220495686 0.034999890243763564 0 0.031421579420176808 0.03574704247823729 0 0.033343254489490125 0.034999975070400861 0 0.031977746230435623 0.036177220122216774 0 0.031421579420176808 0.03574704247823729 0 0.033343254489490125 0.034999975070400861 0 0.033005540554803522 0.035305074752293199 0 0.033343687959338945 0.0350000209810079 0 0.031385081220495686 0.034999890243763564 0 0.030714981216190328 0.035534321789336319 0 0.031421579420176808 0.03574704247823729 0 0.031020814566680596 0.036126613229133291 0 0.030714981216190328 0.035534321789336319 0 0.031421579420176808 0.03574704247823729 0 0.034997632179479037 0.035000019898524866 0 0.035460782915658254 0.033622405608692077 0 0.035000053858537751 0.032310081802825852 0 0.034997632179479037 0.035000019898524866 0 0.033841650257465369 0.034998708243882307 0 0.035460782915658254 0.033622405608692077 0 0.033837186525769912 0.03499936588385081 0 0.034242669066508177 0.033945716037936065 0 0.03334782678156293 0.035000986624486585 0 0.033832793258166433 0.034998833825787994 0 0.033144624895977387 0.034515539185799082 0 0.033968459485261011 0.03452832838300833 0 0.03334782678156293 0.035000986624486585 0 0.033144624895977387 0.034515539185799082 0 0.033690155503328684 0.033610428594551024 0 0.033968459485261011 0.03452832838300833 0 0.033144624895977387 0.034515539185799082 0 0.035460782915658254 0.033622405608692077 0 0.035000053858537751 0.032310081802825852 0 0.035700241261899163 0.031677121262522298 0 0.035000053858537751 0.032310081802825852 0 0.035700241261899163 0.031677121262522298 0 0.035493966426235202 0.030002634444983838 0 0.034242669066508177 0.033945716037936065 0 0.034247927018095529 0.03255010995978818 0 0.033690155503328684 0.033610428594551024 0 0.033144624895977387 0.034515539185799082 0 0.032817178718953545 0.033444400379652434 0 0.033690155503328684 0.033610428594551024 0 0.032817178718953545 0.033444400379652434 0 0.033395559642807229 0.032436298266750735 0 0.034247927018095529 0.03255010995978818 0 0.034013295561229825 0.031246808166390166 0 0.035000053858537751 0.032310081802825852 0 0.035493966426235202 0.030002634444983838 0 0.034999930796691898 0.028526132262786115 0 0.032817178718953545 0.033444400379652434 0 0.032612367525803432 0.032341856844796193 0 0.033395559642807229 0.032436298266750735 0 0.035493966426235202 0.030002634444983838 0 0.034999930796691898 0.028526132262786115 0 0.035277694364331848 0.028331485028076041 0 0.032612367525803432 0.032341856844796193 0 0.033115551629063059 0.031377568955821153 0 0.032466752573175078 0.031251040579094461 0 0.034013295561229825 0.031246808166390166 0 0.034374904110768503 0.029384856357092121 0 0.033115551629063059 0.031377568955821153 0 0.033395559642807229 0.032436298266750735 0 0.033682100852126293 0.031620433890643944 0 0.033115551629063059 0.031377568955821153 0 0.033682100852126293 0.031620433890643944 0 0.03361754435163266 0.031097368759134759 0 0.032612367525803432 0.032341856844796193 0 0.033115551629063059 0.031377568955821153 0 0.033395559642807229 0.032436298266750735 0 0.034133712365247385 0.03285857345695227 0 0.034117731997251127 0.032071501516031498 0 0.034719868644656461 0.032497860458709442 0 0.034133712365247385 0.03285857345695227 0 0.033395559642807229 0.032436298266750735 0 0.034117731997251127 0.032071501516031498 0 0.034117731997251127 0.032071501516031498 0 0.034719868644656461 0.032497860458709442 0 0.034675616368339587 0.031630111688765013 0 0.035245941280182255 0.032015593707249906 0 0.034719868644656461 0.032497860458709442 0 0.034675616368339587 0.031630111688765013 0 0.034117731997251127 0.032071501516031498 0 0.034675616368339587 0.031630111688765013 0 0.034189032255976776 0.031177808554452215 0 0.034117731997251127 0.032071501516031498 0 0.033682100852126293 0.031620433890643944 0 0.034189032255976776 0.031177808554452215 0 0.033395559642807229 0.032436298266750735 0 0.034117731997251127 0.032071501516031498 0 0.033682100852126293 0.031620433890643944 0 0.033682100852126293 0.031620433890643944 0 0.034189032255976776 0.031177808554452215 0 0.03361754435163266 0.031097368759134759 0 0.034189032255976776 0.031177808554452215 0 0.033835910314174822 0.030627162034654067 0 0.034312205857605742 0.030574335173735798 0 0.034189032255976776 0.031177808554452215 0 0.033835910314174822 0.030627162034654067 0 0.03361754435163266 0.031097368759134759 0 0.034675616368339587 0.031630111688765013 0 0.034189032255976776 0.031177808554452215 0 0.034760396867195682 0.030782858466699668 0 0.03531817462565328 0.031249271217406407 0 0.034675616368339587 0.031630111688765013 0 0.034760396867195682 0.030782858466699668 0 0.034189032255976776 0.031177808554452215 0 0.034760396867195682 0.030782858466699668 0 0.034312205857605742 0.030574335173735798 0 0.034745839296087419 0.030177061435232546 0 0.034312205857605742 0.030574335173735798 0 0.034037680116668842 0.030104591491602946 0 0.034760396867195682 0.030782858466699668 0 0.034745839296087419 0.030177061435232546 0 0.034312205857605742 0.030574335173735798 0 0.035266291823323581 0.028346929903454686 0 0.034897469096775872 0.029110231049637756 0 0.033835910314174822 0.030627162034654067 0 0.034067291511900216 0.030084255795220734 0 0.033261612437832093 0.030682373142395671 0 0.037286129537825993 0.025722902086878684 0 0.03780789574762513 0.026565163514491928 0 0.036530924757344596 0.027464426565491924 0 0.033780334431808008 0.03097488669492552 0 0.035266291823323581 0.028346929903454686 0 0.033835910314174822 0.030627162034654067 0 0.034312205857605742 0.030574335173735798 0 0.034037680116668842 0.030104591491602946 0 0.036215766444801047 0.026121054415429463 0 0.037286129537825993 0.025722902086878684 0 0.036530924757344596 0.027464426565491924 0 0.036215766444801047 0.026121054415429463 0 0.035881922019844463 0.026907949495547132 0 0.036530924757344596 0.027464426565491924 0 0.035113418133616119 0.027290914023459914 0 0.035881922019844463 0.026907949495547132 0 0.036530924757344596 0.027464426565491924 0 0.034999999573134974 0.026207279678399344 0 0.035139857236073511 0.027268446595300023 0 0.03499999725194524 0.02736688163549671 0 0.034999930055674089 0.026207253962550772 0 0.036215766444801047 0.026121054415429463 0 0.035881922019844463 0.026907949495547132 0 0.034999930055674089 0.026207253962550772 0 0.035113418133616119 0.027290914023459914 0 0.035881922019844463 0.026907949495547132 0 0.035000043151958704 0.026207727724175844 0 0.035067764525390614 0.02715581541113328 0 0.035113418133616119 0.027290914023459914 0 0.035245109440135564 0.028375375987315266 0 0.036530924757344596 0.027464426565491924 0 0.034999996099475676 0.028526488550603329 0 0.03499999725194524 0.02736688163549671 0 0.035278681659122679 0.028330770058305883 0 0.034374904110768503 0.029384856357092121 0 0.034897469096775872 0.029110231049637756 0 0.033115551629063059 0.031377568955821153 0 0.032466752573175078 0.031251040579094461 0 0.033261612437832093 0.030682373142395671 0 0.035139857236073511 0.027268446595300023 0 0.03499999725194524 0.02736688163549671 0 0.035278681659122679 0.028330770058305883 0 0.035067764525390614 0.02715581541113328 0 0.034374904110768503 0.029384856357092121 0 0.034999890664560704 0.028527344004752708 0 0.034374904110768503 0.029384856357092121 0 0.033115551629063059 0.031377568955821153 0 0.03361754435163266 0.031097368759134759 0 0.033261612437832093 0.030682373142395671 0 0.033835910314174822 0.030627162034654067 0 0.03361754435163266 0.031097368759134759 0 0.033261612437832093 0.030682373142395671 0 0.0057523144949271536 0.043483148956152448 0 0.004775680872668618 0.043893131632932181 0 0.0056427453610281 0.044742110338550502 0 0.004775680872668618 0.043893131632932181 0 0.0041238903141971013 0.04486176383825189 0 0.003828257038631858 0.043685310365678472 0 0.004775680872668618 0.043893131632932181 0 0.0045317180802773452 0.042701343217770901 0 0.003828257038631858 0.043685310365678472 0 0.00034601791040839381 0.038639264604892691 0 0.0046482531211233273 0.040979977744903077 0 0.004775680872668618 0.043893131632932181 0 0.0041238903141971013 0.04486176383825189 0 0.0056427453610281 0.044742110338550502 0 -0.0027134474894055416 0.036547476657795244 0 -0.0021842286837265019 0.035944585016731326 0 -0.0028352519750310897 0.035889596317788867 0 -0.0027134474894055416 0.036547476657795244 0 -0.0035732018225492928 0.035999384985211512 0 -0.0028352519750310897 0.035889596317788867 0 0.00034601791040839381 0.038639264604892691 0 -0.0010600665411073006 0.036406711598380735 0 0.0024408113289184998 0.037546673536986402 0 0.0032578804624877572 0.036490195215142837 0 0.0039150606144163673 0.03842607956982183 0 0.00096411240231048727 0.0366701029700559 0 0.0024408113289184998 0.037546673536986402 0 0.0032578804624877572 0.036490195215142837 0 0.0032578804624877572 0.036490195215142837 0 0.0055445626865054509 0.036328727318149213 0 0.0039150606144163673 0.03842607956982183 0 0.0072874625241716416 0.037415411285103749 0 0.003681233764272018 0.033785371974393824 0 0.0046482531211233273 0.040979977744903077 0 0.0072874625241716416 0.037415411285103749 0 0.0056427453610281 0.044742110338550502 0 0.0071420177343842622 0.044584867460995027 0 0.0069213089153433117 0.043864023593532558 0 0.0072874625241716416 0.037415411285103749 0 0.0078894082732907031 0.038433931540696409 0 0.0071420177343842622 0.044584867460995027 0 0.0076621967500713822 0.044041991919580657 0 0.0083292806632470021 0.044444328946069332 0 0.0078118077103846908 0.032401495993029661 0 0.0079203015807183287 0.0325328438893593 0 0.0080063879273888552 0.032383953393063131 0 0.0081046097462471045 0.043524955241891372 0 0.0069213089153433117 0.043864023593532558 0 0.0082393980233626766 0.042627807157650938 0 0.0076621967500713822 0.044041991919580657 0 0.0081046097462471045 0.043524955241891372 0 0.0069213089153433117 0.043864023593532558 0 0.0076621967500713822 0.044041991919580657 0 0.0081046097462471045 0.043524955241891372 0 0.0083292806632470021 0.044444328946069332 0 0.0071420177343842622 0.044584867460995027 0 0.0076621967500713822 0.044041991919580657 0 0.0069213089153433117 0.043864023593532558 0 0.0057523144949271536 0.043483148956152448 0 0.0056427453610281 0.044742110338550502 0 0.0069213089153433117 0.043864023593532558 0 0.0057523144949271536 0.043483148956152448 0 0.0069213089153433117 0.043864023593532558 0 0.0066614516469983851 0.043262617182959165 0 0.0069213089153433117 0.043864023593532558 0 0.0066614516469983851 0.043262617182959165 0 0.0073744367435895934 0.043134158583012429 0 0.0057523144949271536 0.043483148956152448 0 0.0066614516469983851 0.043262617182959165 0 0.0065900635834877175 0.04256619407156402 0 0.0066614516469983851 0.043262617182959165 0 0.0065900635834877175 0.04256619407156402 0 0.0073744367435895934 0.043134158583012429 0 0.0065900635834877175 0.04256619407156402 0 0.0073744367435895934 0.043134158583012429 0 0.0072772518488598472 0.042503176754584454 0 0.0069213089153433117 0.043864023593532558 0 0.0073744367435895934 0.043134158583012429 0 0.0082199761129665098 0.042834340877147534 0 0.0065919314500151984 0.044370849139748439 0 0.0089706896092840369 0.041080529440656911 0 0.0073744367435895934 0.043134158583012429 0 0.0077079725310038637 0.042732853878265517 0 0.0082199761129665098 0.042834340877147534 0 0.0073744367435895934 0.043134158583012429 0 0.0072772518488598472 0.042503176754584454 0 0.0077079725310038637 0.042732853878265517 0 0.0072772518488598472 0.042503176754584454 0 0.0077079725310038637 0.042732853878265517 0 0.0079628387145902774 0.042455356551957348 0 0.0088143658841565355 0.041890799109636633 0 0.0089706896092840369 0.041080529440656911 0 0.0077079725310038637 0.042732853878265517 0 0.0079628387145902774 0.042455356551957348 0 0.0082199761129665098 0.042834340877147534 0 0.0072750892559415963 0.04186365815849824 0 0.0081217405643525253 0.04164324872705491 0 0.0081385973821955244 0.040804095318498941 0 0.0079628387145902774 0.042455356551957348 0 0.0072750892559415963 0.04186365815849824 0 0.0081217405643525253 0.04164324872705491 0 0.0072772518488598472 0.042503176754584454 0 0.0079628387145902774 0.042455356551957348 0 0.0072750892559415963 0.04186365815849824 0 0.0065900635834877175 0.04256619407156402 0 0.00629022339314442 0.041406559924577348 0 0.0055520101502214729 0.042254940035709086 0 0.0065900635834877175 0.04256619407156402 0 0.0072750892559415963 0.04186365815849824 0 0.00629022339314442 0.041406559924577348 0 0.0065900635834877175 0.04256619407156402 0 0.0072772518488598472 0.042503176754584454 0 0.0072750892559415963 0.04186365815849824 0 0.00629022339314442 0.041406559924577348 0 0.0055520101502214729 0.042254940035709086 0 0.0045790895186967519 0.041092263014487047 0 0.0057523144949271536 0.043483148956152448 0 0.0055520101502214729 0.042254940035709086 0 0.0045317180802773452 0.042701343217770901 0 0.0057523144949271536 0.043483148956152448 0 0.0065900635834877175 0.04256619407156402 0 0.0055520101502214729 0.042254940035709086 0 0.0057523144949271536 0.043483148956152448 0 0.004775680872668618 0.043893131632932181 0 0.0045317180802773452 0.042701343217770901 0 0.0045317180802773452 0.042701343217770901 0 0.0035523071008935611 0.042634651860602932 0 0.003828257038631858 0.043685310365678472 0 0.0045317180802773452 0.042701343217770901 0 0.0035753331270721618 0.041622837498738879 0 0.0035523071008935611 0.042634651860602932 0 0.0055520101502214729 0.042254940035709086 0 0.0045317180802773452 0.042701343217770901 0 0.0045790895186967519 0.041092263014487047 0 0.0045317180802773452 0.042701343217770901 0 0.0035753331270721618 0.041622837498738879 0 0.0045790895186967519 0.041092263014487047 0 0.0035753331270721618 0.041622837498738879 0 0.0026676880063566666 0.042301729711215486 0 0.0035523071008935611 0.042634651860602932 0 0.0026676880063566666 0.042301729711215486 0 0.0015193413180782189 0.042227768559064321 0 0.001960056317196349 0.041206178880059098 0 0.0035753331270721618 0.041622837498738879 0 0.0026676880063566666 0.042301729711215486 0 0.001960056317196349 0.041206178880059098 0 0.002208784196024501 0.042974408479463093 0 0.0011041210695200167 0.043117118908968077 0 0.0026373927734679829 0.043996288070632619 0 0.0026676880063566666 0.042301729711215486 0 0.002208784196024501 0.042974408479463093 0 0.0015193413180782189 0.042227768559064321 0 0.0026676880063566666 0.042301729711215486 0 0.002208784196024501 0.042974408479463093 0 0.0030639522322536356 0.043176785671831246 0 0.002208784196024501 0.042974408479463093 0 0.0030639522322536356 0.043176785671831246 0 0.0026373927734679829 0.043996288070632619 0 0.0030639522322536356 0.043176785671831246 0 0.0035523071008935611 0.042634651860602932 0 0.003828257038631858 0.043685310365678472 0 0.0026676880063566666 0.042301729711215486 0 0.0030639522322536356 0.043176785671831246 0 0.0035523071008935611 0.042634651860602932 0 -0.00061592442247201148 0.042179912348666318 0 -0.00054168995241181438 0.041507016751555589 0 -5.4332261671925069e-05 0.041756299741455234 0 -0.00054168995241181438 0.041507016751555589 0 -0.00022939340548808283 0.04125749446489712 0 -0.00074567469819648944 0.040978858725929164 0 -0.00054168995241181438 0.041507016751555589 0 -0.00022939340548808283 0.04125749446489712 0 -5.4332261671925069e-05 0.041756299741455234 0 -0.00022939340548808283 0.04125749446489712 0 -5.4332261671925069e-05 0.041756299741455234 0 0.00059455873896456101 0.041370084422577461 0 -0.00022939340548808283 0.04125749446489712 0 0.00059455873896456101 0.041370084422577461 0 -0.00032983450840255886 0.040583362384133133 0 0.00051927644585306003 0.042226463126341547 0 -5.4332261671925069e-05 0.041756299741455234 0 0.00059455873896456101 0.041370084422577461 0 -0.00061592442247201148 0.042179912348666318 0 0.00051927644585306003 0.042226463126341547 0 -5.4332261671925069e-05 0.041756299741455234 0 0.00059455873896456101 0.041370084422577461 0 0.0015193413180782189 0.042227768559064321 0 0.001960056317196349 0.041206178880059098 0 0.00051927644585306003 0.042226463126341547 0 0.00059455873896456101 0.041370084422577461 0 0.0015193413180782189 0.042227768559064321 0 0.002208784196024501 0.042974408479463093 0 0.0015193413180782189 0.042227768559064321 0 0.0011041210695200167 0.043117118908968077 0 0.00051927644585306003 0.042226463126341547 0 0.0015193413180782189 0.042227768559064321 0 0.0011041210695200167 0.043117118908968077 0 -0.0018456917742357927 0.039369548576502642 0 -0.0026041768480248545 0.040827204575562451 0 -0.0027762987855946839 0.040111013289856438 0 -0.00061592442247201148 0.042179912348666318 0 0.00051927644585306003 0.042226463126341547 0 0.0011041210695200167 0.043117118908968077 0 -0.0017615746908197533 0.039212061449230305 0 -0.0014159837115987448 0.039217871278940337 0 -0.0021687001277859645 0.039547808845839805 0 -0.00093080189019010531 0.038644878877649773 0 -0.0018456917742357927 0.039369548576502642 0 -0.00093080189019010531 0.038644878877649773 0 -0.0018456917742357927 0.039369548576502642 0 -9.0920832114143856e-05 0.037853516700764277 0 -0.0012983001369604129 0.040835465866588372 0 3.2522130869675853e-05 0.040884881340181055 0 -0.0021687001277859645 0.039547808845839805 0 -0.0018456917742357927 0.039369548576502642 0 -0.0024154852796770513 0.039715030879770775 0 -0.00093080189019010531 0.038644878877649773 0 -9.0920832114143856e-05 0.037853516700764277 0 -0.00081516662137475794 0.037331896902822931 0 -9.0920832114143856e-05 0.037853516700764277 0 -0.00081516662137475794 0.037331896902822931 0 0.00044302949148178117 0.035857391141358712 0 -0.00081516662137475794 0.037331896902822931 0 -0.00083835621343606055 0.036124902937574324 0 0.00044302949148178117 0.035857391141358712 0 -0.0026041768480248545 0.040827204575562451 0 -0.0031895237787992756 0.041529654648947485 0 -0.0034536314911113356 0.041312484261308798 0 -0.0014159837115987448 0.039217871278940337 0 -0.0013895407051570485 0.038648401965877571 0 0.0030639522322536356 0.043176785671831246 0 0.003828257038631858 0.043685310365678472 0 0.0026373927734679829 0.043996288070632619 0 0.0041238903141971013 0.04486176383825189 0 0.003828257038631858 0.043685310365678472 0 0.0026373927734679829 0.043996288070632619 0 3.2522130869675853e-05 0.040884881340181055 0 0.00064743417560741187 0.041165777468441127 0 -0.00093080189019010531 0.038644878877649773 0 -0.00081516662137475794 0.037331896902822931 0 -0.0016472263229890991 0.037661184232450851 0 -0.00081516662137475794 0.037331896902822931 0 -0.0015953935208688362 0.036667470886454015 0 -0.00083835621343606055 0.036124902937574324 0 -0.00081516662137475794 0.037331896902822931 0 -0.0016472263229890991 0.037661184232450851 0 -0.0015953935208688362 0.036667470886454015 0 0.00034601791040839381 0.038639264604892691 0 -0.0028591142995132907 0.036431088010438227 0 -0.0027134474894055416 0.036547476657795244 0 -0.0015953935208688362 0.036667470886454015 0 -0.0021842286837265019 0.035944585016731326 0 -0.0029043073407202043 0.036800442917524503 0 -0.0016472263229890991 0.037661184232450851 0 -0.0015953935208688362 0.036667470886454015 0 0.00034601791040839381 0.038639264604892691 0 0.00064743417560741187 0.041165777468441127 0 -0.0015953935208688362 0.036667470886454015 0 -0.0021842286837265019 0.035944585016731326 0 -0.0015288989220507913 0.035443692681964539 0 -0.0021842286837265019 0.035944585016731326 0 -0.0021108494202297049 0.035026727449256626 0 -0.002541320755869676 0.035518487496958927 0 -0.0021842286837265019 0.035944585016731326 0 -0.0021108494202297049 0.035026727449256626 0 -0.0015288989220507913 0.035443692681964539 0 -0.0021108494202297049 0.035026727449256626 0 -0.0015288989220507913 0.035443692681964539 0 -0.0016547086716606071 0.034862086881573842 0 -0.0015288989220507913 0.035443692681964539 0 -0.00120275775087109 0.034582216965537489 0 -0.00054559375180867286 0.034965925986118016 0 -0.00083835621343606055 0.036124902937574324 0 -0.0015288989220507913 0.035443692681964539 0 -0.00054559375180867286 0.034965925986118016 0 -0.0015953935208688362 0.036667470886454015 0 -0.00083835621343606055 0.036124902937574324 0 -0.0015288989220507913 0.035443692681964539 0 -0.0015288989220507913 0.035443692681964539 0 -0.00120275775087109 0.034582216965537489 0 -0.0016547086716606071 0.034862086881573842 0 -0.00120275775087109 0.034582216965537489 0 -0.00045074719289962416 0.033987845562058201 0 -0.00054559375180867286 0.034965925986118016 0 -0.00120275775087109 0.034582216965537489 0 -0.00045074719289962416 0.033987845562058201 0 -0.0011744672789255307 0.033792392961462601 0 -0.0011744672789255307 0.033792392961462601 0 -0.0017732845121107212 0.034401652510649812 0 -0.0018143118131253042 0.033792823266887907 0 -0.00120275775087109 0.034582216965537489 0 -0.0011744672789255307 0.033792392961462601 0 -0.0017732845121107212 0.034401652510649812 0 -0.002315602294724277 0.034426164184665389 0 -0.0018143118131253042 0.033792823266887907 0 -0.0024241809206800862 0.033698607153293085 0 -0.002315602294724277 0.034426164184665389 0 -0.0017732845121107212 0.034401652510649812 0 -0.0018143118131253042 0.033792823266887907 0 -0.0021108494202297049 0.035026727449256626 0 -0.002315602294724277 0.034426164184665389 0 -0.0017732845121107212 0.034401652510649812 0 -0.00120275775087109 0.034582216965537489 0 -0.0016547086716606071 0.034862086881573842 0 -0.0017732845121107212 0.034401652510649812 0 -0.0021108494202297049 0.035026727449256626 0 -0.0016547086716606071 0.034862086881573842 0 -0.0017732845121107212 0.034401652510649812 0 -0.00083835621343606055 0.036124902937574324 0 0.00044302949148178117 0.035857391141358712 0 -0.00054559375180867286 0.034965925986118016 0 0.00044302949148178117 0.035857391141358712 0 -0.00054559375180867286 0.034965925986118016 0 0.00044585086485722308 0.033854642488527001 0 -0.00045074719289962416 0.033987845562058201 0 -0.00054559375180867286 0.034965925986118016 0 0.00044585086485722308 0.033854642488527001 0 -0.0036449850284331819 0.042117082405145091 0 -0.0042046343092263004 0.042415849882180362 0 -0.0039248721316866592 0.041890326029451995 0 -0.0031895237787992756 0.041529654648947485 0 -0.0036449850284331819 0.042117082405145091 0 -0.0039248721316866592 0.041890326029451995 0 -0.0013895407051570485 0.038648401965877571 0 -0.0016250918502308386 0.037953149487509268 0 -0.0036449850284331819 0.042117082405145091 0 -0.0040196768006628796 0.042554175059533898 0 -0.0042046343092263004 0.042415849882180362 0 -0.0016250918502308386 0.037953149487509268 0 -0.002072700509591378 0.037424983526738197 0 -0.00045074719289962416 0.033987845562058201 0 0.00044585086485722308 0.033854642488527001 0 -0.00011720613021355636 0.032148330801445503 0 -0.00045074719289962416 0.033987845562058201 0 -0.00011720613021355636 0.032148330801445503 0 -0.0006382121698173288 0.032977932680943706 0 -0.0045530897893192165 0.042807517437231303 0 -0.0040196768006628796 0.042554175059533898 0 -0.0042046343092263004 0.042415849882180362 0 -0.001256586988132199 0.03307159076706926 0 -0.0015068210061181494 0.032619213022695041 0 -0.00056892902612912114 0.032072908974728413 0 -0.0015068210061181494 0.032619213022695041 0 -0.0019282932347496999 0.033306255023417747 0 -0.0027876236721136667 0.033152956998137618 0 -0.001256586988132199 0.03307159076706926 0 -0.0015068210061181494 0.032619213022695041 0 -0.0019282932347496999 0.033306255023417747 0 -0.001256586988132199 0.03307159076706926 0 -0.0018143118131253042 0.033792823266887907 0 -0.0019282932347496999 0.033306255023417747 0 -0.0018143118131253042 0.033792823266887907 0 -0.0019282932347496999 0.033306255023417747 0 -0.0024241809206800862 0.033698607153293085 0 -0.0011744672789255307 0.033792392961462601 0 -0.001256586988132199 0.03307159076706926 0 -0.0018143118131253042 0.033792823266887907 0 -0.0011744672789255307 0.033792392961462601 0 -0.001256586988132199 0.03307159076706926 0 -0.0006382121698173288 0.032977932680943706 0 -0.00045074719289962416 0.033987845562058201 0 -0.0011744672789255307 0.033792392961462601 0 -0.0006382121698173288 0.032977932680943706 0 -0.001256586988132199 0.03307159076706926 0 -0.0006382121698173288 0.032977932680943706 0 -0.00056892902612912114 0.032072908974728413 0 -0.00011720613021355636 0.032148330801445503 0 -0.0006382121698173288 0.032977932680943706 0 -0.00056892902612912114 0.032072908974728413 0 -0.00058538829982316722 0.031975679368476409 0 -0.00011720613021355636 0.032148330801445503 0 -0.00056892902612912114 0.032072908974728413 0 -0.00035990618688226103 0.031156980537374812 0 -0.0015068210061181494 0.032619213022695041 0 -0.0030265962077048285 0.033088128525869481 0 -0.00075534059370853011 0.030512164737853033 0 0.00087319253712008307 0.031610042555242725 0 -0.00035990618688226103 0.031156980537374812 0 -0.0015068210061181494 0.032619213022695041 0 -0.00056892902612912114 0.032072908974728413 0 0.0032061006917363361 0.030209436169694043 0 -0.00035990618688226103 0.031156980537374812 0 0.0022039582184155853 0.026725055390144879 0 0.0060915172295511726 0.02954881055448421 0 0.0032061006917363361 0.030209436169694043 0 0.0054170746967997802 0.027080238569879095 0 0.0032061006917363361 0.030209436169694043 0 0.0054170746967997802 0.027080238569879095 0 0.0022039582184155853 0.026725055390144879 0 0.0048524331793439665 0.033518277296467038 0 0.0031567064439704836 0.033214700947936847 0 0.0040750799392304526 0.032047210559655634 0 0.0048524331793439665 0.033518277296467038 0 0.0040750799392304526 0.032047210559655634 0 0.0055211135618972998 0.032418785249783651 0 0.0055155603037816206 0.030208581449936999 0 0.00087319253712008307 0.031610042555242725 0 0.00087319253712008307 0.031610042555242725 0 -0.000289079482817092 0.033611936842463497 0 -0.0015068210061181494 0.032619213022695041 0 -0.0027876236721136667 0.033152956998137618 0 -0.0030265962077048285 0.033088128525869481 0 0.00029727803204341924 0.031604667113796683 0 0.00087319253712008307 0.031610042555242725 0 -0.0019282932347496999 0.033306255023417747 0 -0.0027876236721136667 0.033152956998137618 0 -0.0024241809206800862 0.033698607153293085 0 -0.0029544808803887608 0.033130726356426374 0 -0.0024241809206800862 0.033698607153293085 0 -0.0028794520870093604 0.034223664756773825 0 -0.0027876236721136667 0.033152956998137618 0 -0.0029544808803887608 0.033130726356426374 0 -0.0024241809206800862 0.033698607153293085 0 -0.0029544808803887608 0.033130726356426374 0 -0.0028794520870093604 0.034223664756773825 0 -0.0037540468244786373 0.034377359302500465 0 -0.002315602294724277 0.034426164184665389 0 -0.0024241809206800862 0.033698607153293085 0 -0.0028794520870093604 0.034223664756773825 0 -0.0021108494202297049 0.035026727449256626 0 -0.002315602294724277 0.034426164184665389 0 -0.0029681581753410839 0.035117628726119413 0 -0.002315602294724277 0.034426164184665389 0 -0.0028794520870093604 0.034223664756773825 0 -0.0029681581753410839 0.035117628726119413 0 -0.0028794520870093604 0.034223664756773825 0 -0.0037540468244786373 0.034377359302500465 0 -0.0029681581753410839 0.035117628726119413 0 0.0040750799392304526 0.032047210559655634 0 0.0049818989957282241 0.030884017899140175 0 0.0055211135618972998 0.032418785249783651 0 -0.000289079482817092 0.033611936842463497 0 0.003681233764272018 0.033785371974393824 0 -0.0037540468244786373 0.034377359302500465 0 -0.0036870747898576505 0.035232629481309258 0 -0.0029681581753410839 0.035117628726119413 0 -0.0037540468244786373 0.034377359302500465 0 -0.0036870747898576505 0.035232629481309258 0 -0.0044426560082458464 0.035421480136396476 0 -0.0010600665411073006 0.036406711598380735 0 0.003681233764272018 0.033785371974393824 0 -0.0035732018225492928 0.035999384985211512 0 -0.0036870747898576505 0.035232629481309258 0 -0.0044426560082458464 0.035421480136396476 0 -0.0035732018225492928 0.035999384985211512 0 -0.0028352519750310897 0.035889596317788867 0 -0.0029681581753410839 0.035117628726119413 0 -0.0021842286837265019 0.035944585016731326 0 -0.0028352519750310897 0.035889596317788867 0 -0.002541320755869676 0.035518487496958927 0 -0.0028352519750310897 0.035889596317788867 0 -0.002541320755869676 0.035518487496958927 0 -0.0029681581753410839 0.035117628726119413 0 -0.0021108494202297049 0.035026727449256626 0 -0.002541320755869676 0.035518487496958927 0 -0.0029681581753410839 0.035117628726119413 0 -0.0035732018225492928 0.035999384985211512 0 -0.0036870747898576505 0.035232629481309258 0 -0.0029681581753410839 0.035117628726119413 0 0.0079203015807183287 0.0325328438893593 0 0.0076308120520207556 0.032596240429856871 0 0.0078666862930222552 0.032687462238301573 0 0.0079203015807183287 0.0325328438893593 0 0.0078666862930222552 0.032687462238301573 0 0.0080758244149574613 0.032649137255693003 0 0.0078118077103846908 0.032401495993029661 0 0.0079203015807183287 0.0325328438893593 0 0.0076308120520207556 0.032596240429856871 0 0.003681233764272018 0.033785371974393824 0 0.0076011123554633646 0.032144792871286305 0 0.0049818989957282241 0.030884017899140175 0 0.0055211135618972998 0.032418785249783651 0 0.0065588399396142123 0.031834062070470903 0 0.0065588399396142123 0.031834062070470903 0 0.0069943863468490373 0.032839016595742239 0 0.0080394026934795231 0.032814559915789451 0 0.0055211135618972998 0.032418785249783651 0 0.0065588399396142123 0.031834062070470903 0 0.0069943863468490373 0.032839016595742239 0 0.0069943863468490373 0.032839016595742239 0 0.006528111214605988 0.033780834724791972 0 0.0081052969673678452 0.033972194520168551 0 0.0055211135618972998 0.032418785249783651 0 0.0069943863468490373 0.032839016595742239 0 0.006528111214605988 0.033780834724791972 0 0.0048524331793439665 0.033518277296467038 0 0.0055211135618972998 0.032418785249783651 0 0.006528111214605988 0.033780834724791972 0 0.0055155603037816206 0.030208581449936999 0 0.0072401732515323825 0.0306553928531519 0 0.0060915172295511726 0.02954881055448421 0 0.0054170746967997802 0.027080238569879095 0 0.0085149128142515372 0.027411146062141765 0 0.010658812267990352 0.028875943545941012 0 0.0086739297671551314 0.029874475920394963 0 0.0085149128142515372 0.027411146062141765 0 0.0086739297671551314 0.029874475920394963 0 0.0060915172295511726 0.02954881055448421 0 0.0085149128142515372 0.027411146062141765 0 0.0072401732515323825 0.0306553928531519 0 0.010670808954421762 0.029796495002707656 0 0.010658812267990352 0.028875943545941012 0 0.0085149128142515372 0.027411146062141765 0 0.010890978340215941 0.027712690207572215 0 0.010856914660148787 0.028214133723793382 0 0.010670808954421762 0.029796495002707656 0 0.012009049992926285 0.028638238087803448 0 0.010658812267990352 0.028875943545941012 0 0.010949525350923899 0.027481375742296144 0 0.010670808954421762 0.029796495002707656 0 0.01156521189577275 0.030785447600599678 0 0.0069943863468490373 0.032839016595742239 0 0.0081052969673678452 0.033972194520168551 0 0.0080394026934795231 0.032814559915789451 0 0.0081052969673678452 0.033972194520168551 0 0.0080394026934795231 0.032814559915789451 0 0.0082359196608000288 0.032745686244013833 0 0.014890549220925966 0.028134156897533482 0 0.014884610348187215 0.028289791617881966 0 0.014803030583034943 0.028200457408283874 0 0.014884610348187215 0.028289791617881966 0 0.014803030583034943 0.028200457408283874 0 0.014788598537507887 0.028338155010220252 0 0.014890549220925966 0.028134156897533482 0 0.014803030583034943 0.028200457408283874 0 0.014774696871010474 0.028078913183580436 0 0.010670808954421762 0.029796495002707656 0 0.014212456544798954 0.027926855024556822 0 0.012009049992926285 0.028638238087803448 0 0.010949525350923899 0.027481375742296144 0 0.012910481486433235 0.027741221338404658 0 0.014774696871010474 0.028078913183580436 0 0.014746865924898824 0.028130761322961988 0 0.014699583794624148 0.028003624508780901 0 0.013590148539554267 0.028997430270560034 0 0.012910481486433235 0.027741221338404658 0 0.014724728915888444 0.02803925568691654 0 0.014774696871010474 0.028078913183580436 0 0.014699583794624148 0.028003624508780901 0 0.014724728915888444 0.02803925568691654 0 0.014212456544798954 0.027926855024556822 0 0.014510424880566697 0.028012458923512271 0 0.014746865924898824 0.028130761322961988 0 0.014699583794624148 0.028003624508780901 0 0.014695437092667272 0.028143655636389712 0 0.014803030583034943 0.028200457408283874 0 0.014774696871010474 0.028078913183580436 0 0.014746865924898824 0.028130761322961988 0 0.015380417314602327 0.02789860708966117 0 0.016004392158772373 0.028016200603605188 0 0.015909379525286847 0.027623694813247991 0 0.016057450998169388 0.028484607354111634 0 0.015583734480865337 0.028351737980678533 0 0.016004392158772373 0.028016200603605188 0 0.015583734480865337 0.028351737980678533 0 0.015380417314602327 0.02789860708966117 0 0.016004392158772373 0.028016200603605188 0 0.015583734480865337 0.028351737980678533 0 0.015380417314602327 0.02789860708966117 0 0.015143861238048315 0.028296269856190912 0 0.015380417314602327 0.02789860708966117 0 0.015143861238048315 0.028296269856190912 0 0.014724728915888444 0.02803925568691654 0 0.015380417314602327 0.02789860708966117 0 0.014699583794624148 0.028003624508780901 0 0.014724728915888444 0.02803925568691654 0 0.014881117340684083 0.028471099244406266 0 0.015143861238048315 0.028296269856190912 0 0.014724728915888444 0.02803925568691654 0 0.014699583794624148 0.028003624508780901 0 0.014612291033130671 0.028084662231482708 0 0.014695437092667272 0.028143655636389712 0 0.014989137498045988 0.027797982831779935 0 0.014543997713593514 0.028014250927925387 0 0.015380417314602327 0.02789860708966117 0 0.015796467408822963 0.027110849162008583 0 0.015909379525286847 0.027623694813247991 0 0.015380417314602327 0.02789860708966117 0 0.014699583794624148 0.028003624508780901 0 0.015796467408822963 0.027110849162008583 0 0.014662686801202255 0.028230576716022877 0 0.014725406572931712 0.028240810964292463 0 0.014678130021917164 0.028416322970575097 0 0.014662686801202255 0.028230576716022877 0 0.014695437092667272 0.028143655636389712 0 0.014725406572931712 0.028240810964292463 0 0.014612291033130671 0.028084662231482708 0 0.014662686801202255 0.028230576716022877 0 0.014695437092667272 0.028143655636389712 0 0.014803030583034943 0.028200457408283874 0 0.014746865924898824 0.028130761322961988 0 0.014725406572931712 0.028240810964292463 0 0.014746865924898824 0.028130761322961988 0 0.014695437092667272 0.028143655636389712 0 0.014725406572931712 0.028240810964292463 0 0.014803030583034943 0.028200457408283874 0 0.014725406572931712 0.028240810964292463 0 0.014788598537507887 0.028338155010220252 0 0.014725406572931712 0.028240810964292463 0 0.014678130021917164 0.028416322970575097 0 0.014788598537507887 0.028338155010220252 0 0.014588318202332303 0.028347989222563531 0 0.015479067103781238 0.028557487687759439 0 0.014662686801202255 0.028230576716022877 0 0.015552402306335854 0.029272300666432247 0 0.014404099051621202 0.029049468691049272 0 0.015552402306335854 0.029272300666432247 0 0.014791236792363273 0.02993623308975454 0 0.015695654516433979 0.030421015954430825 0 0.015552402306335854 0.029272300666432247 0 0.014791236792363273 0.02993623308975454 0 0.014404099051621202 0.029049468691049272 0 0.015552402306335854 0.029272300666432247 0 0.016351240785442658 0.030398288979784287 0 0.015695654516433979 0.030421015954430825 0 0.015479067103781238 0.028557487687759439 0 0.013037705627793382 0.031514107136802347 0 0.014678130021917164 0.028416322970575097 0 0.014868252633822564 0.028488183710833701 0 0.014809737025519992 0.028734577713947773 0 0.0081915202484861144 0.032575285449931948 0 0.0081073713129575179 0.03247040516013136 0 0.0082434486483695234 0.032426188901903817 0 0.011481445265951377 0.030363334762913679 0 0.013037705627793382 0.031514107136802347 0 0.0079203015807183287 0.0325328438893593 0 0.0080758244149574613 0.032649137255693003 0 0.0081073713129575179 0.03247040516013136 0 0.0081915202484861144 0.032575285449931948 0 0.0080758244149574613 0.032649137255693003 0 0.0081073713129575179 0.03247040516013136 0 0.0078666862930222552 0.032687462238301573 0 0.0080394026934795231 0.032814559915789451 0 0.0080758244149574613 0.032649137255693003 0 0.0076011123554633646 0.032144792871286305 0 0.0078650392679164537 0.032767502175972608 0 0.0080394026934795231 0.032814559915789451 0 0.0082359196608000288 0.032745686244013833 0 0.0080758244149574613 0.032649137255693003 0 0.014884610348187215 0.028289791617881966 0 0.014868252633822564 0.028488183710833701 0 0.014788598537507887 0.028338155010220252 0 0.0082359196608000288 0.032745686244013833 0 0.0081915202484861144 0.032575285449931948 0 0.0080758244149574613 0.032649137255693003 0 0.014678130021917164 0.028416322970575097 0 0.014868252633822564 0.028488183710833701 0 0.014788598537507887 0.028338155010220252 0 0.01156521189577275 0.030785447600599678 0 0.011481445265951377 0.030363334762913679 0 0.028254633680798273 0.024769283165438558 0 0.028867718206005304 0.025471725552232052 0 0.028211031664936884 0.025343445018948536 0 0.027688875749338569 0.025205334205009918 0 0.028254633680798273 0.024769283165438558 0 0.028211031664936884 0.025343445018948536 0 0.02696950344134429 0.023594765094774942 0 0.026860160865030177 0.023524343719297326 0 0.026819202449510932 0.023624058498984295 0 0.027340035528977968 0.023887323685686867 0 0.027523929323441953 0.024052644642807541 0 0.026682223253396958 0.023710853038293213 0 0.026819202449510932 0.023624058498984295 0 0.026721416969881468 0.023580656255273686 0 0.026819202449510932 0.023624058498984295 0 0.026786865196373841 0.023527749423564764 0 0.026721416969881468 0.023580656255273686 0 0.026860160865030177 0.023524343719297326 0 0.026819202449510932 0.023624058498984295 0 0.026786865196373841 0.023527749423564764 0 0.027523929323441953 0.024052644642807541 0 0.027747208385075554 0.025179035286781806 0 0.026786865196373841 0.023527749423564764 0 0.026721416969881468 0.023580656255273686 0 0.026745369246196443 0.023489166320959116 0 0.026860160865030177 0.023524343719297326 0 0.026786865196373841 0.023527749423564764 0 0.026784411650782481 0.023469979564630906 0 0.026786865196373841 0.023527749423564764 0 0.026745369246196443 0.023489166320959116 0 0.026784411650782481 0.023469979564630906 0 0.023281822193790044 0.025892733470919214 0 0.022791602688965438 0.025506968270878005 0 0.023322043359785938 0.025208044325858384 0 0.020695450797474382 0.027243882559436657 0 0.026438567310440701 0.02520219094805469 0 0.025088647121107661 0.024270532530674738 0 0.026438567310440701 0.02520219094805469 0 0.023281822193790044 0.025892733470919214 0 0.023024338811676502 0.026037645262974609 0 0.022791602688965438 0.025506968270878005 0 0.023240145038355968 0.026564009657632042 0 0.023281822193790044 0.025892733470919214 0 0.023024338811676502 0.026037645262974609 0 0.020264247520293762 0.026768635086036281 0 0.020695450797474382 0.027243882559436657 0 0.017717185089345857 0.027796741107122293 0 0.016515732106179015 0.027530204817791351 0 0.017099828741418469 0.0263709391656646 0 0.017117226508806736 0.028606272111194705 0 0.017717185089345857 0.027796741107122293 0 0.016633117413383445 0.028247495410942878 0 0.017717185089345857 0.027796741107122293 0 0.016633117413383445 0.028247495410942878 0 0.016515732106179015 0.027530204817791351 0 0.016633117413383445 0.028247495410942878 0 0.016004392158772373 0.028016200603605188 0 0.016515732106179015 0.027530204817791351 0 0.016057450998169388 0.028484607354111634 0 0.016633117413383445 0.028247495410942878 0 0.016004392158772373 0.028016200603605188 0 0.016004392158772373 0.028016200603605188 0 0.015909379525286847 0.027623694813247991 0 0.016515732106179015 0.027530204817791351 0 0.015796467408822963 0.027110849162008583 0 0.016515732106179015 0.027530204817791351 0 0.017099828741418469 0.0263709391656646 0 0.015796467408822963 0.027110849162008583 0 0.015909379525286847 0.027623694813247991 0 0.016515732106179015 0.027530204817791351 0 0.014662686801202255 0.028230576716022877 0 0.014151404004203073 0.028279786543896252 0 0.014404099051621202 0.029049468691049272 0 0.014543997713593514 0.028014250927925387 0 0.020695450797474382 0.027243882559436657 0 0.014612291033130671 0.028084662231482708 0 0.014662686801202255 0.028230576716022877 0 0.014151404004203073 0.028279786543896252 0 0.020695450797474382 0.027243882559436657 0 0.020909827991531217 0.028444525222377986 0 0.027299851164799886 0.027547549732681871 0 0.027299666462464633 0.027485484168890309 0 0.027366719563432326 0.027474025075668956 0 0.027299666462464633 0.027485484168890309 0 0.027354465824628294 0.027414368938780496 0 0.027366719563432326 0.027474025075668956 0 0.027354465824628294 0.027414368938780496 0 0.027427810061608139 0.027384697844507006 0 0.027366719563432326 0.027474025075668956 0 0.027194481663778147 0.027356897136290706 0 0.027299666462464633 0.027485484168890309 0 0.027354465824628294 0.027414368938780496 0 0.020956715872484245 0.028291668349688538 0 0.020909827991531217 0.028444525222377986 0 0.027194481663778147 0.027356897136290706 0 0.027354465824628294 0.027414368938780496 0 0.027380207157810837 0.027336816372899645 0 0.027354465824628294 0.027414368938780496 0 0.027427810061608139 0.027384697844507006 0 0.027380207157810837 0.027336816372899645 0 0.027427810061608139 0.027384697844507006 0 0.027424491377939272 0.027446569025785215 0 0.027366719563432326 0.027474025075668956 0 0.028164165955851188 0.027575983097312476 0 0.028662483987073075 0.028164905777450486 0 0.028646273332635936 0.027028606318350367 0 0.028076639019649029 0.027035781754414942 0 0.028790788932290638 0.027051096163443363 0 0.027848303406466893 0.027535171308082543 0 0.028076639019649029 0.027035781754414942 0 0.027424491377939272 0.027446569025785215 0 0.027366719563432326 0.027474025075668956 0 0.027401662999823224 0.02750286471236308 0 0.027299851164799886 0.027547549732681871 0 0.027366719563432326 0.027474025075668956 0 0.027401662999823224 0.02750286471236308 0 0.028076639019649029 0.027035781754414942 0 0.026438567310440701 0.02520219094805469 0 0.028564371716643625 0.025759922382895813 0 0.028437654475285328 0.026076877409828711 0 0.028063136056552352 0.025957151837756473 0 0.027747208385075554 0.025179035286781806 0 0.028359617528069668 0.025897957477540586 0 0.026438567310440701 0.02520219094805469 0 0.027747208385075554 0.025179035286781806 0 0.027552710774800353 0.026358379255966055 0 0.027571301197794912 0.025338153627407687 0 0.026983972300158525 0.025677804302690586 0 0.028820453243880946 0.026047896930787965 0 0.028564371716643625 0.025759922382895813 0 0.028437654475285328 0.026076877409828711 0 0.028076639019649029 0.027035781754414942 0 0.027747208385075554 0.025179035286781806 0 0.028820453243880946 0.026047896930787965 0 0.028323228104611874 0.026558874720050672 0 0.028646273332635936 0.027028606318350367 0 0.028820453243880946 0.026047896930787965 0 0.028323228104611874 0.026558874720050672 0 0.028437654475285328 0.026076877409828711 0 0.028323228104611874 0.026558874720050672 0 0.027841801213992698 0.026481574978757496 0 0.028063136056552352 0.025957151837756473 0 0.028323228104611874 0.026558874720050672 0 0.028437654475285328 0.026076877409828711 0 0.028063136056552352 0.025957151837756473 0 0.028867718206005304 0.025471725552232052 0 0.028063136056552352 0.025957151837756473 0 0.028211031664936884 0.025343445018948536 0 0.027688875749338569 0.025205334205009918 0 0.028063136056552352 0.025957151837756473 0 0.028211031664936884 0.025343445018948536 0 0.027793261227204828 0.027694645594834987 0 0.027973127950440883 0.02739346767908768 0 0.028090953663251535 0.027752392087559703 0 0.027973127950440883 0.02739346767908768 0 0.028220566604621685 0.027439673182906705 0 0.028090953663251535 0.027752392087559703 0 0.027973127950440883 0.02739346767908768 0 0.028220566604621685 0.027439673182906705 0 0.028173593079184954 0.027188313238337855 0 0.028220566604621685 0.027439673182906705 0 0.028173593079184954 0.027188313238337855 0 0.028369345739999226 0.02723538118055446 0 0.027973127950440883 0.02739346767908768 0 0.028173593079184954 0.027188313238337855 0 0.02788944452461551 0.027034758868782684 0 0.028173593079184954 0.027188313238337855 0 0.02788944452461551 0.027034758868782684 0 0.028152817019737673 0.026847354399674159 0 0.028323228104611874 0.026558874720050672 0 0.027841801213992698 0.026481574978757496 0 0.028152817019737673 0.026847354399674159 0 0.027841801213992698 0.026481574978757496 0 0.02788944452461551 0.027034758868782684 0 0.028152817019737673 0.026847354399674159 0 0.028173593079184954 0.027188313238337855 0 0.028152817019737673 0.026847354399674159 0 0.028390046876038345 0.027013482078295296 0 0.028323228104611874 0.026558874720050672 0 0.028390046876038345 0.027013482078295296 0 0.028646273332635936 0.027028606318350367 0 0.028323228104611874 0.026558874720050672 0 0.028152817019737673 0.026847354399674159 0 0.028390046876038345 0.027013482078295296 0 0.028390046876038345 0.027013482078295296 0 0.028504378608266913 0.027119851843755885 0 0.028646273332635936 0.027028606318350367 0 0.028504378608266913 0.027119851843755885 0 0.028496046382419548 0.026989544618609959 0 0.028518489462194947 0.027431025867709988 0 0.028390046876038345 0.027013482078295296 0 0.028504378608266913 0.027119851843755885 0 0.028369345739999226 0.02723538118055446 0 0.028173593079184954 0.027188313238337855 0 0.028390046876038345 0.027013482078295296 0 0.028369345739999226 0.02723538118055446 0 0.028220566604621685 0.027439673182906705 0 0.028369345739999226 0.02723538118055446 0 0.028518489462194947 0.027431025867709988 0 0.028504378608266913 0.027119851843755885 0 0.028369345739999226 0.02723538118055446 0 0.028518489462194947 0.027431025867709988 0 0.021203773460090045 0.034359150494677651 0 0.021082306752729082 0.033538784230326017 0 0.022118996413731221 0.033819760531262857 0 0.026098630105001751 0.029073603092983721 0 0.025020643559879836 0.030852146685588146 0 0.028559694398070438 0.026914397819982339 0 0.028496046382419548 0.026989544618609959 0 0.028518489462194947 0.027431025867709988 0 0.026098630105001751 0.029073603092983721 0 0.028443015759213989 0.0279584214198744 0 0.028037302499864258 0.026817551863151334 0 0.028496046382419548 0.026989544618609959 0 0.028226247282602902 0.027090920934641233 0 0.028504378608266913 0.027119851843755885 0 0.028496046382419548 0.026989544618609959 0 0.028646273332635936 0.027028606318350367 0 0.028496046382419548 0.026989544618609959 0 0.028646273332635936 0.027028606318350367 0 0.028226247282602902 0.027090920934641233 0 0.028164165955851188 0.027575983097312476 0 0.028646273332635936 0.027028606318350367 0 0.028226247282602902 0.027090920934641233 0 0.028037302499864258 0.026817551863151334 0 0.028226247282602902 0.027090920934641233 0 0.02757580615722335 0.027142836511347079 0 0.028037302499864258 0.026817551863151334 0 0.02757580615722335 0.027142836511347079 0 0.027182221374949973 0.027253262858038457 0 0.026098630105001751 0.029073603092983721 0 0.027916084100765903 0.026685332865560348 0 0.027220755149040474 0.027246582164228553 0 0.027182221374949973 0.027253262858038457 0 0.027078116644047905 0.027204610298783256 0 0.027848303406466893 0.027535171308082543 0 0.027548602662947841 0.027135376765978783 0 0.028164165955851188 0.027575983097312476 0 0.028226247282602902 0.027090920934641233 0 0.02757580615722335 0.027142836511347079 0 0.027427810061608139 0.027384697844507006 0 0.027380207157810837 0.027336816372899645 0 0.02757580615722335 0.027142836511347079 0 0.027194481663778147 0.027356897136290706 0 0.027380207157810837 0.027336816372899645 0 0.027182221374949973 0.027253262858038457 0 0.027380207157810837 0.027336816372899645 0 0.02757580615722335 0.027142836511347079 0 0.027182221374949973 0.027253262858038457 0 0.021203773460090045 0.034359150494677651 0 0.020145684754725932 0.034329743028448212 0 0.020481681875953398 0.033871553743342928 0 0.021203773460090045 0.034359150494677651 0 0.021082306752729082 0.033538784230326017 0 0.020481681875953398 0.033871553743342928 0 0.026098630105001751 0.029073603092983721 0 0.019872313543222123 0.031292477715697792 0 0.021082306752729082 0.033538784230326017 0 0.020481681875953398 0.033871553743342928 0 0.020310315121398689 0.033469292796348769 0 0.021082306752729082 0.033538784230326017 0 0.020821390309460001 0.032726524754221595 0 0.020310315121398689 0.033469292796348769 0 0.021082306752729082 0.033538784230326017 0 0.020821390309460001 0.032726524754221595 0 0.02150436544986789 0.032960269187107108 0 0.020707110905501674 0.032840423512308398 0 0.020244738713361202 0.033511960110042351 0 0.020821390309460001 0.032726524754221595 0 0.02150436544986789 0.032960269187107108 0 0.021313884281052155 0.032077444117989434 0 0.02150436544986789 0.032960269187107108 0 0.02218065277790909 0.032632702951719175 0 0.021313884281052155 0.032077444117989434 0 0.021082306752729082 0.033538784230326017 0 0.02150436544986789 0.032960269187107108 0 0.022118996413731221 0.033819760531262857 0 0.022118996413731221 0.033819760531262857 0 0.02218065277790909 0.032632702951719175 0 0.023062580930785694 0.033187757846092784 0 0.028220566604621685 0.027439673182906705 0 0.028518489462194947 0.027431025867709988 0 0.028090953663251535 0.027752392087559703 0 0.025020643559879836 0.030852146685588146 0 0.025639860890232957 0.03102431084415247 0 0.02150436544986789 0.032960269187107108 0 0.022118996413731221 0.033819760531262857 0 0.02218065277790909 0.032632702951719175 0 0.023258688223729323 0.032933678058587851 0 0.025639860890232957 0.03102431084415247 0 0.027580591728903037 0.028917779838307438 0 0.028082182841095562 0.02806779671643006 0 0.028159744326011944 0.028123035990426346 0 0.023996525421853144 0.033047544135455804 0 0.02438063995362327 0.033237825710910954 0 0.024404903177992338 0.032797583321275206 0 0.024803516851916868 0.032878223860230898 0 0.02438063995362327 0.033237825710910954 0 0.024404903177992338 0.032797583321275206 0 0.028082182841095562 0.02806779671643006 0 0.028136465622728913 0.028097217822433705 0 0.028090953663251535 0.027752392087559703 0 0.027899068661948797 0.027933306454403568 0 0.028082182841095562 0.02806779671643006 0 0.028090953663251535 0.027752392087559703 0 0.028518489462194947 0.027431025867709988 0 0.028136465622728913 0.028097217822433705 0 0.028090953663251535 0.027752392087559703 0 0.025867504564863138 0.030850519183072331 0 0.025639860890232957 0.03102431084415247 0 0.027793261227204828 0.027694645594834987 0 0.027899068661948797 0.027933306454403568 0 0.028090953663251535 0.027752392087559703 0 0.013997860887128198 0.035259713729006145 0 0.01469458146959994 0.037130011991882879 0 0.012465815663695905 0.03881593764011957 0 0.012682471676485377 0.039381241671616669 0 0.012929131896699832 0.038378036427354462 0 0.012465815663695905 0.03881593764011957 0 0.01232530028638802 0.039411636012273814 0 0.012682471676485377 0.039381241671616669 0 0.012465815663695905 0.03881593764011957 0 0.011825913262529056 0.038776109829658692 0 0.01232530028638802 0.039411636012273814 0 0.012465815663695905 0.03881593764011957 0 0.011825913262529056 0.038776109829658692 0 0.01221051702345391 0.038089740543333098 0 0.0088696018191240719 0.043506325539296183 0 0.0083292806632470021 0.044444328946069332 0 0.0094855177348129593 0.044308834251305593 0 0.0081046097462471045 0.043524955241891372 0 0.0088696018191240719 0.043506325539296183 0 0.0083292806632470021 0.044444328946069332 0 0.01068670608774008 0.041539082717040737 0 0.010551381890239386 0.03768862487400599 0 0.0080063879273888552 0.032383953393063131 0 0.0081073713129575179 0.03247040516013136 0 0.0081964546284231006 0.032373703189694847 0 0.0079203015807183287 0.0325328438893593 0 0.0080063879273888552 0.032383953393063131 0 0.0081073713129575179 0.03247040516013136 0 0.0078894082732907031 0.038433931540696409 0 0.010551381890239386 0.03768862487400599 0 0.0081073713129575179 0.03247040516013136 0 0.0081964546284231006 0.032373703189694847 0 0.0082434486483695234 0.032426188901903817 0 0.010551381890239386 0.03768862487400599 0 0.013037705627793382 0.031514107136802347 0 0.010551381890239386 0.03768862487400599 0 0.013997860887128198 0.035259713729006145 0 0.01627302123603069 0.030745651851895331 0 0.016351240785442658 0.030398288979784287 0 0.015695654516433979 0.030421015954430825 0 0.013079287747894811 0.035581623488247817 0 0.012087780171401127 0.035647116460777409 0 0.012330607007054281 0.034537840461815551 0 0.013997860887128198 0.035259713729006145 0 0.013037705627793382 0.031514107136802347 0 0.01627302123603069 0.030745651851895331 0 0.015695654516433979 0.030421015954430825 0 0.015176782447801544 0.030807747547846629 0 0.020956715872484245 0.028291668349688538 0 0.019872313543222123 0.031292477715697792 0 0.027194481663778147 0.027356897136290706 0 0.027182221374949973 0.027253262858038457 0 0.027078116644047905 0.027204610298783256 0 0.014791236792363273 0.02993623308975454 0 0.015695654516433979 0.030421015954430825 0 0.015176782447801544 0.030807747547846629 0 0.019872313543222123 0.031292477715697792 0 0.01848397269999635 0.034727720356048167 0 0.020145684754725932 0.034329743028448212 0 0.020481681875953398 0.033871553743342928 0 0.01996858385832552 0.033692589269728575 0 0.016654684078232212 0.034829171291341311 0 0.016608756513537829 0.034816216350759016 0 0.016617859526724524 0.034893209374945985 0 0.016654684078232212 0.034829171291341311 0 0.016617859526724524 0.034893209374945985 0 0.016650030263159119 0.034898042677133971 0 0.013997860887128198 0.035259713729006145 0 0.019872313543222123 0.031292477715697792 0 0.01996858385832552 0.033692589269728575 0 0.02010140182183618 0.033501789881523678 0 0.020007584477762477 0.03347537270339529 0 0.01848397269999635 0.034727720356048167 0 0.015887445444596901 0.035276389047506101 0 0.016617859526724524 0.034893209374945985 0 0.016634863180212872 0.034975520873444597 0 0.016650030263159119 0.034898042677133971 0 0.015887445444596901 0.035276389047506101 0 0.01469458146959994 0.037130011991882879 0 0.020481681875953398 0.033871553743342928 0 0.01996858385832552 0.033692589269728575 0 0.020310315121398689 0.033469292796348769 0 0.01996858385832552 0.033692589269728575 0 0.020310315121398689 0.033469292796348769 0 0.02010140182183618 0.033501789881523678 0 0.020169364079827716 0.033469611015734244 0 0.020132871251337624 0.03345968733802792 0 0.020125427823345966 0.03346579104492016 0 0.020169364079827716 0.033469611015734244 0 0.020310315121398689 0.033469292796348769 0 0.020132871251337624 0.03345968733802792 0 0.020310315121398689 0.033469292796348769 0 0.02010140182183618 0.033501789881523678 0 0.020132871251337624 0.03345968733802792 0 0.020132871251337624 0.03345968733802792 0 0.020007584477762477 0.03347537270339529 0 0.020055583057105548 0.033462454328070587 0 0.02010140182183618 0.033501789881523678 0 0.020132871251337624 0.03345968733802792 0 0.020007584477762477 0.03347537270339529 0 0.015887445444596901 0.035276389047506101 0 0.014533491007750537 0.036382654320408596 0 0.013201508122433356 0.03731490829237194 0 0.013013692764205595 0.036860255113650008 0 0.012352898918625501 0.037179077661422644 0 0.012352898918625501 0.037179077661422644 0 0.012673419077468041 0.037743218964357901 0 0.01221051702345391 0.038089740543333098 0 0.013201508122433356 0.03731490829237194 0 0.012352898918625501 0.037179077661422644 0 0.012673419077468041 0.037743218964357901 0 0.013201508122433356 0.03731490829237194 0 0.012673419077468041 0.037743218964357901 0 0.012929131896699832 0.038378036427354462 0 0.012673419077468041 0.037743218964357901 0 0.01221051702345391 0.038089740543333098 0 0.012929131896699832 0.038378036427354462 0 0.012465815663695905 0.03881593764011957 0 0.01221051702345391 0.038089740543333098 0 0.012929131896699832 0.038378036427354462 0 0.011825913262529056 0.038776109829658692 0 0.01221051702345391 0.038089740543333098 0 0.011301320454277562 0.038111869610211298 0 0.012352898918625501 0.037179077661422644 0 0.01221051702345391 0.038089740543333098 0 0.011301320454277562 0.038111869610211298 0 0.01068670608774008 0.041539082717040737 0 0.0089706896092840369 0.041080529440656911 0 0.0081046097462471045 0.043524955241891372 0 0.0088696018191240719 0.043506325539296183 0 0.0082393980233626766 0.042627807157650938 0 0.0079628387145902774 0.042455356551957348 0 0.0081217405643525253 0.04164324872705491 0 0.0094045546225279431 0.041727291934120628 0 0.0079628387145902774 0.042455356551957348 0 0.0094045546225279431 0.041727291934120628 0 0.0082226460777741605 0.042799770256133289 0 0.010519263145100533 0.039703747694944107 0 0.0089706896092840369 0.041080529440656911 0 0.0094045546225279431 0.041727291934120628 0 0.0093880434947278858 0.04016605079161685 0 0.0081385973821955244 0.040804095318498941 0 0.0081217405643525253 0.04164324872705491 0 0.0094045546225279431 0.041727291934120628 0 0.0081385973821955244 0.040804095318498941 0 0.0093880434947278858 0.04016605079161685 0 0.008289701666827267 0.039504040249846953 0 0.0081385973821955244 0.040804095318498941 0 0.013013692764205595 0.036860255113650008 0 0.012352898918625501 0.037179077661422644 0 0.013474335266621692 0.036211560829790983 0 0.0094045546225279431 0.041727291934120628 0 0.0093880434947278858 0.04016605079161685 0 0.010454602017154733 0.040765365205965964 0 0.010519263145100533 0.039703747694944107 0 0.014604196722627423 0.036837592989626827 0 0.01322710761102619 0.037322592940542416 0 0.013013692764205595 0.036860255113650008 0 0.013474335266621692 0.036211560829790983 0 0.015887445444596901 0.035276389047506101 0 0.014604196722627423 0.036837592989626827 0 0.020055583057105548 0.033462454328070587 0 0.020125427823345966 0.03346579104492016 0 0.020088684364756419 0.03346951760839046 0 0.020132871251337624 0.03345968733802792 0 0.020055583057105548 0.033462454328070587 0 0.020125427823345966 0.03346579104492016 0 0.014604196722627423 0.036837592989626827 0 0.016134540332904956 0.037499599867615162 0 0.016134540332904956 0.037499599867615162 0 0.01221564418746842 0.039695969350818323 0 0.014604196722627423 0.036837592989626827 0 0.01221564418746842 0.039695969350818323 0 0.0093880434947278858 0.04016605079161685 0 0.010454602017154733 0.040765365205965964 0 0.010674804762534355 0.03960654497442815 0 0.014536367846782529 0.037447715125714674 0 0.013868947024293716 0.03803946453504109 0 0.01432966812167955 0.038368336666887146 0 0.01221564418746842 0.039695969350818323 0 0.0096252207130669946 0.039125468935549655 0 0.012292790749614363 0.039928971862374964 0 0.012966989189498169 0.039487054248191128 0 0.012492002138295016 0.038487409133373604 0 0.012943309397779441 0.040406145743184269 0 0.012292790749614363 0.039928971862374964 0 0.012966989189498169 0.039487054248191128 0 0.012943309397779441 0.040406145743184269 0 0.012966989189498169 0.039487054248191128 0 0.013780328746403605 0.0397500180763595 0 0.01221564418746842 0.039695969350818323 0 0.012453366559890532 0.038805728319896919 0 0.012966989189498169 0.039487054248191128 0 0.012492002138295016 0.038487409133373604 0 0.013538485815806486 0.03889538367872597 0 0.012492002138295016 0.038487409133373604 0 0.013774887469997775 0.03815638818768248 0 0.013538485815806486 0.03889538367872597 0 0.012492002138295016 0.038487409133373604 0 0.010223379742943394 0.039399703511265073 0 0.010953149967773952 0.03793542485315652 0 0.012047786465431184 0.040591754686416674 0 0.012492002138295016 0.038487409133373604 0 0.010223379742943394 0.039399703511265073 0 0.0096252207130669946 0.039125468935549655 0 0.0085347226924624726 0.038226273904685401 0 0.010223379742943394 0.039399703511265073 0 0.0097432680186229376 0.038087245559368578 0 0.0084114181323423111 0.038185371618278681 0 0.0093651004651385313 0.038804473852645897 0 0.0084114181323423111 0.038185371618278681 0 0.0082175576434055375 0.038823304567625241 0 0.0093651004651385313 0.038804473852645897 0 0.0082175576434055375 0.038823304567625241 0 0.008289701666827267 0.039504040249846953 0 0.0093880434947278858 0.04016605079161685 0 0.0093651004651385313 0.038804473852645897 0 0.008289701666827267 0.039504040249846953 0 0.0093880434947278858 0.04016605079161685 0 0.010674804762534355 0.03960654497442815 0 0.0093651004651385313 0.038804473852645897 0 0.02464148184652323 0.032416204876272031 0 0.024289176964075721 0.032604887868038002 0 0.024404903177992338 0.032797583321275206 0 0.02464148184652323 0.032416204876272031 0 0.024289176964075721 0.032604887868038002 0 0.02449451050370316 0.032368631963657357 0 0.024289176964075721 0.032604887868038002 0 0.024404903177992338 0.032797583321275206 0 0.024040598838716714 0.032786606857983923 0 0.023996525421853144 0.033047544135455804 0 0.024040598838716714 0.032786606857983923 0 0.023636013461701973 0.032891758981043046 0 0.023996525421853144 0.033047544135455804 0 0.024404903177992338 0.032797583321275206 0 0.024040598838716714 0.032786606857983923 0 0.024289176964075721 0.032604887868038002 0 0.023912169549834661 0.032593698506099854 0 0.02449451050370316 0.032368631963657357 0 0.024289176964075721 0.032604887868038002 0 0.024040598838716714 0.032786606857983923 0 0.023912169549834661 0.032593698506099854 0 0.019523279570137678 0.036003134507904856 0 0.019587046300734979 0.03433365829892026 0 0.024040598838716714 0.032786606857983923 0 0.023912169549834661 0.032593698506099854 0 0.023636013461701973 0.032891758981043046 0 0.015371037150462391 0.03878708322904495 0 0.015094558382201046 0.03876905841526835 0 0.015146064770745963 0.038842360307986046 0 0.023258688223729323 0.032933678058587851 0 0.019587046300734979 0.03433365829892026 0 0.020169364079827716 0.033469611015734244 0 0.020125427823345966 0.03346579104492016 0 0.020148006188277303 0.033470373419714511 0 0.020125427823345966 0.03346579104492016 0 0.020088684364756419 0.03346951760839046 0 0.020148006188277303 0.033470373419714511 0 0.020707110905501674 0.032840423512308398 0 0.019587046300734979 0.03433365829892026 0 0.014991117314053726 0.038763432437529492 0 0.015094558382201046 0.03876905841526835 0 0.015146064770745963 0.038842360307986046 0 0.016134540332904956 0.037499599867615162 0 0.019587046300734979 0.03433365829892026 0 0.014991117314053726 0.038763432437529492 0 0.015094558382201046 0.03876905841526835 0 0.015021916794414409 0.038729441020631944 0 0.016134540332904956 0.037499599867615162 0 0.013996890473898769 0.039558702234658204 0 0.013780328746403605 0.0397500180763595 0 0.013538485815806486 0.03889538367872597 0 0.014838171498888879 0.038680102838508222 0 0.015094558382201046 0.03876905841526835 0 0.015021916794414409 0.038729441020631944 0 0.014838171498888879 0.038680102838508222 0 0.013996890473898769 0.039558702234658204 0 0.014945569141619467 0.038644860633418959 0 0.012966989189498169 0.039487054248191128 0 0.013780328746403605 0.0397500180763595 0 0.013538485815806486 0.03889538367872597 0 0.013774887469997775 0.03815638818768248 0 0.013538485815806486 0.03889538367872597 0 0.014838171498888879 0.038680102838508222 0 0.013774887469997775 0.03815638818768248 0 0.014838171498888879 0.038680102838508222 0 0.014833627928871225 0.037654299357934087 0 0.014838171498888879 0.038680102838508222 0 0.015382033482345417 0.038195727602390143 0 0.014833627928871225 0.037654299357934087 0 0.015371037150462391 0.03878708322904495 0 0.015094558382201046 0.03876905841526835 0 0.014838171498888879 0.038680102838508222 0 0.015371037150462391 0.03878708322904495 0 0.014838171498888879 0.038680102838508222 0 0.015382033482345417 0.038195727602390143 0 0.015371037150462391 0.03878708322904495 0 0.015382033482345417 0.038195727602390143 0 0.016025393068888057 0.038294331889224403 0 0.019523279570137678 0.036003134507904856 0 0.020387365047051124 0.035096181517699658 0 0.015382033482345417 0.038195727602390143 0 0.016025393068888057 0.038294331889224403 0 0.015921180163777519 0.0377465828843251 0 0.020087982120590115 0.035412875355431105 0 0.020387365047051124 0.035096181517699658 0 0.024827891610656867 0.032207835351847389 0 0.025019171613824987 0.032216896770989586 0 0.024395991875643206 0.03225222398107333 0 0.016732636099219413 0.037551106751362175 0 0.016025393068888057 0.038294331889224403 0 0.015921180163777519 0.0377465828843251 0 0.024827891610656867 0.032207835351847389 0 0.024395991875643206 0.03225222398107333 0 0.02449451050370316 0.032368631963657357 0 0.023912169549834661 0.032593698506099854 0 0.024395991875643206 0.03225222398107333 0 0.02449451050370316 0.032368631963657357 0 0.017814578752612137 0.038729268803469774 0 0.017304699969841783 0.037232433846563003 0 0.016234397143839539 0.037951041167860598 0 0.017304699969841783 0.037232433846563003 0 0.016234397143839539 0.037951041167860598 0 0.016155718562351876 0.03636044457327342 0 0.016732636099219413 0.037551106751362175 0 0.015921180163777519 0.0377465828843251 0 0.015792209887465707 0.037034910668846614 0 0.020087982120590115 0.035412875355431105 0 0.015582060518338178 0.037716829766113624 0 0.015382033482345417 0.038195727602390143 0 0.015921180163777519 0.0377465828843251 0 0.014833627928871225 0.037654299357934087 0 0.015921180163777519 0.0377465828843251 0 0.015792209887465707 0.037034910668846614 0 0.014833627928871225 0.037654299357934087 0 0.016234397143839539 0.037951041167860598 0 0.014659716241309777 0.037166782490563412 0 0.016155718562351876 0.03636044457327342 0 0.015582060518338178 0.037716829766113624 0 0.014686142603334586 0.036780646762822167 0 0.015792209887465707 0.037034910668846614 0 0.014566999146135637 0.036402821297504322 0 0.014833627928871225 0.037654299357934087 0 0.014566999146135637 0.036402821297504322 0 0.014833627928871225 0.037654299357934087 0 0.013268492137887033 0.037216218100952145 0 0.013774887469997775 0.03815638818768248 0 0.014833627928871225 0.037654299357934087 0 0.013268492137887033 0.037216218100952145 0 0.014566999146135637 0.036402821297504322 0 0.013268492137887033 0.037216218100952145 0 0.013033765698436848 0.035797107111890956 0 0.014686142603334586 0.036780646762822167 0 0.013036626599142762 0.036078381147039165 0 0.014659716241309777 0.037166782490563412 0 0.014586407469975825 0.035972165750991728 0 0.013081445876468844 0.036346264510316563 0 0.013556626708681581 0.035000033703183865 0 0.014586407469975825 0.035972165750991728 0 0.013081445876468844 0.036346264510316563 0 0.013556626708681581 0.035000033703183865 0 0.014586407469975825 0.035972165750991728 0 0.015481230441275477 0.034999959289371968 0 0.014659716241309777 0.037166782490563412 0 0.014586407469975825 0.035972165750991728 0 0.016155718562351876 0.03636044457327342 0 0.014586407469975825 0.035972165750991728 0 0.016155718562351876 0.03636044457327342 0 0.015481230441275477 0.034999959289371968 0 0.016155718562351876 0.03636044457327342 0 0.015481230441275477 0.034999959289371968 0 0.017405847105379318 0.034999977964591512 0 0.017845566376421058 0.036297815705437615 0 0.016155718562351876 0.03636044457327342 0 0.017405847105379318 0.034999977964591512 0 0.017845566376421058 0.036297815705437615 0 0.017304699969841783 0.037232433846563003 0 0.016155718562351876 0.03636044457327342 0 0.010068205966693491 0.037387827852798351 0 0.010867544709515072 0.036759453381042646 0 0.010953149967773952 0.03793542485315652 0 0.010068205966693491 0.037387827852798351 0 0.010867544709515072 0.036759453381042646 0 0.010023573546256591 0.036751680680672749 0 0.010068205966693491 0.037387827852798351 0 0.010023573546256591 0.036751680680672749 0 0.0093209043394755376 0.036993678811092452 0 0.010023573546256591 0.036751680680672749 0 0.0093209043394755376 0.036993678811092452 0 0.0094568779765813217 0.036440782470928822 0 0.0093209043394755376 0.036993678811092452 0 0.0088793184247680321 0.036606614318976077 0 0.0094568779765813217 0.036440782470928822 0 0.0093209043394755376 0.036993678811092452 0 0.0088793184247680321 0.036606614318976077 0 0.0084977267723820339 0.037186198024676792 0 0.0093209043394755376 0.036993678811092452 0 0.0090714820983603152 0.037619975392438748 0 0.0084977267723820339 0.037186198024676792 0 0.010068205966693491 0.037387827852798351 0 0.0093209043394755376 0.036993678811092452 0 0.0090714820983603152 0.037619975392438748 0 0.0090714820983603152 0.037619975392438748 0 0.0097432680186229376 0.038087245559368578 0 0.0084114181323423111 0.038185371618278681 0 0.010068205966693491 0.037387827852798351 0 0.0090714820983603152 0.037619975392438748 0 0.0097432680186229376 0.038087245559368578 0 0.010223379742943394 0.039399703511265073 0 0.0097432680186229376 0.038087245559368578 0 0.010953149967773952 0.03793542485315652 0 0.010068205966693491 0.037387827852798351 0 0.0097432680186229376 0.038087245559368578 0 0.010953149967773952 0.03793542485315652 0 0.012492002138295016 0.038487409133373604 0 0.010953149967773952 0.03793542485315652 0 0.012046908584444129 0.037473124770664334 0 0.012492002138295016 0.038487409133373604 0 0.013774887469997775 0.03815638818768248 0 0.013268492137887033 0.037216218100952145 0 0.012492002138295016 0.038487409133373604 0 0.013268492137887033 0.037216218100952145 0 0.012046908584444129 0.037473124770664334 0 0.013268492137887033 0.037216218100952145 0 0.012046908584444129 0.037473124770664334 0 0.011937571784679494 0.036535344181813423 0 0.013268492137887033 0.037216218100952145 0 0.011937571784679494 0.036535344181813423 0 0.013033765698436848 0.035797107111890956 0 0.010867544709515072 0.036759453381042646 0 0.010953149967773952 0.03793542485315652 0 0.012046908584444129 0.037473124770664334 0 0.010867544709515072 0.036759453381042646 0 0.012046908584444129 0.037473124770664334 0 0.011937571784679494 0.036535344181813423 0 0.010867544709515072 0.036759453381042646 0 0.011937571784679494 0.036535344181813423 0 0.010877268564957642 0.036102214902588539 0 0.011937571784679494 0.036535344181813423 0 0.011640970350067812 0.035993346201850455 0 0.010877268564957642 0.036102214902588539 0 0.011640970350067812 0.035993346201850455 0 0.011120770120531819 0.035782282117085368 0 0.010877268564957642 0.036102214902588539 0 0.011937571784679494 0.036535344181813423 0 0.011640970350067812 0.035993346201850455 0 0.013033765698436848 0.035797107111890956 0 0.011640970350067812 0.035993346201850455 0 0.013033765698436848 0.035797107111890956 0 0.011534451778676302 0.035469103485996537 0 0.013036626599142762 0.036078381147039165 0 0.01166682710397946 0.035498650423337455 0 0.013556626708681581 0.035000033703183865 0 0.013081445876468844 0.036346264510316563 0 0.011631951702684046 0.034999710444489907 0 0.013081445876468844 0.036346264510316563 0 0.011534451778676302 0.035469103485996537 0 0.011631951702684046 0.034999710444489907 0 0.011640970350067812 0.035993346201850455 0 0.011120770120531819 0.035782282117085368 0 0.011534451778676302 0.035469103485996537 0 0.011120770120531819 0.035782282117085368 0 0.011534451778676302 0.035469103485996537 0 0.010614807028035573 0.035629877145176805 0 0.011534451778676302 0.035469103485996537 0 0.011631951702684046 0.034999710444489907 0 0.010614807028035573 0.035629877145176805 0 0.011631951702684046 0.034999710444489907 0 0.010614807028035573 0.035629877145176805 0 0.0097074222368612514 0.034999771829323421 0 0.010614807028035573 0.035629877145176805 0 0.0097614872987504629 0.035961598404006818 0 0.0097074222368612514 0.034999771829323421 0 0.011120770120531819 0.035782282117085368 0 0.010614807028035573 0.035629877145176805 0 0.010877268564957642 0.036102214902588539 0 0.010614807028035573 0.035629877145176805 0 0.010877268564957642 0.036102214902588539 0 0.010266384543472593 0.03627026180386262 0 0.010614807028035573 0.035629877145176805 0 0.010266384543472593 0.03627026180386262 0 0.0097614872987504629 0.035961598404006818 0 0.010023573546256591 0.036751680680672749 0 0.010266384543472593 0.03627026180386262 0 0.0094568779765813217 0.036440782470928822 0 0.010867544709515072 0.036759453381042646 0 0.010023573546256591 0.036751680680672749 0 0.010266384543472593 0.03627026180386262 0 0.010867544709515072 0.036759453381042646 0 0.010877268564957642 0.036102214902588539 0 0.010266384543472593 0.03627026180386262 0 0.0088793184247680321 0.036606614318976077 0 0.0094568779765813217 0.036440782470928822 0 0.0088208294701819512 0.036028902807341653 0 0.0094568779765813217 0.036440782470928822 0 0.0097614872987504629 0.035961598404006818 0 0.0088208294701819512 0.036028902807341653 0 0.010266384543472593 0.03627026180386262 0 0.0094568779765813217 0.036440782470928822 0 0.0097614872987504629 0.035961598404006818 0 0.0097614872987504629 0.035961598404006818 0 0.0088208294701819512 0.036028902807341653 0 0.0097074222368612514 0.034999771829323421 0 0.0088208294701819512 0.036028902807341653 0 0.0097074222368612514 0.034999771829323421 0 0.0077833884313835214 0.03499985850130119 0 0.0077827622922532801 0.035000118553375877 0 0.0074982036282529542 0.036280981430160834 0 0.0088208294701819512 0.036028902807341653 0 0.0077833884313835214 0.03499985850130119 0 0.0079150790759324654 0.036341564986411772 0 0.0077818835427141912 0.03499989302066054 0 0.0071108979756762877 0.036299593925671989 0 0.0062331925376194631 0.035926099956972019 0 0.0077818835427141912 0.03499989302066054 0 0.0058389377308226444 0.034999747385534082 0 0.0062331925376194631 0.035926099956972019 0 0.0063333988752073177 0.03646914831382958 0 0.0071108979756762877 0.036299593925671989 0 0.0062331925376194631 0.035926099956972019 0 0.0063333988752073177 0.03646914831382958 0 0.0071108979756762877 0.036299593925671989 0 0.0066750450448029471 0.036772148070414339 0 0.0088208294701819512 0.036028902807341653 0 0.0079150790759324654 0.036341564986411772 0 0.0082946588859650356 0.036743795103690066 0 0.0088793184247680321 0.036606614318976077 0 0.0088208294701819512 0.036028902807341653 0 0.0082946588859650356 0.036743795103690066 0 0.0058389377308226444 0.034999747385534082 0 0.005054208183668034 0.035993075570176843 0 0.0038953449513982187 0.034999804707925318 0 0.0058389377308226444 0.034999747385534082 0 0.0062331925376194631 0.035926099956972019 0 0.005054208183668034 0.035993075570176843 0 0.0063333988752073177 0.03646914831382958 0 0.0062331925376194631 0.035926099956972019 0 0.0053289720055681392 0.036691166298880008 0 0.0062331925376194631 0.035926099956972019 0 0.005054208183668034 0.035993075570176843 0 0.0053289720055681392 0.036691166298880008 0 0.005054208183668034 0.035993075570176843 0 0.0042441804573115863 0.036665442417831137 0 0.003753216437000969 0.036146257339562664 0 0.005054208183668034 0.035993075570176843 0 0.0042441804573115863 0.036665442417831137 0 0.0053289720055681392 0.036691166298880008 0 0.0042441804573115863 0.036665442417831137 0 0.0053289720055681392 0.036691166298880008 0 0.0043623252116567601 0.037428616716424626 0 0.0054146869451379611 0.037256859318926965 0 0.0053289720055681392 0.036691166298880008 0 0.0043623252116567601 0.037428616716424626 0 0.0063333988752073177 0.03646914831382958 0 0.0053289720055681392 0.036691166298880008 0 0.0060878523559405708 0.036919343676774172 0 0.0054146869451379611 0.037256859318926965 0 0.0060878523559405708 0.036919343676774172 0 0.0059716015649492922 0.037417698108594903 0 0.0054146869451379611 0.037256859318926965 0 0.0053289720055681392 0.036691166298880008 0 0.0060878523559405708 0.036919343676774172 0 0.0054146869451379611 0.037256859318926965 0 0.0052850283190005844 0.037827880304772674 0 0.0043623252116567601 0.037428616716424626 0 0.0054146869451379611 0.037256859318926965 0 0.0052850283190005844 0.037827880304772674 0 0.0059716015649492922 0.037417698108594903 0 0.0052850283190005844 0.037827880304772674 0 0.0059716015649492922 0.037417698108594903 0 0.0061364270351354196 0.038000615167333461 0 0.0052850283190005844 0.037827880304772674 0 0.0043623252116567601 0.037428616716424626 0 0.0041828099706048751 0.038257163146087604 0 0.0080989191203222882 0.037426096672498646 0 0.0084977267723820339 0.037186198024676792 0 0.0079069322740780244 0.037095485347341257 0 0.0080989191203222882 0.037426096672498646 0 0.0084977267723820339 0.037186198024676792 0 0.0082565650877206315 0.037749538751568008 0 0.0080989191203222882 0.037426096672498646 0 0.0079069322740780244 0.037095485347341257 0 0.0077820858628275336 0.037678381415418377 0 0.0090714820983603152 0.037619975392438748 0 0.0084977267723820339 0.037186198024676792 0 0.0082565650877206315 0.037749538751568008 0 0.0088793184247680321 0.036606614318976077 0 0.0084977267723820339 0.037186198024676792 0 0.0082946588859650356 0.036743795103690066 0 0.0079150790759324654 0.036341564986411772 0 0.0079069322740780244 0.037095485347341257 0 0.0082946588859650356 0.036743795103690066 0 0.0084977267723820339 0.037186198024676792 0 0.0079069322740780244 0.037095485347341257 0 0.0082946588859650356 0.036743795103690066 0 0.0071108979756762877 0.036299593925671989 0 0.0066750450448029471 0.036772148070414339 0 0.0066820953992762239 0.037443019207319031 0 0.0074982036282529542 0.036280981430160834 0 0.0074155499376520823 0.037535390493959299 0 0.0079150790759324654 0.036341564986411772 0 0.0079069322740780244 0.037095485347341257 0 0.0078146433234312675 0.037654407413461287 0 0.0066750450448029471 0.036772148070414339 0 0.0060878523559405708 0.036919343676774172 0 0.0063576874712822735 0.037149823195185568 0 0.0063333988752073177 0.03646914831382958 0 0.0066750450448029471 0.036772148070414339 0 0.0060878523559405708 0.036919343676774172 0 0.0060878523559405708 0.036919343676774172 0 0.0063576874712822735 0.037149823195185568 0 0.0059716015649492922 0.037417698108594903 0 0.0066750450448029471 0.036772148070414339 0 0.0063576874712822735 0.037149823195185568 0 0.0065323691745801269 0.037189951074281143 0 0.0066750450448029471 0.036772148070414339 0 0.0065323691745801269 0.037189951074281143 0 0.0066820953992762239 0.037443019207319031 0 0.0077306351183957529 0.037228853636812199 0 0.0074155499376520823 0.037535390493959299 0 0.0063576874712822735 0.037149823195185568 0 0.0065323691745801269 0.037189951074281143 0 0.0063494251779886478 0.03745893014661248 0 0.0066820953992762239 0.037443019207319031 0 0.0063494251779886478 0.03745893014661248 0 0.0061364270351354196 0.038000615167333461 0 0.006658250113578042 0.037519584668422902 0 0.0061364270351354196 0.038000615167333461 0 0.0063966559884140331 0.03863200238103353 0 0.0066820953992762239 0.037443019207319031 0 0.006658250113578042 0.037519584668422902 0 0.0061364270351354196 0.038000615167333461 0 0.0074155499376520823 0.037535390493959299 0 0.0073422384070312482 0.037638959103490459 0 0.0065323691745801269 0.037189951074281143 0 0.0066820953992762239 0.037443019207319031 0 0.0063494251779886478 0.03745893014661248 0 0.0059716015649492922 0.037417698108594903 0 0.0063494251779886478 0.03745893014661248 0 0.0061364270351354196 0.038000615167333461 0 0.0063576874712822735 0.037149823195185568 0 0.0059716015649492922 0.037417698108594903 0 0.0063494251779886478 0.03745893014661248 0 0.0077633289391915014 0.037770567552654281 0 0.0084114181323423111 0.038185371618278681 0 0.0074261179832995159 0.038817283465030022 0 0.0077633289391915014 0.037770567552654281 0 0.0082565650877206315 0.037749538751568008 0 0.0084114181323423111 0.038185371618278681 0 0.0077820858628275336 0.037678381415418377 0 0.0077633289391915014 0.037770567552654281 0 0.0082565650877206315 0.037749538751568008 0 0.0080989191203222882 0.037426096672498646 0 0.0077820858628275336 0.037678381415418377 0 0.0082565650877206315 0.037749538751568008 0 0.0090714820983603152 0.037619975392438748 0 0.0082565650877206315 0.037749538751568008 0 0.0084114181323423111 0.038185371618278681 0 0.0084114181323423111 0.038185371618278681 0 0.0082175576434055375 0.038823304567625241 0 0.0074261179832995159 0.038817283465030022 0 0.0082175576434055375 0.038823304567625241 0 0.008289701666827267 0.039504040249846953 0 0.0074261179832995159 0.038817283465030022 0 0.008289701666827267 0.039504040249846953 0 0.0074261179832995159 0.038817283465030022 0 0.006908571164388139 0.039982821438693403 0 0.0063966559884140331 0.03863200238103353 0 0.0053151376299203166 0.038738535821109435 0 0.0062441822696332706 0.039922873274410131 0 0.006896717102404702 0.038735199813995071 0 0.0065765759177273102 0.040004693466766349 0 0.0061364270351354196 0.038000615167333461 0 0.0063966559884140331 0.03863200238103353 0 0.0053151376299203166 0.038738535821109435 0 0.0073422384070312482 0.037638959103490459 0 0.006896717102404702 0.038735199813995071 0 0.0052850283190005844 0.037827880304772674 0 0.0053151376299203166 0.038738535821109435 0 0.0041828099706048751 0.038257163146087604 0 0.0052850283190005844 0.037827880304772674 0 0.0061364270351354196 0.038000615167333461 0 0.0053151376299203166 0.038738535821109435 0 0.0053151376299203166 0.038738535821109435 0 0.0041828099706048751 0.038257163146087604 0 0.0038421872601026989 0.039138234748633927 0 0.0053151376299203166 0.038738535821109435 0 0.0046959932302120689 0.0398198263212984 0 0.0038421872601026989 0.039138234748633927 0 0.0053151376299203166 0.038738535821109435 0 0.0046959932302120689 0.0398198263212984 0 0.0062441822696332706 0.039922873274410131 0 0.0046959932302120689 0.0398198263212984 0 0.0054543313700780617 0.04053776964981759 0 0.0062441822696332706 0.039922873274410131 0 0.0046959932302120689 0.0398198263212984 0 0.0045790895186967519 0.041092263014487047 0 0.0037121886841546634 0.040012503914328548 0 0.0046959932302120689 0.0398198263212984 0 0.0037121886841546634 0.040012503914328548 0 0.0038421872601026989 0.039138234748633927 0 0.0046959932302120689 0.0398198263212984 0 0.0045790895186967519 0.041092263014487047 0 0.0054543313700780617 0.04053776964981759 0 0.00629022339314442 0.041406559924577348 0 0.0045790895186967519 0.041092263014487047 0 0.0054543313700780617 0.04053776964981759 0 0.00629022339314442 0.041406559924577348 0 0.0081385973821955244 0.040804095318498941 0 0.006908571164388139 0.039982821438693403 0 0.00629022339314442 0.041406559924577348 0 0.0054543313700780617 0.04053776964981759 0 0.0062441822696332706 0.039922873274410131 0 0.0063098644978434428 0.04135303811118389 0 0.0065765759177273102 0.040004693466766349 0 0.0072750892559415963 0.04186365815849824 0 0.00629022339314442 0.041406559924577348 0 0.0081385973821955244 0.040804095318498941 0 0.008289701666827267 0.039504040249846953 0 0.0081385973821955244 0.040804095318498941 0 0.006908571164388139 0.039982821438693403 0 0.0015719455193355652 0.039982343378568083 0 0.0014311530871526836 0.039210518052873282 0 0.00036698487799487293 0.039253130010368287 0 0.0015719455193355652 0.039982343378568083 0 0.00056717050330961163 0.040330743083816213 0 0.00036698487799487293 0.039253130010368287 0 -0.0003779676080518034 0.039819861210430844 0 0.00056717050330961163 0.040330743083816213 0 0.00036698487799487293 0.039253130010368287 0 -0.0003779676080518034 0.039819861210430844 0 0.00036698487799487293 0.039253130010368287 0 -0.00082703446225255561 0.039304235739900772 0 0.00059455873896456101 0.041370084422577461 0 -0.00032983450840255886 0.040583362384133133 0 0.00056717050330961163 0.040330743083816213 0 -0.0003779676080518034 0.039819861210430844 0 -0.00032983450840255886 0.040583362384133133 0 0.00056717050330961163 0.040330743083816213 0 -0.0003779676080518034 0.039819861210430844 0 -0.00032983450840255886 0.040583362384133133 0 -0.0011525806710507046 0.040054104441625313 0 -0.00022939340548808283 0.04125749446489712 0 -0.00032983450840255886 0.040583362384133133 0 -0.00074567469819648944 0.040978858725929164 0 -0.00032983450840255886 0.040583362384133133 0 -0.0010320592247981158 0.040548612495974357 0 -0.00074567469819648944 0.040978858725929164 0 0.0015719455193355652 0.039982343378568083 0 0.00056717050330961163 0.040330743083816213 0 0.001960056317196349 0.041206178880059098 0 0.00059455873896456101 0.041370084422577461 0 0.00056717050330961163 0.040330743083816213 0 0.001960056317196349 0.041206178880059098 0 0.0015719455193355652 0.039982343378568083 0 0.001960056317196349 0.041206178880059098 0 0.0030884385082720076 0.040688422694667534 0 0.0035753331270721618 0.041622837498738879 0 0.001960056317196349 0.041206178880059098 0 0.0030884385082720076 0.040688422694667534 0 0.0045790895186967519 0.041092263014487047 0 0.0030884385082720076 0.040688422694667534 0 0.0037121886841546634 0.040012503914328548 0 0.0035753331270721618 0.041622837498738879 0 0.0045790895186967519 0.041092263014487047 0 0.0030884385082720076 0.040688422694667534 0 0.0030884385082720076 0.040688422694667534 0 0.0037121886841546634 0.040012503914328548 0 0.0027178257960677478 0.039462116445867487 0 0.0015719455193355652 0.039982343378568083 0 0.0027178257960677478 0.039462116445867487 0 0.0014311530871526836 0.039210518052873282 0 0.0015719455193355652 0.039982343378568083 0 0.0030884385082720076 0.040688422694667534 0 0.0027178257960677478 0.039462116445867487 0 0.0027178257960677478 0.039462116445867487 0 0.0018893132762634638 0.038603166042446589 0 0.0014311530871526836 0.039210518052873282 0 0.0027178257960677478 0.039462116445867487 0 0.0029924916770995543 0.038665173032175308 0 0.0018893132762634638 0.038603166042446589 0 0.0037121886841546634 0.040012503914328548 0 0.0027178257960677478 0.039462116445867487 0 0.0038421872601026989 0.039138234748633927 0 0.0027178257960677478 0.039462116445867487 0 0.0038421872601026989 0.039138234748633927 0 0.0029924916770995543 0.038665173032175308 0 0.0041828099706048751 0.038257163146087604 0 0.0029924916770995543 0.038665173032175308 0 0.0029965736158748292 0.0379126469917992 0 0.0041828099706048751 0.038257163146087604 0 0.0038421872601026989 0.039138234748633927 0 0.0029924916770995543 0.038665173032175308 0 0.0029924916770995543 0.038665173032175308 0 0.0018893132762634638 0.038603166042446589 0 0.0029965736158748292 0.0379126469917992 0 0.0018893132762634638 0.038603166042446589 0 0.0016630186520255874 0.037538249253401712 0 0.0029965736158748292 0.0379126469917992 0 0.0018893132762634638 0.038603166042446589 0 0.00063461356493994001 0.038372832237598693 0 0.0016630186520255874 0.037538249253401712 0 0.0018893132762634638 0.038603166042446589 0 0.00063461356493994001 0.038372832237598693 0 0.0014311530871526836 0.039210518052873282 0 0.00063461356493994001 0.038372832237598693 0 0.0014311530871526836 0.039210518052873282 0 0.00036698487799487293 0.039253130010368287 0 0.00063461356493994001 0.038372832237598693 0 0.00036698487799487293 0.039253130010368287 0 -0.00075507840339551595 0.038673504430078477 0 0.00036698487799487293 0.039253130010368287 0 -0.00075507840339551595 0.038673504430078477 0 -0.00082703446225255561 0.039304235739900772 0 0.00063461356493994001 0.038372832237598693 0 0.00040697238208400822 0.037273839122121864 0 -0.00060592533896874489 0.037841871384708022 0 0.00063461356493994001 0.038372832237598693 0 -0.00075507840339551595 0.038673504430078477 0 -0.00060592533896874489 0.037841871384708022 0 0.00040697238208400822 0.037273839122121864 0 -0.00040320841776132131 0.037029990733671463 0 -0.00060592533896874489 0.037841871384708022 0 0.00063461356493994001 0.038372832237598693 0 0.00040697238208400822 0.037273839122121864 0 0.0016630186520255874 0.037538249253401712 0 0.00040697238208400822 0.037273839122121864 0 0.0016630186520255874 0.037538249253401712 0 0.0010026197706612474 0.035954281498017431 0 0.00040697238208400822 0.037273839122121864 0 5.7294182675064024e-05 0.036453507883508048 0 -0.00040320841776132131 0.037029990733671463 0 0.00040697238208400822 0.037273839122121864 0 5.7294182675064024e-05 0.036453507883508048 0 0.0010026197706612474 0.035954281498017431 0 0.0043623252116567601 0.037428616716424626 0 0.0029965736158748292 0.0379126469917992 0 0.002965245105912488 0.036793679935955378 0 0.0043623252116567601 0.037428616716424626 0 0.0041828099706048751 0.038257163146087604 0 0.0029965736158748292 0.0379126469917992 0 0.0016630186520255874 0.037538249253401712 0 0.0029965736158748292 0.0379126469917992 0 0.002965245105912488 0.036793679935955378 0 0.0028430785623485134 0.03678016324619833 0 0.0013013878044291105 0.036303676959619315 0 0.0016630186520255874 0.037538249253401712 0 0.002965245105912488 0.036793679935955378 0 0.0010026197706612474 0.035954281498017431 0 0.0042441804573115863 0.036665442417831137 0 0.0043623252116567601 0.037428616716424626 0 0.002965245105912488 0.036793679935955378 0 0.0042441804573115863 0.036665442417831137 0 0.002965245105912488 0.036793679935955378 0 0.003753216437000969 0.036146257339562664 0 0.002965245105912488 0.036793679935955378 0 0.0026368648241761813 0.035968071882757392 0 0.0015726674982782865 0.036636411190405123 0 0.002965245105912488 0.036793679935955378 0 0.003753216437000969 0.036146257339562664 0 0.0026368648241761813 0.035968071882757392 0 0.0026368648241761813 0.035968071882757392 0 0.0038953449513982187 0.034999804707925318 0 0.0019519709331112058 0.03499984218215553 0 0.005054208183668034 0.035993075570176843 0 0.003753216437000969 0.036146257339562664 0 0.0038953449513982187 0.034999804707925318 0 0.003753216437000969 0.036146257339562664 0 0.0026368648241761813 0.035968071882757392 0 0.0038953449513982187 0.034999804707925318 0 0.0015726674982782865 0.036636411190405123 0 0.00096380330820263849 0.035739852165352366 0 -0.00025200906713394698 0.03612068313334179 0 5.7294182675064024e-05 0.036453507883508048 0 0.0010026197706612474 0.035954281498017431 0 -0.00062120608147417107 0.035586412485369298 0 0.0013013878044291105 0.036303676959619315 0 -0.0004456727010534895 0.035844061065678313 0 0.0026368648241761813 0.035968071882757392 0 0.0015726674982782865 0.036636411190405123 0 0.00096380330820263849 0.035739852165352366 0 0.0026368648241761813 0.035968071882757392 0 0.0019519709331112058 0.03499984218215553 0 0.00096380330820263849 0.035739852165352366 0 0.0019519709331112058 0.03499984218215553 0 8.4363579562866027e-06 0.034999962216372194 0 0.00096380330820263849 0.035739852165352366 0 8.4363579562866027e-06 0.034999962216372194 0 0.00096380330820263849 0.035739852165352366 0 -0.00025200906713394698 0.03612068313334179 0 8.4363579562866027e-06 0.034999962216372194 0 -0.00025200906713394698 0.03612068313334179 0 -0.00193571281855247 0.034999700944603487 0 5.7294182675064024e-05 0.036453507883508048 0 -0.00062120608147417107 0.035586412485369298 0 -0.00063752699988642379 0.036266739111709627 0 -0.00062120608147417107 0.035586412485369298 0 -0.00128439481441172 0.036193333797763558 0 -0.0016166840096577596 0.035847823978463769 0 -0.00062120608147417107 0.035586412485369298 0 -0.00128439481441172 0.036193333797763558 0 -0.00063752699988642379 0.036266739111709627 0 -0.00128439481441172 0.036193333797763558 0 -0.00063752699988642379 0.036266739111709627 0 -0.001620477219817746 0.036936372141180646 0 -0.00128439481441172 0.036193333797763558 0 -0.0019648520380955757 0.036389818358175188 0 -0.001620477219817746 0.036936372141180646 0 -0.00128439481441172 0.036193333797763558 0 -0.0019648520380955757 0.036389818358175188 0 -0.0016166840096577596 0.035847823978463769 0 -0.0019648520380955757 0.036389818358175188 0 -0.0016166840096577596 0.035847823978463769 0 -0.0022715904154545991 0.035881781513039779 0 -0.0004456727010534895 0.035844061065678313 0 -0.0019435732087272307 0.035363270564935406 0 -0.00062120608147417107 0.035586412485369298 0 -0.0016166840096577596 0.035847823978463769 0 -0.0020563816658713866 0.035347441618639966 0 -0.00025200906713394698 0.03612068313334179 0 -0.00193571281855247 0.034999700944603487 0 -0.0020563816658713866 0.035347441618639966 0 -0.0016166840096577596 0.035847823978463769 0 -0.0022715904154545991 0.035881781513039779 0 -0.0020563816658713866 0.035347441618639966 0 -0.00193571281855247 0.034999700944603487 0 -0.0020563816658713866 0.035347441618639966 0 -0.0026263763504327754 0.035442504861153822 0 -0.00193571281855247 0.034999700944603487 0 -0.0026263763504327754 0.035442504861153822 0 -0.0038792531660458876 0.034999762332947312 0 -0.0026263763504327754 0.035442504861153822 0 -0.0038792531660458876 0.034999762332947312 0 -0.0030032544862423028 0.03592672491746219 0 -0.0022715904154545991 0.035881781513039779 0 -0.0026263763504327754 0.035442504861153822 0 -0.0030032544862423028 0.03592672491746219 0 -0.0022715904154545991 0.035881781513039779 0 -0.0020563816658713866 0.035347441618639966 0 -0.0026263763504327754 0.035442504861153822 0 -0.0038792531660458876 0.034999762332947312 0 -0.0038597148909948037 0.036261434010939265 0 -0.0047162339030133345 0.036054953591362841 0 -0.0038792531660458876 0.034999762332947312 0 -0.0038597148909948037 0.036261434010939265 0 -0.0030032544862423028 0.03592672491746219 0 -0.0038597148909948037 0.036261434010939265 0 -0.0030032544862423028 0.03592672491746219 0 -0.0027832858594078898 0.036465809088666659 0 -0.0038597148909948037 0.036261434010939265 0 -0.0027832858594078898 0.036465809088666659 0 -0.003457156293613609 0.037029416976846322 0 -0.0022715904154545991 0.035881781513039779 0 -0.0030032544862423028 0.03592672491746219 0 -0.0027832858594078898 0.036465809088666659 0 -0.0019648520380955757 0.036389818358175188 0 -0.0022715904154545991 0.035881781513039779 0 -0.0027832858594078898 0.036465809088666659 0 -0.0027832858594078898 0.036465809088666659 0 -0.003457156293613609 0.037029416976846322 0 -0.0024852470895111714 0.03734179898049609 0 -0.003457156293613609 0.037029416976846322 0 -0.0024852470895111714 0.03734179898049609 0 -0.0036313595271749506 0.037916371493164548 0 -0.0019648520380955757 0.036389818358175188 0 -0.0027832858594078898 0.036465809088666659 0 -0.0024852470895111714 0.03734179898049609 0 -0.0038597148909948037 0.036261434010939265 0 -0.00495131539408922 0.036562954548272492 0 -0.0045973996481529153 0.037230297137996943 0 -0.003457156293613609 0.037029416976846322 0 -0.0036313595271749506 0.037916371493164548 0 -0.0045973996481529153 0.037230297137996943 0 -0.0038597148909948037 0.036261434010939265 0 -0.003457156293613609 0.037029416976846322 0 -0.0045973996481529153 0.037230297137996943 0 -0.0036313595271749506 0.037916371493164548 0 -0.0046212804529781656 0.038168892461028607 0 -0.0045973996481529153 0.037230297137996943 0 -0.0036313595271749506 0.037916371493164548 0 -0.0046212804529781656 0.038168892461028607 0 -0.0040426660057295187 0.038985208065329555 0 -0.0024852470895111714 0.03734179898049609 0 -0.0036313595271749506 0.037916371493164548 0 -0.0027899630434501687 0.038579334441921027 0 -0.0036313595271749506 0.037916371493164548 0 -0.0027899630434501687 0.038579334441921027 0 -0.0040426660057295187 0.038985208065329555 0 -0.0024852470895111714 0.03734179898049609 0 -0.0027899630434501687 0.038579334441921027 0 -0.0015338034340764389 0.03809320770877702 0 -0.0013554813337625753 0.037326320310104771 0 -0.00040320841776132131 0.037029990733671463 0 -0.00060592533896874489 0.037841871384708022 0 -0.00063752699988642379 0.036266739111709627 0 -0.0015338034340764389 0.03809320770877702 0 -0.001620477219817746 0.036936372141180646 0 5.7294182675064024e-05 0.036453507883508048 0 -0.00063752699988642379 0.036266739111709627 0 -0.00040320841776132131 0.037029990733671463 0 -0.0006818276489688965 0.03635731488351443 0 -0.0014610959147138604 0.037670219126529465 0 -0.00063752699988642379 0.036266739111709627 0 -0.0013554813337625753 0.037326320310104771 0 -0.00040320841776132131 0.037029990733671463 0 -0.0024852470895111714 0.03734179898049609 0 -0.0015338034340764389 0.03809320770877702 0 -0.001620477219817746 0.036936372141180646 0 -0.0019648520380955757 0.036389818358175188 0 -0.0024852470895111714 0.03734179898049609 0 -0.001620477219817746 0.036936372141180646 0 -0.0078668566734160315 0.036085890819954183 0 -0.0075591637533592888 0.037186777746941888 0 -0.0094244220451309493 0.036667586983010154 0 -0.0078668566734160315 0.036085890819954183 0 -0.0089855626083271186 0.035735758190294425 0 -0.0094244220451309493 0.036667586983010154 0 -0.0077264943843610373 0.037046532695245153 0 -0.009600256204134348 0.036565291882857169 0 -0.0078476523147927319 0.03612352517058523 0 -0.0077264943843610373 0.037046532695245153 0 -0.0078409666356065739 0.03610407620790114 0 -0.0081603827148107287 0.034999993885605173 0 -0.0069915587273092399 0.035000000162815945 0 -0.0078668566734160315 0.036085890819954183 0 -0.0081604311263623139 0.034999991187212504 0 -0.0089855626083271186 0.035735758190294425 0 -0.0078476523147927319 0.03612352517058523 0 -0.0081603158314447078 0.03500030330275037 0 -0.0078409666356065739 0.03610407620790114 0 -0.0069915587273092399 0.035000000162815945 0 -0.0071019361826603422 0.036382794841992215 0 -0.0069915587273092399 0.035000000162815945 0 -0.0071019361826603422 0.036382794841992215 0 -0.0063264935981522403 0.036203208835614425 0 -0.0062404497681710965 0.036059810721466502 0 -0.0070141983168190911 0.036926988499136525 0 -0.0078409666356065739 0.03610407620790114 0 -0.0071019361826603422 0.036382794841992215 0 -0.0075286998493098861 0.037198563769666765 0 -0.0071019361826603422 0.036382794841992215 0 -0.0063264935981522403 0.036203208835614425 0 -0.0068218782138661296 0.037396098645983276 0 -0.0071019361826603422 0.036382794841992215 0 -0.0068218782138661296 0.037396098645983276 0 -0.0075286998493098861 0.037198563769666765 0 -0.0056709252106541047 0.036346604875265399 0 -0.0061681180118696305 0.035917449998985676 0 -0.0065269117757327114 0.036740737127080605 0 -0.0056709252106541047 0.036346604875265399 0 -0.0061681180118696305 0.035917449998985676 0 -0.0053227237848988175 0.035649912385734249 0 -0.0061681180118696305 0.035917449998985676 0 -0.0058224356170793181 0.034999804196225996 0 -0.0053227237848988175 0.035649912385734249 0 -0.0069915587273092399 0.035000000162815945 0 -0.0063264935981522403 0.036203208835614425 0 -0.0058227282076511854 0.034999993937800983 0 -0.0062404497681710965 0.036059810721466502 0 -0.0058228218328471989 0.035000276182779413 0 -0.0038792531660458876 0.034999762332947312 0 -0.0058224356170793181 0.034999804196225996 0 -0.0053227237848988175 0.035649912385734249 0 -0.0038792531660458876 0.034999762332947312 0 -0.0053227237848988175 0.035649912385734249 0 -0.0047162339030133345 0.036054953591362841 0 -0.0056709252106541047 0.036346604875265399 0 -0.0053227237848988175 0.035649912385734249 0 -0.0047162339030133345 0.036054953591362841 0 -0.0056709252106541047 0.036346604875265399 0 -0.0047162339030133345 0.036054953591362841 0 -0.00495131539408922 0.036562954548272492 0 -0.0038597148909948037 0.036261434010939265 0 -0.0047162339030133345 0.036054953591362841 0 -0.00495131539408922 0.036562954548272492 0 -0.00495131539408922 0.036562954548272492 0 -0.0045973996481529153 0.037230297137996943 0 -0.0058404672945233799 0.036939908788064552 0 -0.0045973996481529153 0.037230297137996943 0 -0.0057171580606179048 0.037852341414138624 0 -0.0058404672945233799 0.036939908788064552 0 -0.0056709252106541047 0.036346604875265399 0 -0.00495131539408922 0.036562954548272492 0 -0.0058404672945233799 0.036939908788064552 0 -0.0046212804529781656 0.038168892461028607 0 -0.0045973996481529153 0.037230297137996943 0 -0.0057171580606179048 0.037852341414138624 0 -0.0046212804529781656 0.038168892461028607 0 -0.0057171580606179048 0.037852341414138624 0 -0.0050727425074033189 0.038993356726389497 0 -0.0057171580606179048 0.037852341414138624 0 -0.0065612090908757689 0.038192945122416194 0 -0.0065431454467903731 0.037439239270060952 0 -0.0065612090908757689 0.038192945122416194 0 -0.0070434525693595686 0.037832575757700694 0 -0.0073170395520289226 0.038555227400886724 0 -0.0065612090908757689 0.038192945122416194 0 -0.0070434525693595686 0.037832575757700694 0 -0.0065431454467903731 0.037439239270060952 0 -0.0070434525693595686 0.037832575757700694 0 -0.0065431454467903731 0.037439239270060952 0 -0.0072875884217387596 0.037371267714248306 0 -0.0059654738984683689 0.036885781396820208 0 -0.0070141983168190911 0.036926988499136525 0 -0.0065431454467903731 0.037439239270060952 0 -0.0058404672945233799 0.036939908788064552 0 -0.0073742375891092836 0.036451026446548324 0 -0.0065431454467903731 0.037439239270060952 0 -0.0073742375891092836 0.036451026446548324 0 -0.0072875884217387596 0.037371267714248306 0 -0.0056709252106541047 0.036346604875265399 0 -0.0058404672945233799 0.036939908788064552 0 -0.0065269117757327114 0.036740737127080605 0 -0.0057171580606179048 0.037852341414138624 0 -0.0065431454467903731 0.037439239270060952 0 -0.0058404672945233799 0.036939908788064552 0 -0.0077264943843610373 0.037046532695245153 0 -0.0077786532751972851 0.037390787893928704 0 -0.0074418216433440963 0.037066149259864255 0 -0.0076336399103036088 0.037012799891096432 0 -0.0075585110608131128 0.037347583893067735 0 -0.0070141983168190911 0.036926988499136525 0 -0.0077264943843610373 0.037046532695245153 0 -0.0073742375891092836 0.036451026446548324 0 -0.0072875884217387596 0.037371267714248306 0 -0.0078044650964105003 0.037589993964126045 0 -0.0070141983168190911 0.036926988499136525 0 -0.0077786532751972851 0.037390787893928704 0 -0.007189233949334203 0.037737376837673239 0 -0.0077786532751972851 0.037390787893928704 0 -0.0070434525693595686 0.037832575757700694 0 -0.0072875884217387596 0.037371267714248306 0 -0.0078044650964105003 0.037589993964126045 0 -0.0070434525693595686 0.037832575757700694 0 -0.0076230376719288008 0.038282031487324807 0 -0.0078514256744704296 0.037519680920942149 0 -0.0070434525693595686 0.037832575757700694 0 -0.0076230376719288008 0.038282031487324807 0 -0.0073170395520289226 0.038555227400886724 0 -0.0076036903366820405 0.038227555327388606 0 -0.0077786532751972851 0.037390787893928704 0 -0.0077786532751972851 0.037390787893928704 0 -0.0079908945684333994 0.03770361955439562 0 -0.0076230376719288008 0.038282031487324807 0 -0.0077705535680664866 0.037853069697165301 0 -0.0079671724889653524 0.038252740775590481 0 -0.0075992556646041374 0.036214340487840425 0 -0.0087485589407694086 0.036538900893323567 0 -0.0080024130560698049 0.037231106919197031 0 -0.0075992556646041374 0.036214340487840425 0 -0.0087485589407694086 0.036538900893323567 0 -0.0095531598750705077 0.035580923812896258 0 -0.0087485589407694086 0.036538900893323567 0 -0.0088625718180705658 0.037176391998259374 0 -0.0080024130560698049 0.037231106919197031 0 -0.0087485589407694086 0.036538900893323567 0 -0.0088625718180705658 0.037176391998259374 0 -0.0097429865645337899 0.036544567764814441 0 -0.0077786532751972851 0.037390787893928704 0 -0.009474059495251581 0.036486040844058223 0 -0.0080904856082851632 0.036936961303165504 0 -0.0094048298067950491 0.037452230565270195 0 -0.0096945972028419144 0.036487151474648455 0 -0.0080904856082851632 0.036936961303165504 0 -0.0078484547406473607 0.03799670581988536 0 -0.0094048298067950491 0.037452230565270195 0 -0.0081568693510033832 0.038840309338666057 0 -0.0083503354168832575 0.038280220841638991 0 -0.0095194996195619719 0.039250821601314614 0 -0.0088625718180705658 0.037176391998259374 0 -0.0083503354168832575 0.038280220841638991 0 -0.0096611881969276055 0.037399956409068236 0 -0.0088625718180705658 0.037176391998259374 0 -0.0083503354168832575 0.038280220841638991 0 -0.0080024130560698049 0.037231106919197031 0 -0.0082900574496781645 0.038267732179075149 0 -0.0079908945684333994 0.03770361955439562 0 -0.0083503354168832575 0.038280220841638991 0 -0.0077994657870378101 0.038460656694354896 0 -0.0079671724889653524 0.038252740775590481 0 -0.0076230376719288008 0.038282031487324807 0 -0.0077994657870378101 0.038460656694354896 0 -0.0079671724889653524 0.038252740775590481 0 -0.0076230376719288008 0.038282031487324807 0 -0.0077994657870378101 0.038460656694354896 0 -0.0073170395520289226 0.038555227400886724 0 -0.0077994657870378101 0.038460656694354896 0 -0.007549699956168999 0.038583758013048454 0 -0.0073170395520289226 0.038555227400886724 0 -0.0081568693510033832 0.038840309338666057 0 -0.0083503354168832575 0.038280220841638991 0 -0.0077994657870378101 0.038460656694354896 0 -0.0081568693510033832 0.038840309338666057 0 -0.0077994657870378101 0.038460656694354896 0 -0.0076926967304831251 0.038734910530843734 0 -0.0077994657870378101 0.038460656694354896 0 -0.0076926967304831251 0.038734910530843734 0 -0.007549699956168999 0.038583758013048454 0 -0.0076926967304831251 0.038734910530843734 0 -0.007527063792661169 0.038611348730990577 0 -0.0077379127948500361 0.038839118751578611 0 -0.0066145164585387547 0.039014017186603925 0 -0.0075160544528040706 0.038721337780117396 0 -0.0076926967304831251 0.038734910530843734 0 -0.007549699956168999 0.038583758013048454 0 -0.007527063792661169 0.038611348730990577 0 -0.007549699956168999 0.038583758013048454 0 -0.0073170395520289226 0.038555227400886724 0 -0.007527063792661169 0.038611348730990577 0 -0.0057171580606179048 0.037852341414138624 0 -0.0065612090908757689 0.038192945122416194 0 -0.0061266597503885686 0.039505096858740936 0 -0.0065612090908757689 0.038192945122416194 0 -0.0073170395520289226 0.038555227400886724 0 -0.0061266597503885686 0.039505096858740936 0 -0.0073256095400882288 0.038588876986539671 0 -0.0066145164585387547 0.039014017186603925 0 -0.0057171580606179048 0.037852341414138624 0 -0.0058120781030645162 0.039694029475148079 0 -0.0050727425074033189 0.038993356726389497 0 -0.0056309182735446231 0.038159452311713415 0 -0.0066145164585387547 0.039014017186603925 0 -0.0071427461506186765 0.038473623271156179 0 -0.007188434756483667 0.03882621475057995 0 -0.006878186337557656 0.03867351111983381 0 -0.0058120781030645162 0.039694029475148079 0 -0.0050727425074033189 0.038993356726389497 0 -0.0045782516805878129 0.040599950655611873 0 -0.0066145164585387547 0.039014017186603925 0 -0.0057892653321385259 0.039673663363876184 0 -0.0069943057414275731 0.039019753249777495 0 -0.007188434756483667 0.03882621475057995 0 -0.006878186337557656 0.03867351111983381 0 -0.0069943057414275731 0.039019753249777495 0 -0.0072533686285648864 0.039190395232197313 0 -0.007188434756483667 0.03882621475057995 0 -0.0069943057414275731 0.039019753249777495 0 -0.007050634935890969 0.039218868355508564 0 -0.0067942647818607449 0.039225239878120807 0 -0.0069943057414275731 0.039019753249777495 0 -0.007050634935890969 0.039218868355508564 0 -0.0072533686285648864 0.039190395232197313 0 -0.0078613882060433807 0.038622189135504963 0 -0.0078467241107194365 0.038633513804009284 0 -0.0077379127948500361 0.038839118751578611 0 -0.007544581375868724 0.03894160734145815 0 -0.0075160544528040706 0.038721337780117396 0 -0.0078613882060433807 0.038622189135504963 0 -0.0078467241107194365 0.038633513804009284 0 -0.0081946167944402914 0.038733028091264415 0 -0.0078467241107194365 0.038633513804009284 0 -0.0077379127948500361 0.038839118751578611 0 -0.0078237634765876626 0.038932225787841633 0 -0.0076926967304831251 0.038734910530843734 0 -0.0077379127948500361 0.038839118751578611 0 -0.0078237634765876626 0.038932225787841633 0 -0.0081568693510033832 0.038840309338666057 0 -0.0076926967304831251 0.038734910530843734 0 -0.0078237634765876626 0.038932225787841633 0 -0.0078467241107194365 0.038633513804009284 0 -0.0078237634765876626 0.038932225787841633 0 -0.0080602689734499498 0.039224651686926973 0 -0.0081568693510033832 0.038840309338666057 0 -0.0078237634765876626 0.038932225787841633 0 -0.0080602689734499498 0.039224651686926973 0 -0.0078467241107194365 0.038633513804009284 0 -0.0090080077028670477 0.037851745644455953 0 -0.0081946167944402914 0.038733028091264415 0 -0.0090080077028670477 0.037851745644455953 0 -0.0081946167944402914 0.038733028091264415 0 -0.008687603349751093 0.038922382659911069 0 -0.0079259295747758467 0.03863054577026305 0 -0.0085812819260243055 0.03853479510912261 0 -0.0090080077028670477 0.037851745644455953 0 -0.0096257437981425008 0.038483249072603046 0 -0.008687603349751093 0.038922382659911069 0 -0.0085812819260243055 0.03853479510912261 0 -0.0099501710464117762 0.038331773430585275 0 -0.0090080077028670477 0.037851745644455953 0 -0.0096257437981425008 0.038483249072603046 0 -0.010377035923745434 0.03744214182640887 0 -0.0081568693510033832 0.038840309338666057 0 -0.0080602689734499498 0.039224651686926973 0 -0.0095194996195619719 0.039250821601314614 0 -0.0015870247027807171 0.03913753039190513 0 -0.0022682219695963628 0.038543278607717758 0 -0.002360925617699797 0.039539563840062047 0 -0.0015870247027807171 0.03913753039190513 0 -0.00075507840339551595 0.038673504430078477 0 -0.0022682219695963628 0.038543278607717758 0 -0.0015870247027807171 0.03913753039190513 0 -0.00075507840339551595 0.038673504430078477 0 -0.00082703446225255561 0.039304235739900772 0 -0.00075507840339551595 0.038673504430078477 0 -0.00060592533896874489 0.037841871384708022 0 -0.0022682219695963628 0.038543278607717758 0 -0.0014610959147138604 0.037670219126529465 0 -0.0022382499273850671 0.039330996604776028 0 -0.0027899630434501687 0.038579334441921027 0 -0.0015338034340764389 0.03809320770877702 0 -0.0024613788238933756 0.03977381277188656 0 -0.0013554813337625753 0.037326320310104771 0 -0.00060592533896874489 0.037841871384708022 0 -0.0022682219695963628 0.038543278607717758 0 -0.0027899630434501687 0.038579334441921027 0 -0.0036070938720403423 0.039933494144305075 0 -0.0024613788238933756 0.03977381277188656 0 -0.0027899630434501687 0.038579334441921027 0 -0.0040426660057295187 0.038985208065329555 0 -0.0036070938720403423 0.039933494144305075 0 -0.0050727425074033189 0.038993356726389497 0 -0.0040426660057295187 0.038985208065329555 0 -0.0045782516805878129 0.040599950655611873 0 -0.0046212804529781656 0.038168892461028607 0 -0.0050727425074033189 0.038993356726389497 0 -0.0040426660057295187 0.038985208065329555 0 -0.0036070938720403423 0.039933494144305075 0 -0.0045782516805878129 0.040599950655611873 0 -0.0033997543787698749 0.041490683614724744 0 -0.0040426660057295187 0.038985208065329555 0 -0.0036070938720403423 0.039933494144305075 0 -0.0045782516805878129 0.040599950655611873 0 -0.0022382499273850671 0.039330996604776028 0 -0.0041084135393279477 0.039489004186347439 0 -0.0036070938720403423 0.039933494144305075 0 -0.0024613788238933756 0.03977381277188656 0 -0.0033997543787698749 0.041490683614724744 0 -0.0022682219695963628 0.038543278607717758 0 -0.0027535524483198802 0.039493987637645049 0 -0.002360925617699797 0.039539563840062047 0 -0.0069943057414275731 0.039019753249777495 0 -0.006878186337557656 0.03867351111983381 0 -0.00659132518130241 0.038883649328269036 0 -0.0057892653321385259 0.039673663363876184 0 -0.0041084135393279477 0.039489004186347439 0 -0.0069943057414275731 0.039019753249777495 0 -0.00659132518130241 0.038883649328269036 0 -0.0067942647818607449 0.039225239878120807 0 -0.0040627742827157439 0.038442087460103122 0 -0.0046058955916956175 0.03959052861835384 0 -0.0037273330194728975 0.03947444039574189 0 -0.0041084135393279477 0.039489004186347439 0 -0.0058217897622127911 0.039301641854829504 0 -0.0040627742827157439 0.038442087460103122 0 -0.0037273330194728975 0.03947444039574189 0 -0.0025839001289225017 0.039849090875938249 0 -0.0027535524483198802 0.039493987637645049 0 -0.0025839001289225017 0.039849090875938249 0 -0.002360925617699797 0.039539563840062047 0 -0.0041084135393279477 0.039489004186347439 0 -0.0024007825007522298 0.039682791052295663 0 -0.002694228222834378 0.040085759552087284 0 -0.0025839001289225017 0.039849090875938249 0 -0.0031553515121680617 0.039892637959541712 0 -0.0025839001289225017 0.039849090875938249 0 -0.0021673030770215269 0.039742171067588962 0 -0.002360925617699797 0.039539563840062047 0 -0.0037273330194728975 0.03947444039574189 0 -0.0025839001289225017 0.039849090875938249 0 -0.0031553515121680617 0.039892637959541712 0 -0.0025839001289225017 0.039849090875938249 0 -0.002271809664664289 0.04001370762045172 0 -0.0021673030770215269 0.039742171067588962 0 -0.002694228222834378 0.040085759552087284 0 -0.002271809664664289 0.04001370762045172 0 -0.0020285601174589306 0.040228765092137436 0 -0.002694228222834378 0.040085759552087284 0 -0.0025839001289225017 0.039849090875938249 0 -0.002271809664664289 0.04001370762045172 0 -0.002271809664664289 0.04001370762045172 0 -0.0021673030770215269 0.039742171067588962 0 -0.0018509890787528371 0.040042912079694751 0 -0.0021673030770215269 0.039742171067588962 0 -0.002360925617699797 0.039539563840062047 0 -0.0016199242583545238 0.039609855554027976 0 -0.0015870247027807171 0.03913753039190513 0 -0.002360925617699797 0.039539563840062047 0 -0.0016199242583545238 0.039609855554027976 0 -0.0015870247027807171 0.03913753039190513 0 -0.00082703446225255561 0.039304235739900772 0 -0.0016199242583545238 0.039609855554027976 0 -0.0016199242583545238 0.039609855554027976 0 -0.00097909093410915825 0.039692073539740184 0 -0.0011525806710507046 0.040054104441625313 0 -0.00082703446225255561 0.039304235739900772 0 -0.0016199242583545238 0.039609855554027976 0 -0.00097909093410915825 0.039692073539740184 0 -0.0003779676080518034 0.039819861210430844 0 -0.00097909093410915825 0.039692073539740184 0 -0.0011525806710507046 0.040054104441625313 0 -0.0003779676080518034 0.039819861210430844 0 -0.00082703446225255561 0.039304235739900772 0 -0.00097909093410915825 0.039692073539740184 0 -0.0021673030770215269 0.039742171067588962 0 -0.0016199242583545238 0.039609855554027976 0 -0.0018509890787528371 0.040042912079694751 0 -0.0016199242583545238 0.039609855554027976 0 -0.0011525806710507046 0.040054104441625313 0 -0.0018509890787528371 0.040042912079694751 0 -0.002694228222834378 0.040085759552087284 0 -0.0020285601174589306 0.040228765092137436 0 -0.0017822462855170173 0.040668010868568506 0 -0.0011525806710507046 0.040054104441625313 0 -0.0018509890787528371 0.040042912079694751 0 -0.0015656066460295888 0.040407551190341957 0 -0.002271809664664289 0.04001370762045172 0 -0.0018509890787528371 0.040042912079694751 0 -0.0020285601174589306 0.040228765092137436 0 -0.0018509890787528371 0.040042912079694751 0 -0.0015656066460295888 0.040407551190341957 0 -0.0020285601174589306 0.040228765092137436 0 -0.0015656066460295888 0.040407551190341957 0 -0.0012309886973703803 0.040760312503998287 0 -0.0017822462855170173 0.040668010868568506 0 -0.0015656066460295888 0.040407551190341957 0 -0.0020285601174589306 0.040228765092137436 0 -0.0017822462855170173 0.040668010868568506 0 -0.0011525806710507046 0.040054104441625313 0 -0.0015656066460295888 0.040407551190341957 0 -0.0010320592247981158 0.040548612495974357 0 -0.00032983450840255886 0.040583362384133133 0 -0.0011525806710507046 0.040054104441625313 0 -0.0010320592247981158 0.040548612495974357 0 -0.0015656066460295888 0.040407551190341957 0 -0.0010320592247981158 0.040548612495974357 0 -0.0012309886973703803 0.040760312503998287 0 -0.0010320592247981158 0.040548612495974357 0 -0.00074567469819648944 0.040978858725929164 0 -0.0012309886973703803 0.040760312503998287 0 -0.0012983001369604129 0.040835465866588372 0 -0.0025707852687127438 0.040176523679322944 0 -0.0010286749327849715 0.04123769809639323 0 -0.0012309886973703803 0.040760312503998287 0 -0.0017822462855170173 0.040668010868568506 0 -0.00061592442247201148 0.042179912348666318 0 -0.0010286749327849715 0.04123769809639323 0 -0.0017822462855170173 0.040668010868568506 0 -0.0021687001277859645 0.039547808845839805 0 -0.0027587193079147785 0.039902014657769727 0 -0.0026227388667762037 0.039819709136105642 0 -0.0021687001277859645 0.039547808845839805 0 -0.002694228222834378 0.040085759552087284 0 -0.0027587193079147785 0.039902014657769727 0 -0.00061592442247201148 0.042179912348666318 0 -0.002694228222834378 0.040085759552087284 0 -0.0017822462855170173 0.040668010868568506 0 -0.00074567469819648944 0.040978858725929164 0 -0.0010286749327849715 0.04123769809639323 0 -0.0012309886973703803 0.040760312503998287 0 -0.00054168995241181438 0.041507016751555589 0 -0.00074567469819648944 0.040978858725929164 0 -0.0010286749327849715 0.04123769809639323 0 -0.0027587193079147785 0.039902014657769727 0 -0.003046299024378927 0.040044770919257615 0 -0.0026227388667762037 0.039819709136105642 0 -0.00061592442247201148 0.042179912348666318 0 -0.00054168995241181438 0.041507016751555589 0 -0.0010286749327849715 0.04123769809639323 0 -0.002694228222834378 0.040085759552087284 0 -0.0031553515121680617 0.039892637959541712 0 -0.0029261049678258053 0.03997657025455302 0 -0.0031553515121680617 0.039892637959541712 0 -0.0029261049678258053 0.03997657025455302 0 -0.0031971111468001678 0.040001837157109948 0 -0.002694228222834378 0.040085759552087284 0 -0.0029261049678258053 0.03997657025455302 0 -0.0027587193079147785 0.039902014657769727 0 -0.0027587193079147785 0.039902014657769727 0 -0.0031971111468001678 0.040001837157109948 0 -0.003046299024378927 0.040044770919257615 0 -0.0029261049678258053 0.03997657025455302 0 -0.0027587193079147785 0.039902014657769727 0 -0.0031971111468001678 0.040001837157109948 0 -0.0031971111468001678 0.040001837157109948 0 -0.003046299024378927 0.040044770919257615 0 -0.003685123708639786 0.040243869246675189 0 -0.003046299024378927 0.040044770919257615 0 -0.0033191115635991179 0.040370741171164758 0 -0.003685123708639786 0.040243869246675189 0 -0.0033191115635991179 0.040370741171164758 0 -0.003685123708639786 0.040243869246675189 0 -0.0038353045783850442 0.040641913456395853 0 -0.0018456917742357927 0.039369548576502642 0 -0.0024154852796770513 0.039715030879770775 0 -0.0027762987855946839 0.040111013289856438 0 -0.0024154852796770513 0.039715030879770775 0 -0.0026227388667762037 0.039819709136105642 0 -0.0027762987855946839 0.040111013289856438 0 -0.0021687001277859645 0.039547808845839805 0 -0.0024154852796770513 0.039715030879770775 0 -0.0026227388667762037 0.039819709136105642 0 -0.003046299024378927 0.040044770919257615 0 -0.0026227388667762037 0.039819709136105642 0 -0.0027762987855946839 0.040111013289856438 0 -0.003046299024378927 0.040044770919257615 0 -0.0033191115635991179 0.040370741171164758 0 -0.0027762987855946839 0.040111013289856438 0 -0.0026041768480248545 0.040827204575562451 0 -0.0027762987855946839 0.040111013289856438 0 -0.0033051985827714674 0.040787839114345366 0 -0.0033191115635991179 0.040370741171164758 0 -0.0027762987855946839 0.040111013289856438 0 -0.0033051985827714674 0.040787839114345366 0 -0.0033051985827714674 0.040787839114345366 0 -0.0038353045783850442 0.040641913456395853 0 -0.0038683376861107419 0.041042816808888327 0 -0.0033191115635991179 0.040370741171164758 0 -0.0033051985827714674 0.040787839114345366 0 -0.0038353045783850442 0.040641913456395853 0 -0.0038683376861107419 0.041042816808888327 0 -0.0034536314911113356 0.041312484261308798 0 -0.0040576388799444824 0.041487342980821823 0 -0.0038683376861107419 0.041042816808888327 0 -0.0044204245494746533 0.041067124002229741 0 -0.0040576388799444824 0.041487342980821823 0 -0.0038353045783850442 0.040641913456395853 0 -0.0038683376861107419 0.041042816808888327 0 -0.0044204245494746533 0.041067124002229741 0 -0.0033051985827714674 0.040787839114345366 0 -0.0038683376861107419 0.041042816808888327 0 -0.0034536314911113356 0.041312484261308798 0 -0.0026041768480248545 0.040827204575562451 0 -0.0033051985827714674 0.040787839114345366 0 -0.0034536314911113356 0.041312484261308798 0 -0.0050183452684658897 0.041100501489245711 0 -0.0044204245494746533 0.041067124002229741 0 -0.0049124682730369131 0.040681606992089711 0 -0.0050183452684658897 0.041100501489245711 0 -0.0049124682730369131 0.040681606992089711 0 -0.0055866005960131439 0.040681538244444329 0 -0.0050183452684658897 0.041100501489245711 0 -0.0056621866136943068 0.041078708680599915 0 -0.0055650032666219795 0.041502987958398609 0 -0.0050183452684658897 0.041100501489245711 0 -0.0044204245494746533 0.041067124002229741 0 -0.0046040753035867313 0.041490028078904249 0 -0.0044204245494746533 0.041067124002229741 0 -0.0040576388799444824 0.041487342980821823 0 -0.0046040753035867313 0.041490028078904249 0 -0.0044204245494746533 0.041067124002229741 0 -0.0043352229257413825 0.040519420678994195 0 -0.0049124682730369131 0.040681606992089711 0 -0.0038353045783850442 0.040641913456395853 0 -0.0044204245494746533 0.041067124002229741 0 -0.0043352229257413825 0.040519420678994195 0 -0.003685123708639786 0.040243869246675189 0 -0.0038353045783850442 0.040641913456395853 0 -0.0043352229257413825 0.040519420678994195 0 -0.0043352229257413825 0.040519420678994195 0 -0.0049124682730369131 0.040681606992089711 0 -0.0048383573222929941 0.040368280451767984 0 -0.0049124682730369131 0.040681606992089711 0 -0.0055866005960131439 0.040681538244444329 0 -0.0053148289096280835 0.040445971276319256 0 -0.0049124682730369131 0.040681606992089711 0 -0.0048383573222929941 0.040368280451767984 0 -0.0053148289096280835 0.040445971276319256 0 -0.0048383573222929941 0.040368280451767984 0 -0.0044250547929654107 0.04016008701781687 0 -0.0052103440783766832 0.040060298387930349 0 -0.0043352229257413825 0.040519420678994195 0 -0.0048383573222929941 0.040368280451767984 0 -0.0044250547929654107 0.04016008701781687 0 -0.003685123708639786 0.040243869246675189 0 -0.0043352229257413825 0.040519420678994195 0 -0.0044250547929654107 0.04016008701781687 0 -0.003685123708639786 0.040243869246675189 0 -0.0044250547929654107 0.04016008701781687 0 -0.0038022963199093149 0.039932027530256924 0 -0.0046058955916956175 0.03959052861835384 0 -0.0037273330194728975 0.03947444039574189 0 -0.0038022963199093149 0.039932027530256924 0 -0.0031971111468001678 0.040001837157109948 0 -0.003685123708639786 0.040243869246675189 0 -0.0038022963199093149 0.039932027530256924 0 -0.0037273330194728975 0.03947444039574189 0 -0.0031553515121680617 0.039892637959541712 0 -0.0038022963199093149 0.039932027530256924 0 -0.0031553515121680617 0.039892637959541712 0 -0.0031971111468001678 0.040001837157109948 0 -0.0038022963199093149 0.039932027530256924 0 -0.0058217897622127911 0.039301641854829504 0 -0.0061182801783098732 0.039849667725259545 0 -0.0046058955916956175 0.03959052861835384 0 -0.0044250547929654107 0.04016008701781687 0 -0.0038022963199093149 0.039932027530256924 0 -0.0046058955916956175 0.03959052861835384 0 -0.0044250547929654107 0.04016008701781687 0 -0.0052103440783766832 0.040060298387930349 0 -0.007050634935890969 0.039218868355508564 0 -0.0067942647818607449 0.039225239878120807 0 -0.0070087568872898888 0.039595971451484094 0 -0.007050634935890969 0.039218868355508564 0 -0.0071660423261720313 0.039400747357416603 0 -0.0070087568872898888 0.039595971451484094 0 -0.007050634935890969 0.039218868355508564 0 -0.0072533686285648864 0.039190395232197313 0 -0.0071660423261720313 0.039400747357416603 0 -0.0081946167944402914 0.038733028091264415 0 -0.0078148795704348576 0.039303143833844506 0 -0.008687603349751093 0.038922382659911069 0 -0.0078613882060433807 0.038622189135504963 0 -0.0081946167944402914 0.038733028091264415 0 -0.0078148795704348576 0.039303143833844506 0 -0.007544581375868724 0.03894160734145815 0 -0.0075761681220529392 0.039473385892653465 0 -0.0072533686285648864 0.039190395232197313 0 -0.0071660423261720313 0.039400747357416603 0 -0.0073587807395189163 0.039590414992648204 0 -0.0061182801783098732 0.039849667725259545 0 -0.0066643714880130428 0.040326236513587375 0 -0.0048383573222929941 0.040368280451767984 0 -0.0052103440783766832 0.040060298387930349 0 -0.0053148289096280835 0.040445971276319256 0 -0.0071660423261720313 0.039400747357416603 0 -0.0073587807395189163 0.039590414992648204 0 -0.0070087568872898888 0.039595971451484094 0 -0.0073587807395189163 0.039590414992648204 0 -0.0070087568872898888 0.039595971451484094 0 -0.0072951589398312783 0.040045352411208851 0 -0.0096257437981425008 0.038483249072603046 0 -0.008687603349751093 0.038922382659911069 0 -0.0093010851346464665 0.039259199205790817 0 -0.0096257437981425008 0.038483249072603046 0 -0.0093010851346464665 0.039259199205790817 0 -0.010312688527924597 0.03900945907353056 0 -0.0078148795704348576 0.039303143833844506 0 -0.008687603349751093 0.038922382659911069 0 -0.0082514200264820117 0.039640809660985744 0 -0.008687603349751093 0.038922382659911069 0 -0.0082514200264820117 0.039640809660985744 0 -0.0093010851346464665 0.039259199205790817 0 -0.0082514200264820117 0.039640809660985744 0 -0.0093010851346464665 0.039259199205790817 0 -0.0089358793065611019 0.039821988718575958 0 -0.0093010851346464665 0.039259199205790817 0 -0.0089358793065611019 0.039821988718575958 0 -0.0099834086431743723 0.03967539270026342 0 -0.0089358793065611019 0.039821988718575958 0 -0.0095399097692053306 0.040400797180600752 0 -0.0099834086431743723 0.03967539270026342 0 -0.0089358793065611019 0.039821988718575958 0 -0.0085520135314733348 0.0402815664631141 0 -0.0095399097692053306 0.040400797180600752 0 -0.0089358793065611019 0.039821988718575958 0 -0.0081973451209589408 0.040037085138526773 0 -0.0085520135314733348 0.0402815664631141 0 -0.0082514200264820117 0.039640809660985744 0 -0.0089358793065611019 0.039821988718575958 0 -0.0081973451209589408 0.040037085138526773 0 -0.0082514200264820117 0.039640809660985744 0 -0.0081973451209589408 0.040037085138526773 0 -0.007520885860905626 0.040110307640845409 0 -0.0081973451209589408 0.040037085138526773 0 -0.0079105266958988084 0.040430407066366483 0 -0.007520885860905626 0.040110307640845409 0 -0.0079105266958988084 0.040430407066366483 0 -0.0071904222835582681 0.041047588211808525 0 -0.0085544395433551235 0.040926214170102296 0 -0.0081973451209589408 0.040037085138526773 0 -0.0079105266958988084 0.040430407066366483 0 -0.0085520135314733348 0.0402815664631141 0 -0.0079105266958988084 0.040430407066366483 0 -0.0085520135314733348 0.0402815664631141 0 -0.0085544395433551235 0.040926214170102296 0 -0.0085520135314733348 0.0402815664631141 0 -0.0095399097692053306 0.040400797180600752 0 -0.0085544395433551235 0.040926214170102296 0 -0.0052103440783766832 0.040060298387930349 0 -0.0053148289096280835 0.040445971276319256 0 -0.0059939490681149045 0.040471764068864435 0 -0.0055866005960131439 0.040681538244444329 0 -0.0053148289096280835 0.040445971276319256 0 -0.0059939490681149045 0.040471764068864435 0 -0.0075761681220529392 0.039473385892653465 0 -0.007548974904381724 0.04009037794502994 0 -0.0073587807395189163 0.039590414992648204 0 -0.007520885860905626 0.040110307640845409 0 -0.0072951589398312783 0.040045352411208851 0 -0.0078148795704348576 0.039303143833844506 0 -0.0082514200264820117 0.039640809660985744 0 -0.007520885860905626 0.040110307640845409 0 -0.0079105266958988084 0.040430407066366483 0 -0.007520885860905626 0.040110307640845409 0 -0.0071904222835582681 0.041047588211808525 0 -0.0066643714880130428 0.040326236513587375 0 -0.0071788339193692768 0.041067880968079618 0 -0.0059939490681149045 0.040471764068864435 0 -0.0060829915648253543 0.040907642515713848 0 -0.0071904222835582681 0.041047588211808525 0 -0.007520885860905626 0.040110307640845409 0 -0.0072951589398312783 0.040045352411208851 0 -0.0071904222835582681 0.041047588211808525 0 -0.0060829915648253543 0.040907642515713848 0 -0.0061001137272627751 0.041333837352441997 0 -0.0071904222835582681 0.041047588211808525 0 -0.0060829915648253543 0.040907642515713848 0 -0.0056621866136943068 0.041078708680599915 0 -0.0061001137272627751 0.041333837352441997 0 -0.0055866005960131439 0.040681538244444329 0 -0.0059939490681149045 0.040471764068864435 0 -0.0060829915648253543 0.040907642515713848 0 -0.0055866005960131439 0.040681538244444329 0 -0.0060829915648253543 0.040907642515713848 0 -0.0056621866136943068 0.041078708680599915 0 -0.0050183452684658897 0.041100501489245711 0 -0.0055866005960131439 0.040681538244444329 0 -0.0056621866136943068 0.041078708680599915 0 -0.0056621866136943068 0.041078708680599915 0 -0.0055650032666219795 0.041502987958398609 0 -0.0061001137272627751 0.041333837352441997 0 -0.0055650032666219795 0.041502987958398609 0 -0.0062063195870335191 0.041942126466490169 0 -0.0054502335970893108 0.041996578579236332 0 -0.0055650032666219795 0.041502987958398609 0 -0.0061001137272627751 0.041333837352441997 0 -0.0062063195870335191 0.041942126466490169 0 -0.0061001137272627751 0.041333837352441997 0 -0.0071904222835582681 0.041047588211808525 0 -0.0062063195870335191 0.041942126466490169 0 -0.0071904222835582681 0.041047588211808525 0 -0.0062063195870335191 0.041942126466490169 0 -0.007313898005122524 0.042277544578560942 0 -0.0062063195870335191 0.041942126466490169 0 -0.007313898005122524 0.042277544578560942 0 -0.0065018851103209128 0.042452477414755323 0 -0.0062063195870335191 0.041942126466490169 0 -0.005884206559541672 0.042437366374876884 0 -0.0054502335970893108 0.041996578579236332 0 -0.0062063195870335191 0.041942126466490169 0 -0.005884206559541672 0.042437366374876884 0 -0.0065018851103209128 0.042452477414755323 0 -0.0095399097692053306 0.040400797180600752 0 -0.0091302918645060661 0.041183389129497511 0 -0.0085544395433551235 0.040926214170102296 0 -0.0084678586237383266 0.040946612485227192 0 -0.0077249622637495657 0.041937391023386984 0 -0.0071904222835582681 0.041047588211808525 0 -0.0085544395433551235 0.040926214170102296 0 -0.007313898005122524 0.042277544578560942 0 -0.0091302918645060661 0.041183389129497511 0 -0.0085544395433551235 0.040926214170102296 0 -0.0080921914957897533 0.041680954258855589 0 -0.0091302918645060661 0.041183389129497511 0 -0.0080921914957897533 0.041680954258855589 0 -0.0092070439871570521 0.041847610327860413 0 -0.0092070439871570521 0.041847610327860413 0 -0.0083396096266071893 0.042478518962908975 0 -0.0093519522264895374 0.042658209230037152 0 -0.0080921914957897533 0.041680954258855589 0 -0.0092070439871570521 0.041847610327860413 0 -0.0083396096266071893 0.042478518962908975 0 -0.0080921914957897533 0.041680954258855589 0 -0.0083396096266071893 0.042478518962908975 0 -0.0073575916255650547 0.042499339509128847 0 -0.0083396096266071893 0.042478518962908975 0 -0.0073575916255650547 0.042499339509128847 0 -0.0080617125083330739 0.043159064911868682 0 -0.0073575916255650547 0.042499339509128847 0 -0.007172951181525414 0.043012672195406609 0 -0.0080617125083330739 0.043159064911868682 0 -0.012957955478635508 0.038304202598886831 0 -0.012539559607019756 0.037403149191852086 0 -0.012736650063877102 0.037548678191971795 0 -0.0083396096266071893 0.042478518962908975 0 -0.0093519522264895374 0.042658209230037152 0 -0.0080617125083330739 0.043159064911868682 0 -0.011127811843923948 0.040493989734557305 0 -0.01028791056098676 0.040312171077900673 0 -0.005884206559541672 0.042437366374876884 0 -0.0065246694871602647 0.042843177513482204 0 -0.0056585109481501576 0.042752813396170417 0 -0.005884206559541672 0.042437366374876884 0 -0.0065018851103209128 0.042452477414755323 0 -0.0065246694871602647 0.042843177513482204 0 -0.0077249622637495657 0.041937391023386984 0 -0.0069273369912775246 0.042692552131536145 0 -0.007313898005122524 0.042277544578560942 0 -0.0065018851103209128 0.042452477414755323 0 -0.0065246694871602647 0.042843177513482204 0 -0.0065246694871602647 0.042843177513482204 0 -0.0056585109481501576 0.042752813396170417 0 -0.0059292052146042483 0.042998847917735242 0 -0.0056585109481501576 0.042752813396170417 0 -0.0054793754321069811 0.042994843065851898 0 -0.0059292052146042483 0.042998847917735242 0 -0.0056585109481501576 0.042752813396170417 0 -0.0050577543323449981 0.04276662904289398 0 -0.0054793754321069811 0.042994843065851898 0 -0.005884206559541672 0.042437366374876884 0 -0.0056585109481501576 0.042752813396170417 0 -0.0051701801309504683 0.04235084199258575 0 -0.0056585109481501576 0.042752813396170417 0 -0.0051701801309504683 0.04235084199258575 0 -0.0050577543323449981 0.04276662904289398 0 -0.0051701801309504683 0.04235084199258575 0 -0.0050577543323449981 0.04276662904289398 0 -0.0045504890559953416 0.042328018135562105 0 -0.0050577543323449981 0.04276662904289398 0 -0.004670346903470797 0.042715685481280581 0 -0.0049695739778808411 0.042997454372348198 0 -0.0050577543323449981 0.04276662904289398 0 -0.004670346903470797 0.042715685481280581 0 -0.0045504890559953416 0.042328018135562105 0 -0.0045530897893192165 0.042807517437231303 0 -0.004670346903470797 0.042715685481280581 0 -0.0042046343092263004 0.042415849882180362 0 -0.004670346903470797 0.042715685481280581 0 -0.0042046343092263004 0.042415849882180362 0 -0.0045504890559953416 0.042328018135562105 0 -0.0042046343092263004 0.042415849882180362 0 -0.0045504890559953416 0.042328018135562105 0 -0.0039248721316866592 0.041890326029451995 0 -0.0045504890559953416 0.042328018135562105 0 -0.0039248721316866592 0.041890326029451995 0 -0.0046535265159312238 0.041894374566929057 0 -0.0031895237787992756 0.041529654648947485 0 -0.0034536314911113356 0.041312484261308798 0 -0.0039248721316866592 0.041890326029451995 0 -0.0034536314911113356 0.041312484261308798 0 -0.0039248721316866592 0.041890326029451995 0 -0.0040576388799444824 0.041487342980821823 0 -0.0039248721316866592 0.041890326029451995 0 -0.0040576388799444824 0.041487342980821823 0 -0.0046535265159312238 0.041894374566929057 0 -0.0040576388799444824 0.041487342980821823 0 -0.0046040753035867313 0.041490028078904249 0 -0.0046535265159312238 0.041894374566929057 0 -0.0046040753035867313 0.041490028078904249 0 -0.0050562170713180938 0.041580201437527657 0 -0.0046535265159312238 0.041894374566929057 0 -0.0050183452684658897 0.041100501489245711 0 -0.0046040753035867313 0.041490028078904249 0 -0.0050562170713180938 0.041580201437527657 0 -0.0050183452684658897 0.041100501489245711 0 -0.0055650032666219795 0.041502987958398609 0 -0.0050562170713180938 0.041580201437527657 0 -0.0055650032666219795 0.041502987958398609 0 -0.0050562170713180938 0.041580201437527657 0 -0.0054502335970893108 0.041996578579236332 0 -0.005884206559541672 0.042437366374876884 0 -0.0051701801309504683 0.04235084199258575 0 -0.0054502335970893108 0.041996578579236332 0 -0.0050562170713180938 0.041580201437527657 0 -0.0054502335970893108 0.041996578579236332 0 -0.0046535265159312238 0.041894374566929057 0 -0.0051701801309504683 0.04235084199258575 0 -0.0045504890559953416 0.042328018135562105 0 -0.0046535265159312238 0.041894374566929057 0 -0.0051701801309504683 0.04235084199258575 0 -0.0054502335970893108 0.041996578579236332 0 -0.0046535265159312238 0.041894374566929057 0 -0.01662944728700318 0.037121573085544007 0 -0.016513165683370971 0.037041613337319708 0 -0.016586058800860337 0.036981443857327996 0 -0.013545923381158325 0.040315702342981277 0 -0.012773895790006547 0.040141065034246214 0 -0.012334098619834864 0.040081602976896509 0 -0.015086893965161902 0.038673138386013689 0 -0.014622494164947583 0.038512506707845187 0 -0.012773895790006547 0.040141065034246214 0 -0.012334098619834864 0.040081602976896509 0 -0.012328741004767191 0.040132799295226444 0 -0.012773895790006547 0.040141065034246214 0 -0.012943545081105845 0.039784893789937131 0 -0.012328741004767191 0.040132799295226444 0 -0.013545923381158325 0.040315702342981277 0 -0.012773895790006547 0.040141065034246214 0 -0.012943545081105845 0.039784893789937131 0 -0.012943545081105845 0.039784893789937131 0 -0.012351027294137177 0.040040576883457996 0 -0.012719332454688958 0.03884074060812405 0 -0.012943545081105845 0.039784893789937131 0 -0.012328741004767191 0.040132799295226444 0 -0.012351027294137177 0.040040576883457996 0 -0.013545923381158325 0.040315702342981277 0 -0.014972861621515269 0.039492103295832734 0 -0.014081996426155574 0.038906227043440947 0 -0.013545923381158325 0.040315702342981277 0 -0.012943545081105845 0.039784893789937131 0 -0.014081996426155574 0.038906227043440947 0 -0.015086893965161902 0.038673138386013689 0 -0.01576110419259125 0.03842385515494396 0 -0.016608632475314151 0.037391472804078854 0 -0.016475556792823264 0.037086300345059893 0 -0.016448443434596074 0.037512497268316354 0 -0.01662944728700318 0.037121573085544007 0 -0.016608632475314151 0.037391472804078854 0 -0.016513165683370971 0.037041613337319708 0 -0.016608632475314151 0.037391472804078854 0 -0.016475556792823264 0.037086300345059893 0 -0.016513165683370971 0.037041613337319708 0 -0.016475556792823264 0.037086300345059893 0 -0.016513165683370971 0.037041613337319708 0 -0.016350625384544043 0.036791209421710915 0 -0.016475556792823264 0.037086300345059893 0 -0.016433384529651141 0.036907202296045695 0 -0.016350625384544043 0.036791209421710915 0 -0.016513165683370971 0.037041613337319708 0 -0.016350625384544043 0.036791209421710915 0 -0.016586058800860337 0.036981443857327996 0 -0.016350625384544043 0.036791209421710915 0 -0.015768123745606474 0.036667021201977415 0 -0.016086597208322454 0.036847725136993442 0 -0.016433384529651141 0.036907202296045695 0 -0.016350625384544043 0.036791209421710915 0 -0.016086597208322454 0.036847725136993442 0 -0.015768123745606474 0.036667021201977415 0 -0.015374674242208085 0.036222874206691721 0 -0.015209030733715391 0.036730769795332338 0 -0.016350625384544043 0.036791209421710915 0 -0.015768123745606474 0.036667021201977415 0 -0.015374674242208085 0.036222874206691721 0 -0.01610883590280629 0.036805676689770604 0 -0.016390374813143961 0.036423322891323232 0 -0.016350625384544043 0.036791209421710915 0 -0.016586058800860337 0.036981443857327996 0 -0.016643097845773395 0.036925945211035933 0 -0.01662944728700318 0.037121573085544007 0 -0.016586058800860337 0.036981443857327996 0 -0.016635575333786255 0.036956886459086902 0 -0.016586058800860337 0.036981443857327996 0 -0.016635575333786255 0.036956886459086902 0 -0.016643097845773395 0.036925945211035933 0 -0.015374674242208085 0.036222874206691721 0 -0.014723230431118313 0.036520623015900797 0 -0.015209030733715391 0.036730769795332338 0 -0.016390374813143961 0.036423322891323232 0 -0.013694984737005452 0.037676727372837837 0 -0.016635575333786255 0.036956886459086902 0 -0.016643097845773395 0.036925945211035933 0 -0.016542493473622813 0.036992889546487454 0 -0.015374674242208085 0.036222874206691721 0 -0.01422772754473667 0.036097015620413946 0 -0.014723230431118313 0.036520623015900797 0 -0.013694984737005452 0.037676727372837837 0 -0.011816170592542152 0.038609699778008925 0 -0.012108006413224978 0.039186759766569962 0 -0.012319525839286999 0.039314821776739069 0 -0.012602742220227647 0.038224178700563015 0 -0.013694984737005452 0.037676727372837837 0 -0.012771286090609622 0.03720565649977773 0 -0.011582926572165158 0.038294210045016326 0 -0.012602742220227647 0.038224178700563015 0 -0.012079816461889858 0.037832795554845408 0 -0.012108006413224978 0.039186759766569962 0 -0.012319525839286999 0.039314821776739069 0 -0.01219865601116657 0.039791605466049568 0 -0.012319525839286999 0.039314821776739069 0 -0.012719982457285279 0.039548426516444309 0 -0.012270647405212703 0.039803536711741958 0 -0.012319525839286999 0.039314821776739069 0 -0.01219865601116657 0.039791605466049568 0 -0.012270647405212703 0.039803536711741958 0 -0.012334098619834864 0.040081602976896509 0 -0.012108006413224978 0.039186759766569962 0 -0.01219865601116657 0.039791605466049568 0 -0.014622494164947583 0.038512506707845187 0 -0.013694984737005452 0.037676727372837837 0 -0.012334098619834864 0.040081602976896509 0 -0.01219865601116657 0.039791605466049568 0 -0.012328741004767191 0.040132799295226444 0 -0.012957955478635508 0.038304202598886831 0 -0.012602742220227647 0.038224178700563015 0 -0.012736650063877102 0.037548678191971795 0 -0.012319525839286999 0.039314821776739069 0 -0.012602742220227647 0.038224178700563015 0 -0.012719982457285279 0.039548426516444309 0 -0.012957955478635508 0.038304202598886831 0 -0.012602742220227647 0.038224178700563015 0 -0.012719982457285279 0.039548426516444309 0 -0.0092070439871570521 0.041847610327860413 0 -0.0093519522264895374 0.042658209230037152 0 -0.010671266014723242 0.041978568153253668 0 -0.011127811843923948 0.040493989734557305 0 -0.011661372434800903 0.040737772656697133 0 -0.0091302918645060661 0.041183389129497511 0 -0.0092070439871570521 0.041847610327860413 0 -0.0099678771896738374 0.041082063467847305 0 -0.0092070439871570521 0.041847610327860413 0 -0.010671266014723242 0.041978568153253668 0 -0.0099678771896738374 0.041082063467847305 0 -0.010671266014723242 0.041978568153253668 0 -0.010803431677035895 0.040954279390065178 0 -0.011422329776458013 0.040749535693277168 0 -0.010671266014723242 0.041978568153253668 0 -0.010803431677035895 0.040954279390065178 0 -0.0099678771896738374 0.041082063467847305 0 -0.010803431677035895 0.040954279390065178 0 -0.011221701586988066 0.040615200535712243 0 -0.011422329776458013 0.040749535693277168 0 -0.010803431677035895 0.040954279390065178 0 -0.011221701586988066 0.040615200535712243 0 -0.01064040731967817 0.040565026335840047 0 -0.010803431677035895 0.040954279390065178 0 -0.0099678771896738374 0.041082063467847305 0 -0.01064040731967817 0.040565026335840047 0 -0.0095399097692053306 0.040400797180600752 0 -0.0091302918645060661 0.041183389129497511 0 -0.0099678771896738374 0.041082063467847305 0 -0.012153051824204219 0.040092289222999525 0 -0.012196803061820078 0.040168608092771826 0 -0.012108115335092042 0.040282821361546393 0 -0.012153051824204219 0.040092289222999525 0 -0.012196803061820078 0.040168608092771826 0 -0.012328741004767191 0.040132799295226444 0 -0.012196803061820078 0.040168608092771826 0 -0.012328741004767191 0.040132799295226444 0 -0.012351027294137177 0.040040576883457996 0 -0.01219865601116657 0.039791605466049568 0 -0.012153051824204219 0.040092289222999525 0 -0.012270647405212703 0.039803536711741958 0 -0.01219865601116657 0.039791605466049568 0 -0.012153051824204219 0.040092289222999525 0 -0.012328741004767191 0.040132799295226444 0 -0.012719982457285279 0.039548426516444309 0 -0.012270647405212703 0.039803536711741958 0 -0.012062900658212103 0.040502191175833716 0 -0.011661372434800903 0.040737772656697133 0 -0.012027786809592588 0.040538167146242754 0 -0.010671266014723242 0.041978568153253668 0 -0.012062900658212103 0.040502191175833716 0 -0.011422329776458013 0.040749535693277168 0 -0.012153051824204219 0.040092289222999525 0 -0.012270647405212703 0.039803536711741958 0 -0.012062900658212103 0.040502191175833716 0 -0.012062900658212103 0.040502191175833716 0 -0.011422329776458013 0.040749535693277168 0 -0.01187946390956158 0.040451166757185061 0 -0.012062900658212103 0.040502191175833716 0 -0.01187946390956158 0.040451166757185061 0 -0.011997285579451785 0.040316842202623937 0 -0.011221701586988066 0.040615200535712243 0 -0.011422329776458013 0.040749535693277168 0 -0.011659248886738798 0.040464527112067009 0 -0.011422329776458013 0.040749535693277168 0 -0.011659248886738798 0.040464527112067009 0 -0.01187946390956158 0.040451166757185061 0 -0.011659248886738798 0.040464527112067009 0 -0.01187946390956158 0.040451166757185061 0 -0.01200913476378547 0.040389141600270018 0 -0.01187946390956158 0.040451166757185061 0 -0.011997285579451785 0.040316842202623937 0 -0.01200913476378547 0.040389141600270018 0 -0.011997285579451785 0.040316842202623937 0 -0.012351027294137177 0.040040576883457996 0 -0.012719332454688958 0.03884074060812405 0 -0.011997285579451785 0.040316842202623937 0 -0.012108115335092042 0.040282821361546393 0 -0.012351027294137177 0.040040576883457996 0 -0.012153051824204219 0.040092289222999525 0 -0.012062900658212103 0.040502191175833716 0 -0.012108115335092042 0.040282821361546393 0 -0.012062900658212103 0.040502191175833716 0 -0.011997285579451785 0.040316842202623937 0 -0.012108115335092042 0.040282821361546393 0 -0.012196803061820078 0.040168608092771826 0 -0.012108115335092042 0.040282821361546393 0 -0.012351027294137177 0.040040576883457996 0 -0.012075911914893605 0.040232273554040243 0 -0.012697002111857973 0.039652052899727744 0 -0.011997285579451785 0.040316842202623937 0 -0.01200913476378547 0.040389141600270018 0 -0.012585034931116526 0.040465625395497272 0 -0.012035638570077785 0.04023787278137491 0 -0.01200913476378547 0.040389141600270018 0 -0.012585034931116526 0.040465625395497272 0 -0.011659248886738798 0.040464527112067009 0 -0.01200913476378547 0.040389141600270018 0 -0.011707271584793035 0.040326330462846151 0 -0.011221701586988066 0.040615200535712243 0 -0.011659248886738798 0.040464527112067009 0 -0.011274269080107173 0.04038146346556986 0 -0.011659248886738798 0.040464527112067009 0 -0.011707271584793035 0.040326330462846151 0 -0.011274269080107173 0.04038146346556986 0 -0.011707271584793035 0.040326330462846151 0 -0.01146700021185809 0.04009716444135971 0 -0.011274269080107173 0.04038146346556986 0 -0.012035638570077785 0.04023787278137491 0 -0.011707271584793035 0.040326330462846151 0 -0.01146700021185809 0.04009716444135971 0 -0.012035638570077785 0.04023787278137491 0 -0.01200913476378547 0.040389141600270018 0 -0.011707271584793035 0.040326330462846151 0 -0.012035638570077785 0.04023787278137491 0 -0.011857568958700057 0.039762666168505822 0 -0.01146700021185809 0.04009716444135971 0 -0.011857568958700057 0.039762666168505822 0 -0.01146700021185809 0.04009716444135971 0 -0.011079762677949641 0.03951536822264537 0 -0.012035638570077785 0.04023787278137491 0 -0.012629470759575771 0.039778005337219334 0 -0.012585034931116526 0.040465625395497272 0 -0.012035638570077785 0.04023787278137491 0 -0.011857568958700057 0.039762666168505822 0 -0.012629470759575771 0.039778005337219334 0 -0.0095399097692053306 0.040400797180600752 0 -0.0099678771896738374 0.041082063467847305 0 -0.01064040731967817 0.040565026335840047 0 -0.0095399097692053306 0.040400797180600752 0 -0.01064040731967817 0.040565026335840047 0 -0.010669450981566004 0.04008813744994591 0 -0.01146700021185809 0.04009716444135971 0 -0.011274269080107173 0.04038146346556986 0 -0.010669450981566004 0.04008813744994591 0 -0.01064040731967817 0.040565026335840047 0 -0.011274269080107173 0.04038146346556986 0 -0.010669450981566004 0.04008813744994591 0 -0.011221701586988066 0.040615200535712243 0 -0.01064040731967817 0.040565026335840047 0 -0.011274269080107173 0.04038146346556986 0 -0.010669450981566004 0.04008813744994591 0 -0.0099834086431743723 0.03967539270026342 0 -0.011079762677949641 0.03951536822264537 0 -0.01146700021185809 0.04009716444135971 0 -0.010669450981566004 0.04008813744994591 0 -0.011079762677949641 0.03951536822264537 0 -0.0095399097692053306 0.040400797180600752 0 -0.010669450981566004 0.04008813744994591 0 -0.0099834086431743723 0.03967539270026342 0 -0.0099834086431743723 0.03967539270026342 0 -0.011079762677949641 0.03951536822264537 0 -0.010312688527924597 0.03900945907353056 0 -0.0093010851346464665 0.039259199205790817 0 -0.0099834086431743723 0.03967539270026342 0 -0.010312688527924597 0.03900945907353056 0 -0.011079762677949641 0.03951536822264537 0 -0.011159879755813331 0.038894596050418395 0 -0.010312688527924597 0.03900945907353056 0 -0.011159879755813331 0.038894596050418395 0 -0.010312688527924597 0.03900945907353056 0 -0.010591419452180005 0.038431611748082677 0 -0.0096257437981425008 0.038483249072603046 0 -0.010312688527924597 0.03900945907353056 0 -0.010591419452180005 0.038431611748082677 0 -0.012629470759575771 0.039778005337219334 0 -0.012094140965831781 0.039084132607222925 0 -0.013368077811817293 0.039147229365534407 0 -0.011857568958700057 0.039762666168505822 0 -0.012629470759575771 0.039778005337219334 0 -0.012094140965831781 0.039084132607222925 0 -0.011857568958700057 0.039762666168505822 0 -0.011079762677949641 0.03951536822264537 0 -0.012094140965831781 0.039084132607222925 0 -0.011079762677949641 0.03951536822264537 0 -0.011159879755813331 0.038894596050418395 0 -0.012094140965831781 0.039084132607222925 0 -0.011159879755813331 0.038894596050418395 0 -0.012094140965831781 0.039084132607222925 0 -0.011442979809837567 0.03822285289960662 0 -0.012094140965831781 0.039084132607222925 0 -0.013368077811817293 0.039147229365534407 0 -0.012988387002161452 0.038688715733308371 0 -0.013368077811817293 0.039147229365534407 0 -0.014555324085490836 0.039451027918890852 0 -0.014542423095690423 0.038786336634245792 0 -0.014003025438667041 0.037883677313524773 0 -0.014959813835068139 0.038036982972902533 0 -0.015195991192922201 0.037733969047488033 0 -0.013368077811817293 0.039147229365534407 0 -0.01356740430518413 0.040044042797187304 0 -0.014555324085490836 0.039451027918890852 0 -0.013787024131523506 0.03898718080274844 0 -0.014831730952358978 0.038615706151803583 0 -0.012629470759575771 0.039778005337219334 0 -0.013368077811817293 0.039147229365534407 0 -0.01356740430518413 0.040044042797187304 0 -0.013787024131523506 0.03898718080274844 0 -0.012697002111857973 0.039652052899727744 0 -0.012629470759575771 0.039778005337219334 0 -0.01356740430518413 0.040044042797187304 0 -0.012585034931116526 0.040465625395497272 0 -0.014003025438667041 0.037883677313524773 0 -0.014081996426155574 0.038906227043440947 0 -0.014959813835068139 0.038036982972902533 0 -0.014003025438667041 0.037883677313524773 0 -0.014081996426155574 0.038906227043440947 0 -0.012719332454688958 0.03884074060812405 0 -0.012943545081105845 0.039784893789937131 0 -0.014081996426155574 0.038906227043440947 0 -0.012719332454688958 0.03884074060812405 0 -0.016608632475314151 0.037391472804078854 0 -0.016117935957091011 0.038046751665937927 0 -0.016448443434596074 0.037512497268316354 0 -0.016117935957091011 0.038046751665937927 0 -0.015106742116203258 0.038508063794655198 0 -0.015528688219000676 0.038103831824267347 0 -0.016117935957091011 0.038046751665937927 0 -0.015841849010486898 0.038163338404115801 0 -0.016448443434596074 0.037512497268316354 0 -0.014972861621515269 0.039492103295832734 0 -0.016117935957091011 0.038046751665937927 0 -0.015106742116203258 0.038508063794655198 0 -0.01576110419259125 0.03842385515494396 0 -0.016089013450825865 0.038101275878798559 0 -0.014081996426155574 0.038906227043440947 0 -0.015106742116203258 0.038508063794655198 0 -0.014959813835068139 0.038036982972902533 0 -0.014972861621515269 0.039492103295832734 0 -0.014081996426155574 0.038906227043440947 0 -0.015106742116203258 0.038508063794655198 0 -0.015106742116203258 0.038508063794655198 0 -0.014959813835068139 0.038036982972902533 0 -0.015528688219000676 0.038103831824267347 0 -0.014959813835068139 0.038036982972902533 0 -0.015528688219000676 0.038103831824267347 0 -0.015357228410085877 0.03792560473794606 0 -0.015528688219000676 0.038103831824267347 0 -0.015841849010486898 0.038163338404115801 0 -0.015357228410085877 0.03792560473794606 0 -0.016117935957091011 0.038046751665937927 0 -0.015528688219000676 0.038103831824267347 0 -0.015841849010486898 0.038163338404115801 0 -0.015841849010486898 0.038163338404115801 0 -0.015316935839312934 0.037899601613833614 0 -0.015357228410085877 0.03792560473794606 0 -0.016466200174268253 0.038097060832980582 0 -0.016313103357093118 0.03834927315503902 0 -0.015316935839312934 0.037899601613833614 0 -0.015357228410085877 0.03792560473794606 0 -0.015195991192922201 0.037733969047488033 0 -0.014959813835068139 0.038036982972902533 0 -0.015357228410085877 0.03792560473794606 0 -0.015195991192922201 0.037733969047488033 0 -0.014831730952358978 0.038615706151803583 0 -0.015286401655536694 0.038552020601275633 0 -0.014555324085490836 0.039451027918890852 0 -0.015370429974389716 0.038558248580539196 0 -0.014542423095690423 0.038786336634245792 0 -0.015316935839312934 0.037899601613833614 0 -0.015195991192922201 0.037733969047488033 0 -0.015370429974389716 0.038558248580539196 0 -0.015316935839312934 0.037899601613833614 0 -0.015333524703960566 0.038617947420708211 0 -0.015370429974389716 0.038558248580539196 0 -0.016313103357093118 0.03834927315503902 0 -0.016139447951117752 0.038681932796430465 0 -0.017315191437854184 0.03873746435503754 0 -0.016923516180731256 0.038950212676803417 0 -0.017236154012601028 0.038891600243360261 0 -0.015333524703960566 0.038617947420708211 0 -0.016027031233470879 0.038229770132966273 0 -0.015348368618512029 0.038475360184939952 0 -0.016923516180731256 0.038950212676803417 0 -0.016829649076201891 0.038713202073574045 0 -0.016027031233470879 0.038229770132966273 0 -0.016923516180731256 0.038950212676803417 0 -0.016829649076201891 0.038713202073574045 0 -0.017121910277284633 0.038879776057346417 0 -0.015333524703960566 0.038617947420708211 0 -0.015370429974389716 0.038558248580539196 0 -0.015348368618512029 0.038475360184939952 0 -0.016829649076201891 0.038713202073574045 0 -0.016027031233470879 0.038229770132966273 0 -0.017068994751320902 0.038620828366243899 0 -0.016139447951117752 0.038681932796430465 0 -0.016021104948117273 0.03819234242955781 0 -0.016027031233470879 0.038229770132966273 0 -0.014945685884327722 0.038061034714328791 0 -0.015348368618512029 0.038475360184939952 0 -0.014945685884327722 0.038061034714328791 0 -0.015348368618512029 0.038475360184939952 0 -0.013926735637857991 0.03835287719577353 0 -0.015370429974389716 0.038558248580539196 0 -0.014542423095690423 0.038786336634245792 0 -0.015348368618512029 0.038475360184939952 0 -0.014542423095690423 0.038786336634245792 0 -0.015348368618512029 0.038475360184939952 0 -0.013926735637857991 0.03835287719577353 0 -0.013368077811817293 0.039147229365534407 0 -0.014542423095690423 0.038786336634245792 0 -0.013926735637857991 0.03835287719577353 0 -0.013926735637857991 0.03835287719577353 0 -0.012988387002161452 0.038688715733308371 0 -0.012558118528929903 0.038161725237096093 0 -0.013368077811817293 0.039147229365534407 0 -0.013926735637857991 0.03835287719577353 0 -0.012988387002161452 0.038688715733308371 0 -0.013926735637857991 0.03835287719577353 0 -0.014352037833563211 0.037518573083675559 0 -0.013440006315339812 0.03785494374043151 0 -0.013926735637857991 0.03835287719577353 0 -0.013440006315339812 0.03785494374043151 0 -0.012558118528929903 0.038161725237096093 0 -0.014945685884327722 0.038061034714328791 0 -0.013926735637857991 0.03835287719577353 0 -0.014352037833563211 0.037518573083675559 0 -0.014352037833563211 0.037518573083675559 0 -0.013440006315339812 0.03785494374043151 0 -0.012977380067666267 0.037370545138662691 0 -0.014352037833563211 0.037518573083675559 0 -0.013546484537009299 0.036865599254864809 0 -0.012977380067666267 0.037370545138662691 0 -0.014352037833563211 0.037518573083675559 0 -0.013546484537009299 0.036865599254864809 0 -0.014573171479669364 0.03654477505530971 0 -0.014352037833563211 0.037518573083675559 0 -0.015772484395374198 0.037011984365804954 0 -0.014573171479669364 0.03654477505530971 0 -0.014352037833563211 0.037518573083675559 0 -0.015772484395374198 0.037011984365804954 0 -0.015549525000218997 0.037660276849951858 0 -0.015772484395374198 0.037011984365804954 0 -0.016700079551474768 0.037516227010337806 0 -0.016849553584485259 0.036699726554854727 0 -0.015772484395374198 0.037011984365804954 0 -0.016700079551474768 0.037516227010337806 0 -0.015549525000218997 0.037660276849951858 0 -0.016027031233470879 0.038229770132966273 0 -0.016700079551474768 0.037516227010337806 0 -0.015549525000218997 0.037660276849951858 0 -0.016027031233470879 0.038229770132966273 0 -0.014945685884327722 0.038061034714328791 0 -0.015549525000218997 0.037660276849951858 0 -0.014945685884327722 0.038061034714328791 0 -0.014352037833563211 0.037518573083675559 0 -0.015549525000218997 0.037660276849951858 0 -0.0096257437981425008 0.038483249072603046 0 -0.010377035923745434 0.03744214182640887 0 -0.010591419452180005 0.038431611748082677 0 -0.011159879755813331 0.038894596050418395 0 -0.010591419452180005 0.038431611748082677 0 -0.011442979809837567 0.03822285289960662 0 -0.010377035923745434 0.03744214182640887 0 -0.010591419452180005 0.038431611748082677 0 -0.011442979809837567 0.03822285289960662 0 -0.010377035923745434 0.03744214182640887 0 -0.011442979809837567 0.03822285289960662 0 -0.011742179712068302 0.037281844837361161 0 -0.011442979809837567 0.03822285289960662 0 -0.012558118528929903 0.038161725237096093 0 -0.011742179712068302 0.037281844837361161 0 -0.012094140965831781 0.039084132607222925 0 -0.011442979809837567 0.03822285289960662 0 -0.012558118528929903 0.038161725237096093 0 -0.012094140965831781 0.039084132607222925 0 -0.012988387002161452 0.038688715733308371 0 -0.012558118528929903 0.038161725237096093 0 -0.012558118528929903 0.038161725237096093 0 -0.012977380067666267 0.037370545138662691 0 -0.011742179712068302 0.037281844837361161 0 -0.013440006315339812 0.03785494374043151 0 -0.012558118528929903 0.038161725237096093 0 -0.012977380067666267 0.037370545138662691 0 -0.013546484537009299 0.036865599254864809 0 -0.012977380067666267 0.037370545138662691 0 -0.012128483555208116 0.037023754029578311 0 -0.012977380067666267 0.037370545138662691 0 -0.012128483555208116 0.037023754029578311 0 -0.01144074407460581 0.038519063064880975 0 -0.012128483555208116 0.037023754029578311 0 -0.01144074407460581 0.038519063064880975 0 -0.010717814610183965 0.03779037614337237 0 -0.012852142136267225 0.037415974497108262 0 -0.011565431264384488 0.037897335128616712 0 -0.0099501710464117762 0.038331773430585275 0 -0.011565431264384488 0.037897335128616712 0 -0.0095194996195619719 0.039250821601314614 0 -0.01144074407460581 0.038519063064880975 0 -0.010717814610183965 0.03779037614337237 0 -0.010717814610183965 0.03779037614337237 0 -0.0096611881969276055 0.037399956409068236 0 -0.01091034392267623 0.036783301912328939 0 -0.012128483555208116 0.037023754029578311 0 -0.010717814610183965 0.03779037614337237 0 -0.01091034392267623 0.036783301912328939 0 -0.0083503354168832575 0.038280220841638991 0 -0.0095194996195619719 0.039250821601314614 0 -0.0096611881969276055 0.037399956409068236 0 -0.0095194996195619719 0.039250821601314614 0 -0.010717814610183965 0.03779037614337237 0 -0.0096611881969276055 0.037399956409068236 0 -0.0095531598750705077 0.035580923812896258 0 -0.0097429865645337899 0.036544567764814441 0 -0.010766387318175337 0.036025141491037735 0 -0.0094048298067950491 0.037452230565270195 0 -0.011012323167244197 0.036914284276741434 0 -0.0096945972028419144 0.036487151474648455 0 -0.0096611881969276055 0.037399956409068236 0 -0.0097429865645337899 0.036544567764814441 0 -0.01091034392267623 0.036783301912328939 0 -0.0087485589407694086 0.036538900893323567 0 -0.0095531598750705077 0.035580923812896258 0 -0.0097429865645337899 0.036544567764814441 0 -0.0088625718180705658 0.037176391998259374 0 -0.0096611881969276055 0.037399956409068236 0 -0.0097429865645337899 0.036544567764814441 0 -0.0097429865645337899 0.036544567764814441 0 -0.01091034392267623 0.036783301912328939 0 -0.010766387318175337 0.036025141491037735 0 -0.01091034392267623 0.036783301912328939 0 -0.010766387318175337 0.036025141491037735 0 -0.011942454091872952 0.036016425578477583 0 -0.009474059495251581 0.036486040844058223 0 -0.011254424288660955 0.036132537430975581 0 -0.010766387318175337 0.036025141491037735 0 -0.011942454091872952 0.036016425578477583 0 -0.011533850619878033 0.035237412953042682 0 -0.0095531598750705077 0.035580923812896258 0 -0.010766387318175337 0.036025141491037735 0 -0.011533850619878033 0.035237412953042682 0 -0.011942454091872952 0.036016425578477583 0 -0.012751672179492284 0.035795414715992145 0 -0.012103615433857535 0.03560179474995484 0 -0.011942454091872952 0.036016425578477583 0 -0.012103615433857535 0.03560179474995484 0 -0.011533850619878033 0.035237412953042682 0 -0.012128483555208116 0.037023754029578311 0 -0.011942454091872952 0.036016425578477583 0 -0.01283617760686097 0.036306110079356545 0 -0.012128483555208116 0.037023754029578311 0 -0.01091034392267623 0.036783301912328939 0 -0.011942454091872952 0.036016425578477583 0 -0.013546484537009299 0.036865599254864809 0 -0.012128483555208116 0.037023754029578311 0 -0.01283617760686097 0.036306110079356545 0 -0.01283617760686097 0.036306110079356545 0 -0.012751672179492284 0.035795414715992145 0 -0.013621281266659045 0.036082209490379429 0 -0.011942454091872952 0.036016425578477583 0 -0.01283617760686097 0.036306110079356545 0 -0.012751672179492284 0.035795414715992145 0 -0.012282924675160994 0.035664834460491242 0 -0.013372758018360895 0.035751941371059033 0 -0.012771475365422801 0.03613305436750449 0 -0.012103615433857535 0.03560179474995484 0 -0.013260619276570856 0.036511735301276431 0 -0.012751672179492284 0.035795414715992145 0 -0.012103615433857535 0.03560179474995484 0 -0.013423723511789189 0.03507771345335086 0 -0.012771475365422801 0.03613305436750449 0 -0.012279886580274974 0.034999869538208828 0 -0.013441876840642958 0.035680528792581913 0 -0.012771475365422801 0.03613305436750449 0 -0.012279886580274974 0.034999869538208828 0 -0.011364094808845746 0.036012091346439692 0 -0.012279886580274974 0.034999869538208828 0 -0.011364094808845746 0.036012091346439692 0 -0.010220182781588866 0.034999903125280604 0 -0.012606127221116818 0.036082939664910607 0 -0.011254424288660955 0.036132537430975581 0 -0.012771475365422801 0.03613305436750449 0 -0.011364094808845746 0.036012091346439692 0 -0.011012323167244197 0.036914284276741434 0 -0.012771475365422801 0.03613305436750449 0 -0.012103615433857535 0.03560179474995484 0 -0.011533850619878033 0.035237412953042682 0 -0.011364094808845746 0.036012091346439692 0 -0.009813851225106 0.035792092097378873 0 -0.0094244220451309493 0.036667586983010154 0 -0.011259252009162939 0.036051187062130591 0 -0.009600256204134348 0.036565291882857169 0 -0.011364094808845746 0.036012091346439692 0 -0.011012323167244197 0.036914284276741434 0 -0.0096945972028419144 0.036487151474648455 0 -0.011364094808845746 0.036012091346439692 0 -0.010220182781588866 0.034999903125280604 0 -0.009813851225106 0.035792092097378873 0 -0.0081604311263623139 0.034999991187212504 0 -0.010220182781588866 0.034999903125280604 0 -0.0089855626083271186 0.035735758190294425 0 -0.010220182781588866 0.034999903125280604 0 -0.009813851225106 0.035792092097378873 0 -0.0089855626083271186 0.035735758190294425 0 -0.009813851225106 0.035792092097378873 0 -0.0089855626083271186 0.035735758190294425 0 -0.0094244220451309493 0.036667586983010154 0 -0.01565023637876186 0.036029645914115498 0 -0.016897010527817304 0.036075971174856281 0 -0.01637189080626484 0.035011212130696315 0 -0.01565023637876186 0.036029645914115498 0 -0.016897010527817304 0.036075971174856281 0 -0.016849553584485259 0.036699726554854727 0 -0.015772484395374198 0.037011984365804954 0 -0.01565023637876186 0.036029645914115498 0 -0.016849553584485259 0.036699726554854727 0 -0.015772484395374198 0.037011984365804954 0 -0.01565023637876186 0.036029645914115498 0 -0.014573171479669364 0.03654477505530971 0 -0.013546484537009299 0.036865599254864809 0 -0.014573171479669364 0.03654477505530971 0 -0.013621281266659045 0.036082209490379429 0 -0.013546484537009299 0.036865599254864809 0 -0.01283617760686097 0.036306110079356545 0 -0.013621281266659045 0.036082209490379429 0 -0.013621281266659045 0.036082209490379429 0 -0.014481657725235209 0.035740192918198709 0 -0.013423723511789189 0.03507771345335086 0 -0.012751672179492284 0.035795414715992145 0 -0.013621281266659045 0.036082209490379429 0 -0.013423723511789189 0.03507771345335086 0 -0.014573171479669364 0.03654477505530971 0 -0.013621281266659045 0.036082209490379429 0 -0.014481657725235209 0.035740192918198709 0 -0.01565023637876186 0.036029645914115498 0 -0.014573171479669364 0.03654477505530971 0 -0.014481657725235209 0.035740192918198709 0 -0.01565023637876186 0.036029645914115498 0 -0.014481657725235209 0.035740192918198709 0 -0.014874278489413464 0.034921809303101604 0 -0.014481657725235209 0.035740192918198709 0 -0.014874278489413464 0.034921809303101604 0 -0.013423723511789189 0.03507771345335086 0 -0.014958914016978206 0.036406809463286088 0 -0.013260619276570856 0.036511735301276431 0 -0.013441876840642958 0.035680528792581913 0 -0.014905147410399807 0.035673161960431819 0 -0.013372758018360895 0.035751941371059033 0 -0.012771475365422801 0.03613305436750449 0 -0.013260619276570856 0.036511735301276431 0 -0.013441876840642958 0.035680528792581913 0 -0.012279886580274974 0.034999869538208828 0 -0.013441876840642958 0.035680528792581913 0 -0.014339223593589877 0.034999826668060112 0 -0.014958914016978206 0.036406809463286088 0 -0.013441876840642958 0.035680528792581913 0 -0.014339223593589877 0.034999826668060112 0 -0.014958914016978206 0.036406809463286088 0 -0.014339223593589877 0.034999826668060112 0 -0.015692281661073747 0.035688037046874878 0 -0.015692281661073747 0.035688037046874878 0 -0.016399388504513061 0.03499992154118052 0 -0.016631693125833052 0.036131542906262241 0 -0.014339223593589877 0.034999826668060112 0 -0.015692281661073747 0.035688037046874878 0 -0.016399388504513061 0.03499992154118052 0 -0.01565023637876186 0.036029645914115498 0 -0.014874278489413464 0.034921809303101604 0 -0.01637189080626484 0.035011212130696315 0 -0.014905147410399807 0.035673161960431819 0 -0.016484810616279533 0.035580778597297517 0 -0.014958914016978206 0.036406809463286088 0 -0.015692281661073747 0.035688037046874878 0 -0.016631693125833052 0.036131542906262241 0 -0.01637189080626484 0.035011212130696315 0 -0.018056009083671661 0.035514687313105232 0 -0.017378088661412161 0.035665268213582013 0 -0.016897010527817304 0.036075971174856281 0 -0.01637189080626484 0.035011212130696315 0 -0.017378088661412161 0.035665268213582013 0 -0.016484810616279533 0.035580778597297517 0 -0.017872386979137331 0.035500706302965632 0 -0.016399388504513061 0.03499992154118052 0 -0.016631693125833052 0.036131542906262241 0 -0.017412042681044536 0.035416119038647775 0 -0.016631693125833052 0.036131542906262241 0 -0.017412042681044536 0.035416119038647775 0 -0.018056009083671661 0.035514687313105232 0 -0.016399388504513061 0.03499992154118052 0 -0.017412042681044536 0.035416119038647775 0 -0.01845833895411152 0.034999529357810734 0 -0.017412042681044536 0.035416119038647775 0 -0.01845833895411152 0.034999529357810734 0 -0.018056009083671661 0.035514687313105232 0 -0.01845833895411152 0.034999529357810734 0 -0.019272077691389663 0.035538271756667891 0 -0.020518821948290487 0.034999984832747126 0 -0.01845833895411152 0.034999529357810734 0 -0.018056009083671661 0.035514687313105232 0 -0.019272077691389663 0.035538271756667891 0 -0.018056009083671661 0.035514687313105232 0 -0.019272077691389663 0.035538271756667891 0 -0.018782483843618695 0.036281692916800952 0 -0.016897010527817304 0.036075971174856281 0 -0.018782483843618695 0.036281692916800952 0 -0.017378088661412161 0.035665268213582013 0 -0.018056009083671661 0.035514687313105232 0 -0.018782483843618695 0.036281692916800952 0 -0.017378088661412161 0.035665268213582013 0 -0.016897010527817304 0.036075971174856281 0 -0.018253199036962747 0.035338362021139609 0 -0.017796523945308975 0.03637821968851563 0 -0.017060562860043565 0.036088640240607928 0 -0.01852404094142274 0.035788959475304777 0 -0.018253199036962747 0.035338362021139609 0 -0.017796523945308975 0.03637821968851563 0 -0.01874374779130936 0.03651137402894826 0 -0.017796523945308975 0.03637821968851563 0 -0.01874374779130936 0.03651137402894826 0 -0.018198712101869394 0.037232155931895473 0 -0.016897010527817304 0.036075971174856281 0 -0.016849553584485259 0.036699726554854727 0 -0.017796523945308975 0.03637821968851563 0 -0.016849553584485259 0.036699726554854727 0 -0.017796523945308975 0.03637821968851563 0 -0.018198712101869394 0.037232155931895473 0 -0.019629955919306583 0.036790648225959788 0 -0.02080666533304374 0.036304132934506836 0 -0.020483916892316462 0.037144422057254101 0 -0.019629955919306583 0.036790648225959788 0 -0.019600143981367033 0.036041226255215851 0 -0.02080666533304374 0.036304132934506836 0 -0.019629955919306583 0.036790648225959788 0 -0.01874374779130936 0.03651137402894826 0 -0.019600143981367033 0.036041226255215851 0 -0.019629955919306583 0.036790648225959788 0 -0.01874374779130936 0.03651137402894826 0 -0.018198712101869394 0.037232155931895473 0 -0.018253199036962747 0.035338362021139609 0 -0.01874374779130936 0.03651137402894826 0 -0.019600143981367033 0.036041226255215851 0 -0.019600143981367033 0.036041226255215851 0 -0.02044167707283991 0.0356934725414631 0 -0.02080666533304374 0.036304132934506836 0 -0.02044167707283991 0.0356934725414631 0 -0.019970125497903571 0.034907953149945936 0 -0.021486017199026545 0.03548276200654675 0 -0.019600143981367033 0.036041226255215851 0 -0.02044167707283991 0.0356934725414631 0 -0.019970125497903571 0.034907953149945936 0 -0.018253199036962747 0.035338362021139609 0 -0.019600143981367033 0.036041226255215851 0 -0.019970125497903571 0.034907953149945936 0 -0.019272077691389663 0.035538271756667891 0 -0.018782483843618695 0.036281692916800952 0 -0.020665722988382363 0.035926820730557411 0 -0.01852404094142274 0.035788959475304777 0 -0.020331672926127298 0.035440186799719567 0 -0.019272077691389663 0.035538271756667891 0 -0.020665722988382363 0.035926820730557411 0 -0.020518821948290487 0.034999984832747126 0 -0.020331672926127298 0.035440186799719567 0 -0.022111627783758837 0.035072002468903345 0 -0.020665722988382363 0.035926820730557411 0 -0.020518821948290487 0.034999984832747126 0 -0.022315076484217797 0.035088135266259785 0 -0.020518821948290487 0.034999984832747126 0 -0.022576112997825231 0.034999015931633765 0 -0.022315076484217797 0.035088135266259785 0 -0.019970125497903571 0.034907953149945936 0 -0.022315076484217797 0.035088135266259785 0 -0.021486017199026545 0.03548276200654675 0 -0.02257894873379029 0.034999901327376293 0 -0.023058176232443252 0.035474642218621434 0 -0.022580565797838455 0.035777894751563365 0 -0.022578014630055238 0.034999914506194163 0 -0.022037822139722361 0.035578911525307851 0 -0.022576112997825231 0.034999015931633765 0 -0.022315076484217797 0.035088135266259785 0 -0.021486017199026545 0.03548276200654675 0 -0.02257894873379029 0.034999901327376293 0 -0.023864899407132486 0.035354376374533626 0 -0.023058176232443252 0.035474642218621434 0 -0.02257894873379029 0.034999901327376293 0 -0.023864899407132486 0.035354376374533626 0 -0.024182527112194114 0.034999744456766547 0 -0.023864899407132486 0.035354376374533626 0 -0.023495918555759054 0.035546528113041827 0 -0.023058176232443252 0.035474642218621434 0 -0.023058176232443252 0.035474642218621434 0 -0.023189249586910102 0.035751776339666114 0 -0.022580565797838455 0.035777894751563365 0 -0.023189249586910102 0.035751776339666114 0 -0.022580565797838455 0.035777894751563365 0 -0.022824212497797501 0.036008847162245353 0 -0.023189249586910102 0.035751776339666114 0 -0.023421232547798716 0.035946929387816143 0 -0.022824212497797501 0.036008847162245353 0 -0.023495918555759054 0.035546528113041827 0 -0.023058176232443252 0.035474642218621434 0 -0.023189249586910102 0.035751776339666114 0 -0.023495918555759054 0.035546528113041827 0 -0.023189249586910102 0.035751776339666114 0 -0.023538426340849711 0.035698212599479161 0 -0.023189249586910102 0.035751776339666114 0 -0.023538426340849711 0.035698212599479161 0 -0.023421232547798716 0.035946929387816143 0 -0.025789253218035765 0.03500006699292034 0 -0.02567341887434775 0.035421538737394141 0 -0.024182527112194114 0.034999744456766547 0 -0.024234997962611991 0.035417025245474423 0 -0.024064996366580396 0.035241127245803285 0 -0.024455457906226566 0.035283705787992156 0 -0.024234997962611991 0.035417025245474423 0 -0.024064996366580396 0.035241127245803285 0 -0.02405831016484055 0.035403710221457829 0 -0.024064996366580396 0.035241127245803285 0 -0.02405831016484055 0.035403710221457829 0 -0.023912024935054954 0.035415593759927887 0 -0.024234997962611991 0.035417025245474423 0 -0.02405831016484055 0.035403710221457829 0 -0.024055833927140578 0.035552499971435413 0 -0.02405831016484055 0.035403710221457829 0 -0.023912024935054954 0.035415593759927887 0 -0.024055833927140578 0.035552499971435413 0 -0.023864899407132486 0.035354376374533626 0 -0.02567341887434775 0.035421538737394141 0 -0.024182527112194114 0.034999744456766547 0 -0.023864899407132486 0.035354376374533626 0 -0.024064996366580396 0.035241127245803285 0 -0.023912024935054954 0.035415593759927887 0 -0.023924716653774374 0.035352451436821593 0 -0.024913361089114055 0.035322311722591919 0 -0.023864899407132486 0.035354376374533626 0 -0.023495918555759054 0.035546528113041827 0 -0.023725945381459564 0.035512619065482129 0 -0.023864899407132486 0.035354376374533626 0 -0.023912024935054954 0.035415593759927887 0 -0.023725945381459564 0.035512619065482129 0 -0.023795108362541128 0.035646820155287522 0 -0.024012368135816354 0.035912515643184137 0 -0.023421232547798716 0.035946929387816143 0 -0.023725945381459564 0.035512619065482129 0 -0.023538426340849711 0.035698212599479161 0 -0.023795108362541128 0.035646820155287522 0 -0.023495918555759054 0.035546528113041827 0 -0.023725945381459564 0.035512619065482129 0 -0.023538426340849711 0.035698212599479161 0 -0.023538426340849711 0.035698212599479161 0 -0.023795108362541128 0.035646820155287522 0 -0.023421232547798716 0.035946929387816143 0 -0.023912024935054954 0.035415593759927887 0 -0.023795108362541128 0.035646820155287522 0 -0.024055833927140578 0.035552499971435413 0 -0.023912024935054954 0.035415593759927887 0 -0.023725945381459564 0.035512619065482129 0 -0.023795108362541128 0.035646820155287522 0 -0.024012368135816354 0.035912515643184137 0 -0.0243296423802285 0.035632911327321527 0 -0.024558538337902017 0.035905586819044821 0 -0.023795108362541128 0.035646820155287522 0 -0.024055833927140578 0.035552499971435413 0 -0.024012368135816354 0.035912515643184137 0 -0.024055833927140578 0.035552499971435413 0 -0.024012368135816354 0.035912515643184137 0 -0.0243296423802285 0.035632911327321527 0 -0.024234997962611991 0.035417025245474423 0 -0.024055833927140578 0.035552499971435413 0 -0.0243296423802285 0.035632911327321527 0 -0.024234997962611991 0.035417025245474423 0 -0.0243296423802285 0.035632911327321527 0 -0.024507140049655707 0.035425588404408265 0 -0.024012368135816354 0.035912515643184137 0 -0.024252195514453387 0.036313108023106201 0 -0.023615250553817555 0.036265008836640918 0 -0.024012368135816354 0.035912515643184137 0 -0.024252195514453387 0.036313108023106201 0 -0.024558538337902017 0.035905586819044821 0 -0.023615250553817555 0.036265008836640918 0 -0.023421232547798716 0.035946929387816143 0 -0.022913947957891576 0.036299919920482412 0 -0.024012368135816354 0.035912515643184137 0 -0.023615250553817555 0.036265008836640918 0 -0.023421232547798716 0.035946929387816143 0 -0.023615250553817555 0.036265008836640918 0 -0.023132048541025855 0.036643489280033206 0 -0.022913947957891576 0.036299919920482412 0 -0.023615250553817555 0.036265008836640918 0 -0.023132048541025855 0.036643489280033206 0 -0.023732844939664644 0.03683711018499905 0 -0.023132048541025855 0.036643489280033206 0 -0.023732844939664644 0.03683711018499905 0 -0.022969708090296755 0.037145473527304851 0 -0.024252195514453387 0.036313108023106201 0 -0.023615250553817555 0.036265008836640918 0 -0.023732844939664644 0.03683711018499905 0 -0.024252195514453387 0.036313108023106201 0 -0.023732844939664644 0.03683711018499905 0 -0.024456119711621992 0.036761163051711773 0 -0.022037822139722361 0.035578911525307851 0 -0.021489140542117192 0.036317379297891042 0 -0.02044167707283991 0.0356934725414631 0 -0.021486017199026545 0.03548276200654675 0 -0.02080666533304374 0.036304132934506836 0 -0.022580565797838455 0.035777894751563365 0 -0.022159411419265508 0.036316455480876253 0 -0.022824212497797501 0.036008847162245353 0 -0.023421232547798716 0.035946929387816143 0 -0.022824212497797501 0.036008847162245353 0 -0.022913947957891576 0.036299919920482412 0 -0.022159411419265508 0.036316455480876253 0 -0.022824212497797501 0.036008847162245353 0 -0.022913947957891576 0.036299919920482412 0 -0.022159411419265508 0.036316455480876253 0 -0.022913947957891576 0.036299919920482412 0 -0.022418675944551433 0.036746345960393674 0 -0.023132048541025855 0.036643489280033206 0 -0.022913947957891576 0.036299919920482412 0 -0.022418675944551433 0.036746345960393674 0 -0.023132048541025855 0.036643489280033206 0 -0.022418675944551433 0.036746345960393674 0 -0.022969708090296755 0.037145473527304851 0 -0.021489140542117192 0.036317379297891042 0 -0.020984651164679426 0.037166850879996084 0 -0.022159411419265508 0.036316455480876253 0 -0.022418675944551433 0.036746345960393674 0 -0.021486261703060606 0.03706272093809141 0 -0.022418675944551433 0.036746345960393674 0 -0.021486261703060606 0.03706272093809141 0 -0.022246171618152705 0.037701025832631269 0 -0.022246171618152705 0.037701025832631269 0 -0.022969708090296755 0.037145473527304851 0 -0.023362208593726036 0.037831435375963188 0 -0.022418675944551433 0.036746345960393674 0 -0.022246171618152705 0.037701025832631269 0 -0.022969708090296755 0.037145473527304851 0 -0.022246171618152705 0.037701025832631269 0 -0.02056924100812807 0.038137009669620747 0 -0.022000966759510524 0.03913367580623258 0 -0.021486261703060606 0.03706272093809141 0 -0.022246171618152705 0.037701025832631269 0 -0.02056924100812807 0.038137009669620747 0 -0.020984651164679426 0.037166850879996084 0 -0.020640307212747844 0.038122324783813506 0 -0.023732844939664644 0.03683711018499905 0 -0.024217023466742683 0.037636087661355018 0 -0.024456119711621992 0.036761163051711773 0 -0.023732844939664644 0.03683711018499905 0 -0.023362208593726036 0.037831435375963188 0 -0.024217023466742683 0.037636087661355018 0 -0.023732844939664644 0.03683711018499905 0 -0.022969708090296755 0.037145473527304851 0 -0.023362208593726036 0.037831435375963188 0 -0.022246171618152705 0.037701025832631269 0 -0.023362208593726036 0.037831435375963188 0 -0.022996293288448075 0.038746722562365339 0 -0.024228271953908399 0.037598157093599469 0 -0.024594942589546438 0.038786238277108705 0 -0.024217023466742683 0.037636087661355018 0 -0.023844767534133289 0.039023321988297305 0 -0.024667937096163182 0.038768629094448503 0 -0.023362208593726036 0.037831435375963188 0 -0.024217023466742683 0.037636087661355018 0 -0.023844767534133289 0.039023321988297305 0 -0.023844767534133289 0.039023321988297305 0 -0.024417124449907776 0.03961033696868848 0 -0.024667937096163182 0.038768629094448503 0 -0.022996293288448075 0.038746722562365339 0 -0.023410589496472092 0.039956563161879302 0 -0.022000966759510524 0.03913367580623258 0 -0.023362208593726036 0.037831435375963188 0 -0.023844767534133289 0.039023321988297305 0 -0.022996293288448075 0.038746722562365339 0 -0.023844767534133289 0.039023321988297305 0 -0.022996293288448075 0.038746722562365339 0 -0.023410589496472092 0.039956563161879302 0 -0.023844767534133289 0.039023321988297305 0 -0.023410589496472092 0.039956563161879302 0 -0.023987091949542648 0.039871426330808264 0 -0.023844767534133289 0.039023321988297305 0 -0.023987091949542648 0.039871426330808264 0 -0.024417124449907776 0.03961033696868848 0 -0.023410589496472092 0.039956563161879302 0 -0.023987091949542648 0.039871426330808264 0 -0.024270565814890205 0.04043776206229132 0 -0.023987091949542648 0.039871426330808264 0 -0.024332024169384733 0.040108666164814948 0 -0.024417124449907776 0.03961033696868848 0 -0.023987091949542648 0.039871426330808264 0 -0.024332024169384733 0.040108666164814948 0 -0.024270565814890205 0.04043776206229132 0 -0.024332024169384733 0.040108666164814948 0 -0.024577884732051983 0.039992650269808368 0 -0.024348279432138614 0.040407875357342603 0 -0.024332024169384733 0.040108666164814948 0 -0.024417124449907776 0.03961033696868848 0 -0.024577884732051983 0.039992650269808368 0 -0.02056924100812807 0.038137009669620747 0 -0.022000966759510524 0.03913367580623258 0 -0.020903167250874898 0.040009420305422538 0 -0.022246171618152705 0.037701025832631269 0 -0.022996293288448075 0.038746722562365339 0 -0.022000966759510524 0.03913367580623258 0 -0.022000966759510524 0.03913367580623258 0 -0.020903167250874898 0.040009420305422538 0 -0.022534843980083832 0.040600520481055197 0 -0.023410589496472092 0.039956563161879302 0 -0.022000966759510524 0.03913367580623258 0 -0.022534843980083832 0.040600520481055197 0 -0.019562339269593894 0.039404542421591318 0 -0.019584080446780214 0.03969176331669453 0 -0.019562339269593894 0.039404542421591318 0 -0.018671310240464169 0.038919502111922154 0 -0.018029238292210002 0.038850969504972042 0 -0.018693220024942912 0.038891235467485311 0 -0.018185372419146466 0.038788452642755371 0 -0.02056924100812807 0.038137009669620747 0 -0.020903167250874898 0.040009420305422538 0 -0.018693220024942912 0.038891235467485311 0 -0.02056924100812807 0.038137009669620747 0 -0.018693220024942912 0.038891235467485311 0 -0.018602679833067161 0.038092226671930733 0 -0.018693220024942912 0.038891235467485311 0 -0.017664198308836521 0.038303759194786909 0 -0.018602679833067161 0.038092226671930733 0 -0.018693220024942912 0.038891235467485311 0 -0.017614789607921986 0.038958027018408267 0 -0.018185372419146466 0.038788452642755371 0 -0.017614789607921986 0.038958027018408267 0 -0.017121910277284633 0.038879776057346417 0 -0.017068994751320902 0.038620828366243899 0 -0.016829649076201891 0.038713202073574045 0 -0.017121910277284633 0.038879776057346417 0 -0.017068994751320902 0.038620828366243899 0 -0.017614789607921986 0.038958027018408267 0 -0.017068994751320902 0.038620828366243899 0 -0.017664198308836521 0.038303759194786909 0 -0.016027031233470879 0.038229770132966273 0 -0.017068994751320902 0.038620828366243899 0 -0.017664198308836521 0.038303759194786909 0 -0.018693220024942912 0.038891235467485311 0 -0.017614789607921986 0.038958027018408267 0 -0.017664198308836521 0.038303759194786909 0 -0.017664198308836521 0.038303759194786909 0 -0.018198712101869394 0.037232155931895473 0 -0.018602679833067161 0.038092226671930733 0 -0.016027031233470879 0.038229770132966273 0 -0.016700079551474768 0.037516227010337806 0 -0.017664198308836521 0.038303759194786909 0 -0.016700079551474768 0.037516227010337806 0 -0.017664198308836521 0.038303759194786909 0 -0.018198712101869394 0.037232155931895473 0 -0.016700079551474768 0.037516227010337806 0 -0.016849553584485259 0.036699726554854727 0 -0.018198712101869394 0.037232155931895473 0 -0.019629955919306583 0.036790648225959788 0 -0.018198712101869394 0.037232155931895473 0 -0.019424948984728095 0.037463833358864343 0 -0.018198712101869394 0.037232155931895473 0 -0.019424948984728095 0.037463833358864343 0 -0.018602679833067161 0.038092226671930733 0 -0.019629955919306583 0.036790648225959788 0 -0.020483916892316462 0.037144422057254101 0 -0.019424948984728095 0.037463833358864343 0 -0.020483916892316462 0.037144422057254101 0 -0.02056924100812807 0.038137009669620747 0 -0.019424948984728095 0.037463833358864343 0 -0.02056924100812807 0.038137009669620747 0 -0.019424948984728095 0.037463833358864343 0 -0.018602679833067161 0.038092226671930733 0 -0.036513385331297249 0.031360035773518577 0 -0.035001078562698969 0.031848656375370862 0 -0.036272319728169494 0.030146254845166476 0 -0.036513385331297249 0.031360035773518577 0 -0.036197260159490562 0.032398069197320425 0 -0.035001078562698969 0.031848656375370862 0 -0.036197260159490562 0.032398069197320425 0 -0.035001078562698969 0.031848656375370862 0 -0.035979927826430814 0.03391052609945374 0 -0.035001078562698969 0.031848656375370862 0 -0.034993800691997784 0.035001484817582598 0 -0.035979927826430814 0.03391052609945374 0 -0.034993800691997784 0.035001484817582598 0 -0.034404021270045715 0.034996764329901675 0 -0.035979927826430814 0.03391052609945374 0 -0.033136850962048853 0.034999899034423437 0 -0.033121625715350073 0.036092431826829682 0 -0.032301455084285967 0.035956381040832451 0 -0.034393105048751128 0.035000041342221837 0 -0.033136850962048853 0.034999899034423437 0 -0.033121625715350073 0.036092431826829682 0 -0.03439337278867572 0.034999850906994083 0 -0.03449371722334843 0.035037014651330661 0 -0.033121625715350073 0.036092431826829682 0 -0.032301455084285967 0.035956381040832451 0 -0.03208892973381415 0.03693803634703758 0 -0.036197260159490562 0.032398069197320425 0 -0.035979927826430814 0.03391052609945374 0 -0.037554975663418054 0.032516112750346569 0 -0.032301455084285967 0.035956381040832451 0 -0.031659490484512366 0.036545049478727713 0 -0.03208892973381415 0.03693803634703758 0 -0.03449371722334843 0.035037014651330661 0 -0.0352081465099277 0.034409863215968776 0 -0.032301455084285967 0.035956381040832451 0 -0.031881270538144553 0.035000049056557098 0 -0.031659490484512366 0.036545049478727713 0 -0.033136850962048853 0.034999899034423437 0 -0.032301455084285967 0.035956381040832451 0 -0.031881270538144553 0.035000049056557098 0 -0.03188019091384512 0.035000011040294814 0 -0.030710823148995883 0.035643178622108446 0 -0.031019771970613279 0.036338218492290089 0 -0.03188019091384512 0.035000011040294814 0 -0.030710823148995883 0.035643178622108446 0 -0.030440640503304455 0.034999921272843286 0 -0.031881079666678296 0.034999441623686504 0 -0.031051075523849385 0.036794362563022792 0 -0.030710823148995883 0.035643178622108446 0 -0.031019771970613279 0.036338218492290089 0 -0.030156946158423178 0.036081648829970045 0 -0.0352081465099277 0.034409863215968776 0 -0.032947802829289247 0.035751180501811357 0 -0.031051075523849385 0.036794362563022792 0 -0.032947802829289247 0.035751180501811357 0 -0.031659490484512366 0.036545049478727713 0 -0.03208892973381415 0.03693803634703758 0 -0.031403226154155202 0.037615455946606431 0 -0.036513385331297249 0.031360035773518577 0 -0.036197260159490562 0.032398069197320425 0 -0.037554975663418054 0.032516112750346569 0 -0.037554975663418054 0.032516112750346569 0 -0.037326867142900177 0.031146348987908579 0 -0.03792710552340621 0.031459374891166507 0 -0.036513385331297249 0.031360035773518577 0 -0.037326867142900177 0.031146348987908579 0 -0.037137744160144565 0.030277131936304182 0 -0.036513385331297249 0.031360035773518577 0 -0.037554975663418054 0.032516112750346569 0 -0.037326867142900177 0.031146348987908579 0 -0.037326867142900177 0.031146348987908579 0 -0.037902962427513759 0.030782383960695565 0 -0.037137744160144565 0.030277131936304182 0 -0.037326867142900177 0.031146348987908579 0 -0.037902962427513759 0.030782383960695565 0 -0.03792710552340621 0.031459374891166507 0 -0.037902962427513759 0.030782383960695565 0 -0.03792710552340621 0.031459374891166507 0 -0.03879376882510719 0.030528482674437009 0 -0.037554975663418054 0.032516112750346569 0 -0.038527378879480358 0.031371350785831364 0 -0.03792710552340621 0.031459374891166507 0 -0.038527378879480358 0.031371350785831364 0 -0.03792710552340621 0.031459374891166507 0 -0.038709753173682936 0.030723810111005705 0 -0.039064335154154285 0.030460901523791883 0 -0.03564918185671815 0.032742136281546312 0 -0.030623537901755222 0.037174895787206522 0 -0.030072761022088473 0.036962343151213231 0 -0.0303380200530067 0.037412117844589497 0 -0.030727048293812061 0.03702974346864607 0 -0.0303380200530067 0.037412117844589497 0 -0.030509908977796971 0.03756104318981833 0 -0.032947802829289247 0.035751180501811357 0 -0.0301901893177445 0.037831542081692371 0 -0.032947802829289247 0.035751180501811357 0 -0.03564918185671815 0.032742136281546312 0 -0.030072761022088473 0.036962343151213231 0 -0.0303380200530067 0.037412117844589497 0 -0.030031445007515652 0.037354235928079071 0 -0.030072761022088473 0.036962343151213231 0 -0.029716185023808787 0.037434618779145917 0 -0.029652125242602433 0.036524481397847142 0 -0.030072761022088473 0.036962343151213231 0 -0.030031445007515652 0.037354235928079071 0 -0.029716185023808787 0.037434618779145917 0 -0.027574118764634184 0.037413024995148356 0 -0.027623085812817052 0.036270611720955928 0 -0.030072761022088473 0.036962343151213231 0 -0.029652125242602433 0.036524481397847142 0 -0.030156946158423178 0.036081648829970045 0 -0.031019771970613279 0.036338218492290089 0 -0.030072761022088473 0.036962343151213231 0 -0.030156946158423178 0.036081648829970045 0 -0.031019771970613279 0.036338218492290089 0 -0.030623537901755222 0.037174895787206522 0 -0.030072761022088473 0.036962343151213231 0 -0.030087395247264372 0.035362231346164175 0 -0.030440640503304455 0.034999921272843286 0 -0.028999715005434776 0.034999994252777812 0 -0.030710823148995883 0.035643178622108446 0 -0.030156946158423178 0.036081648829970045 0 -0.030087395247264372 0.035362231346164175 0 -0.030156946158423178 0.036081648829970045 0 -0.030087395247264372 0.035362231346164175 0 -0.029565724543129557 0.035399278123978591 0 -0.030710823148995883 0.035643178622108446 0 -0.030087395247264372 0.035362231346164175 0 -0.030440640503304455 0.034999921272843286 0 -0.028979855637875987 0.035390380142748847 0 -0.028999763483402927 0.035000004919610368 0 -0.027394263184258198 0.034999978501093869 0 -0.030087395247264372 0.035362231346164175 0 -0.028982253041722594 0.0354101294792196 0 -0.028999715005434776 0.034999994252777812 0 -0.030253988957387984 0.035334469301250497 0 -0.028226719480577953 0.035068804402926604 0 -0.028226719480577953 0.035068804402926604 0 -0.028998500938496218 0.035000147330700164 0 -0.027623085812817052 0.036270611720955928 0 -0.028226719480577953 0.035068804402926604 0 -0.025706423154794399 0.036042086362879006 0 -0.025763288616471505 0.035064563642773099 0 -0.025335119630964922 0.035289875103401917 0 -0.029652125242602433 0.036524481397847142 0 -0.030156946158423178 0.036081648829970045 0 -0.029565724543129557 0.035399278123978591 0 -0.025706423154794399 0.036042086362879006 0 -0.025019979698370443 0.035655536834472402 0 -0.025335119630964922 0.035289875103401917 0 -0.025019979698370443 0.035655536834472402 0 -0.025014735937588004 0.035356773879419157 0 -0.024795872962920375 0.035390741053280592 0 -0.025019979698370443 0.035655536834472402 0 -0.025335119630964922 0.035289875103401917 0 -0.025014735937588004 0.035356773879419157 0 -0.028226719480577953 0.035068804402926604 0 -0.02593931820005119 0.035266629182744105 0 -0.028979855637875987 0.035390380142748847 0 -0.027394263184258198 0.034999978501093869 0 -0.027326161620647285 0.035405933604512628 0 -0.025763288616471505 0.035064563642773099 0 -0.025335119630964922 0.035289875103401917 0 -0.024904873442854053 0.035079504194708268 0 -0.025335119630964922 0.035289875103401917 0 -0.025014735937588004 0.035356773879419157 0 -0.024904873442854053 0.035079504194708268 0 -0.025789253218035765 0.03500006699292034 0 -0.027394263184258198 0.034999978501093869 0 -0.027326161620647285 0.035405933604512628 0 -0.024913361089114055 0.035322311722591919 0 -0.02593931820005119 0.035266629182744105 0 -0.024064996366580396 0.035241127245803285 0 -0.024904873442854053 0.035079504194708268 0 -0.024455457906226566 0.035283705787992156 0 -0.025789253218035765 0.03500006699292034 0 -0.02567341887434775 0.035421538737394141 0 -0.027326161620647285 0.035405933604512628 0 -0.024904873442854053 0.035079504194708268 0 -0.024655109986172791 0.035289121199005784 0 -0.024455457906226566 0.035283705787992156 0 -0.024795872962920375 0.035390741053280592 0 -0.024655109986172791 0.035289121199005784 0 -0.024507140049655707 0.035425588404408265 0 -0.025014735937588004 0.035356773879419157 0 -0.024904873442854053 0.035079504194708268 0 -0.024795872962920375 0.035390741053280592 0 -0.024904873442854053 0.035079504194708268 0 -0.024795872962920375 0.035390741053280592 0 -0.024655109986172791 0.035289121199005784 0 -0.024655109986172791 0.035289121199005784 0 -0.024507140049655707 0.035425588404408265 0 -0.024455457906226566 0.035283705787992156 0 -0.024234997962611991 0.035417025245474423 0 -0.024507140049655707 0.035425588404408265 0 -0.024455457906226566 0.035283705787992156 0 -0.0243296423802285 0.035632911327321527 0 -0.024507140049655707 0.035425588404408265 0 -0.024642598001033238 0.035606107815507118 0 -0.024795872962920375 0.035390741053280592 0 -0.024507140049655707 0.035425588404408265 0 -0.024642598001033238 0.035606107815507118 0 -0.025019979698370443 0.035655536834472402 0 -0.024795872962920375 0.035390741053280592 0 -0.024642598001033238 0.035606107815507118 0 -0.025019979698370443 0.035655536834472402 0 -0.024642598001033238 0.035606107815507118 0 -0.024558538337902017 0.035905586819044821 0 -0.0243296423802285 0.035632911327321527 0 -0.024642598001033238 0.035606107815507118 0 -0.024558538337902017 0.035905586819044821 0 -0.025019979698370443 0.035655536834472402 0 -0.024558538337902017 0.035905586819044821 0 -0.024968016799807095 0.036382755756726087 0 -0.024252195514453387 0.036313108023106201 0 -0.024558538337902017 0.035905586819044821 0 -0.024968016799807095 0.036382755756726087 0 -0.025706423154794399 0.036042086362879006 0 -0.025019979698370443 0.035655536834472402 0 -0.024968016799807095 0.036382755756726087 0 -0.02569466909358549 0.037019802223825365 0 -0.025706423154794399 0.036042086362879006 0 -0.024968016799807095 0.036382755756726087 0 -0.02569466909358549 0.037019802223825365 0 -0.024968016799807095 0.036382755756726087 0 -0.025030781342805845 0.037071145440767117 0 -0.024968016799807095 0.036382755756726087 0 -0.024456119711621992 0.036761163051711773 0 -0.025030781342805845 0.037071145440767117 0 -0.024252195514453387 0.036313108023106201 0 -0.024968016799807095 0.036382755756726087 0 -0.024456119711621992 0.036761163051711773 0 -0.024217023466742683 0.037636087661355018 0 -0.024456119711621992 0.036761163051711773 0 -0.025030781342805845 0.037071145440767117 0 -0.024217023466742683 0.037636087661355018 0 -0.025030781342805845 0.037071145440767117 0 -0.024975856077834136 0.037735241331371704 0 -0.02569466909358549 0.037019802223825365 0 -0.025030781342805845 0.037071145440767117 0 -0.024975856077834136 0.037735241331371704 0 -0.024975856077834136 0.037735241331371704 0 -0.025075348482248277 0.038129536200632072 0 -0.025673636916247054 0.038017087459534429 0 -0.02569466909358549 0.037019802223825365 0 -0.024975856077834136 0.037735241331371704 0 -0.025673636916247054 0.038017087459534429 0 -0.024975856077834136 0.037735241331371704 0 -0.024517796792248799 0.038260045302364536 0 -0.025075348482248277 0.038129536200632072 0 -0.024217023466742683 0.037636087661355018 0 -0.024975856077834136 0.037735241331371704 0 -0.024517796792248799 0.038260045302364536 0 -0.024594942589546438 0.038786238277108705 0 -0.025563452283449778 0.037974305875182406 0 -0.024517796792248799 0.038260045302364536 0 -0.024925915201777268 0.038414769731518292 0 -0.025075348482248277 0.038129536200632072 0 -0.024517796792248799 0.038260045302364536 0 -0.024925915201777268 0.038414769731518292 0 -0.024936581928266428 0.038852479507555979 0 -0.024517796792248799 0.038260045302364536 0 -0.024936581928266428 0.038852479507555979 0 -0.02477048514282279 0.039213365908510538 0 -0.024417124449907776 0.03961033696868848 0 -0.024667937096163182 0.038768629094448503 0 -0.02506265781799431 0.039884553144407114 0 -0.02506265781799431 0.039884553144407114 0 -0.024577884732051983 0.039992650269808368 0 -0.024348279432138614 0.040407875357342603 0 -0.024417124449907776 0.03961033696868848 0 -0.02506265781799431 0.039884553144407114 0 -0.024577884732051983 0.039992650269808368 0 -0.025563452283449778 0.037974305875182406 0 -0.023851934142310349 0.040813983620040843 0 -0.025563452283449778 0.037974305875182406 0 -0.028941870444692423 0.034647229356945301 0 -0.024936581928266428 0.038852479507555979 0 -0.02477048514282279 0.039213365908510538 0 -0.026371895444251333 0.038050688225919636 0 -0.028448151178436708 0.034078771536820422 0 -0.029324815908091058 0.033839138680703144 0 -0.029444852917993796 0.033206745421419263 0 -0.028448151178436708 0.034078771536820422 0 -0.029324815908091058 0.033839138680703144 0 -0.028987113753595271 0.034393714978806278 0 -0.029324815908091058 0.033839138680703144 0 -0.029618018871501509 0.034397919547144384 0 -0.028987113753595271 0.034393714978806278 0 -0.025284975688348331 0.038403014366358276 0 -0.025075348482248277 0.038129536200632072 0 -0.025673636916247054 0.038017087459534429 0 -0.024936581928266428 0.038852479507555979 0 -0.026177954177372408 0.038031425760877043 0 -0.026371895444251333 0.038050688225919636 0 -0.029324815908091058 0.033839138680703144 0 -0.029444852917993796 0.033206745421419263 0 -0.029678886166078226 0.033214893946301512 0 -0.028397395011984319 0.034829111645563272 0 -0.028941870444692423 0.034647229356945301 0 -0.024925915201777268 0.038414769731518292 0 -0.024936581928266428 0.038852479507555979 0 -0.025284975688348331 0.038403014366358276 0 -0.025080078781971715 0.038712752973234975 0 -0.025367255208241457 0.03848240713506005 0 -0.024936581928266428 0.038852479507555979 0 -0.025860664309392427 0.038045099160866597 0 -0.026177954177372408 0.038031425760877043 0 -0.024925915201777268 0.038414769731518292 0 -0.025284975688348331 0.038403014366358276 0 -0.025075348482248277 0.038129536200632072 0 -0.025860664309392427 0.038045099160866597 0 -0.026177954177372408 0.038031425760877043 0 -0.026851206408054103 0.037084369793396105 0 -0.025367255208241457 0.03848240713506005 0 -0.028673885037333775 0.037301430643749349 0 -0.026177954177372408 0.038031425760877043 0 -0.026398481211496169 0.038040162810983026 0 -0.026825156699366332 0.03767569259438882 0 -0.026177954177372408 0.038031425760877043 0 -0.026825156699366332 0.03767569259438882 0 -0.026851206408054103 0.037084369793396105 0 -0.030694470494925206 0.034704476863116888 0 -0.028673885037333775 0.037301430643749349 0 -0.030838703669229261 0.033722077745590544 0 -0.031242830982768439 0.033378485428848033 0 -0.031225854138218861 0.033738702822144431 0 -0.028941870444692423 0.034647229356945301 0 -0.030694470494925206 0.034704476863116888 0 -0.030694470494925206 0.034704476863116888 0 -0.032297205738390782 0.032061536051725514 0 -0.033378706527037817 0.032070755720322891 0 -0.033354504176217603 0.032596169347343509 0 -0.035066914529035279 0.032663947203939718 0 -0.035877549720204412 0.027874858244674849 0 -0.035782012081091358 0.027740424996505905 0 -0.035630236654095933 0.027873465032926179 0 -0.032297205738390782 0.032061536051725514 0 -0.03650827352730146 0.029199235043361998 0 -0.028941870444692423 0.034647229356945301 0 -0.032297205738390782 0.032061536051725514 0 -0.035877549720204412 0.027874858244674849 0 -0.035833464472867144 0.027620119567094693 0 -0.03585917016207002 0.027474809165677939 0 -0.035877549720204412 0.027874858244674849 0 -0.035833464472867144 0.027620119567094693 0 -0.035782012081091358 0.027740424996505905 0 -0.032297205738390782 0.032061536051725514 0 -0.03338598060183303 0.030065301765056621 0 -0.029324815908091058 0.033839138680703144 0 -0.029678886166078226 0.033214893946301512 0 -0.029618018871501509 0.034397919547144384 0 -0.035939903857814169 0.027326857480701846 0 -0.03650827352730146 0.029199235043361998 0 -0.035833464472867144 0.027620119567094693 0 -0.035782012081091358 0.027740424996505905 0 -0.035743979282148591 0.027585107134444887 0 -0.035782012081091358 0.027740424996505905 0 -0.035743979282148591 0.027585107134444887 0 -0.035630236654095933 0.027873465032926179 0 -0.035833464472867144 0.027620119567094693 0 -0.035743979282148591 0.027585107134444887 0 -0.035795957531444753 0.027549303503653713 0 -0.035743979282148591 0.027585107134444887 0 -0.035795957531444753 0.027549303503653713 0 -0.035767484277431996 0.027489570638301295 0 -0.035833464472867144 0.027620119567094693 0 -0.035795957531444753 0.027549303503653713 0 -0.035846701452543761 0.027515091471704264 0 -0.035234975536679231 0.027178067637711738 0 -0.03338598060183303 0.030065301765056621 0 -0.035719510662322582 0.027511338004769514 0 -0.035704403094079996 0.027561454146462497 0 -0.035662790939381177 0.027495775471767146 0 -0.035743979282148591 0.027585107134444887 0 -0.035719510662322582 0.027511338004769514 0 -0.035767484277431996 0.027489570638301295 0 -0.035743979282148591 0.027585107134444887 0 -0.035719510662322582 0.027511338004769514 0 -0.035704403094079996 0.027561454146462497 0 -0.035743979282148591 0.027585107134444887 0 -0.035704403094079996 0.027561454146462497 0 -0.035740711723579219 0.027614598603147803 0 -0.035704403094079996 0.027561454146462497 0 -0.035740711723579219 0.027614598603147803 0 -0.035627064911805575 0.027596781909132086 0 -0.03650827352730146 0.029199235043361998 0 -0.037080259971852922 0.02767290314063485 0 -0.039585848665551024 0.028133387999312913 0 -0.038681898004555314 0.028772214898575919 0 -0.038044711595145261 0.028033256322779806 0 -0.039585848665551024 0.028133387999312913 0 -0.039184763550202575 0.029591588927262245 0 -0.038681898004555314 0.028772214898575919 0 -0.03650827352730146 0.029199235043361998 0 -0.037115623245668909 0.03070418899504513 0 -0.034489115764215636 0.0334702150375739 0 -0.033059571608391403 0.033388897980169301 0 -0.030972984059360369 0.035391864957963655 0 -0.030918222960946332 0.036530370530522847 0 -0.034489115764215636 0.0334702150375739 0 -0.030972984059360369 0.035391864957963655 0 -0.033378706527037817 0.032070755720322891 0 -0.035066914529035279 0.032663947203939718 0 -0.035945985928644446 0.029864710507051948 0 -0.030694470494925206 0.034704476863116888 0 -0.037115623245668909 0.03070418899504513 0 -0.031363832871484802 0.035854314265937381 0 -0.028673885037333775 0.037301430643749349 0 -0.029716185023808787 0.037434618779145917 0 -0.030068835057307286 0.037918879461416408 0 -0.02969009107446852 0.038268552314903122 0 -0.027574118764634184 0.037413024995148356 0 -0.028673885037333775 0.037301430643749349 0 -0.030031445007515652 0.037354235928079071 0 -0.029716185023808787 0.037434618779145917 0 -0.030068835057307286 0.037918879461416408 0 -0.0303380200530067 0.037412117844589497 0 -0.030068835057307286 0.037918879461416408 0 -0.030509908977796971 0.03756104318981833 0 -0.0303380200530067 0.037412117844589497 0 -0.030031445007515652 0.037354235928079071 0 -0.030068835057307286 0.037918879461416408 0 -0.037115623245668909 0.03070418899504513 0 -0.03564918185671815 0.032742136281546312 0 -0.034489115764215636 0.0334702150375739 0 -0.033059571608391403 0.033388897980169301 0 -0.035144801253554098 0.031394980271570623 0 -0.031363832871484802 0.035854314265937381 0 -0.03564918185671815 0.032742136281546312 0 -0.038725558086430453 0.03023378314662226 0 -0.037115623245668909 0.03070418899504513 0 -0.037902962427513759 0.030782383960695565 0 -0.038996479410329528 0.029849899210436358 0 -0.03879376882510719 0.030528482674437009 0 -0.037902962427513759 0.030782383960695565 0 -0.039184763550202575 0.029591588927262245 0 -0.037900585143733553 0.029344945344652925 0 -0.037902962427513759 0.030782383960695565 0 -0.037137744160144565 0.030277131936304182 0 -0.037900585143733553 0.029344945344652925 0 -0.036927529470850942 0.028988817813742393 0 -0.037900585143733553 0.029344945344652925 0 -0.038044711595145261 0.028033256322779806 0 -0.037137744160144565 0.030277131936304182 0 -0.036927529470850942 0.028988817813742393 0 -0.037900585143733553 0.029344945344652925 0 -0.038681898004555314 0.028772214898575919 0 -0.037900585143733553 0.029344945344652925 0 -0.038044711595145261 0.028033256322779806 0 -0.039184763550202575 0.029591588927262245 0 -0.038681898004555314 0.028772214898575919 0 -0.037900585143733553 0.029344945344652925 0 -0.035627064911805575 0.027596781909132086 0 -0.035662790939381177 0.027495775471767146 0 -0.035563268455781248 0.027458157036596476 0 -0.035704403094079996 0.027561454146462497 0 -0.035627064911805575 0.027596781909132086 0 -0.035662790939381177 0.027495775471767146 0 -0.035627064911805575 0.027596781909132086 0 -0.035563268455781248 0.027458157036596476 0 -0.035440969188099053 0.027579397709986787 0 -0.037080259971852922 0.02767290314063485 0 -0.035915000867326616 0.027735108886731016 0 -0.036927529470850942 0.028988817813742393 0 -0.038044711595145261 0.028033256322779806 0 -0.036519121652342126 0.027875707857793228 0 -0.035563268455781248 0.027458157036596476 0 -0.035440969188099053 0.027579397709986787 0 -0.035372736995917926 0.027370023489455358 0 -0.035440969188099053 0.027579397709986787 0 -0.035372736995917926 0.027370023489455358 0 -0.03500029627156135 0.027416247932737701 0 -0.035768601899053357 0.026775439464814241 0 -0.035000107010842968 0.027413976283257004 0 -0.036221971949888784 0.026154444991114814 0 -0.03499999244551108 0.02741390738511712 0 -0.034999824148727661 0.025371013499958774 0 -0.036519121652342126 0.027875707857793228 0 -0.034999038889101053 0.027571711693096326 0 -0.035909012928691308 0.029110325009772405 0 -0.035915000867326616 0.027735108886731016 0 -0.035000223335094047 0.027570970376073839 0 -0.035440969188099053 0.027579397709986787 0 -0.034999735177027806 0.027568850422221586 0 -0.03500029627156135 0.027416247932737701 0 -0.035001078562698969 0.031848656375370862 0 -0.034999038889101053 0.027571711693096326 0 -0.035909012928691308 0.029110325009772405 0 -0.035001078562698969 0.031848656375370862 0 -0.035909012928691308 0.029110325009772405 0 -0.036272319728169494 0.030146254845166476 0 -0.036927529470850942 0.028988817813742393 0 -0.035909012928691308 0.029110325009772405 0 -0.036272319728169494 0.030146254845166476 0 -0.036927529470850942 0.028988817813742393 0 -0.036519121652342126 0.027875707857793228 0 -0.035909012928691308 0.029110325009772405 0 -0.037137744160144565 0.030277131936304182 0 -0.036927529470850942 0.028988817813742393 0 -0.036272319728169494 0.030146254845166476 0 -0.036513385331297249 0.031360035773518577 0 -0.037137744160144565 0.030277131936304182 0 -0.036272319728169494 0.030146254845166476 0 -0.035494179848150557 0.022446310157386053 0 -0.035908360053524067 0.02326787674135913 0 -0.03499994110664565 0.023328738375023694 0 -0.035494179848150557 0.022446310157386053 0 -0.03499994110664565 0.023328738375023694 0 -0.034999934276286969 0.021285874079065112 0 -0.035494179848150557 0.022446310157386053 0 -0.036333858623658802 0.022328411725990271 0 -0.035908360053524067 0.02326787674135913 0 -0.036333858623658802 0.022328411725990271 0 -0.035908360053524067 0.02326787674135913 0 -0.036701876284064378 0.023453681958434378 0 -0.035908360053524067 0.02326787674135913 0 -0.036009918580197101 0.024311252829228667 0 -0.036701876284064378 0.023453681958434378 0 -0.035908360053524067 0.02326787674135913 0 -0.03499994110664565 0.023328738375023694 0 -0.036009918580197101 0.024311252829228667 0 -0.03499994110664565 0.023328738375023694 0 -0.034999824148727661 0.025371013499958774 0 -0.036009918580197101 0.024311252829228667 0 -0.036221971949888784 0.026154444991114814 0 -0.034999824148727661 0.025371013499958774 0 -0.036009918580197101 0.024311252829228667 0 -0.036221971949888784 0.026154444991114814 0 -0.036009918580197101 0.024311252829228667 0 -0.03722703519244739 0.024974197383462581 0 -0.035768601899053357 0.026775439464814241 0 -0.036375940601006559 0.026167944186006872 0 -0.036009918580197101 0.024311252829228667 0 -0.03722703519244739 0.024974197383462581 0 -0.036701876284064378 0.023453681958434378 0 -0.035563268455781248 0.027458157036596476 0 -0.035372736995917926 0.027370023489455358 0 -0.035553544462410151 0.027348920725776001 0 -0.035563268455781248 0.027458157036596476 0 -0.035553544462410151 0.027348920725776001 0 -0.035643504331056598 0.027394599639504674 0 -0.035662790939381177 0.027495775471767146 0 -0.035563268455781248 0.027458157036596476 0 -0.035643504331056598 0.027394599639504674 0 -0.03722703519244739 0.024974197383462581 0 -0.038071608484808027 0.024027282844669793 0 -0.03751744548344129 0.023386152747997015 0 -0.036375940601006559 0.026167944186006872 0 -0.036882711155690973 0.025708666273317131 0 -0.035553544462410151 0.027348920725776001 0 -0.035643504331056598 0.027394599639504674 0 -0.035669422915684416 0.027287756318752927 0 -0.038071608484808027 0.024027282844669793 0 -0.03751744548344129 0.023386152747997015 0 -0.038185253134708656 0.023263009562790458 0 -0.03722703519244739 0.024974197383462581 0 -0.03751744548344129 0.023386152747997015 0 -0.036701876284064378 0.023453681958434378 0 -0.036333858623658802 0.022328411725990271 0 -0.036701876284064378 0.023453681958434378 0 -0.037142180689506359 0.02251791611968983 0 -0.03751744548344129 0.023386152747997015 0 -0.036701876284064378 0.023453681958434378 0 -0.037142180689506359 0.02251791611968983 0 -0.03751744548344129 0.023386152747997015 0 -0.037142180689506359 0.02251791611968983 0 -0.037801257221496132 0.022510948177893477 0 -0.03751744548344129 0.023386152747997015 0 -0.037801257221496132 0.022510948177893477 0 -0.038185253134708656 0.023263009562790458 0 -0.037801257221496132 0.022510948177893477 0 -0.039082773389273816 0.023195194662821654 0 -0.038185253134708656 0.023263009562790458 0 -0.038273150565647229 0.022152627157936589 0 -0.037278865488388421 0.024866128871324108 0 -0.037801257221496132 0.022510948177893477 0 -0.038273563111711678 0.022446777530749279 0 -0.038476738857573231 0.022850291778678724 0 -0.038273563111711678 0.022446777530749279 0 -0.038543702061142819 0.022547684409829058 0 -0.038500720494492477 0.022310496967037359 0 -0.038543702061142819 0.022547684409829058 0 -0.038739930887665502 0.022376252586714565 0 -0.038500720494492477 0.022310496967037359 0 -0.038543702061142819 0.022547684409829058 0 -0.038808436934901915 0.022589772614291435 0 -0.038739930887665502 0.022376252586714565 0 -0.038880434768449067 0.022570451227423984 0 -0.038900742300200325 0.022294214857682477 0 -0.038739930887665502 0.022376252586714565 0 -0.038808703507688135 0.022628019513967115 0 -0.038880434768449067 0.022570451227423984 0 -0.038739930887665502 0.022376252586714565 0 -0.03617795042613238 0.024552575737294555 0 -0.037096636822553063 0.023166742011990555 0 -0.034469328804249376 0.024997526966505975 0 -0.034956062056317516 0.026310411805203545 0 -0.035034486117747857 0.024550460101318752 0 -0.03617795042613238 0.024552575737294555 0 -0.035265058339948176 0.024946821232945442 0 -0.03617795042613238 0.024552575737294555 0 -0.037278865488388421 0.024866128871324108 0 -0.035621997076811476 0.026253882866599118 0 -0.035655969300494209 0.026354039958982545 0 -0.03540128786790761 0.026432053475598585 0 -0.034279065635494071 0.026919768629022952 0 -0.035265058339948176 0.024946821232945442 0 -0.03617795042613238 0.024552575737294555 0 -0.034279065635494071 0.026919768629022952 0 -0.038543702061142819 0.022547684409829058 0 -0.038808436934901915 0.022589772614291435 0 -0.038476738857573231 0.022850291778678724 0 -0.038273563111711678 0.022446777530749279 0 -0.038543702061142819 0.022547684409829058 0 -0.038476738857573231 0.022850291778678724 0 -0.035789075156185041 0.0271963550653706 0 -0.035856307826295529 0.027249566179985994 0 -0.03577781991992033 0.027303517335992192 0 -0.034279065635494071 0.026919768629022952 0 -0.033864108212644128 0.029117059093631274 0 -0.035655969300494209 0.026354039958982545 0 -0.03540128786790761 0.026432053475598585 0 -0.035642667674684714 0.02658097326468925 0 -0.037278865488388421 0.024866128871324108 0 -0.033864108212644128 0.029117059093631274 0 -0.036882711155690973 0.025708666273317131 0 -0.037278865488388421 0.024866128871324108 0 -0.038071608484808027 0.024027282844669793 0 -0.039082773389273816 0.023195194662821654 0 -0.038185253134708656 0.023263009562790458 0 -0.035669422915684416 0.027287756318752927 0 -0.035789075156185041 0.0271963550653706 0 -0.03577781991992033 0.027303517335992192 0 -0.035643504331056598 0.027394599639504674 0 -0.035669422915684416 0.027287756318752927 0 -0.035724835643336304 0.027413347875699913 0 -0.035669422915684416 0.027287756318752927 0 -0.035724835643336304 0.027413347875699913 0 -0.03577781991992033 0.027303517335992192 0 -0.035662790939381177 0.027495775471767146 0 -0.035643504331056598 0.027394599639504674 0 -0.035724835643336304 0.027413347875699913 0 -0.035719510662322582 0.027511338004769514 0 -0.035724835643336304 0.027413347875699913 0 -0.035767484277431996 0.027489570638301295 0 -0.035719510662322582 0.027511338004769514 0 -0.035662790939381177 0.027495775471767146 0 -0.035724835643336304 0.027413347875699913 0 -0.035724835643336304 0.027413347875699913 0 -0.035767484277431996 0.027489570638301295 0 -0.035849572724698874 0.02737441685352611 0 -0.03338598060183303 0.030065301765056621 0 -0.034276973761343657 0.029099670176427846 0 -0.032664064699127124 0.030508362377738799 0 -0.032604245795380633 0.031105179123193469 0 -0.032490763609368721 0.030985263588399318 0 -0.035846701452543761 0.027515091471704264 0 -0.035767484277431996 0.027489570638301295 0 -0.035849572724698874 0.02737441685352611 0 -0.035795957531444753 0.027549303503653713 0 -0.035846701452543761 0.027515091471704264 0 -0.035767484277431996 0.027489570638301295 0 -0.03338598060183303 0.030065301765056621 0 -0.030878918871891151 0.033285988717166003 0 -0.035724835643336304 0.027413347875699913 0 -0.035849572724698874 0.02737441685352611 0 -0.03577781991992033 0.027303517335992192 0 -0.035856307826295529 0.027249566179985994 0 -0.035849572724698874 0.02737441685352611 0 -0.03577781991992033 0.027303517335992192 0 -0.033864108212644128 0.029117059093631274 0 -0.034276973761343657 0.029099670176427846 0 -0.024106111031440881 0.040261676252692821 0 -0.024259921266693626 0.040067900509014855 0 -0.024027742803070407 0.039925604163939844 0 -0.030878918871891151 0.033285988717166003 0 -0.029279919788596065 0.034714875304885963 0 -0.029376313562248239 0.035143363363799293 0 -0.028810386871701569 0.03498326426794255 0 -0.029150978266303865 0.035859086109742325 0 -0.024259921266693626 0.040067900509014855 0 -0.024048409314881076 0.039865731515313488 0 -0.024027742803070407 0.039925604163939844 0 -0.026448547080093671 0.037954267509671902 0 -0.029279919788596065 0.034714875304885963 0 -0.03256754051489081 0.031660672010945239 0 -0.032604245795380633 0.031105179123193469 0 -0.03234402051988812 0.031437786377106113 0 -0.032604245795380633 0.031105179123193469 0 -0.032490763609368721 0.030985263588399318 0 -0.03234402051988812 0.031437786377106113 0 -0.029618018871501509 0.034397919547144384 0 -0.029376313562248239 0.035143363363799293 0 -0.028987113753595271 0.034393714978806278 0 -0.029376313562248239 0.035143363363799293 0 -0.028810386871701569 0.03498326426794255 0 -0.028987113753595271 0.034393714978806278 0 -0.028448151178436708 0.034078771536820422 0 -0.028810386871701569 0.03498326426794255 0 -0.028987113753595271 0.034393714978806278 0 -0.025563452283449778 0.037974305875182406 0 -0.026448547080093671 0.037954267509671902 0 -0.024203513358466211 0.040498381497499701 0 -0.024106111031440881 0.040261676252692821 0 -0.02424124015190765 0.040371158359084794 0 -0.02424124015190765 0.040371158359084794 0 -0.024291226842250355 0.040340917661862971 0 -0.024348279432138614 0.040407875357342603 0 -0.024203513358466211 0.040498381497499701 0 -0.02424124015190765 0.040371158359084794 0 -0.024348279432138614 0.040407875357342603 0 -0.024106111031440881 0.040261676252692821 0 -0.02424124015190765 0.040371158359084794 0 -0.024249824019370817 0.040280377777996514 0 -0.024249824019370817 0.040280377777996514 0 -0.024291226842250355 0.040340917661862971 0 -0.024324955071395316 0.040311623479888502 0 -0.02424124015190765 0.040371158359084794 0 -0.024249824019370817 0.040280377777996514 0 -0.024291226842250355 0.040340917661862971 0 -0.025643350261494564 0.037181186379436251 0 -0.02848144287815112 0.033470596744414535 0 -0.024249824019370817 0.040280377777996514 0 -0.024259921266693626 0.040067900509014855 0 -0.024324955071395316 0.040311623479888502 0 -0.024106111031440881 0.040261676252692821 0 -0.024249824019370817 0.040280377777996514 0 -0.024259921266693626 0.040067900509014855 0 -0.027074949342354038 0.034103988484809653 0 -0.026735168127487913 0.032942093102655716 0 -0.02610756636179748 0.033554161276457745 0 -0.027074949342354038 0.034103988484809653 0 -0.026735168127487913 0.032942093102655716 0 -0.027580711689302852 0.033022211854863807 0 -0.032150771760693156 0.03095094523957621 0 -0.03171374980216532 0.030711846533782887 0 -0.031544937980198084 0.02827786874447975 0 -0.03256754051489081 0.031660672010945239 0 -0.03234402051988812 0.031437786377106113 0 -0.032399415470735583 0.031578229951790653 0 -0.030407709341144569 0.03281285945583607 0 -0.030170466426581045 0.033591336782515781 0 -0.029753990869253028 0.032458293806427098 0 -0.029279919788596065 0.034714875304885963 0 -0.030764064349022461 0.031983645393708085 0 -0.02848144287815112 0.033470596744414535 0 -0.029279919788596065 0.034714875304885963 0 -0.02848144287815112 0.033470596744414535 0 -0.030764064349022461 0.031983645393708085 0 -0.033864108212644128 0.029117059093631274 0 -0.030764064349022461 0.031983645393708085 0 -0.034279065635494071 0.026919768629022952 0 -0.030764064349022461 0.031983645393708085 0 -0.032431307061706598 0.02787194308740925 0 -0.032329084823679473 0.029908225631338676 0 -0.03337731851820544 0.03048082190238224 0 -0.030950394044698709 0.02858830696452231 0 -0.03171374980216532 0.030711846533782887 0 -0.031544937980198084 0.02827786874447975 0 -0.032150771760693156 0.03095094523957621 0 -0.031544937980198084 0.02827786874447975 0 -0.033372113651518619 0.026958773502071317 0 -0.026735168127487913 0.032942093102655716 0 -0.02610756636179748 0.033554161276457745 0 -0.026593319790870072 0.031970344135133451 0 -0.031544937980198084 0.02827786874447975 0 -0.03100246032829616 0.027604729630292559 0 -0.033372113651518619 0.026958773502071317 0 -0.02848144287815112 0.033470596744414535 0 -0.0306428807489506 0.02764313752894252 0 -0.03100246032829616 0.027604729630292559 0 -0.033372113651518619 0.026958773502071317 0 -0.031070795363588911 0.026301309492168249 0 -0.030950394044698709 0.02858830696452231 0 -0.031544937980198084 0.02827786874447975 0 -0.03100246032829616 0.027604729630292559 0 -0.035265058339948176 0.024946821232945442 0 -0.03593103781647327 0.023868099034458787 0 -0.027179632047122346 0.031825538850552441 0 -0.027418822098899686 0.032218067668878199 0 -0.027525144790957919 0.031964782672436284 0 -0.033447031871764919 0.022725897475033258 0 -0.033737549598171587 0.022469073590904377 0 -0.033947222790729092 0.022897784840414648 0 -0.026735168127487913 0.032942093102655716 0 -0.02685581885340808 0.032048944256542235 0 -0.027580711689302852 0.033022211854863807 0 -0.0306428807489506 0.02764313752894252 0 -0.029777316929929194 0.028255377846708524 0 -0.029777316929929194 0.028255377846708524 0 -0.027761752759474519 0.032869798417860606 0 -0.031141885052385368 0.027321395313738679 0 -0.030471139718918575 0.027138171848041369 0 -0.031004465359767044 0.027773387112796286 0 -0.029777316929929194 0.028255377846708524 0 -0.031448146319701629 0.027516370828623928 0 -0.026735168127487913 0.032942093102655716 0 -0.026593319790870072 0.031970344135133451 0 -0.02685581885340808 0.032048944256542235 0 -0.033622864313169076 0.022188643610507063 0 -0.033392726867977701 0.022442257436209461 0 -0.033350880754179066 0.022088047709224654 0 -0.033622864313169076 0.022188643610507063 0 -0.033737549598171587 0.022469073590904377 0 -0.033392726867977701 0.022442257436209461 0 -0.033447031871764919 0.022725897475033258 0 -0.033737549598171587 0.022469073590904377 0 -0.033392726867977701 0.022442257436209461 0 -0.033447031871764919 0.022725897475033258 0 -0.033392726867977701 0.022442257436209461 0 -0.033340979022076833 0.022585093108753427 0 -0.032096570012538059 0.023663381592786543 0 -0.031457163438418027 0.025127527519988729 0 -0.029777316929929194 0.028255377846708524 0 -0.031457163438418027 0.025127527519988729 0 -0.0306428807489506 0.02764313752894252 0 -0.031457163438418027 0.025127527519988729 0 -0.031457163438418027 0.025127527519988729 0 -0.034884172752156488 0.020447289128837379 0 -0.033392726867977701 0.022442257436209461 0 -0.032875973600101256 0.021912598672391384 0 -0.033350880754179066 0.022088047709224654 0 -0.033963580099421672 0.023844405174704875 0 -0.033162792965955007 0.023768738677661581 0 -0.033212298523408415 0.022864863646296803 0 -0.033392726867977701 0.022442257436209461 0 -0.033345219643707562 0.022588488825940389 0 -0.032875973600101256 0.021912598672391384 0 -0.03593103781647327 0.023868099034458787 0 -0.034884172752156488 0.020447289128837379 0 -0.0306428807489506 0.02764313752894252 0 -0.03593103781647327 0.023868099034458787 0 -0.033915804662101638 0.023998399905059965 0 -0.033963580099421672 0.023844405174704875 0 -0.033162792965955007 0.023768738677661581 0 -0.032875973600101256 0.021912598672391384 0 -0.033502481416176011 0.02180638030533041 0 -0.033276783248272698 0.021419736606433239 0 -0.032875973600101256 0.021912598672391384 0 -0.033502481416176011 0.02180638030533041 0 -0.033350880754179066 0.022088047709224654 0 -0.033502481416176011 0.02180638030533041 0 -0.033723212297648415 0.021220484326776107 0 -0.034116638515551259 0.022105429984277798 0 -0.033622864313169076 0.022188643610507063 0 -0.033502481416176011 0.02180638030533041 0 -0.034116638515551259 0.022105429984277798 0 -0.033622864313169076 0.022188643610507063 0 -0.033502481416176011 0.02180638030533041 0 -0.033350880754179066 0.022088047709224654 0 -0.033502481416176011 0.02180638030533041 0 -0.033723212297648415 0.021220484326776107 0 -0.033276783248272698 0.021419736606433239 0 -0.033023518892899881 0.020627447977391595 0 -0.033048281744583186 0.020645046744565281 0 -0.033421653571038969 0.020411961544413753 0 -0.033308700327940664 0.021122833618773235 0 -0.033405400964269596 0.020394169001004079 0 -0.033048281744583186 0.020645046744565281 0 -0.032982406542738603 0.020584660033704665 0 -0.033176087518178694 0.020506238920160846 0 -0.033723212297648415 0.021220484326776107 0 -0.033036010788576195 0.020879546907612723 0 -0.033421653571038969 0.020411961544413753 0 -0.033723212297648415 0.021220484326776107 0 -0.033036010788576195 0.020879546907612723 0 -0.033276783248272698 0.021419736606433239 0 -0.032875973600101256 0.021912598672391384 0 -0.033036010788576195 0.020879546907612723 0 -0.033276783248272698 0.021419736606433239 0 -0.034884172752156488 0.020447289128837379 0 -0.03335039652851618 0.01884222464411394 0 -0.034173006436226318 0.015688025742214666 0 -0.03399688901307929 0.017501000581587833 0 -0.035197918536598378 0.016842442523351042 0 -0.03399688901307929 0.017501000581587833 0 -0.035197918536598378 0.016842442523351042 0 -0.034975605885144458 0.018584614562508789 0 -0.035197918536598378 0.016842442523351042 0 -0.036354477802003536 0.018129005739580109 0 -0.034975605885144458 0.018584614562508789 0 -0.037050163510499459 0.018532413753556416 0 -0.037123025373909366 0.01896027384838574 0 -0.038577483398074985 0.0206446737204579 0 -0.038277488199752178 0.021276003935387991 0 -0.037625213167326921 0.021008332234786375 0 -0.038577483398074985 0.0206446737204579 0 -0.037911818009988128 0.019769203699389767 0 -0.037625213167326921 0.021008332234786375 0 -0.038277488199752178 0.021276003935387991 0 -0.038655014849669149 0.021716525707853433 0 -0.038028353922688315 0.021909892110835601 0 -0.038277488199752178 0.021276003935387991 0 -0.038028353922688315 0.021909892110835601 0 -0.037625213167326921 0.021008332234786375 0 -0.039179278849478721 0.021476437022069073 0 -0.038577483398074985 0.0206446737204579 0 -0.038277488199752178 0.021276003935387991 0 -0.034884172752156488 0.020447289128837379 0 -0.037050163510499459 0.018532413753556416 0 -0.039179278849478721 0.021476437022069073 0 -0.038277488199752178 0.021276003935387991 0 -0.038655014849669149 0.021716525707853433 0 -0.038900742300200325 0.022294214857682477 0 -0.038500720494492477 0.022310496967037359 0 -0.038028353922688315 0.021909892110835601 0 -0.039127014908121129 0.022186684943645556 0 -0.039179278849478721 0.021476437022069073 0 -0.038655014849669149 0.021716525707853433 0 -0.03593103781647327 0.023868099034458787 0 -0.039308603768481797 0.021575305369560611 0 -0.039127014908121129 0.022186684943645556 0 -0.038655014849669149 0.021716525707853433 0 -0.038028353922688315 0.021909892110835601 0 -0.038900742300200325 0.022294214857682477 0 -0.038739930887665502 0.022376252586714565 0 -0.038500720494492477 0.022310496967037359 0 -0.038273563111711678 0.022446777530749279 0 -0.038500720494492477 0.022310496967037359 0 -0.038028353922688315 0.021909892110835601 0 -0.037801257221496132 0.022510948177893477 0 -0.038273563111711678 0.022446777530749279 0 -0.038028353922688315 0.021909892110835601 0 -0.037801257221496132 0.022510948177893477 0 -0.038028353922688315 0.021909892110835601 0 -0.037514111584432415 0.021924701962119864 0 -0.037142180689506359 0.02251791611968983 0 -0.037801257221496132 0.022510948177893477 0 -0.037514111584432415 0.021924701962119864 0 -0.036333858623658802 0.022328411725990271 0 -0.036952206636613139 0.021676203606125096 0 -0.036384488430428796 0.021746249474042093 0 -0.036333858623658802 0.022328411725990271 0 -0.037142180689506359 0.02251791611968983 0 -0.036952206636613139 0.021676203606125096 0 -0.037142180689506359 0.02251791611968983 0 -0.037514111584432415 0.021924701962119864 0 -0.036952206636613139 0.021676203606125096 0 -0.036952206636613139 0.021676203606125096 0 -0.036635254831214735 0.021079538443530756 0 -0.036384488430428796 0.021746249474042093 0 -0.036952206636613139 0.021676203606125096 0 -0.036635254831214735 0.021079538443530756 0 -0.037625213167326921 0.021008332234786375 0 -0.037514111584432415 0.021924701962119864 0 -0.036952206636613139 0.021676203606125096 0 -0.037625213167326921 0.021008332234786375 0 -0.038028353922688315 0.021909892110835601 0 -0.037514111584432415 0.021924701962119864 0 -0.037625213167326921 0.021008332234786375 0 -0.037911818009988128 0.019769203699389767 0 -0.037625213167326921 0.021008332234786375 0 -0.03694108422356663 0.020070315387074385 0 -0.03694108422356663 0.020070315387074385 0 -0.036090176630954623 0.020428681950501567 0 -0.036170444772937606 0.019218809630713506 0 -0.036635254831214735 0.021079538443530756 0 -0.03694108422356663 0.020070315387074385 0 -0.036090176630954623 0.020428681950501567 0 -0.036635254831214735 0.021079538443530756 0 -0.037625213167326921 0.021008332234786375 0 -0.03694108422356663 0.020070315387074385 0 -0.036635254831214735 0.021079538443530756 0 -0.036090176630954623 0.020428681950501567 0 -0.035871250086000415 0.021506512670627389 0 -0.036345867229205388 0.019559542145538709 0 -0.035963235090708472 0.021028616278928557 0 -0.036606055010250424 0.018710817832959852 0 -0.036113085846032955 0.017557798871246429 0 -0.037076707694972261 0.016866554796741741 0 -0.036345867229205388 0.019559542145538709 0 -0.036604076078811998 0.01801369987158782 0 -0.036113085846032955 0.017557798871246429 0 -0.03500000443981198 0.019242815136379716 0 -0.034999925314348153 0.01720005352576421 0 -0.036606055010250424 0.018710817832959852 0 -0.036113085846032955 0.017557798871246429 0 -0.03500000443981198 0.019242815136379716 0 -0.036606055010250424 0.018710817832959852 0 -0.03500000443981198 0.019242815136379716 0 -0.036085778148252326 0.020519564999258267 0 -0.03500000443981198 0.019242815136379716 0 -0.036085778148252326 0.020519564999258267 0 -0.034999934276286969 0.021285874079065112 0 -0.036635254831214735 0.021079538443530756 0 -0.035871250086000415 0.021506512670627389 0 -0.036384488430428796 0.021746249474042093 0 -0.035494179848150557 0.022446310157386053 0 -0.036333858623658802 0.022328411725990271 0 -0.035871250086000415 0.021506512670627389 0 -0.036333858623658802 0.022328411725990271 0 -0.035871250086000415 0.021506512670627389 0 -0.036384488430428796 0.021746249474042093 0 -0.035524774652233561 0.022376273642926277 0 -0.035963235090708472 0.021028616278928557 0 -0.035494179848150557 0.022446310157386053 0 -0.036085778148252326 0.020519564999258267 0 -0.034999934276286969 0.021285874079065112 0 -0.017262460442082146 0.037835412827890012 0 -0.017408473415776577 0.038535313488931078 0 -0.018191041184097742 0.037983422778587086 0 -0.018168551806592253 0.038672291740653807 0 -0.018011510900220795 0.038460154866233373 0 -0.017717530342890718 0.037703820001221307 0 -0.018011510900220795 0.038460154866233373 0 -0.0176845515885099 0.03819839289341885 0 -0.017717530342890718 0.037703820001221307 0 -0.018191041184097742 0.037983422778587086 0 -0.018011510900220795 0.038460154866233373 0 -0.016329685323436441 0.037665624481075625 0 -0.016662448708644511 0.037692321460572484 0 -0.01654405507271944 0.037330323299467678 0 -0.017108899373563222 0.037969960973741723 0 -0.016662448708644511 0.037692321460572484 0 -0.016448443434596074 0.037512497268316354 0 -0.016466200174268253 0.038097060832980582 0 -0.016456783300900491 0.037631916847065031 0 -0.016662448708644511 0.037692321460572484 0 -0.016448443434596074 0.037512497268316354 0 -0.01654405507271944 0.037330323299467678 0 -0.017108899373563222 0.037969960973741723 0 -0.016662448708644511 0.037692321460572484 0 -0.016864576842210818 0.038157676761636665 0 -0.017108899373563222 0.037969960973741723 0 -0.016864576842210818 0.038157676761636665 0 -0.017053268403977771 0.038470802246985479 0 -0.016329685323436441 0.037665624481075625 0 -0.016662448708644511 0.037692321460572484 0 -0.016643516171635678 0.038495840941820104 0 -0.016662448708644511 0.037692321460572484 0 -0.016864576842210818 0.038157676761636665 0 -0.016643516171635678 0.038495840941820104 0 -0.016864576842210818 0.038157676761636665 0 -0.016643516171635678 0.038495840941820104 0 -0.017053268403977771 0.038470802246985479 0 -0.017315191437854184 0.03873746435503754 0 -0.017053268403977771 0.038470802246985479 0 -0.017236154012601028 0.038891600243360261 0 -0.016643516171635678 0.038495840941820104 0 -0.017053268403977771 0.038470802246985479 0 -0.017236154012601028 0.038891600243360261 0 -0.017108899373563222 0.037969960973741723 0 -0.017315191437854184 0.03873746435503754 0 -0.017053268403977771 0.038470802246985479 0 -0.017614789607921986 0.038958027018408267 0 -0.017121910277284633 0.038879776057346417 0 -0.017236154012601028 0.038891600243360261 0 -0.016923516180731256 0.038950212676803417 0 -0.017121910277284633 0.038879776057346417 0 -0.017236154012601028 0.038891600243360261 0 -0.017614789607921986 0.038958027018408267 0 -0.016643516171635678 0.038495840941820104 0 -0.017236154012601028 0.038891600243360261 0 -0.017569095976938457 0.038876487313783223 0 -0.017408473415776577 0.038535313488931078 0 -0.017614789607921986 0.038958027018408267 0 -0.018168551806592253 0.038672291740653807 0 -0.018185372419146466 0.038788452642755371 0 -0.018168551806592253 0.038672291740653807 0 -0.018185372419146466 0.038788452642755371 0 -0.018011510900220795 0.038460154866233373 0 -0.018011510900220795 0.038460154866233373 0 -0.017875183465171494 0.038536483520926243 0 -0.0176845515885099 0.03819839289341885 0 -0.018185372419146466 0.038788452642755371 0 -0.018011510900220795 0.038460154866233373 0 -0.017875183465171494 0.038536483520926243 0 -0.018029238292210002 0.038850969504972042 0 -0.018185372419146466 0.038788452642755371 0 -0.017875183465171494 0.038536483520926243 0 -0.018029238292210002 0.038850969504972042 0 -0.017745579451207145 0.038611293034813032 0 -0.017875183465171494 0.038536483520926243 0 -0.017745579451207145 0.038611293034813032 0 -0.017747506421694374 0.038430140669409182 0 -0.017875183465171494 0.038536483520926243 0 -0.017747506421694374 0.038430140669409182 0 -0.017759687170178243 0.038341273517101308 0 -0.017875183465171494 0.038536483520926243 0 -0.017759687170178243 0.038341273517101308 0 -0.017875183465171494 0.038536483520926243 0 -0.0176845515885099 0.03819839289341885 0 -0.023410589496472092 0.039956563161879302 0 -0.024270565814890205 0.04043776206229132 0 -0.023966833731609904 0.041192025020772044 0 -0.024324955071395316 0.040311623479888502 0 -0.024270565814890205 0.04043776206229132 0 -0.024440074948861055 0.040245189949396243 0 -0.024291226842250355 0.040340917661862971 0 -0.024324955071395316 0.040311623479888502 0 -0.024348279432138614 0.040407875357342603 0 -0.024324955071395316 0.040311623479888502 0 -0.024348279432138614 0.040407875357342603 0 -0.024270565814890205 0.04043776206229132 0 -0.024332024169384733 0.040108666164814948 0 -0.024348279432138614 0.040407875357342603 0 -0.024270565814890205 0.04043776206229132 0 -0.023881744979645004 0.040859054274823316 0 -0.023915162435483917 0.038317116792699772 0 -0.019584080446780214 0.03969176331669453 0 -0.023915162435483917 0.038317116792699772 0 -0.023410589496472092 0.039956563161879302 0 -0.022534843980083832 0.040600520481055197 0 -0.023966833731609904 0.041192025020772044 0 -0.017745579451207145 0.038611293034813032 0 -0.017694850997882112 0.038390174512461885 0 -0.017671587723064326 0.038450413707293407 0 -0.017747506421694374 0.038430140669409182 0 -0.017694850997882112 0.038390174512461885 0 -0.017732150741901858 0.038318951305330383 0 -0.017745579451207145 0.038611293034813032 0 -0.017747506421694374 0.038430140669409182 0 -0.017694850997882112 0.038390174512461885 0 -0.017694850997882112 0.038390174512461885 0 -0.017679637013011729 0.038358373182688851 0 -0.017732150741901858 0.038318951305330383 0 -0.022188408339776394 0.03592729194109659 0 -0.023413259793993307 0.036006487442400675 0 -0.025643350261494564 0.037181186379436251 0 -0.023915162435483917 0.038317116792699772 0 -0.027074949342354038 0.034103988484809653 0 -0.02801221942320041 0.034651871632876155 0 -0.028285339453650551 0.033971860161475971 0 -0.024259921266693626 0.040067900509014855 0 -0.024324955071395316 0.040311623479888502 0 -0.024440074948861055 0.040245189949396243 0 -0.023915162435483917 0.038317116792699772 0 -0.023413259793993307 0.036006487442400675 0 -0.017694850997882112 0.038390174512461885 0 -0.017671587723064326 0.038450413707293407 0 -0.017691961964316907 0.038369847613533868 0 -0.023413259793993307 0.036006487442400675 0 -0.027761752759474519 0.032869798417860606 0 -0.027678094719021853 0.032618787311292169 0 -0.027418822098899686 0.032218067668878199 0 -0.027644245623270294 0.032201898492953109 0 -0.027074949342354038 0.034103988484809653 0 -0.028285339453650551 0.033971860161475971 0 -0.027580711689302852 0.033022211854863807 0 -0.027678094719021853 0.032618787311292169 0 -0.027644245623270294 0.032201898492953109 0 -0.027894800121572166 0.032087645840954568 0 -0.017732150741901858 0.038318951305330383 0 -0.017760437350762048 0.038240717651754547 0 -0.017750148908930584 0.03817127370955372 0 -0.023413259793993307 0.036006487442400675 0 -0.025791726284033992 0.032531633339036352 0 -0.017679637013011729 0.038358373182688851 0 -0.017732150741901858 0.038318951305330383 0 -0.017750148908930584 0.03817127370955372 0 -0.017732150741901858 0.038318951305330383 0 -0.017760437350762048 0.038240717651754547 0 -0.017772436174786316 0.038274724161019825 0 -0.034400281697058055 0.023086924425783445 0 -0.034461997417937304 0.022946144065052635 0 -0.033947222790729092 0.022897784840414648 0 -0.017760437350762048 0.038240717651754547 0 -0.017781070389778785 0.038193312078672742 0 -0.017750148908930584 0.03817127370955372 0 -0.020587761721304922 0.034766236252475567 0 -0.025791726284033992 0.032531633339036352 0 -0.024190378484934688 0.032608356614866114 0 -0.024311941637380919 0.032633120939374489 0 -0.024280841964639574 0.032713606685793213 0 -0.025791726284033992 0.032531633339036352 0 -0.026740253123089891 0.028373384402800045 0 -0.020587761721304922 0.034766236252475567 0 -0.026740253123089891 0.028373384402800045 0 -0.027644245623270294 0.032201898492953109 0 -0.027894800121572166 0.032087645840954568 0 -0.027525144790957919 0.031964782672436284 0 -0.025791726284033992 0.032531633339036352 0 -0.031448146319701629 0.027516370828623928 0 -0.027418822098899686 0.032218067668878199 0 -0.027644245623270294 0.032201898492953109 0 -0.027525144790957919 0.031964782672436284 0 -0.017747506421694374 0.038430140669409182 0 -0.017759687170178243 0.038341273517101308 0 -0.017772436174786316 0.038274724161019825 0 -0.017747506421694374 0.038430140669409182 0 -0.017732150741901858 0.038318951305330383 0 -0.017772436174786316 0.038274724161019825 0 -0.020587761721304922 0.034766236252475567 0 -0.016477404419228132 0.038980669955224145 0 -0.017801457605708781 0.038309623215340032 0 -0.0176845515885099 0.03819839289341885 0 -0.017772436174786316 0.038274724161019825 0 -0.017759687170178243 0.038341273517101308 0 -0.0176845515885099 0.03819839289341885 0 -0.017772436174786316 0.038274724161019825 0 -0.020587761721304922 0.034766236252475567 0 -0.019237066657694566 0.037493759864317078 0 -0.017760437350762048 0.038240717651754547 0 -0.017781070389778785 0.038193312078672742 0 -0.017772436174786316 0.038274724161019825 0 -0.016975202932328386 0.03782884859446034 0 -0.0176845515885099 0.03819839289341885 0 -0.017240746146625342 0.037554360607753898 0 -0.016975202932328386 0.03782884859446034 0 -0.016910299044189326 0.037654384118143008 0 -0.017240746146625342 0.037554360607753898 0 -0.017717530342890718 0.037703820001221307 0 -0.0176845515885099 0.03819839289341885 0 -0.017240746146625342 0.037554360607753898 0 -0.017717530342890718 0.037703820001221307 0 -0.017240746146625342 0.037554360607753898 0 -0.017376927371357039 0.037179401703490836 0 -0.017240746146625342 0.037554360607753898 0 -0.017123252722643419 0.037185033295200377 0 -0.017376927371357039 0.037179401703490836 0 -0.016910299044189326 0.037654384118143008 0 -0.017240746146625342 0.037554360607753898 0 -0.017123252722643419 0.037185033295200377 0 -0.017123252722643419 0.037185033295200377 0 -0.017376927371357039 0.037179401703490836 0 -0.017263029943940689 0.036921181368090521 0 -0.031676522462683168 0.020030614330872932 0 -0.032193713148656412 0.020509942592820699 0 -0.031192562898753589 0.020634739450675076 0 -0.024124993165973972 0.028769861511051726 0 -0.024275925806805369 0.028713223117937971 0 -0.034461997417937304 0.022946144065052635 0 -0.033947222790729092 0.022897784840414648 0 -0.034116638515551259 0.022105429984277798 0 -0.033622864313169076 0.022188643610507063 0 -0.033737549598171587 0.022469073590904377 0 -0.034116638515551259 0.022105429984277798 0 -0.033737549598171587 0.022469073590904377 0 -0.033947222790729092 0.022897784840414648 0 -0.034116638515551259 0.022105429984277798 0 -0.031898859379918619 0.019561376184423971 0 -0.031676522462683168 0.020030614330872932 0 -0.03247343979530206 0.020077080961220829 0 -0.026740253123089891 0.028373384402800045 0 -0.034063809559372722 0.019915421770859185 0 -0.026740253123089891 0.028373384402800045 0 -0.024124993165973972 0.028769861511051726 0 -0.031676522462683168 0.020030614330872932 0 -0.03247343979530206 0.020077080961220829 0 -0.032193713148656412 0.020509942592820699 0 -0.033308700327940664 0.021122833618773235 0 -0.034063809559372722 0.019915421770859185 0 -0.03247343979530206 0.020077080961220829 0 -0.032729064279612252 0.020660999147732475 0 -0.032193713148656412 0.020509942592820699 0 -0.033023518892899881 0.020627447977391595 0 -0.03247343979530206 0.020077080961220829 0 -0.032729064279612252 0.020660999147732475 0 -0.033023518892899881 0.020627447977391595 0 -0.033048281744583186 0.020645046744565281 0 -0.032729064279612252 0.020660999147732475 0 -0.032729064279612252 0.020660999147732475 0 -0.032439940197934301 0.020849162050713545 0 -0.032193713148656412 0.020509942592820699 0 -0.032729064279612252 0.020660999147732475 0 -0.032439940197934301 0.020849162050713545 0 -0.032887755196854274 0.020848178312629913 0 -0.032193713148656412 0.020509942592820699 0 -0.031935052111318779 0.021046829411048164 0 -0.031192562898753589 0.020634739450675076 0 -0.032439940197934301 0.020849162050713545 0 -0.032193713148656412 0.020509942592820699 0 -0.031935052111318779 0.021046829411048164 0 -0.031935052111318779 0.021046829411048164 0 -0.031887555545785651 0.021624301367188334 0 -0.032354850433070244 0.021248409929519381 0 -0.031935052111318779 0.021046829411048164 0 -0.031887555545785651 0.021624301367188334 0 -0.031326729964149376 0.021465013699943147 0 -0.031887555545785651 0.021624301367188334 0 -0.032354850433070244 0.021248409929519381 0 -0.03258068711957543 0.021889833953037462 0 -0.032439940197934301 0.020849162050713545 0 -0.031935052111318779 0.021046829411048164 0 -0.032354850433070244 0.021248409929519381 0 -0.032439940197934301 0.020849162050713545 0 -0.032354850433070244 0.021248409929519381 0 -0.032887755196854274 0.020848178312629913 0 -0.032937219437278419 0.020792283886691305 0 -0.032256359307283385 0.021398430978211366 0 -0.032887755196854274 0.020848178312629913 0 -0.032982406542738603 0.020584660033704665 0 -0.033200709301345589 0.020513805066307105 0 -0.032354850433070244 0.021248409929519381 0 -0.032887755196854274 0.020848178312629913 0 -0.03258068711957543 0.021889833953037462 0 -0.033048281744583186 0.020645046744565281 0 -0.032887755196854274 0.020848178312629913 0 -0.032982406542738603 0.020584660033704665 0 -0.033048281744583186 0.020645046744565281 0 -0.032729064279612252 0.020660999147732475 0 -0.032887755196854274 0.020848178312629913 0 -0.017263029943940689 0.036921181368090521 0 -0.017256515623679095 0.036957197741886237 0 -0.01712637203772794 0.036943399958094765 0 -0.017376927371357039 0.037179401703490836 0 -0.017263029943940689 0.036921181368090521 0 -0.01712637203772794 0.036943399958094765 0 -0.031935052111318779 0.021046829411048164 0 -0.031192562898753589 0.020634739450675076 0 -0.031326729964149376 0.021465013699943147 0 -0.031192562898753589 0.020634739450675076 0 -0.031326729964149376 0.021465013699943147 0 -0.030454895924757797 0.021687731292496546 0 -0.031887555545785651 0.021624301367188334 0 -0.031326729964149376 0.021465013699943147 0 -0.031325520061666896 0.022521772127345917 0 -0.031326729964149376 0.021465013699943147 0 -0.030454895924757797 0.021687731292496546 0 -0.031325520061666896 0.022521772127345917 0 -0.024275925806805369 0.028713223117937971 0 -0.02364765412277536 0.029571685495473857 0 -0.017256515623679095 0.036957197741886237 0 -0.01712637203772794 0.036943399958094765 0 -0.016990105064921188 0.037055263592758202 0 -0.016763213296226372 0.037014219081505199 0 -0.01712637203772794 0.036943399958094765 0 -0.016990105064921188 0.037055263592758202 0 -0.016763213296226372 0.037014219081505199 0 -0.016664656415306813 0.037038775413919735 0 -0.016990105064921188 0.037055263592758202 0 -0.016763213296226372 0.037014219081505199 0 -0.01712637203772794 0.036943399958094765 0 -0.016610781265565876 0.037040878851755443 0 -0.017141774120565983 0.037011800621817352 0 -0.017177064607905617 0.037255385865800579 0 -0.017376927371357039 0.037179401703490836 0 -0.01712637203772794 0.036943399958094765 0 -0.01780839346964766 0.037289375284182309 0 -0.01652451742797343 0.037132530098021921 0 -0.01654405507271944 0.037330323299467678 0 -0.016610781265565876 0.037040878851755443 0 -0.01712637203772794 0.036943399958094765 0 -0.01652451742797343 0.037132530098021921 0 -0.016610781265565876 0.037040878851755443 0 -0.017262460442082146 0.037835412827890012 0 -0.017177064607905617 0.037255385865800579 0 -0.016329685323436441 0.037665624481075625 0 -0.01652451742797343 0.037132530098021921 0 -0.01654405507271944 0.037330323299467678 0 -0.017717530342890718 0.037703820001221307 0 -0.018191041184097742 0.037983422778587086 0 -0.01780839346964766 0.037289375284182309 0 -0.017717530342890718 0.037703820001221307 0 -0.017376927371357039 0.037179401703490836 0 -0.01780839346964766 0.037289375284182309 0 -0.016448443434596074 0.037512497268316354 0 -0.01654405507271944 0.037330323299467678 0 -0.016502794048358929 0.037184563491009272 0 -0.01654405507271944 0.037330323299467678 0 -0.016610781265565876 0.037040878851755443 0 -0.016502794048358929 0.037184563491009272 0 -0.016610781265565876 0.037040878851755443 0 -0.016502794048358929 0.037184563491009272 0 -0.016538680578379022 0.037005876704634982 0 -0.016475556792823264 0.037086300345059893 0 -0.016502794048358929 0.037184563491009272 0 -0.016538680578379022 0.037005876704634982 0 -0.016475556792823264 0.037086300345059893 0 -0.016448443434596074 0.037512497268316354 0 -0.016502794048358929 0.037184563491009272 0 -0.016475556792823264 0.037086300345059893 0 -0.016433384529651141 0.036907202296045695 0 -0.016538680578379022 0.037005876704634982 0 -0.016763213296226372 0.037014219081505199 0 -0.016610781265565876 0.037040878851755443 0 -0.016538680578379022 0.037005876704634982 0 -0.016763213296226372 0.037014219081505199 0 -0.016538680578379022 0.037005876704634982 0 -0.016664656415306813 0.037038775413919735 0 -0.016433384529651141 0.036907202296045695 0 -0.016538680578379022 0.037005876704634982 0 -0.016664656415306813 0.037038775413919735 0 -0.016433384529651141 0.036907202296045695 0 -0.016664656415306813 0.037038775413919735 0 -0.016522138732429806 0.037138240405440476 0 -0.016664656415306813 0.037038775413919735 0 -0.016522138732429806 0.037138240405440476 0 -0.016879066091231749 0.037268845735218055 0 -0.016522138732429806 0.037138240405440476 0 -0.016548348693613445 0.037338907515337423 0 -0.016879066091231749 0.037268845735218055 0 -0.017783904275538279 0.036497957104059453 0 -0.017553364628675988 0.037139206148102843 0 -0.016522138732429806 0.037138240405440476 0 -0.016548348693613445 0.037338907515337423 0 -0.016296611470458165 0.037254674290807414 0 -0.018362371717303948 0.035999365776472982 0 -0.01851416368959849 0.037245355122809076 0 -0.016685268968318338 0.037564630941501947 0 -0.018362371717303948 0.035999365776472982 0 -0.019836394173914227 0.036424315705947653 0 -0.01851416368959849 0.037245355122809076 0 -0.018362371717303948 0.035999365776472982 0 -0.019836394173914227 0.036424315705947653 0 -0.020715142840776826 0.034983424432917652 0 -0.019836394173914227 0.036424315705947653 0 -0.01965238287995693 0.03779220234495731 0 -0.01851416368959849 0.037245355122809076 0 -0.01965238287995693 0.03779220234495731 0 -0.01851416368959849 0.037245355122809076 0 -0.017992803034915222 0.038453426318147466 0 -0.01851416368959849 0.037245355122809076 0 -0.017992803034915222 0.038453426318147466 0 -0.016685268968318338 0.037564630941501947 0 -0.031368885655528214 0.022410707127978775 0 -0.031154902329188636 0.022636024025999506 0 -0.031401545535077353 0.022608998803249236 0 -0.027084086307651731 0.029193054079144319 0 -0.026496859577300112 0.030271801348930538 0 -0.01965238287995693 0.03779220234495731 0 -0.020889804700924702 0.037081394250397658 0 -0.021246161156005888 0.038607766035883506 0 -0.020889804700924702 0.037081394250397658 0 -0.02226602131636975 0.036439243729000877 0 -0.021246161156005888 0.038607766035883506 0 -0.019836394173914227 0.036424315705947653 0 -0.01965238287995693 0.03779220234495731 0 -0.020889804700924702 0.037081394250397658 0 -0.020889804700924702 0.037081394250397658 0 -0.02226602131636975 0.036439243729000877 0 -0.020715142840776826 0.034983424432917652 0 -0.019836394173914227 0.036424315705947653 0 -0.020889804700924702 0.037081394250397658 0 -0.020715142840776826 0.034983424432917652 0 -0.02226602131636975 0.036439243729000877 0 -0.020715142840776826 0.034983424432917652 0 -0.023255468452232326 0.034012562472644003 0 -0.017553364628675988 0.037139206148102843 0 -0.025169618706101647 0.029387036143270647 0 -0.027084086307651731 0.029193054079144319 0 -0.025169618706101647 0.029387036143270647 0 -0.016664656415306813 0.037038775413919735 0 -0.016879066091231749 0.037268845735218055 0 -0.016990105064921188 0.037055263592758202 0 -0.017256515623679095 0.036957197741886237 0 -0.016990105064921188 0.037055263592758202 0 -0.017201364130772823 0.037146191295888864 0 -0.016879066091231749 0.037268845735218055 0 -0.016990105064921188 0.037055263592758202 0 -0.017201364130772823 0.037146191295888864 0 -0.02364765412277536 0.029571685495473857 0 -0.025169618706101647 0.029387036143270647 0 -0.030454895924757797 0.021687731292496546 0 -0.031325520061666896 0.022521772127345917 0 -0.029784976430291255 0.023168684955819259 0 -0.032617992107039098 0.021601259634669096 0 -0.025169618706101647 0.029387036143270647 0 -0.031463638141329402 0.022380134880422849 0 -0.031572338173672922 0.0223550120841573 0 -0.03152745680165394 0.022410280842774976 0 -0.031504769810337285 0.022288003448811808 0 -0.031463638141329402 0.022380134880422849 0 -0.031572338173672922 0.0223550120841573 0 -0.031504769810337285 0.022288003448811808 0 -0.031463638141329402 0.022380134880422849 0 -0.031381206855235162 0.022382725241902306 0 -0.031368885655528214 0.022410707127978775 0 -0.031463638141329402 0.022380134880422849 0 -0.031381206855235162 0.022382725241902306 0 -0.032967444025449481 0.020620004320037504 0 -0.03298436090301117 0.020536662219391454 0 -0.033176087518178694 0.020506238920160846 0 -0.032982406542738603 0.020584660033704665 0 -0.03298436090301117 0.020536662219391454 0 -0.033176087518178694 0.020506238920160846 0 -0.032967444025449481 0.020620004320037504 0 -0.03298436090301117 0.020536662219391454 0 -0.032857997378099635 0.02046166711051757 0 -0.032982406542738603 0.020584660033704665 0 -0.03298436090301117 0.020536662219391454 0 -0.032857997378099635 0.02046166711051757 0 -0.033154134131316328 0.020715671733987612 0 -0.032256359307283385 0.021398430978211366 0 -0.032617992107039098 0.021601259634669096 0 -0.032256359307283385 0.021398430978211366 0 -0.032967444025449481 0.020620004320037504 0 -0.032857997378099635 0.02046166711051757 0 -0.032457739653127739 0.020776661408711348 0 -0.031504769810337285 0.022288003448811808 0 -0.031666086935694719 0.022210636734486471 0 -0.031572338173672922 0.0223550120841573 0 -0.031887555545785651 0.021624301367188334 0 -0.031325520061666896 0.022521772127345917 0 -0.03258068711957543 0.021889833953037462 0 -0.032256359307283385 0.021398430978211366 0 -0.032017082832010338 0.02156709492108691 0 -0.032457739653127739 0.020776661408711348 0 -0.032858175880221017 0.020915847973286848 0 -0.032638697802465644 0.021277965971844975 0 -0.032967444025449481 0.020620004320037504 0 -0.032457739653127739 0.020776661408711348 0 -0.032858175880221017 0.020915847973286848 0 -0.032858175880221017 0.020915847973286848 0 -0.033017000089837593 0.02116534007624624 0 -0.033152165486201333 0.020783746815391555 0 -0.032967444025449481 0.020620004320037504 0 -0.033167308205137656 0.020566305731295746 0 -0.033152165486201333 0.020783746815391555 0 -0.032967444025449481 0.020620004320037504 0 -0.032858175880221017 0.020915847973286848 0 -0.033152165486201333 0.020783746815391555 0 -0.033017000089837593 0.02116534007624624 0 -0.032928941617927719 0.021555332053763511 0 -0.033251827302938193 0.021416841628162427 0 -0.032858175880221017 0.020915847973286848 0 -0.033017000089837593 0.02116534007624624 0 -0.032638697802465644 0.021277965971844975 0 -0.033017000089837593 0.02116534007624624 0 -0.032638697802465644 0.021277965971844975 0 -0.032928941617927719 0.021555332053763511 0 -0.032638697802465644 0.021277965971844975 0 -0.032508864482229234 0.021932201808214757 0 -0.031991616538387398 0.021445500802896877 0 -0.032457739653127739 0.020776661408711348 0 -0.032638697802465644 0.021277965971844975 0 -0.031991616538387398 0.021445500802896877 0 -0.032638697802465644 0.021277965971844975 0 -0.032508864482229234 0.021932201808214757 0 -0.032928941617927719 0.021555332053763511 0 -0.033106225335585111 0.02194337844272682 0 -0.032928941617927719 0.021555332053763511 0 -0.033251827302938193 0.021416841628162427 0 -0.032508864482229234 0.021932201808214757 0 -0.033106225335585111 0.02194337844272682 0 -0.032928941617927719 0.021555332053763511 0 -0.031368885655528214 0.022410707127978775 0 -0.03152745680165394 0.022410280842774976 0 -0.031605403720380135 0.02238694135497845 0 -0.031368885655528214 0.022410707127978775 0 -0.031463638141329402 0.022380134880422849 0 -0.03152745680165394 0.022410280842774976 0 -0.032017082832010338 0.02156709492108691 0 -0.031769179566930129 0.021944118625101698 0 -0.031769179566930129 0.021944118625101698 0 -0.031605340955092494 0.022342704032985383 0 -0.032508864482229234 0.021932201808214757 0 -0.031991616538387398 0.021445500802896877 0 -0.031605403720380135 0.02238694135497845 0 -0.031368885655528214 0.022410707127978775 0 -0.031605403720380135 0.02238694135497845 0 -0.031401545535077353 0.022608998803249236 0 -0.031605403720380135 0.02238694135497845 0 -0.03162761897334368 0.022961226388364966 0 -0.031401545535077353 0.022608998803249236 0 -0.032508864482229234 0.021932201808214757 0 -0.031605403720380135 0.02238694135497845 0 -0.032283836898804034 0.022601299583795267 0 -0.031605403720380135 0.02238694135497845 0 -0.03162761897334368 0.022961226388364966 0 -0.032283836898804034 0.022601299583795267 0 -0.043029910084697726 0.012687644637275139 0 -0.043957044663672541 0.012858917435783395 0 -0.042147039767473478 0.013997947212589904 0 -0.043029910084697726 0.012687644637275139 0 -0.042147039767473478 0.013997947212589904 0 -0.042006815775631541 0.012833260846072652 0 -0.038471089073922944 0.017653037719951789 0 -0.037061974409709916 0.018354795166200144 0 -0.040887316459045094 0.014687593408933988 0 -0.041051618721155286 0.013896133432683021 0 -0.042147039767473478 0.013997947212589904 0 -0.040887316459045094 0.014687593408933988 0 -0.041051618721155286 0.013896133432683021 0 -0.040562004393422682 0.014644800956342257 0 -0.037030040478232454 0.018305956260945225 0 -0.037061974409709916 0.018354795166200144 0 -0.032508864482229234 0.021932201808214757 0 -0.033106225335585111 0.02194337844272682 0 -0.032283836898804034 0.022601299583795267 0 -0.041051618721155286 0.013896133432683021 0 -0.042147039767473478 0.013997947212589904 0 -0.042006815775631541 0.012833260846072652 0 -0.041385559158243442 0.01347948568454097 0 -0.042275236472449601 0.012580141530431833 0 -0.041684452286183046 0.013061434199502073 0 -0.04246599223384076 0.012350035370977987 0 -0.041740361859550559 0.012361372997708342 0 -0.041740361859550559 0.012361372997708342 0 -0.041331762330109295 0.012625303508618211 0 -0.041302959880991141 0.011921077985249749 0 -0.041684452286183046 0.013061434199502073 0 -0.041740361859550559 0.012361372997708342 0 -0.041331762330109295 0.012625303508618211 0 -0.041684452286183046 0.013061434199502073 0 -0.041331762330109295 0.012625303508618211 0 -0.041063431344656509 0.013091613867012734 0 -0.041302959880991141 0.011921077985249749 0 -0.041943200077235322 0.011834266134441886 0 -0.041710453673517653 0.011043238875062301 0 -0.041740361859550559 0.012361372997708342 0 -0.041302959880991141 0.011921077985249749 0 -0.041943200077235322 0.011834266134441886 0 -0.04246599223384076 0.012350035370977987 0 -0.042481894775922416 0.011330219304242628 0 -0.043005532437406499 0.011487905478296583 0 -0.04246599223384076 0.012350035370977987 0 -0.041943200077235322 0.011834266134441886 0 -0.042481894775922416 0.011330219304242628 0 -0.04246599223384076 0.012350035370977987 0 -0.041740361859550559 0.012361372997708342 0 -0.041943200077235322 0.011834266134441886 0 -0.042481894775922416 0.011330219304242628 0 -0.043282212120260989 0.010686435541122526 0 -0.042473987739005091 0.01025055669123205 0 -0.042481894775922416 0.011330219304242628 0 -0.041710453673517653 0.011043238875062301 0 -0.042473987739005091 0.01025055669123205 0 -0.041943200077235322 0.011834266134441886 0 -0.042481894775922416 0.011330219304242628 0 -0.041710453673517653 0.011043238875062301 0 -0.041710453673517653 0.011043238875062301 0 -0.039478728966043604 0.010756778271325578 0 -0.041709529037115563 0.0090817006772774302 0 -0.041302959880991141 0.011921077985249749 0 -0.041710453673517653 0.011043238875062301 0 -0.040914440732972866 0.011093874063407292 0 -0.041664969273018534 0.011062978105101883 0 -0.04007299691906762 0.01085734726555612 0 -0.043957044663672541 0.012858917435783395 0 -0.044336441555986407 0.011803918475382907 0 -0.043781224415646497 0.012145452874783566 0 -0.043768310695506282 0.011505309501462578 0 -0.043781224415646497 0.012145452874783566 0 -0.043414161240875562 0.011648956198711051 0 -0.043768310695506282 0.011505309501462578 0 -0.044336441555986407 0.011803918475382907 0 -0.043781224415646497 0.012145452874783566 0 -0.043029910084697726 0.012687644637275139 0 -0.043957044663672541 0.012858917435783395 0 -0.043781224415646497 0.012145452874783566 0 -0.042275236472449601 0.012580141530431833 0 -0.043331629170262648 0.011714885394441312 0 -0.04246599223384076 0.012350035370977987 0 -0.043005532437406499 0.011487905478296583 0 -0.043414161240875562 0.011648956198711051 0 -0.043029910084697726 0.012687644637275139 0 -0.042006815775631541 0.012833260846072652 0 -0.043414161240875562 0.011648956198711051 0 -0.043029910084697726 0.012687644637275139 0 -0.043781224415646497 0.012145452874783566 0 -0.043414161240875562 0.011648956198711051 0 -0.043005532437406499 0.011487905478296583 0 -0.043475053079482913 0.011188979358945571 0 -0.043282212120260989 0.010686435541122526 0 -0.043005532437406499 0.011487905478296583 0 -0.043414161240875562 0.011648956198711051 0 -0.043475053079482913 0.011188979358945571 0 -0.043768310695506282 0.011505309501462578 0 -0.043414161240875562 0.011648956198711051 0 -0.043475053079482913 0.011188979358945571 0 -0.042481894775922416 0.011330219304242628 0 -0.043005532437406499 0.011487905478296583 0 -0.043282212120260989 0.010686435541122526 0 -0.043475053079482913 0.011188979358945571 0 -0.043282212120260989 0.010686435541122526 0 -0.043924181645344194 0.01083103503378673 0 -0.044576861650240038 0.011114785488848937 0 -0.043163883985513872 0.013512810937782073 0 -0.043768310695506282 0.011505309501462578 0 -0.043924181645344194 0.01083103503378673 0 -0.04481969626310902 0.010994102651833313 0 -0.043768310695506282 0.011505309501462578 0 -0.044336441555986407 0.011803918475382907 0 -0.044642413112359391 0.011333630393538454 0 -0.043282212120260989 0.010686435541122526 0 -0.043924181645344194 0.01083103503378673 0 -0.044194105848795767 0.01031568456475364 0 -0.043768310695506282 0.011505309501462578 0 -0.043475053079482913 0.011188979358945571 0 -0.043924181645344194 0.01083103503378673 0 -0.043924181645344194 0.01083103503378673 0 -0.044402633157151074 0.010590127177234844 0 -0.044194105848795767 0.01031568456475364 0 -0.043924181645344194 0.01083103503378673 0 -0.044402633157151074 0.010590127177234844 0 -0.04481969626310902 0.010994102651833313 0 -0.044402633157151074 0.010590127177234844 0 -0.044987093786030746 0.010820997566714669 0 -0.044644783101992672 0.010914147377697985 0 -0.044402633157151074 0.010590127177234844 0 -0.044987093786030746 0.010820997566714669 0 -0.044194105848795767 0.01031568456475364 0 -0.037896672526966775 0.014166178575520249 0 -0.039954706688590372 0.0097163467784915861 0 -0.043538937901350452 0.011627093655128169 0 -0.043163883985513872 0.013512810937782073 0 -0.037896672526966775 0.014166178575520249 0 -0.043163883985513872 0.013512810937782073 0 -0.043163883985513872 0.013512810937782073 0 -0.035037641855428958 0.018501430505820229 0 -0.036175804723522061 0.020088170869477544 0 -0.038804831143486949 0.019065864377348953 0 -0.034410320277920348 0.017922087734070235 0 -0.038804831143486949 0.019065864377348953 0 -0.035214889120586963 0.015508932581465157 0 -0.034410320277920348 0.017922087734070235 0 -0.038471089073922944 0.017653037719951789 0 -0.035037641855428958 0.018501430505820229 0 -0.043957044663672541 0.012858917435783395 0 -0.044336441555986407 0.011803918475382907 0 -0.045234786674920584 0.011954152256693374 0 -0.044336441555986407 0.011803918475382907 0 -0.044642413112359391 0.011333630393538454 0 -0.045234786674920584 0.011954152256693374 0 -0.031160153433009763 0.023268947750857829 0 -0.031261872459072138 0.022923934435131722 0 -0.030922456033080453 0.023110374558462946 0 -0.027835896648091232 0.023628085498559059 0 -0.023580922723184999 0.033357211134972059 0 -0.019850917790250326 0.031603963740001115 0 -0.023580922723184999 0.033357211134972059 0 -0.027018558757610892 0.024883860338670769 0 -0.029143339611173314 0.023681899143534291 0 -0.029064414612644238 0.027052307982048805 0 -0.023681751337204474 0.027919130290309194 0 -0.025459609215901922 0.027729616273289358 0 -0.023607098010897026 0.032507207342655275 0 -0.035037641855428958 0.018501430505820229 0 -0.023580922723184999 0.033357211134972059 0 -0.035214889120586963 0.015508932581465157 0 -0.031905744373901715 0.017378366475741699 0 -0.034410320277920348 0.017922087734070235 0 -0.035037641855428958 0.018501430505820229 0 -0.027835896648091232 0.023628085498559059 0 -0.024624955444478357 0.027385179416545224 0 -0.023681751337204474 0.027919130290309194 0 -0.025459609215901922 0.027729616273289358 0 -0.031905744373901715 0.017378366475741699 0 -0.031885300489776183 0.018401458544453374 0 -0.034410320277920348 0.017922087734070235 0 -0.024169698354637167 0.026466491927957633 0 -0.027835896648091232 0.023628085498559059 0 -0.024169698354637167 0.026466491927957633 0 -0.028123208608634587 0.021979397464285427 0 -0.027835896648091232 0.023628085498559059 0 -0.028123208608634587 0.021979397464285427 0 -0.027693533340151958 0.024616962041943236 0 -0.027703092609937981 0.024612508403178187 0 -0.027701911102071347 0.024613897777606548 0 -0.024973589088502116 0.022402825284931836 0 -0.024134070377736808 0.022053882139766303 0 -0.025086738482364979 0.021009349565989724 0 -0.037896672526966775 0.014166178575520249 0 -0.028123208608634587 0.021979397464285427 0 -0.036175804723522061 0.020088170869477544 0 -0.031885300489776183 0.018401458544453374 0 -0.034410320277920348 0.017922087734070235 0 -0.034311434230360829 0.016987286802417539 0 -0.031158358634044467 0.015742522144203255 0 -0.031112749654604036 0.018217550423712349 0 -0.036512122714557553 0.0098725722197672283 0 -0.037021784905423599 0.0096438756119115992 0 -0.036659637448681739 0.0094478993256897591 0 -0.037896672526966775 0.014166178575520249 0 -0.030720461384718213 0.015003854105174866 0 -0.028123208608634587 0.021979397464285427 0 -0.030720461384718213 0.015003854105174866 0 -0.024134070377736808 0.022053882139766303 0 -0.025086738482364979 0.021009349565989724 0 -0.02419717135574255 0.019283822223802472 0 -0.020017054338108037 0.028609102047056332 0 -0.017300627904739491 0.025274330682775327 0 -0.025086738482364979 0.021009349565989724 0 -0.026032887219379505 0.019544465385946501 0 -0.026099001371841579 0.02176214886086883 0 -0.025086738482364979 0.021009349565989724 0 -0.026032887219379505 0.019544465385946501 0 -0.02419717135574255 0.019283822223802472 0 -0.026032887219379505 0.019544465385946501 0 -0.026099001371841579 0.02176214886086883 0 -0.027489250373984118 0.018173241125063223 0 -0.020495161157086699 0.024265738953305256 0 -0.021705219149343973 0.023539686534717635 0 -0.020867468099100769 0.023283268557840818 0 -0.020017054338108037 0.028609102047056332 0 -0.025872635436788624 0.015408699235124541 0 -0.013996557937308095 0.037570214113523889 0 -0.014129886970856355 0.03721417205873679 0 -0.015281875234665525 0.038181627156554959 0 -0.02067350349668182 0.027816346478795242 0 -0.020023528418494075 0.02755707505181899 0 -0.019704512383145158 0.028357540615017659 0 -0.019850917790250326 0.031603963740001115 0 -0.020017054338108037 0.028609102047056332 0 -0.024169698354637167 0.026466491927957633 0 -0.019850917790250326 0.031603963740001115 0 -0.024169698354637167 0.026466491927957633 0 -0.020017054338108037 0.028609102047056332 0 -0.024973589088502116 0.022402825284931836 0 -0.025086738482364979 0.021009349565989724 0 -0.026099001371841579 0.02176214886086883 0 -0.014129886970856355 0.03721417205873679 0 -0.016119632213733987 0.037545216892981619 0 -0.01585480431505466 0.036196446172367058 0 -0.014129886970856355 0.03721417205873679 0 -0.016119632213733987 0.037545216892981619 0 -0.015281875234665525 0.038181627156554959 0 -0.016119632213733987 0.037545216892981619 0 -0.01585480431505466 0.036196446172367058 0 -0.017034214320164925 0.036518194879797752 0 -0.017300627904739491 0.025274330682775327 0 -0.015895133620119909 0.028917245691093357 0 -0.016378660718548071 0.038181115420253972 0 -0.015281875234665525 0.038181627156554959 0 -0.016634980169772266 0.038773737085713779 0 -0.016077735020361472 0.038199882249973845 0 -0.016639319885656378 0.038738578337174145 0 -0.016119632213733987 0.037545216892981619 0 -0.016378660718548071 0.038181115420253972 0 -0.015281875234665525 0.038181627156554959 0 -0.016119632213733987 0.037545216892981619 0 -0.016378660718548071 0.038181115420253972 0 -0.016617953639585192 0.038061629732556113 0 -0.017033023308929911 0.038901212816095737 0 -0.016826366882562543 0.038683016578686266 0 -0.017036509378311429 0.038618884115980544 0 -0.017033023308929911 0.038901212816095737 0 -0.016826366882562543 0.038683016578686266 0 -0.016634980169772266 0.038773737085713779 0 -0.016826366882562543 0.038683016578686266 0 -0.016634980169772266 0.038773737085713779 0 -0.016664767879534376 0.03872025977247423 0 -0.017360134621747694 0.038966062001001021 0 -0.017278140403197265 0.03878347185172653 0 -0.017505696656389399 0.038617200935055163 0 -0.019850917790250326 0.031603963740001115 0 -0.016077735020361472 0.038199882249973845 0 -0.017360134621747694 0.038966062001001021 0 -0.017033023308929911 0.038901212816095737 0 -0.017278140403197265 0.03878347185172653 0 -0.017033023308929911 0.038901212816095737 0 -0.01720480923635976 0.038654816035803424 0 -0.017036509378311429 0.038618884115980544 0 -0.017033023308929911 0.038901212816095737 0 -0.017278140403197265 0.03878347185172653 0 -0.01720480923635976 0.038654816035803424 0 -0.017278140403197265 0.03878347185172653 0 -0.01720480923635976 0.038654816035803424 0 -0.017505696656389399 0.038617200935055163 0 -0.01720480923635976 0.038654816035803424 0 -0.017193590267790743 0.038385866052086361 0 -0.017505696656389399 0.038617200935055163 0 -0.019267630415380637 0.039465037571566559 0 -0.020479520173039112 0.039231087867458075 0 -0.020461382225902099 0.040506177452714343 0 -0.01812016442505061 0.039344332156941664 0 -0.023580922723184999 0.033357211134972059 0 -0.01720480923635976 0.038654816035803424 0 -0.017193590267790743 0.038385866052086361 0 -0.017036509378311429 0.038618884115980544 0 -0.016826366882562543 0.038683016578686266 0 -0.016727072120640462 0.03862769072201469 0 -0.016923360392260254 0.038506909023991946 0 -0.016826366882562543 0.038683016578686266 0 -0.016727072120640462 0.03862769072201469 0 -0.016664767879534376 0.03872025977247423 0 -0.016826366882562543 0.038683016578686266 0 -0.017036509378311429 0.038618884115980544 0 -0.016923360392260254 0.038506909023991946 0 -0.017193590267790743 0.038385866052086361 0 -0.017036509378311429 0.038618884115980544 0 -0.016923360392260254 0.038506909023991946 0 -0.016727072120640462 0.03862769072201469 0 -0.016923360392260254 0.038506909023991946 0 -0.016765907641863313 0.03841939012131191 0 -0.017193590267790743 0.038385866052086361 0 -0.016923360392260254 0.038506909023991946 0 -0.016953062558457081 0.038100450621738592 0 -0.016923360392260254 0.038506909023991946 0 -0.016765907641863313 0.03841939012131191 0 -0.016953062558457081 0.038100450621738592 0 -0.016765907641863313 0.03841939012131191 0 -0.016953062558457081 0.038100450621738592 0 -0.016657213125645845 0.038271428144591765 0 -0.01812016442505061 0.039344332156941664 0 -0.017425065200181701 0.038198627296419728 0 -0.019267630415380637 0.039465037571566559 0 -0.017992803034915222 0.038453426318147466 0 -0.019742265577737145 0.038700985120524743 0 -0.01965238287995693 0.03779220234495731 0 -0.017992803034915222 0.038453426318147466 0 -0.019742265577737145 0.038700985120524743 0 -0.019267630415380637 0.039465037571566559 0 -0.019742265577737145 0.038700985120524743 0 -0.020479520173039112 0.039231087867458075 0 -0.019742265577737145 0.038700985120524743 0 -0.021246161156005888 0.038607766035883506 0 -0.020479520173039112 0.039231087867458075 0 -0.01965238287995693 0.03779220234495731 0 -0.019742265577737145 0.038700985120524743 0 -0.021246161156005888 0.038607766035883506 0 -0.031154902329188636 0.022636024025999506 0 -0.031401545535077353 0.022608998803249236 0 -0.031261872459072138 0.022923934435131722 0 -0.03162761897334368 0.022961226388364966 0 -0.031160153433009763 0.023268947750857829 0 -0.031261872459072138 0.022923934435131722 0 -0.03162761897334368 0.022961226388364966 0 -0.031401545535077353 0.022608998803249236 0 -0.031261872459072138 0.022923934435131722 0 -0.026496859577300112 0.030271801348930538 0 -0.023580922723184999 0.033357211134972059 0 -0.020517283090493426 0.041648748364157384 0 -0.023580922723184999 0.033357211134972059 0 -0.021246161156005888 0.038607766035883506 0 -0.020479520173039112 0.039231087867458075 0 -0.020411256159077816 0.040308304940517091 0 -0.031154902329188636 0.022636024025999506 0 -0.031261872459072138 0.022923934435131722 0 -0.030922456033080453 0.023110374558462946 0 -0.035967164393403216 0.013886312833634125 0 -0.034999931935856876 0.015157285994533932 0 -0.034999816220535038 0.013114666926096087 0 -0.035967164393403216 0.013886312833634125 0 -0.036957850014154157 0.014131847910961183 0 -0.036571536248427024 0.013077508608805436 0 -0.036243838599709428 0.015626278277497699 0 -0.037406727429810459 0.015083709528207133 0 -0.036957850014154157 0.014131847910961183 0 -0.035967164393403216 0.013886312833634125 0 -0.036243838599709428 0.015626278277497699 0 -0.036957850014154157 0.014131847910961183 0 -0.035967164393403216 0.013886312833634125 0 -0.034999931935856876 0.015157285994533932 0 -0.036243838599709428 0.015626278277497699 0 -0.034999931935856876 0.015157285994533932 0 -0.034999925314348153 0.01720005352576421 0 -0.036243838599709428 0.015626278277497699 0 -0.036113085846032955 0.017557798871246429 0 -0.034999925314348153 0.01720005352576421 0 -0.036243838599709428 0.015626278277497699 0 -0.036113085846032955 0.017557798871246429 0 -0.036243838599709428 0.015626278277497699 0 -0.037076707694972261 0.016866554796741741 0 -0.036243838599709428 0.015626278277497699 0 -0.037076707694972261 0.016866554796741741 0 -0.037406727429810459 0.015083709528207133 0 -0.036604076078811998 0.01801369987158782 0 -0.03685112575363296 0.016005689364530451 0 -0.036808958676192598 0.017977244007167825 0 -0.036170444772937606 0.019218809630713506 0 -0.03716316614115904 0.018758288128578157 0 -0.036808958676192598 0.017977244007167825 0 -0.036170444772937606 0.019218809630713506 0 -0.036171651725392363 0.016965679247838161 0 -0.036808958676192598 0.017977244007167825 0 -0.037266651462067091 0.017029866503116491 0 -0.036171651725392363 0.016965679247838161 0 -0.03694108422356663 0.020070315387074385 0 -0.036170444772937606 0.019218809630713506 0 -0.03716316614115904 0.018758288128578157 0 -0.037123025373909366 0.01896027384838574 0 -0.037154590619669893 0.018788451708931987 0 -0.037911818009988128 0.019769203699389767 0 -0.03694108422356663 0.020070315387074385 0 -0.03716316614115904 0.018758288128578157 0 -0.036354477802003536 0.018129005739580109 0 -0.03716316614115904 0.018758288128578157 0 -0.037203029557269861 0.018818954645163203 0 -0.037203029557269861 0.018818954645163203 0 -0.037307339407561195 0.017858146791994097 0 -0.03799835689556133 0.017668055437484238 0 -0.036808958676192598 0.017977244007167825 0 -0.03716316614115904 0.018758288128578157 0 -0.037203029557269861 0.018818954645163203 0 -0.036808958676192598 0.017977244007167825 0 -0.037203029557269861 0.018818954645163203 0 -0.037307339407561195 0.017858146791994097 0 -0.036808958676192598 0.017977244007167825 0 -0.037307339407561195 0.017858146791994097 0 -0.037266651462067091 0.017029866503116491 0 -0.037307339407561195 0.017858146791994097 0 -0.03799835689556133 0.017668055437484238 0 -0.037266651462067091 0.017029866503116491 0 -0.03799835689556133 0.017668055437484238 0 -0.037264640198529958 0.014904395306688569 0 -0.038085611817438914 0.015676225874714747 0 -0.03799835689556133 0.017668055437484238 0 -0.037266651462067091 0.017029866503116491 0 -0.038011463207619556 0.014616380998454035 0 -0.03802445458299674 0.017446975133012698 0 -0.037620632456908283 0.014798678258593835 0 -0.037266651462067091 0.017029866503116491 0 -0.036171651725392363 0.016965679247838161 0 -0.038011463207619556 0.014616380998454035 0 -0.037406727429810459 0.015083709528207133 0 -0.036957850014154157 0.014131847910961183 0 -0.037597283736383602 0.013781697937217818 0 -0.036957850014154157 0.014131847910961183 0 -0.037120189260411288 0.013072993994265853 0 -0.036571536248427024 0.013077508608805436 0 -0.03685112575363296 0.016005689364530451 0 -0.037516872126153497 0.013936969787354148 0 -0.036957850014154157 0.014131847910961183 0 -0.037597283736383602 0.013781697937217818 0 -0.037120189260411288 0.013072993994265853 0 -0.036171651725392363 0.016965679247838161 0 -0.037597283736383602 0.013781697937217818 0 -0.038011463207619556 0.014616380998454035 0 -0.037264640198529958 0.014904395306688569 0 -0.038304700670081668 0.014636581392057509 0 -0.037943833774613411 0.013708341844045756 0 -0.037264640198529958 0.014904395306688569 0 -0.038304700670081668 0.014636581392057509 0 -0.038085611817438914 0.015676225874714747 0 -0.038955557197667384 0.015035248498538645 0 -0.03942256196690775 0.015343854235452264 0 -0.038709327320635908 0.015698714831730253 0 -0.038955557197667384 0.015035248498538645 0 -0.038304700670081668 0.014636581392057509 0 -0.038709327320635908 0.015698714831730253 0 -0.038304700670081668 0.014636581392057509 0 -0.038085611817438914 0.015676225874714747 0 -0.038709327320635908 0.015698714831730253 0 -0.038304700670081668 0.014636581392057509 0 -0.03895309633591304 0.014455970770713374 0 -0.038682544214808032 0.013739303102107086 0 -0.038955557197667384 0.015035248498538645 0 -0.038304700670081668 0.014636581392057509 0 -0.03895309633591304 0.014455970770713374 0 -0.038955557197667384 0.015035248498538645 0 -0.03895309633591304 0.014455970770713374 0 -0.039290274819684688 0.014707345901176618 0 -0.03895309633591304 0.014455970770713374 0 -0.039290274819684688 0.014707345901176618 0 -0.039363371056317917 0.014126708114717957 0 -0.039290274819684688 0.014707345901176618 0 -0.039723583798077632 0.014607321539252394 0 -0.039363371056317917 0.014126708114717957 0 -0.039723583798077632 0.014607321539252394 0 -0.039748232813853208 0.013992770935007478 0 -0.039363371056317917 0.014126708114717957 0 -0.039723583798077632 0.014607321539252394 0 -0.040206209161771249 0.014064683402136874 0 -0.039748232813853208 0.013992770935007478 0 -0.039723583798077632 0.014607321539252394 0 -0.03942256196690775 0.015343854235452264 0 -0.040166540654551677 0.015074449627849663 0 -0.038955557197667384 0.015035248498538645 0 -0.039290274819684688 0.014707345901176618 0 -0.03942256196690775 0.015343854235452264 0 -0.039290274819684688 0.014707345901176618 0 -0.039723583798077632 0.014607321539252394 0 -0.03942256196690775 0.015343854235452264 0 -0.037256068652534377 0.018688843418968908 0 -0.037068497089112168 0.018350229827002188 0 -0.039393916803991479 0.016584236453029515 0 -0.040400749899305359 0.015135089606984667 0 -0.040166540654551677 0.015074449627849663 0 -0.035246102759694933 0.020804113698969322 0 -0.033973544666016271 0.020945564339807144 0 -0.033740886611258805 0.021479369476223861 0 -0.03942256196690775 0.015343854235452264 0 -0.039393916803991479 0.016584236453029515 0 -0.040166540654551677 0.015074449627849663 0 -0.035246102759694933 0.020804113698969322 0 -0.034171657169320455 0.020536523265333676 0 -0.033973544666016271 0.020945564339807144 0 -0.03799835689556133 0.017668055437484238 0 -0.038085611817438914 0.015676225874714747 0 -0.038709327320635908 0.015698714831730253 0 -0.03799835689556133 0.017668055437484238 0 -0.039393916803991479 0.016584236453029515 0 -0.038709327320635908 0.015698714831730253 0 -0.03942256196690775 0.015343854235452264 0 -0.039393916803991479 0.016584236453029515 0 -0.038709327320635908 0.015698714831730253 0 -0.037203029557269861 0.018818954645163203 0 -0.03799835689556133 0.017668055437484238 0 -0.039393916803991479 0.016584236453029515 0 -0.037203029557269861 0.018818954645163203 0 -0.035246102759694933 0.020804113698969322 0 -0.035756528588497559 0.019183910213934976 0 -0.035246102759694933 0.020804113698969322 0 -0.035756528588497559 0.019183910213934976 0 -0.034807082437776367 0.019892584838826586 0 -0.03714225174552032 0.018855731260903303 0 -0.037256068652534377 0.018688843418968908 0 -0.036354477802003536 0.018129005739580109 0 -0.035756528588497559 0.019183910213934976 0 -0.034975605885144458 0.018584614562508789 0 -0.036354477802003536 0.018129005739580109 0 -0.037203029557269861 0.018818954645163203 0 -0.035756528588497559 0.019183910213934976 0 -0.034975605885144458 0.018584614562508789 0 -0.034807082437776367 0.019892584838826586 0 -0.033714151455874218 0.02004315428347191 0 -0.035756528588497559 0.019183910213934976 0 -0.034975605885144458 0.018584614562508789 0 -0.034807082437776367 0.019892584838826586 0 -0.03399688901307929 0.017501000581587833 0 -0.034975605885144458 0.018584614562508789 0 -0.033714151455874218 0.02004315428347191 0 -0.034807082437776367 0.019892584838826586 0 -0.034171657169320455 0.020536523265333676 0 -0.033714151455874218 0.02004315428347191 0 -0.035246102759694933 0.020804113698969322 0 -0.034807082437776367 0.019892584838826586 0 -0.034171657169320455 0.020536523265333676 0 -0.034171657169320455 0.020536523265333676 0 -0.033560098272756245 0.020798642746165403 0 -0.033714151455874218 0.02004315428347191 0 -0.034171657169320455 0.020536523265333676 0 -0.033560098272756245 0.020798642746165403 0 -0.033973544666016271 0.020945564339807144 0 -0.033560098272756245 0.020798642746165403 0 -0.033714151455874218 0.02004315428347191 0 -0.033373341941331826 0.020427528679571753 0 -0.033036010788576195 0.020879546907612723 0 -0.033714151455874218 0.02004315428347191 0 -0.033421653571038969 0.020411961544413753 0 -0.03335039652851618 0.01884222464411394 0 -0.033721250590090443 0.020206354837091611 0 -0.033714151455874218 0.02004315428347191 0 -0.033421653571038969 0.020411961544413753 0 -0.033373341941331826 0.020427528679571753 0 -0.033048281744583186 0.020645046744565281 0 -0.033421653571038969 0.020411961544413753 0 -0.033176087518178694 0.020506238920160846 0 -0.033421653571038969 0.020411961544413753 0 -0.033176087518178694 0.020506238920160846 0 -0.033373341941331826 0.020427528679571753 0 -0.032967444025449481 0.020620004320037504 0 -0.033176087518178694 0.020506238920160846 0 -0.033167308205137656 0.020566305731295746 0 -0.033176087518178694 0.020506238920160846 0 -0.033167308205137656 0.020566305731295746 0 -0.033373341941331826 0.020427528679571753 0 -0.033167308205137656 0.020566305731295746 0 -0.033373341941331826 0.020427528679571753 0 -0.033152165486201333 0.020783746815391555 0 -0.033560098272756245 0.020798642746165403 0 -0.033373341941331826 0.020427528679571753 0 -0.033152165486201333 0.020783746815391555 0 -0.033560098272756245 0.020798642746165403 0 -0.033152165486201333 0.020783746815391555 0 -0.03328911468614975 0.021068308984333664 0 -0.033017000089837593 0.02116534007624624 0 -0.033152165486201333 0.020783746815391555 0 -0.03328911468614975 0.021068308984333664 0 -0.033251827302938193 0.021416841628162427 0 -0.033511664310180669 0.021177002936255775 0 -0.033740886611258805 0.021479369476223861 0 -0.033017000089837593 0.02116534007624624 0 -0.03328911468614975 0.021068308984333664 0 -0.033251827302938193 0.021416841628162427 0 -0.03328911468614975 0.021068308984333664 0 -0.033251827302938193 0.021416841628162427 0 -0.033511664310180669 0.021177002936255775 0 -0.033560098272756245 0.020798642746165403 0 -0.03328911468614975 0.021068308984333664 0 -0.033511664310180669 0.021177002936255775 0 -0.033560098272756245 0.020798642746165403 0 -0.033511664310180669 0.021177002936255775 0 -0.033973544666016271 0.020945564339807144 0 -0.033511664310180669 0.021177002936255775 0 -0.033973544666016271 0.020945564339807144 0 -0.033740886611258805 0.021479369476223861 0 -0.040175583747715703 0.015002207063749664 0 -0.040771237038843465 0.014298867257761421 0 -0.040400749899305359 0.015135089606984667 0 -0.040166540654551677 0.015074449627849663 0 -0.040562004393422682 0.014644800956342257 0 -0.040166540654551677 0.015074449627849663 0 -0.041019692951390768 0.013925010771520715 0 -0.040206209161771249 0.014064683402136874 0 -0.039723583798077632 0.014607321539252394 0 -0.040166540654551677 0.015074449627849663 0 -0.040206209161771249 0.014064683402136874 0 -0.033106225335585111 0.02194337844272682 0 -0.033251827302938193 0.021416841628162427 0 -0.033740886611258805 0.021479369476223861 0 -0.037030040478232454 0.018305956260945225 0 -0.037068497089112168 0.018350229827002188 0 -0.040887316459045094 0.014687593408933988 0 -0.040400749899305359 0.015135089606984667 0 -0.040562004393422682 0.014644800956342257 0 -0.041385559158243442 0.01347948568454097 0 -0.040771237038843465 0.014298867257761421 0 -0.041684452286183046 0.013061434199502073 0 -0.041019692951390768 0.013925010771520715 0 -0.041063431344656509 0.013091613867012734 0 -0.041019692951390768 0.013925010771520715 0 -0.040516056777863331 0.013308730547163368 0 -0.041063431344656509 0.013091613867012734 0 -0.041019692951390768 0.013925010771520715 0 -0.040206209161771249 0.014064683402136874 0 -0.040516056777863331 0.013308730547163368 0 -0.040206209161771249 0.014064683402136874 0 -0.040516056777863331 0.013308730547163368 0 -0.039900380489498427 0.013479062182363818 0 -0.040516056777863331 0.013308730547163368 0 -0.039949608586981371 0.012614042322737022 0 -0.040761781414323177 0.012592233251356147 0 -0.039949608586981371 0.012614042322737022 0 -0.040761781414323177 0.012592233251356147 0 -0.04035316662116667 0.012227730245011736 0 -0.040516056777863331 0.013308730547163368 0 -0.039949608586981371 0.012614042322737022 0 -0.039900380489498427 0.013479062182363818 0 -0.040516056777863331 0.013308730547163368 0 -0.040761781414323177 0.012592233251356147 0 -0.041063431344656509 0.013091613867012734 0 -0.041331762330109295 0.012625303508618211 0 -0.040761781414323177 0.012592233251356147 0 -0.041063431344656509 0.013091613867012734 0 -0.041331762330109295 0.012625303508618211 0 -0.041302959880991141 0.011921077985249749 0 -0.040761781414323177 0.012592233251356147 0 -0.041302959880991141 0.011921077985249749 0 -0.040690855670723801 0.011901306485922213 0 -0.040914440732972866 0.011093874063407292 0 -0.041302959880991141 0.011921077985249749 0 -0.040761781414323177 0.012592233251356147 0 -0.040690855670723801 0.011901306485922213 0 -0.039262205858938561 0.010410565197795804 0 -0.036665207189796906 0.010014287920644628 0 -0.038084818501135917 0.0094141488267606051 0 -0.04075473262038682 0.011164175897607116 0 -0.039952092509088086 0.011746225773689632 0 -0.039593335148742359 0.011012521452813232 0 -0.04007299691906762 0.01085734726555612 0 -0.038699093109099247 0.0099384018919069905 0 -0.04007299691906762 0.01085734726555612 0 -0.040127268867373334 0.011734898402486047 0 -0.040690855670723801 0.011901306485922213 0 -0.040914440732972866 0.011093874063407292 0 -0.040097077558673852 0.011725795878514886 0 -0.039949608586981371 0.012614042322737022 0 -0.040097077558673852 0.011725795878514886 0 -0.04035316662116667 0.012227730245011736 0 -0.040690855670723801 0.011901306485922213 0 -0.040097077558673852 0.011725795878514886 0 -0.04035316662116667 0.012227730245011736 0 -0.040761781414323177 0.012592233251356147 0 -0.040690855670723801 0.011901306485922213 0 -0.04035316662116667 0.012227730245011736 0 -0.039952092509088086 0.011746225773689632 0 -0.039230548417783041 0.011910386030095062 0 -0.039117235553196301 0.012366936219025002 0 -0.040127268867373334 0.011734898402486047 0 -0.039135944613971498 0.0123423321046125 0 -0.039949608586981371 0.012614042322737022 0 -0.040097077558673852 0.011725795878514886 0 -0.039117235553196301 0.012366936219025002 0 -0.039372245413684198 0.011692032289592797 0 -0.038699093109099247 0.0099384018919069905 0 -0.039884236218597033 0.0099911355346145089 0 -0.038781991606402687 0.010665522284469948 0 -0.039147140014848258 0.010875383069256504 0 -0.039952092509088086 0.011746225773689632 0 -0.039230548417783041 0.011910386030095062 0 -0.039593335148742359 0.011012521452813232 0 -0.039386705688918631 0.011301938157590482 0 -0.039884236218597033 0.0099911355346145089 0 -0.039147140014848258 0.010875383069256504 0 -0.039884236218597033 0.0099911355346145089 0 -0.038544163888909952 0.010314593818523695 0 -0.038781991606402687 0.010665522284469948 0 -0.038699093109099247 0.0099384018919069905 0 -0.038016513188907558 0.0092802523043177022 0 -0.039884236218597033 0.0099911355346145089 0 -0.038544163888909952 0.010314593818523695 0 -0.038375840858402094 0.0098220190193850452 0 -0.038544163888909952 0.010314593818523695 0 -0.038052309003072861 0.010516165672654549 0 -0.038150066505929232 0.010088501454175768 0 -0.038544163888909952 0.010314593818523695 0 -0.038150066505929232 0.010088501454175768 0 -0.038375840858402094 0.0098220190193850452 0 -0.038781991606402687 0.010665522284469948 0 -0.038417751042266898 0.010751188526366466 0 -0.038728001752897735 0.011125661327240131 0 -0.038544163888909952 0.010314593818523695 0 -0.038417751042266898 0.010751188526366466 0 -0.038052309003072861 0.010516165672654549 0 -0.038544163888909952 0.010314593818523695 0 -0.038781991606402687 0.010665522284469948 0 -0.038417751042266898 0.010751188526366466 0 -0.038417751042266898 0.010751188526366466 0 -0.038728001752897735 0.011125661327240131 0 -0.037989062266475353 0.0111432472610557 0 -0.039386705688918631 0.011301938157590482 0 -0.039147140014848258 0.010875383069256504 0 -0.038728001752897735 0.011125661327240131 0 -0.038781991606402687 0.010665522284469948 0 -0.039147140014848258 0.010875383069256504 0 -0.038728001752897735 0.011125661327240131 0 -0.039386705688918631 0.011301938157590482 0 -0.038728001752897735 0.011125661327240131 0 -0.03856360394537231 0.011846441471261994 0 -0.038728001752897735 0.011125661327240131 0 -0.03856360394537231 0.011846441471261994 0 -0.037989062266475353 0.0111432472610557 0 -0.039386705688918631 0.011301938157590482 0 -0.03856360394537231 0.011846441471261994 0 -0.038803081138974356 0.012838955645802383 0 -0.039372245413684198 0.011692032289592797 0 -0.038828967087556121 0.01273443853252035 0 -0.03856360394537231 0.011846441471261994 0 -0.038095457834412282 0.012858339356175363 0 -0.037783892140343715 0.012015500836152692 0 -0.039230548417783041 0.011910386030095062 0 -0.038803081138974356 0.012838955645802383 0 -0.039117235553196301 0.012366936219025002 0 -0.03856360394537231 0.011846441471261994 0 -0.038803081138974356 0.012838955645802383 0 -0.038095457834412282 0.012858339356175363 0 -0.039949608586981371 0.012614042322737022 0 -0.039117235553196301 0.012366936219025002 0 -0.039410033654080821 0.012929233772505397 0 -0.039949608586981371 0.012614042322737022 0 -0.039410033654080821 0.012929233772505397 0 -0.039900380489498427 0.013479062182363818 0 -0.038803081138974356 0.012838955645802383 0 -0.039117235553196301 0.012366936219025002 0 -0.039410033654080821 0.012929233772505397 0 -0.038803081138974356 0.012838955645802383 0 -0.039410033654080821 0.012929233772505397 0 -0.03933104943574578 0.013517154295996352 0 -0.039410033654080821 0.012929233772505397 0 -0.03933104943574578 0.013517154295996352 0 -0.039900380489498427 0.013479062182363818 0 -0.03933104943574578 0.013517154295996352 0 -0.039900380489498427 0.013479062182363818 0 -0.039748232813853208 0.013992770935007478 0 -0.040206209161771249 0.014064683402136874 0 -0.039900380489498427 0.013479062182363818 0 -0.039748232813853208 0.013992770935007478 0 -0.03933104943574578 0.013517154295996352 0 -0.039748232813853208 0.013992770935007478 0 -0.039363371056317917 0.014126708114717957 0 -0.03933104943574578 0.013517154295996352 0 -0.039363371056317917 0.014126708114717957 0 -0.038682544214808032 0.013739303102107086 0 -0.03895309633591304 0.014455970770713374 0 -0.039363371056317917 0.014126708114717957 0 -0.038682544214808032 0.013739303102107086 0 -0.038304700670081668 0.014636581392057509 0 -0.038682544214808032 0.013739303102107086 0 -0.037943833774613411 0.013708341844045756 0 -0.038803081138974356 0.012838955645802383 0 -0.038682544214808032 0.013739303102107086 0 -0.038095457834412282 0.012858339356175363 0 -0.038682544214808032 0.013739303102107086 0 -0.037943833774613411 0.013708341844045756 0 -0.038095457834412282 0.012858339356175363 0 -0.038803081138974356 0.012838955645802383 0 -0.03933104943574578 0.013517154295996352 0 -0.038682544214808032 0.013739303102107086 0 -0.037264640198529958 0.014904395306688569 0 -0.037943833774613411 0.013708341844045756 0 -0.036951348393280181 0.012930217163675095 0 -0.037620632456908283 0.014798678258593835 0 -0.037234082409729703 0.012543214418957775 0 -0.037597283736383602 0.013781697937217818 0 -0.038011463207619556 0.014616380998454035 0 -0.037543888822806661 0.012134204148498815 0 -0.037943833774613411 0.013708341844045756 0 -0.036951348393280181 0.012930217163675095 0 -0.038095457834412282 0.012858339356175363 0 -0.037597283736383602 0.013781697937217818 0 -0.037120189260411288 0.013072993994265853 0 -0.037543888822806661 0.012134204148498815 0 -0.037120189260411288 0.013072993994265853 0 -0.036748457532198374 0.012382644079631246 0 -0.036571536248427024 0.013077508608805436 0 -0.037120189260411288 0.013072993994265853 0 -0.036748457532198374 0.012382644079631246 0 -0.037543888822806661 0.012134204148498815 0 -0.037234082409729703 0.012543214418957775 0 -0.036843386890452474 0.011079671393274168 0 -0.036748457532198374 0.012382644079631246 0 -0.037543888822806661 0.012134204148498815 0 -0.036581171870654836 0.011615371411555653 0 -0.037543888822806661 0.012134204148498815 0 -0.036807573688927508 0.010957178826589333 0 -0.036581171870654836 0.011615371411555653 0 -0.036951348393280181 0.012930217163675095 0 -0.038095457834412282 0.012858339356175363 0 -0.037783892140343715 0.012015500836152692 0 -0.036951348393280181 0.012930217163675095 0 -0.037783892140343715 0.012015500836152692 0 -0.037411623346534341 0.011469311626074308 0 -0.037783892140343715 0.012015500836152692 0 -0.037411623346534341 0.011469311626074308 0 -0.037989062266475353 0.0111432472610557 0 -0.03856360394537231 0.011846441471261994 0 -0.037783892140343715 0.012015500836152692 0 -0.037989062266475353 0.0111432472610557 0 -0.037411623346534341 0.011469311626074308 0 -0.037989062266475353 0.0111432472610557 0 -0.037478011663141922 0.010782286853645464 0 -0.038417751042266898 0.010751188526366466 0 -0.037989062266475353 0.0111432472610557 0 -0.038052309003072861 0.010516165672654549 0 -0.038052309003072861 0.010516165672654549 0 -0.037478011663141922 0.010782286853645464 0 -0.037643137000316428 0.010204492394512649 0 -0.037989062266475353 0.0111432472610557 0 -0.038052309003072861 0.010516165672654549 0 -0.037478011663141922 0.010782286853645464 0 -0.037478011663141922 0.010782286853645464 0 -0.037643137000316428 0.010204492394512649 0 -0.037087270454005526 0.010420360963968861 0 -0.037643137000316428 0.010204492394512649 0 -0.037087270454005526 0.010420360963968861 0 -0.037195808745617474 0.0098457706833635743 0 -0.037643137000316428 0.010204492394512649 0 -0.037195808745617474 0.0098457706833635743 0 -0.037825473119921509 0.0097976803427713543 0 -0.038052309003072861 0.010516165672654549 0 -0.037643137000316428 0.010204492394512649 0 -0.038150066505929232 0.010088501454175768 0 -0.037643137000316428 0.010204492394512649 0 -0.038150066505929232 0.010088501454175768 0 -0.037825473119921509 0.0097976803427713543 0 -0.037087270454005526 0.010420360963968861 0 -0.036220108495773333 0.010501065446951525 0 -0.037195808745617474 0.0098457706833635743 0 -0.037087270454005526 0.010420360963968861 0 -0.036807573688927508 0.010957178826589333 0 -0.036220108495773333 0.010501065446951525 0 -0.037478011663141922 0.010782286853645464 0 -0.037087270454005526 0.010420360963968861 0 -0.036807573688927508 0.010957178826589333 0 -0.036951348393280181 0.012930217163675095 0 -0.037411623346534341 0.011469311626074308 0 -0.036807573688927508 0.010957178826589333 0 -0.037411623346534341 0.011469311626074308 0 -0.037478011663141922 0.010782286853645464 0 -0.036807573688927508 0.010957178826589333 0 -0.036807573688927508 0.010957178826589333 0 -0.036280439484910915 0.011019712381508133 0 -0.036581171870654836 0.011615371411555653 0 -0.036280439484910915 0.011019712381508133 0 -0.036220108495773333 0.010501065446951525 0 -0.035588455718779215 0.011213891718009987 0 -0.036411522707697652 0.0099931704882195178 0 -0.035638502861468281 0.011162435851850097 0 -0.036280439484910915 0.011019712381508133 0 -0.035588455718779215 0.011213891718009987 0 -0.036095680763281422 0.011438155985666316 0 -0.036807573688927508 0.010957178826589333 0 -0.036280439484910915 0.011019712381508133 0 -0.036220108495773333 0.010501065446951525 0 -0.036667841304253018 0.0094637678095207175 0 -0.034999941232555253 0.0090288353415432163 0 -0.035603537085552972 0.010036237824410592 0 -0.036667841304253018 0.0094637678095207175 0 -0.034999941232555253 0.0090288353415432163 0 -0.036155318643151794 0.0080067588369848366 0 -0.034999941232555253 0.0090288353415432163 0 -0.035603537085552972 0.010036237824410592 0 -0.034999958293173913 0.01107221093169891 0 -0.036667841304253018 0.0094637678095207175 0 -0.035603537085552972 0.010036237824410592 0 -0.035588455718779215 0.011213891718009987 0 -0.035603537085552972 0.010036237824410592 0 -0.034999958293173913 0.01107221093169891 0 -0.035588455718779215 0.011213891718009987 0 -0.034999958293173913 0.01107221093169891 0 -0.035588455718779215 0.011213891718009987 0 -0.035947829607865571 0.012220241277694312 0 -0.035588455718779215 0.011213891718009987 0 -0.036095680763281422 0.011438155985666316 0 -0.035947829607865571 0.012220241277694312 0 -0.036748457532198374 0.012382644079631246 0 -0.036581171870654836 0.011615371411555653 0 -0.035947829607865571 0.012220241277694312 0 -0.036280439484910915 0.011019712381508133 0 -0.036095680763281422 0.011438155985666316 0 -0.036581171870654836 0.011615371411555653 0 -0.036095680763281422 0.011438155985666316 0 -0.036581171870654836 0.011615371411555653 0 -0.035947829607865571 0.012220241277694312 0 -0.035967164393403216 0.013886312833634125 0 -0.035947829607865571 0.012220241277694312 0 -0.036571536248427024 0.013077508608805436 0 -0.036748457532198374 0.012382644079631246 0 -0.035947829607865571 0.012220241277694312 0 -0.036571536248427024 0.013077508608805436 0 -0.035967164393403216 0.013886312833634125 0 -0.035947829607865571 0.012220241277694312 0 -0.034999816220535038 0.013114666926096087 0 -0.034999958293173913 0.01107221093169891 0 -0.035947829607865571 0.012220241277694312 0 -0.034999816220535038 0.013114666926096087 0 -0.034999912466440936 0.0051395310913548353 0 -0.036269982528573844 0.0058645386000914772 0 -0.035927002971289423 0.0042587112208058425 0 -0.036884302766894611 0.0043599344272457624 0 -0.036269982528573844 0.0058645386000914772 0 -0.037535181228214511 0.0047721377356506091 0 -0.036320096169051186 0.0059338006761351075 0 -0.037359500787916007 0.0047274825592949774 0 -0.036884302766894611 0.0043599344272457624 0 -0.036269982528573844 0.0058645386000914772 0 -0.035927002971289423 0.0042587112208058425 0 -0.036324766365386472 0.0059766349234550795 0 -0.036832363213702285 0.0070238695123331927 0 -0.037458652050031814 0.0060919952033934594 0 -0.036320096169051186 0.0059338006761351075 0 -0.035000217518735589 0.0069859543325853117 0 -0.034999912466440936 0.0051395310913548353 0 -0.036269982528573844 0.0058645386000914772 0 -0.035000006666743487 0.0069860892002546237 0 -0.036324766365386472 0.0059766349234550795 0 -0.035000041038188809 0.0069862860849620838 0 -0.036832363213702285 0.0070238695123331927 0 -0.035000041038188809 0.0069862860849620838 0 -0.036155318643151794 0.0080067588369848366 0 -0.036832363213702285 0.0070238695123331927 0 -0.034999941232555253 0.0090288353415432163 0 -0.035000041038188809 0.0069862860849620838 0 -0.036155318643151794 0.0080067588369848366 0 -0.036667841304253018 0.0094637678095207175 0 -0.036155318643151794 0.0080067588369848366 0 -0.037647941819667199 0.0078592882422060095 0 -0.036155318643151794 0.0080067588369848366 0 -0.036832363213702285 0.0070238695123331927 0 -0.037647941819667199 0.0078592882422060095 0 -0.037353170882063455 0.0085633729125531473 0 -0.037604032002160927 0.0070313350035477269 0 -0.037647941819667199 0.0078592882422060095 0 -0.038621337340547582 0.0063004454609541759 0 -0.037458652050031814 0.0060919952033934594 0 -0.036832363213702285 0.0070238695123331927 0 -0.037647941819667199 0.0078592882422060095 0 -0.037458652050031814 0.0060919952033934594 0 -0.036220108495773333 0.010501065446951525 0 -0.036882890492692937 0.0092740981923127765 0 -0.037195808745617474 0.0098457706833635743 0 -0.036411522707697652 0.0099931704882195178 0 -0.037353170882063455 0.0085633729125531473 0 -0.036882890492692937 0.0092740981923127765 0 -0.037195808745617474 0.0098457706833635743 0 -0.03753105567730209 0.0092174151401072935 0 -0.037825473119921509 0.0097976803427713543 0 -0.037993355935293148 0.0089454472497249339 0 -0.038303014977796819 0.0098562953370664105 0 -0.037825473119921509 0.0097976803427713543 0 -0.03753105567730209 0.0092174151401072935 0 -0.037993355935293148 0.0089454472497249339 0 -0.038035603444056765 0.0095715057124833788 0 -0.038016513188907558 0.0092802523043177022 0 -0.038150066505929232 0.010088501454175768 0 -0.037825473119921509 0.0097976803427713543 0 -0.038375840858402094 0.0098220190193850452 0 -0.037195808745617474 0.0098457706833635743 0 -0.037825473119921509 0.0097976803427713543 0 -0.03753105567730209 0.0092174151401072935 0 -0.03753105567730209 0.0092174151401072935 0 -0.037993355935293148 0.0089454472497249339 0 -0.037670513754306696 0.0079978836050906953 0 -0.036882890492692937 0.0092740981923127765 0 -0.03753105567730209 0.0092174151401072935 0 -0.037670513754306696 0.0079978836050906953 0 -0.03756029928004917 0.0084224347953352017 0 -0.037604032002160927 0.0070313350035477269 0 -0.037122525029862616 0.0078168856543178195 0 -0.036813223274628985 0.0069134626426059402 0 -0.03729572139430809 0.0072512698388264261 0 -0.036906315264343736 0.0067673592113007492 0 -0.036813223274628985 0.0069134626426059402 0 -0.03729572139430809 0.0072512698388264261 0 -0.03689231091641549 0.0052416692493080144 0 -0.037588580914822783 0.0060653172234128878 0 -0.036906315264343736 0.0067673592113007492 0 -0.03657744661945074 0.0062090001030154912 0 -0.037835338192124972 0.0070286109393338757 0 -0.036740655517387699 0.0041438758447419387 0 -0.036099782485357196 0.0044885626900717642 0 -0.037363404058452468 0.0052774090823136128 0 -0.037604032002160927 0.0070313350035477269 0 -0.03689231091641549 0.0052416692493080144 0 -0.036906315264343736 0.0067673592113007492 0 -0.036814546485579788 0.0069114473554620403 0 -0.03657744661945074 0.0062090001030154912 0 -0.037503093463056379 0.0070516565627158538 0 -0.037604032002160927 0.0070313350035477269 0 -0.038621337340547582 0.0063004454609541759 0 -0.037458652050031814 0.0060919952033934594 0 -0.038307311829712039 0.005399452131832524 0 -0.036324766365386472 0.0059766349234550795 0 -0.037458652050031814 0.0060919952033934594 0 -0.037617728812614153 0.0049594439026336519 0 -0.037458652050031814 0.0060919952033934594 0 -0.037617728812614153 0.0049594439026336519 0 -0.038307311829712039 0.005399452131832524 0 -0.037359500787916007 0.0047274825592949774 0 -0.03689231091641549 0.0052416692493080144 0 -0.036884302766894611 0.0043599344272457624 0 -0.03748474408595652 0.0047405180070603696 0 -0.03733279169803197 0.0040617640181884219 0 -0.037038480497383265 0.0044790404165226238 0 -0.037359500787916007 0.0047274825592949774 0 -0.03685917756814349 0.0046822079350871291 0 -0.037017199049471657 0.0045550660609323156 0 -0.037116721505306399 0.00484868462101025 0 -0.03748474408595652 0.0047405180070603696 0 -0.037914182186598158 0.0044063276611989713 0 -0.03733279169803197 0.0040617640181884219 0 -0.037359500787916007 0.0047274825592949774 0 -0.036942691017553375 0.003927943323873152 0 -0.035877739439220728 0.0038742769003616041 0 -0.036740655517387699 0.0041438758447419387 0 -0.036099782485357196 0.0044885626900717642 0 -0.036942691017553375 0.003927943323873152 0 -0.03689231091641549 0.0052416692493080144 0 -0.036740655517387699 0.0041438758447419387 0 -0.037646693217852571 0.00383280043738486 0 -0.037363404058452468 0.0052774090823136128 0 -0.037646693217852571 0.00383280043738486 0 -0.038289048475945067 0.0046255686262147121 0 -0.037363404058452468 0.0052774090823136128 0 -0.037646693217852571 0.00383280043738486 0 -0.038289048475945067 0.0046255686262147121 0 -0.038562840671846545 0.0038542289447772186 0 -0.038289048475945067 0.0046255686262147121 0 -0.037363404058452468 0.0052774090823136128 0 -0.038735517112790295 0.0052775305826599861 0 -0.036906315264343736 0.0067673592113007492 0 -0.037835338192124972 0.0070286109393338757 0 -0.03729572139430809 0.0072512698388264261 0 -0.037835338192124972 0.0070286109393338757 0 -0.03729572139430809 0.0072512698388264261 0 -0.037957137800207812 0.007936858673233585 0 -0.037122525029862616 0.0078168856543178195 0 -0.03729572139430809 0.0072512698388264261 0 -0.037957137800207812 0.007936858673233585 0 -0.037122525029862616 0.0078168856543178195 0 -0.037957137800207812 0.007936858673233585 0 -0.037432502431476146 0.0087101298276237686 0 -0.03756029928004917 0.0084224347953352017 0 -0.038016513188907558 0.0092802523043177022 0 -0.038661438461221713 0.008868102501860587 0 -0.037957137800207812 0.007936858673233585 0 -0.037432502431476146 0.0087101298276237686 0 -0.038661438461221713 0.008868102501860587 0 -0.037957137800207812 0.007936858673233585 0 -0.039085390896084531 0.0078352309746142074 0 -0.037588580914822783 0.0060653172234128878 0 -0.038151558301469352 0.0075611009363140448 0 -0.037835338192124972 0.0070286109393338757 0 -0.037957137800207812 0.007936858673233585 0 -0.039085390896084531 0.0078352309746142074 0 -0.037363404058452468 0.0052774090823136128 0 -0.038453801425155587 0.0059693293686325791 0 -0.038735517112790295 0.0052775305826599861 0 -0.038151558301469352 0.0075611009363140448 0 -0.038423807629839851 0.0056657704017753765 0 -0.037172108168912157 0.0078366702477102573 0 -0.038579131306064378 0.0076166910132477268 0 -0.038021950514254554 0.0061699837268485791 0 -0.037172108168912157 0.0078366702477102573 0 -0.038985563398237381 0.0091147714681599889 0 -0.038579131306064378 0.0076166910132477268 0 -0.037447179993605924 0.0081506511163455114 0 -0.038084818501135917 0.0094141488267606051 0 -0.038985563398237381 0.0091147714681599889 0 -0.038151558301469352 0.0075611009363140448 0 -0.038667321906511266 0.0089730768032348432 0 -0.038699093109099247 0.0099384018919069905 0 -0.038151558301469352 0.0075611009363140448 0 -0.036665207189796906 0.010014287920644628 0 -0.037447179993605924 0.0081506511163455114 0 -0.038084818501135917 0.0094141488267606051 0 -0.038985563398237381 0.0091147714681599889 0 -0.038579131306064378 0.0076166910132477268 0 -0.040258578594520041 0.0084823422259672487 0 -0.039262205858938561 0.010410565197795804 0 -0.038985563398237381 0.0091147714681599889 0 -0.040258578594520041 0.0084823422259672487 0 -0.039262205858938561 0.010410565197795804 0 -0.038084818501135917 0.0094141488267606051 0 -0.038985563398237381 0.0091147714681599889 0 -0.038579131306064378 0.0076166910132477268 0 -0.039754222087232581 0.0068734991538918783 0 -0.040258578594520041 0.0084823422259672487 0 -0.038579131306064378 0.0076166910132477268 0 -0.039754222087232581 0.0068734991538918783 0 -0.038021950514254554 0.0061699837268485791 0 -0.039852378928833997 0.0053943516609497831 0 -0.038021950514254554 0.0061699837268485791 0 -0.03892136347381684 0.0047389279153076279 0 -0.039754222087232581 0.0068734991538918783 0 -0.039852378928833997 0.0053943516609497831 0 -0.038021950514254554 0.0061699837268485791 0 -0.038289048475945067 0.0046255686262147121 0 -0.038735517112790295 0.0052775305826599861 0 -0.03892136347381684 0.0047389279153076279 0 -0.038423807629839851 0.0056657704017753765 0 -0.038808412929337066 0.0048985238392344598 0 -0.038289048475945067 0.0046255686262147121 0 -0.03892136347381684 0.0047389279153076279 0 -0.038562840671846545 0.0038542289447772186 0 -0.03892136347381684 0.0047389279153076279 0 -0.039558277625755936 0.0037356268824319705 0 -0.038562840671846545 0.0038542289447772186 0 -0.039852378928833997 0.0053943516609497831 0 -0.03892136347381684 0.0047389279153076279 0 -0.039558277625755936 0.0037356268824319705 0 -0.039558277625755936 0.0037356268824319705 0 -0.038884292808499914 0.0030585336664177435 0 -0.039567736009431247 0.0023382513923888445 0 -0.039558277625755936 0.0037356268824319705 0 -0.038562840671846545 0.0038542289447772186 0 -0.038884292808499914 0.0030585336664177435 0 -0.038562840671846545 0.0038542289447772186 0 -0.038884292808499914 0.0030585336664177435 0 -0.038271213123584648 0.003073532932786744 0 -0.038884292808499914 0.0030585336664177435 0 -0.038523137460425252 0.0022992772609293391 0 -0.039567736009431247 0.0023382513923888445 0 -0.038884292808499914 0.0030585336664177435 0 -0.038523137460425252 0.0022992772609293391 0 -0.038271213123584648 0.003073532932786744 0 -0.039567736009431247 0.0023382513923888445 0 -0.039604577027367451 0.0015238087616035333 0 -0.040358148883192682 0.0014068650313560562 0 -0.039567736009431247 0.0023382513923888445 0 -0.039604577027367451 0.0015238087616035333 0 -0.038937996233121511 0.0015558947721437697 0 -0.039604577027367451 0.0015238087616035333 0 -0.039605445011778401 0.00079760904521530265 0 -0.038937996233121511 0.0015558947721437697 0 -0.039604577027367451 0.0015238087616035333 0 -0.039605445011778401 0.00079760904521530265 0 -0.040358148883192682 0.0014068650313560562 0 -0.039605445011778401 0.00079760904521530265 0 -0.038937996233121511 0.0015558947721437697 0 -0.038504059974327591 0.00093121899126051783 0 -0.038523137460425252 0.0022992772609293391 0 -0.039567736009431247 0.0023382513923888445 0 -0.038937996233121511 0.0015558947721437697 0 -0.038523137460425252 0.0022992772609293391 0 -0.038033170725682006 0.0015381396913818131 0 -0.037706744104598351 0.0023926266543138836 0 -0.038523137460425252 0.0022992772609293391 0 -0.038937996233121511 0.0015558947721437697 0 -0.038033170725682006 0.0015381396913818131 0 -0.038937996233121511 0.0015558947721437697 0 -0.038033170725682006 0.0015381396913818131 0 -0.038504059974327591 0.00093121899126051783 0 -0.038033170725682006 0.0015381396913818131 0 -0.038504059974327591 0.00093121899126051783 0 -0.037736524073709241 0.00097733881011290635 0 -0.038033170725682006 0.0015381396913818131 0 -0.037736524073709241 0.00097733881011290635 0 -0.037380700525265424 0.0014758991387167971 0 -0.038033170725682006 0.0015381396913818131 0 -0.037706744104598351 0.0023926266543138836 0 -0.037380700525265424 0.0014758991387167971 0 -0.03764683829643508 0.0024237183018370511 0 -0.037044036805168816 0.0028165755980706008 0 -0.037706744104598351 0.0023926266543138836 0 -0.037398503569135377 0.0025040499805817802 0 -0.037227601008565162 0.0021412016748970706 0 -0.038523137460425252 0.0022992772609293391 0 -0.037706744104598351 0.0023926266543138836 0 -0.038271213123584648 0.003073532932786744 0 -0.037646693217852571 0.00383280043738486 0 -0.038562840671846545 0.0038542289447772186 0 -0.038271213123584648 0.003073532932786744 0 -0.037646693217852571 0.00383280043738486 0 -0.037706744104598351 0.0023926266543138836 0 -0.038271213123584648 0.003073532932786744 0 -0.037646693217852571 0.00383280043738486 0 -0.037706744104598351 0.0023926266543138836 0 -0.03669389087913455 0.0031881508899005398 0 -0.036740655517387699 0.0041438758447419387 0 -0.037646693217852571 0.00383280043738486 0 -0.03669389087913455 0.0031881508899005398 0 -0.035877739439220728 0.0038742769003616041 0 -0.036740655517387699 0.0041438758447419387 0 -0.03669389087913455 0.0031881508899005398 0 -0.036942691017553375 0.003927943323873152 0 -0.037044036805168816 0.0028165755980706008 0 -0.037035679058335276 0.00279768532252449 0 -0.037138116164239704 0.002448743832517235 0 -0.037398503569135377 0.0025040499805817802 0 -0.036942691017553375 0.003927943323873152 0 -0.037167114929938613 0.0027104372585405692 0 -0.037035679058335276 0.00279768532252449 0 -0.037138116164239704 0.002448743832517235 0 -0.036890809811087374 0.0023474349065688879 0 -0.037914182186598158 0.0044063276611989713 0 -0.03733279169803197 0.0040617640181884219 0 -0.037444897045197906 0.0031517088469230582 0 -0.036884302766894611 0.0043599344272457624 0 -0.03733279169803197 0.0040617640181884219 0 -0.036936768823224955 0.0036304358275035544 0 -0.03733279169803197 0.0040617640181884219 0 -0.037444897045197906 0.0031517088469230582 0 -0.036936768823224955 0.0036304358275035544 0 -0.037167114929938613 0.0027104372585405692 0 -0.036837256129154367 0.0019588058254000076 0 -0.036890809811087374 0.0023474349065688879 0 -0.037227601008565162 0.0021412016748970706 0 -0.036777009958844913 0.0018467113213462445 0 -0.037706744104598351 0.0023926266543138836 0 -0.037227601008565162 0.0021412016748970706 0 -0.037380700525265424 0.0014758991387167971 0 -0.037138116164239704 0.002448743832517235 0 -0.037398503569135377 0.0025040499805817802 0 -0.037227601008565162 0.0021412016748970706 0 -0.037138116164239704 0.002448743832517235 0 -0.036890809811087374 0.0023474349065688879 0 -0.037227601008565162 0.0021412016748970706 0 -0.037227601008565162 0.0021412016748970706 0 -0.037380700525265424 0.0014758991387167971 0 -0.036777009958844913 0.0018467113213462445 0 -0.037262350725793439 0.00046428032170045433 0 -0.037380700525265424 0.0014758991387167971 0 -0.036901431211180911 0.0010014780906883371 0 -0.037262350725793439 0.00046428032170045433 0 -0.037736524073709241 0.00097733881011290635 0 -0.037380700525265424 0.0014758991387167971 0 -0.037380700525265424 0.0014758991387167971 0 -0.036901431211180911 0.0010014780906883371 0 -0.036777009958844913 0.0018467113213462445 0 -0.036901431211180911 0.0010014780906883371 0 -0.036777009958844913 0.0018467113213462445 0 -0.036090259934396761 0.0010009452536225796 0 -0.036777009958844913 0.0018467113213462445 0 -0.036090259934396761 0.0010009452536225796 0 -0.035864641845356808 0.0020885966011385893 0 -0.036413251250520653 0.00015143794275384112 0 -0.036901431211180911 0.0010014780906883371 0 -0.036090259934396761 0.0010009452536225796 0 -0.035000044635644545 -0.0003989774495653054 0 -0.036090259934396761 0.0010009452536225796 0 -0.034999866481008383 0.0014464155980803411 0 -0.036090259934396761 0.0010009452536225796 0 -0.035864641845356808 0.0020885966011385893 0 -0.034999866481008383 0.0014464155980803411 0 -0.035864641845356808 0.0020885966011385893 0 -0.034999866481008383 0.0014464155980803411 0 -0.034999891179926634 0.0032929914700579092 0 -0.035864641845356808 0.0020885966011385893 0 -0.036303241761060638 0.0030257981856424503 0 -0.034999891179926634 0.0032929914700579092 0 -0.037444897045197906 0.0031517088469230582 0 -0.036777009958844913 0.0018467113213462445 0 -0.036303241761060638 0.0030257981856424503 0 -0.036777009958844913 0.0018467113213462445 0 -0.035864641845356808 0.0020885966011385893 0 -0.036303241761060638 0.0030257981856424503 0 -0.037444897045197906 0.0031517088469230582 0 -0.036303241761060638 0.0030257981856424503 0 -0.036936768823224955 0.0036304358275035544 0 -0.036884302766894611 0.0043599344272457624 0 -0.036936768823224955 0.0036304358275035544 0 -0.035927002971289423 0.0042587112208058425 0 -0.036303241761060638 0.0030257981856424503 0 -0.036936768823224955 0.0036304358275035544 0 -0.035927002971289423 0.0042587112208058425 0 -0.034999912466440936 0.0051395310913548353 0 -0.034999891179926634 0.0032929914700579092 0 -0.035927002971289423 0.0042587112208058425 0 -0.036303241761060638 0.0030257981856424503 0 -0.034999891179926634 0.0032929914700579092 0 -0.035927002971289423 0.0042587112208058425 0 -0.031096240569201579 0.0069924609169474683 0 -0.030623877194512057 0.0073122277392595053 0 -0.031107280236611738 0.0076739265510860589 0 -0.031067500029545884 0.0072216092022515978 0 -0.031023738194779844 0.0076159926143673879 0 -0.030618292176183368 0.0068017954717129302 0 -0.031096240569201579 0.0069924609169474683 0 -0.030623877194512057 0.0073122277392595053 0 -0.030623877194512057 0.0073122277392595053 0 -0.030051886475928678 0.0071025666716803323 0 -0.030222544130544593 0.0076549854746238268 0 -0.030618292176183368 0.0068017954717129302 0 -0.030623877194512057 0.0073122277392595053 0 -0.030051886475928678 0.0071025666716803323 0 -0.030618292176183368 0.0068017954717129302 0 -0.030051886475928678 0.0071025666716803323 0 -0.030310535535216794 0.0060976537901155743 0 -0.036736159016654647 0.0064936150847745072 0 -0.037627105176204143 0.0041563122346070184 0 -0.035399906777270007 0.0046515576219831227 0 -0.03327465852599993 0.0068574978370362603 0 -0.034181060276052173 0.0053119905253899554 0 -0.030310535535216794 0.0060976537901155743 0 -0.030972834646114927 0.0065074005033343056 0 -0.031165967915838887 0.0059188256557391279 0 -0.030972834646114927 0.0065074005033343056 0 -0.031664499862178334 0.0068203611090395452 0 -0.031165967915838887 0.0059188256557391279 0 -0.030618292176183368 0.0068017954717129302 0 -0.030310535535216794 0.0060976537901155743 0 -0.030972834646114927 0.0065074005033343056 0 -0.031096240569201579 0.0069924609169474683 0 -0.030972834646114927 0.0065074005033343056 0 -0.031664499862178334 0.0068203611090395452 0 -0.030618292176183368 0.0068017954717129302 0 -0.031096240569201579 0.0069924609169474683 0 -0.030972834646114927 0.0065074005033343056 0 -0.030825668905191232 0.0065875850829585332 0 -0.02890921641759114 0.0044688917946773049 0 -0.030115926268281031 0.0046665063149123427 0 -0.028749465276605664 0.0057468966614758615 0 -0.02734011533469393 0.0032355863148632821 0 -0.022746909022896545 0.0057240431921810669 0 -0.023724677354789593 0.0063012028609470494 0 -0.024585465321273075 0.004057341220897597 0 -0.026680007080593225 0.0049914885532360079 0 -0.024443360239327239 0.0089262119245939464 0 -0.022746909022896545 0.0057240431921810669 0 -0.023724677354789593 0.0063012028609470494 0 -0.022812262343714852 0.0084199521029488765 0 -0.018555186755840104 0.0075422068411554058 0 -0.024443360239327239 0.0089262119245939464 0 -0.014604788532529498 0.0084685620638024484 0 -0.014743338512936129 0.0099331812737621893 0 -0.014088231235009878 0.0097154544725415008 0 -0.030825668905191232 0.0065875850829585332 0 -0.024443360239327239 0.0089262119245939464 0 -0.031664499862178334 0.0068203611090395452 0 -0.031549257719181885 0.0076461579480346167 0 -0.032355273165721433 0.0080343993798757968 0 -0.031096240569201579 0.0069924609169474683 0 -0.031549257719181885 0.0076461579480346167 0 -0.030903829845203373 0.008190970308275345 0 -0.030115926268281031 0.0046665063149123427 0 -0.028749465276605664 0.0057468966614758615 0 -0.030080994991243185 0.0082180068421449405 0 -0.031096240569201579 0.0069924609169474683 0 -0.031664499862178334 0.0068203611090395452 0 -0.031549257719181885 0.0076461579480346167 0 -0.031561907328431546 0.0089259436513875884 0 -0.030828278548851944 0.0094581160868866775 0 -0.030903829845203373 0.008190970308275345 0 -0.031549257719181885 0.0076461579480346167 0 -0.0317513693802031 0.0082038158422535878 0 -0.030903829845203373 0.008190970308275345 0 -0.0317513693802031 0.0082038158422535878 0 -0.032355273165721433 0.0080343993798757968 0 -0.032364067476370627 0.0082306698241164621 0 -0.031549257719181885 0.0076461579480346167 0 -0.0317513693802031 0.0082038158422535878 0 -0.032355273165721433 0.0080343993798757968 0 -0.0317513693802031 0.0082038158422535878 0 -0.031561907328431546 0.0089259436513875884 0 -0.032364067476370627 0.0082306698241164621 0 -0.0317513693802031 0.0082038158422535878 0 -0.031561907328431546 0.0089259436513875884 0 -0.030903829845203373 0.008190970308275345 0 -0.014743338512936129 0.0099331812737621893 0 -0.014088231235009878 0.0097154544725415008 0 -0.014604279416848168 0.010685632429970667 0 -0.025579699111528565 0.0086679721357269465 0 -0.022041116196146383 0.014010208363730342 0 -0.021607698292812338 0.010150640039896571 0 -0.021609352846711137 0.010479044753664107 0 -0.022676304106363347 0.012089806998814335 0 -0.024443360239327239 0.0089262119245939464 0 -0.017264906594038548 0.012538784692086545 0 -0.024443360239327239 0.0089262119245939464 0 -0.025579699111528565 0.0086679721357269465 0 -0.014743338512936129 0.0099331812737621893 0 -0.014782857894502554 0.010614925693747003 0 -0.014604279416848168 0.010685632429970667 0 -0.021609352846711137 0.010479044753664107 0 -0.022676304106363347 0.012089806998814335 0 -0.021625336569526907 0.012501243478258688 0 -0.025496848801337686 0.0097042040440305215 0 -0.025574624669130758 0.013792119068158989 0 -0.023529435694340003 0.014771991965657602 0 -0.014782857894502554 0.010614925693747003 0 -0.014602365964925333 0.010692302977442831 0 -0.014835491833555051 0.01111051892272571 0 -0.017965710677886118 0.019059051541387543 0 -0.02048236268316693 0.018105604040487614 0 -0.018959176789049261 0.017593721507813308 0 -0.017264906594038548 0.012538784692086545 0 -0.016140200415279859 0.019316132209431146 0 -0.017965710677886118 0.019059051541387543 0 -0.018959176789049261 0.017593721507813308 0 -0.016842292508796514 0.017120647940780699 0 -0.016622071074690065 0.012486957638336757 0 -0.017264906594038548 0.012538784692086545 0 -0.017264906594038548 0.012538784692086545 0 -0.022041116196146383 0.014010208363730342 0 -0.017300627904739491 0.025274330682775327 0 -0.025872635436788624 0.015408699235124541 0 -0.02048236268316693 0.018105604040487614 0 -0.018959176789049261 0.017593721507813308 0 -0.01903874583524541 0.015885569243776699 0 -0.02048236268316693 0.018105604040487614 0 -0.01903874583524541 0.015885569243776699 0 -0.022895999021522766 0.01696942628220206 0 -0.016015812401734213 0.025337655337804663 0 -0.016166379672010987 0.025247071422333123 0 -0.016254772661960969 0.025422317445354819 0 -0.018959176789049261 0.017593721507813308 0 -0.01903874583524541 0.015885569243776699 0 -0.016842292508796514 0.017120647940780699 0 -0.017300627904739491 0.025274330682775327 0 -0.016140200415279859 0.019316132209431146 0 -0.031561907328431546 0.0089259436513875884 0 -0.032364067476370627 0.0082306698241164621 0 -0.031788065110293411 0.009753669699966775 0 -0.025579699111528565 0.0086679721357269465 0 -0.025872635436788624 0.015408699235124541 0 -0.031561907328431546 0.0089259436513875884 0 -0.031788065110293411 0.009753669699966775 0 -0.030828278548851944 0.0094581160868866775 0 -0.022041116196146383 0.014010208363730342 0 -0.025872635436788624 0.015408699235124541 0 -0.025872635436788624 0.015408699235124541 0 -0.031825650826112141 0.010717034075215308 0 -0.027536273741398797 0.013849236941148271 0 -0.030650599986109459 0.012816623327512711 0 -0.030613337944904132 0.014718796353363664 0 -0.026032887219379505 0.019544465385946501 0 -0.027489250373984118 0.018173241125063223 0 -0.02419717135574255 0.019283822223802472 0 -0.025872635436788624 0.015408699235124541 0 -0.030720461384718213 0.015003854105174866 0 -0.030720461384718213 0.015003854105174866 0 -0.031825650826112141 0.010717034075215308 0 -0.037021784905423599 0.0096438756119115992 0 -0.036659637448681739 0.0094478993256897591 0 -0.037026166170895006 0.0093240074710291537 0 -0.031825650826112141 0.010717034075215308 0 -0.033539462014442363 0.0086445334209093554 0 -0.036659637448681739 0.0094478993256897591 0 -0.037026166170895006 0.0093240074710291537 0 -0.036433868464274786 0.0090683545570743838 0 -0.031825650826112141 0.010717034075215308 0 -0.031023738194779844 0.0076159926143673879 0 -0.031111238653412164 0.0083848870638113734 0 -0.031107280236611738 0.0076739265510860589 0 -0.030441374892122113 0.0081760162847060551 0 -0.030623877194512057 0.0073122277392595053 0 -0.031107280236611738 0.0076739265510860589 0 -0.030441374892122113 0.0081760162847060551 0 -0.033539462014442363 0.0086445334209093554 0 -0.033833266421206508 0.0079204855902626162 0 -0.030051886475928678 0.0071025666716803323 0 -0.030222544130544593 0.0076549854746238268 0 -0.02980051311255803 0.0079766279863215297 0 -0.030222544130544593 0.0076549854746238268 0 -0.030441374892122113 0.0081760162847060551 0 -0.02980051311255803 0.0079766279863215297 0 -0.030623877194512057 0.0073122277392595053 0 -0.030222544130544593 0.0076549854746238268 0 -0.030441374892122113 0.0081760162847060551 0 -0.036512122714557553 0.0098725722197672283 0 -0.036032788427097479 0.009222450161105478 0 -0.035646713152410484 0.0095662090529206375 0 -0.036512122714557553 0.0098725722197672283 0 -0.036659637448681739 0.0094478993256897591 0 -0.036032788427097479 0.009222450161105478 0 -0.036659637448681739 0.0094478993256897591 0 -0.036433868464274786 0.0090683545570743838 0 -0.036032788427097479 0.009222450161105478 0 -0.036433868464274786 0.0090683545570743838 0 -0.036032788427097479 0.009222450161105478 0 -0.035722958549394855 0.0086598109276114256 0 -0.036032788427097479 0.009222450161105478 0 -0.035646713152410484 0.0095662090529206375 0 -0.035698150045650509 0.0091650374009142783 0 -0.035646713152410484 0.0095662090529206375 0 -0.035348529479620805 0.0090085267846389191 0 -0.034138603937997954 0.0091166782379981364 0 -0.036032788427097479 0.009222450161105478 0 -0.035698150045650509 0.0091650374009142783 0 -0.035698613466084259 0.0087284754167792807 0 -0.036032788427097479 0.009222450161105478 0 -0.035722958549394855 0.0086598109276114256 0 -0.035698613466084259 0.0087284754167792807 0 -0.035646713152410484 0.0095662090529206375 0 -0.035698150045650509 0.0091650374009142783 0 -0.035348529479620805 0.0090085267846389191 0 -0.035698150045650509 0.0091650374009142783 0 -0.035348529479620805 0.0090085267846389191 0 -0.035698613466084259 0.0087284754167792807 0 -0.043282212120260989 0.010686435541122526 0 -0.044194105848795767 0.01031568456475364 0 -0.043137130903042234 0.0095004364002474889 0 -0.039954706688590372 0.0097163467784915861 0 -0.040350840425514713 0.0083619047268032893 0 -0.035348529479620805 0.0090085267846389191 0 -0.034138603937997954 0.0091166782379981364 0 -0.03546678306225505 0.0084500039370482994 0 -0.043282212120260989 0.010686435541122526 0 -0.043137130903042234 0.0095004364002474889 0 -0.042473987739005091 0.01025055669123205 0 -0.041837661491809112 0.0066224810795083456 0 -0.041516428004892615 0.0059178533199844485 0 -0.042693380835300165 0.0060154790120314112 0 -0.034138603937997954 0.0091166782379981364 0 -0.03546678306225505 0.0084500039370482994 0 -0.034647447426020488 0.0071000821038969351 0 -0.042156556513561927 0.0075027321494128959 0 -0.041837661491809112 0.0066224810795083456 0 -0.042693380835300165 0.0060154790120314112 0 -0.040350840425514713 0.0083619047268032893 0 -0.038430672326611674 0.0066205647007112709 0 -0.036736159016654647 0.0064936150847745072 0 -0.035902951308299257 0.0085769621356382615 0 -0.03546678306225505 0.0084500039370482994 0 -0.03327465852599993 0.0068574978370362603 0 -0.033833266421206508 0.0079204855902626162 0 -0.036736159016654647 0.0064936150847745072 0 -0.03546678306225505 0.0084500039370482994 0 -0.034647447426020488 0.0071000821038969351 0 -0.033833266421206508 0.0079204855902626162 0 -0.034784083700992979 0.008207869340658586 0 -0.035743322758775807 0.0086084146285309113 0 -0.035698613466084259 0.0087284754167792807 0 -0.03546678306225505 0.0084500039370482994 0 -0.033833266421206508 0.0079204855902626162 0 -0.033880465007336179 0.0079470702112755774 0 -0.035348529479620805 0.0090085267846389191 0 -0.035698613466084259 0.0087284754167792807 0 -0.03546678306225505 0.0084500039370482994 0 -0.039262205858938561 0.010410565197795804 0 -0.040258578594520041 0.0084823422259672487 0 -0.041709529037115563 0.0090817006772774302 0 -0.04007299691906762 0.01085734726555612 0 -0.041375493617544841 0.0090888979550236889 0 -0.040258578594520041 0.0084823422259672487 0 -0.041709529037115563 0.0090817006772774302 0 -0.041804755656818078 0.0083198648225677636 0 -0.040350840425514713 0.0083619047268032893 0 -0.041719815537940186 0.0077924344022524258 0 -0.043137130903042234 0.0095004364002474889 0 -0.041709529037115563 0.0090817006772774302 0 -0.041804755656818078 0.0083198648225677636 0 -0.041710453673517653 0.011043238875062301 0 -0.041709529037115563 0.0090817006772774302 0 -0.042473987739005091 0.01025055669123205 0 -0.043137130903042234 0.0095004364002474889 0 -0.041709529037115563 0.0090817006772774302 0 -0.042473987739005091 0.01025055669123205 0 -0.040982039910306405 0.0070439018614425223 0 -0.040629084459322708 0.0061038387489826011 0 -0.041516428004892615 0.0059178533199844485 0 -0.041837661491809112 0.0066224810795083456 0 -0.040982039910306405 0.0070439018614425223 0 -0.041516428004892615 0.0059178533199844485 0 -0.042156556513561927 0.0075027321494128959 0 -0.041837661491809112 0.0066224810795083456 0 -0.040982039910306405 0.0070439018614425223 0 -0.039754222087232581 0.0068734991538918783 0 -0.040982039910306405 0.0070439018614425223 0 -0.040629084459322708 0.0061038387489826011 0 -0.039754222087232581 0.0068734991538918783 0 -0.040258578594520041 0.0084823422259672487 0 -0.041804755656818078 0.0083198648225677636 0 -0.039690805613565354 0.0068878362305188623 0 -0.041719815537940186 0.0077924344022524258 0 -0.039852378928833997 0.0053943516609497831 0 -0.040629084459322708 0.0061038387489826011 0 -0.040752387213790341 0.004428465432101663 0 -0.039754222087232581 0.0068734991538918783 0 -0.039852378928833997 0.0053943516609497831 0 -0.040629084459322708 0.0061038387489826011 0 -0.040629084459322708 0.0061038387489826011 0 -0.041516428004892615 0.0059178533199844485 0 -0.040752387213790341 0.004428465432101663 0 -0.041516428004892615 0.0059178533199844485 0 -0.040752387213790341 0.004428465432101663 0 -0.041995377187504353 0.0049479720453178633 0 -0.040752387213790341 0.004428465432101663 0 -0.041995377187504353 0.0049479720453178633 0 -0.041941240191714774 0.0039836776983851619 0 -0.039852378928833997 0.0053943516609497831 0 -0.039558277625755936 0.0037356268824319705 0 -0.040752387213790341 0.004428465432101663 0 -0.036736159016654647 0.0064936150847745072 0 -0.034647447426020488 0.0071000821038969351 0 -0.035399906777270007 0.0046515576219831227 0 -0.038430672326611674 0.0066205647007112709 0 -0.03933433122507754 0.0043288847206620204 0 -0.042693380835300165 0.0060154790120314112 0 -0.041995377187504353 0.0049479720453178633 0 -0.043023085111830228 0.004399272424578428 0 -0.041516428004892615 0.0059178533199844485 0 -0.042693380835300165 0.0060154790120314112 0 -0.041995377187504353 0.0049479720453178633 0 -0.041995377187504353 0.0049479720453178633 0 -0.041941240191714774 0.0039836776983851619 0 -0.043023085111830228 0.004399272424578428 0 -0.042693380835300165 0.0060154790120314112 0 -0.043023085111830228 0.004399272424578428 0 -0.04327690136628963 0.0041865304481357836 0 -0.037627105176204143 0.0041563122346070184 0 -0.035399906777270007 0.0046515576219831227 0 -0.036264854352701492 0.0020117746803402893 0 -0.04327690136628963 0.0041865304481357836 0 -0.040923589819751673 0.00042553305211519163 0 -0.044493483748098833 9.5353628536275252e-05 0 -0.03933433122507754 0.0043288847206620204 0 -0.040796138747399853 0.0013126231944756465 0 -0.043023085111830228 0.004399272424578428 0 -0.04327690136628963 0.0041865304481357836 0 -0.040923589819751673 0.00042553305211519163 0 -0.042911997220369452 0.0042076968110779118 0 -0.041766319898250803 0.0015439023054482197 0 -0.041941240191714774 0.0039836776983851619 0 -0.043023085111830228 0.004399272424578428 0 -0.042591078026226852 0.0027157103028787981 0 -0.040923589819751673 0.00042553305211519163 0 -0.042448901445691696 -0.0025751055969630075 0 -0.039182136230944326 -0.0038278720880329407 0 -0.041766319898250803 0.0015439023054482197 0 -0.04062011410631669 -0.0014480695186901782 0 -0.044493483748098833 9.5353628536275252e-05 0 -0.042448901445691696 -0.0025751055969630075 0 -0.045854139110891319 -0.0041215424742328394 0 -0.040923589819751673 0.00042553305211519163 0 -0.044493483748098833 9.5353628536275252e-05 0 -0.042448901445691696 -0.0025751055969630075 0 -0.040730758873889057 0.0043925337823270518 0 -0.040413998002611015 0.0023861234659567649 0 -0.039558277625755936 0.0037356268824319705 0 -0.040752387213790341 0.004428465432101663 0 -0.040562968553604632 0.0027495785593541775 0 -0.041941240191714774 0.0039836776983851619 0 -0.042591078026226852 0.0027157103028787981 0 -0.040331568228882828 0.0023173541898232827 0 -0.040752387213790341 0.004428465432101663 0 -0.041941240191714774 0.0039836776983851619 0 -0.040331568228882828 0.0023173541898232827 0 -0.042591078026226852 0.0027157103028787981 0 -0.040331568228882828 0.0023173541898232827 0 -0.041928347003756111 0.00070352035972797854 0 -0.039558277625755936 0.0037356268824319705 0 -0.039567736009431247 0.0023382513923888445 0 -0.040562968553604632 0.0027495785593541775 0 -0.040413998002611015 0.0023861234659567649 0 -0.040418899549740907 0.0012951524784555973 0 -0.039567736009431247 0.0023382513923888445 0 -0.040562968553604632 0.0027495785593541775 0 -0.040358148883192682 0.0014068650313560562 0 -0.040331568228882828 0.0023173541898232827 0 -0.03997008304149046 -0.00016562975979837039 0 -0.041928347003756111 0.00070352035972797854 0 -0.038962472076513995 -0.0052851636647750482 0 -0.04062011410631669 -0.0014480695186901782 0 -0.041136219121222298 -0.0015228736791246416 0 -0.03997008304149046 -0.00016562975979837039 0 -0.041928347003756111 0.00070352035972797854 0 -0.039009965297567686 -0.0066577004113665935 0 -0.037592011489478883 -0.0079585998330208834 0 -0.039182136230944326 -0.0038278720880329407 0 -0.038140879906131346 -0.0069782111599409856 0 -0.038962472076513995 -0.0052851636647750482 0 -0.039394858224636467 -0.0088650203851102765 0 -0.039009965297567686 -0.0066577004113665935 0 -0.037592123889949355 -0.0079603646326332697 0 -0.039546563395158905 -0.0029890479003450727 0 -0.041136219121222298 -0.0015228736791246416 0 -0.03997008304149046 -0.00016562975979837039 0 -0.040133218306259787 0.00012250004854136022 0 -0.039605445011778401 0.00079760904521530265 0 -0.040358148883192682 0.0014068650313560562 0 -0.038361782751108083 -0.0042541230998250391 0 -0.040418899549740907 0.0012951524784555973 0 -0.042448901445691696 -0.0025751055969630075 0 -0.041753624647317016 -0.0054311988830434742 0 -0.045854139110891319 -0.0041215424742328394 0 -0.042448901445691696 -0.0025751055969630075 0 -0.039182136230944326 -0.0038278720880329407 0 -0.041753624647317016 -0.0054311988830434742 0 -0.039009965297567686 -0.0066577004113665935 0 -0.039182136230944326 -0.0038278720880329407 0 -0.041753624647317016 -0.0054311988830434742 0 -0.039009965297567686 -0.0066577004113665935 0 -0.041753624647317016 -0.0054311988830434742 0 -0.041143893292606044 -0.0079417863491994707 0 -0.039394858224636467 -0.0088650203851102765 0 -0.039009965297567686 -0.0066577004113665935 0 -0.041143893292606044 -0.0079417863491994707 0 -0.041753624647317016 -0.0054311988830434742 0 -0.041143893292606044 -0.0079417863491994707 0 -0.043779336579083464 -0.0076472203051444207 0 -0.041753624647317016 -0.0054311988830434742 0 -0.043779336579083464 -0.0076472203051444207 0 -0.045854139110891319 -0.0041215424742328394 0 -0.033149810545245052 -0.013357426593331808 0 -0.032826571894805902 -0.01320745200626809 0 -0.033285657133035405 -0.013166722071709918 0 -0.038624041025521888 -0.0105945700925712 0 -0.037214248585353889 -0.0043960116692751093 0 -0.033685651316036645 -0.012874643321140364 0 -0.033171596276667027 -0.01167974406532424 0 -0.033161100581185037 -0.013326328594016995 0 -0.033285657133035405 -0.013166722071709918 0 -0.033076740151443199 -0.013430296570188542 0 -0.032826571894805902 -0.01320745200626809 0 -0.033285657133035405 -0.013166722071709918 0 -0.034855808450107571 -0.0090258161342229339 0 -0.033285657133035405 -0.013166722071709918 0 -0.036101825860240473 -0.012386862445331791 0 -0.034855808450107571 -0.0090258161342229339 0 -0.033171596276667027 -0.01167974406532424 0 -0.037214248585353889 -0.0043960116692751093 0 -0.033161100581185037 -0.013326328594016995 0 -0.033072102220503767 -0.013385466988592377 0 -0.033076740151443199 -0.013430296570188542 0 -0.033171596276667027 -0.01167974406532424 0 -0.031583728715093656 -0.0090668380255547274 0 -0.032698816534176098 -0.013604384675640244 0 -0.032481726032411624 -0.013498073107507278 0 -0.032625673435913861 -0.013786805722136098 0 -0.032698816534176098 -0.013604384675640244 0 -0.032917879026966371 -0.013710002448690979 0 -0.032625673435913861 -0.013786805722136098 0 -0.031758407547213797 -0.007903556225593451 0 -0.035195820273734336 -0.0069775553844226195 0 -0.034043323006424625 -0.003737087864663612 0 -0.031583728715093656 -0.0090668380255547274 0 -0.030227814157934758 -0.0022010469420946444 0 -0.034043323006424625 -0.003737087864663612 0 -0.030559175731917548 -0.004600841732248292 0 -0.032878779902482239 -0.00048617392907083937 0 -0.027515262598882574 -0.0038288282521346875 0 -0.026700172396184271 -0.0015713899221048138 0 -0.028145242126214071 -0.0023016546415070955 0 -0.031758407547213797 -0.007903556225593451 0 -0.034043323006424625 -0.003737087864663612 0 -0.030559175731917548 -0.004600841732248292 0 -0.036264854352701492 0.0020117746803402893 0 -0.037212733038761589 -0.00071185821398134859 0 -0.038530788145200383 0.0016639748257367261 0 -0.037214248585353889 -0.0043960116692751093 0 -0.031951736418460969 0.0016559868322615124 0 -0.040796138747399853 0.0013126231944756465 0 -0.037214248585353889 -0.0043960116692751093 0 -0.030227814157934758 -0.0022010469420946444 0 -0.031951736418460969 0.0016559868322615124 0 -0.025903867642192054 0.00067128110325222006 0 -0.02734011533469393 0.0032355863148632821 0 -0.028795180306011848 -0.0008365643018038119 0 -0.026700172396184271 -0.0015713899221048138 0 -0.025903867642192054 0.00067128110325222006 0 -0.028795180306011848 -0.0008365643018038119 0 -0.030310535535216794 0.0060976537901155743 0 -0.030680367825572371 0.0049820209846773997 0 -0.031165967915838887 0.0059188256557391279 0 -0.031951736418460969 0.0016559868322615124 0 -0.02890921641759114 0.0044688917946773049 0 -0.037627105176204143 0.0041563122346070184 0 -0.036264854352701492 0.0020117746803402893 0 -0.038530788145200383 0.0016639748257367261 0 -0.034181060276052173 0.0053119905253899554 0 -0.031951736418460969 0.0016559868322615124 0 -0.026680007080593225 0.0049914885532360079 0 -0.026236246103401861 0.002364587107267925 0 -0.022746909022896545 0.0057240431921810669 0 -0.022715246514972788 0.0030239672001261941 0 -0.024585465321273075 0.004057341220897597 0 -0.030115926268281031 0.0046665063149123427 0 -0.02734011533469393 0.0032355863148632821 0 -0.030112078348178351 0.0010157562774629201 0 -0.02734011533469393 0.0032355863148632821 0 -0.028795180306011848 -0.0008365643018038119 0 -0.030112078348178351 0.0010157562774629201 0 -0.028795180306011848 -0.0008365643018038119 0 -0.030112078348178351 0.0010157562774629201 0 -0.030079981708411908 -0.0026962123754091282 0 -0.026236246103401861 0.002364587107267925 0 -0.027714274954127652 -0.0026209743182678095 0 -0.022715246514972788 0.0030239672001261941 0 -0.024169105933623411 0.0026004130743163159 0 -0.024585465321273075 0.004057341220897597 0 -0.022715246514972788 0.0030239672001261941 0 -0.024071264259544908 0.0010992665523936673 0 -0.024169105933623411 0.0026004130743163159 0 -0.022715246514972788 0.0030239672001261941 0 -0.024071264259544908 0.0010992665523936673 0 -0.02270909803948485 0.00035735490894192649 0 -0.029831888037834018 -0.0084145859574026594 0 -0.029390772258563062 -0.0077203423612767713 0 -0.02843510673273841 -0.0031686052564547352 0 -0.028445966778805832 -0.0027495992397893907 0 -0.02621718642074267 -0.0033010598982108844 0 -0.030063478714367421 -0.002713986548339519 0 -0.030064385324370283 -0.0031271965827284936 0 -0.029568846797108684 -0.0029694529744485874 0 -0.027714274954127652 -0.0026209743182678095 0 -0.029831888037834018 -0.0084145859574026594 0 -0.025406477594858545 -0.0013406989768883406 0 -0.027714274954127652 -0.0026209743182678095 0 -0.026459410554974475 -0.004144469106910892 0 -0.02843510673273841 -0.0031686052564547352 0 -0.02621718642074267 -0.0033010598982108844 0 -0.026700172396184271 -0.0015713899221048138 0 -0.028795180306011848 -0.0008365643018038119 0 -0.028145242126214071 -0.0023016546415070955 0 -0.028795180306011848 -0.0008365643018038119 0 -0.030079981708411908 -0.0026962123754091282 0 -0.029568846797108684 -0.0029694529744485874 0 -0.028795180306011848 -0.0008365643018038119 0 -0.029568846797108684 -0.0029694529744485874 0 -0.028145242126214071 -0.0023016546415070955 0 -0.027714274954127652 -0.0026209743182678095 0 -0.028481851274867995 -0.0024195057773555703 0 -0.027515262598882574 -0.0038288282521346875 0 -0.029568846797108684 -0.0029694529744485874 0 -0.028145242126214071 -0.0023016546415070955 0 -0.032455081660333611 -0.013499966019821825 0 -0.032543450179272265 -0.013226363584195641 0 -0.032463992256335159 -0.013379660098434687 0 -0.032329414533890238 -0.013272932972065126 0 -0.032543450179272265 -0.013226363584195641 0 -0.032463992256335159 -0.013379660098434687 0 -0.027515262598882574 -0.0038288282521346875 0 -0.030064385324370283 -0.0031271965827284936 0 -0.029568846797108684 -0.0029694529744485874 0 -0.032987715756201998 -0.015018836716249652 0 -0.031583728715093656 -0.0090668380255547274 0 -0.031583728715093656 -0.0090668380255547274 0 -0.029831888037834018 -0.0084145859574026594 0 -0.032481726032411624 -0.013498073107507278 0 -0.032329414533890238 -0.013272932972065126 0 -0.032463992256335159 -0.013379660098434687 0 -0.03185077155551292 -0.01270937812488469 0 -0.031830588984878908 -0.012429599717933006 0 -0.031900662130795072 -0.012499578575691946 0 -0.031830588984878908 -0.012429599717933006 0 -0.031900662130795072 -0.012499578575691946 0 -0.031752467911761784 -0.012526292254024551 0 -0.032400697077155885 -0.014075296731195126 0 -0.029831888037834018 -0.0084145859574026594 0 -0.034973584493323877 -0.014008956582251458 0 -0.024395684894115512 -0.0064637300663704187 0 -0.032218610767048933 -0.012702222942292658 0 -0.031900662130795072 -0.012499578575691946 0 -0.032272644659081799 -0.012445558379662011 0 -0.031900662130795072 -0.012499578575691946 0 -0.031368870709797207 -0.012298202509197343 0 -0.031752467911761784 -0.012526292254024551 0 -0.024395684894115512 -0.0064637300663704187 0 -0.024445983405574415 -0.0051427834646073931 0 -0.017398384511519545 0.00092536275741106897 0 -0.016905632127486588 4.4913726136958202e-06 0 -0.017982218121986596 -0.00056557233879358593 0 -0.016905632127486588 4.4913726136958202e-06 0 -0.017982218121986596 -0.00056557233879358593 0 -0.017500909319118386 -0.00067189382553953529 0 -0.016905632127486588 4.4913726136958202e-06 0 -0.016785396768570705 -0.0008098466954901502 0 -0.017500909319118386 -0.00067189382553953529 0 -0.016785396768570705 -0.0008098466954901502 0 -0.017149434436131584 -0.0010856034003414261 0 -0.016787851956650963 -0.0015390751098286067 0 -0.016785396768570705 -0.0008098466954901502 0 -0.017149434436131584 -0.0010856034003414261 0 -0.017500909319118386 -0.00067189382553953529 0 -0.017977601883115712 -0.00054512932602482106 0 -0.017601150485597013 -0.0010949382800889663 0 -0.018320044330982551 -0.0014088487337991485 0 -0.024445983405574415 -0.0051427834646073931 0 -0.020983638174240218 -0.004710635978251952 0 -0.017977601883115712 -0.00054512932602482106 0 -0.017500909319118386 -0.00067189382553953529 0 -0.017601150485597013 -0.0010949382800889663 0 -0.017149434436131584 -0.0010856034003414261 0 -0.017500909319118386 -0.00067189382553953529 0 -0.017601150485597013 -0.0010949382800889663 0 -0.024445983405574415 -0.0051427834646073931 0 -0.029390772258563062 -0.0077203423612767713 0 -0.031368870709797207 -0.012298202509197343 0 -0.031451715734233027 -0.012545623868026703 0 -0.031752467911761784 -0.012526292254024551 0 -0.024006236799058417 -0.0038646856559080883 0 -0.025255512364153444 -0.0041179132474153789 0 -0.024495213198283197 -0.0051177513974565705 0 -0.024006236799058417 -0.0038646856559080883 0 -0.025255512364153444 -0.0041179132474153789 0 -0.02621718642074267 -0.0033010598982108844 0 -0.024445983405574415 -0.0051427834646073931 0 -0.020364584580494782 0.0012918341159617929 0 -0.026459410554974475 -0.004144469106910892 0 -0.025255512364153444 -0.0041179132474153789 0 -0.02621718642074267 -0.0033010598982108844 0 -0.026459410554974475 -0.004144469106910892 0 -0.025255512364153444 -0.0041179132474153789 0 -0.024495213198283197 -0.0051177513974565705 0 -0.025406477594858545 -0.0013406989768883406 0 -0.020364584580494782 0.0012918341159617929 0 -0.015029867102782594 0.00020696468182281334 0 -0.013549709317669077 0.0006292957670853284 0 -0.014488175486228176 -0.001157091534245936 0 -0.013549709317669077 0.0006292957670853284 0 -0.014488175486228176 -0.001157091534245936 0 -0.012403948596261248 2.7773696675004449e-06 0 -0.024395684894115512 -0.0064637300663704187 0 -0.01310095150938702 0.0004080853396186111 0 -0.017398384511519545 0.00092536275741106897 0 -0.016905632127486588 4.4913726136958202e-06 0 -0.014708466756575046 0.00052719589406010801 0 -0.015029867102782594 0.00020696468182281334 0 -0.016941177517395028 -0.00091618847144978391 0 -0.014488175486228176 -0.001157091534245936 0 -0.016905632127486588 4.4913726136958202e-06 0 -0.014708466756575046 0.00052719589406010801 0 -0.015761141523078281 -0.00092219829294807535 0 -0.016905632127486588 4.4913726136958202e-06 0 -0.016785396768570705 -0.0008098466954901502 0 -0.015761141523078281 -0.00092219829294807535 0 -0.016785396768570705 -0.0008098466954901502 0 -0.015761141523078281 -0.00092219829294807535 0 -0.016787851956650963 -0.0015390751098286067 0 -0.014708466756575046 0.00052719589406010801 0 -0.015761141523078281 -0.00092219829294807535 0 -0.01410879434326308 -0.00087410207040098309 0 -0.014708466756575046 0.00052719589406010801 0 -0.01410879434326308 -0.00087410207040098309 0 -0.012202687886185563 2.8689338016750914e-05 0 -0.015761141523078281 -0.00092219829294807535 0 -0.01410879434326308 -0.00087410207040098309 0 -0.014912341474321243 -0.0021766538037889978 0 -0.014912341474321243 -0.0021766538037889978 0 -0.013957364857052562 -0.0033268658733457113 0 -0.013061151197621109 -0.001848747497082266 0 -0.01410879434326308 -0.00087410207040098309 0 -0.014912341474321243 -0.0021766538037889978 0 -0.013061151197621109 -0.001848747497082266 0 -0.014912341474321243 -0.0021766538037889978 0 -0.015896257435330147 -0.0017705462941532493 0 -0.016131084270816609 -0.002445403870383194 0 -0.015761141523078281 -0.00092219829294807535 0 -0.014912341474321243 -0.0021766538037889978 0 -0.015896257435330147 -0.0017705462941532493 0 -0.015896257435330147 -0.0017705462941532493 0 -0.016131084270816609 -0.002445403870383194 0 -0.016787851956650963 -0.0015390751098286067 0 -0.015761141523078281 -0.00092219829294807535 0 -0.015896257435330147 -0.0017705462941532493 0 -0.016787851956650963 -0.0015390751098286067 0 -0.015793839085362391 0.007009465115215413 0 -0.015818989201963361 0.0070709553863685364 0 -0.015647587335903056 0.006694582650010353 0 -0.015469545900049763 0.0026220837167465197 0 -0.014888896412507721 -0.0011111602155289384 0 -0.014912341474321243 -0.0021766538037889978 0 -0.016131084270816609 -0.002445403870383194 0 -0.014001363223145944 -0.0034562130738922119 0 -0.015793839085362391 0.007009465115215413 0 -0.015341872104859034 0.0068707913474212404 0 -0.015647587335903056 0.006694582650010353 0 -0.014345703108667682 -0.0029336938369704932 0 -0.014888896412507721 -0.0011111602155289384 0 -0.020364584580494782 0.0012918341159617929 0 -0.019863060040599942 0.0061348415467610082 0 -0.024169105933623411 0.0026004130743163159 0 -0.02542903993522112 0.0018316343658761408 0 -0.024585465321273075 0.004057341220897597 0 -0.024071264259544908 0.0010992665523936673 0 -0.024169105933623411 0.0026004130743163159 0 -0.02542903993522112 0.0018316343658761408 0 -0.017601150485597013 -0.0010949382800889663 0 -0.018320044330982551 -0.0014088487337991485 0 -0.016787851956650963 -0.0015390751098286067 0 -0.015469545900049763 0.0026220837167465197 0 -0.020364584580494782 0.0012918341159617929 0 -0.016131084270816609 -0.002445403870383194 0 -0.018320044330982551 -0.0014088487337991485 0 -0.016787851956650963 -0.0015390751098286067 0 -0.015793839085362391 0.007009465115215413 0 -0.015670037643513497 0.0066208258305228886 0 -0.015818989201963361 0.0070709553863685364 0 -0.017149434436131584 -0.0010856034003414261 0 -0.017601150485597013 -0.0010949382800889663 0 -0.016787851956650963 -0.0015390751098286067 0 -0.015812786902630833 0.0072479099585396169 0 -0.016632312319984594 0.0067253151148686952 0 -0.015670037643513497 0.0066208258305228886 0 -0.015818989201963361 0.0070709553863685364 0 -0.015195748858071664 0.0071850013514332721 0 -0.015818989201963361 0.0070709553863685364 0 -0.015195748858071664 0.0071850013514332721 0 -0.015516797587774108 0.0077412114368045825 0 -0.018555186755840104 0.0075422068411554058 0 -0.019863060040599942 0.0061348415467610082 0 -0.014604788532529498 0.0084685620638024484 0 -0.015516797587774108 0.0077412114368045825 0 -0.015925504909840033 0.0084195455541180644 0 -0.014604788532529498 0.0084685620638024484 0 -0.015195748858071664 0.0071850013514332721 0 -0.015516797587774108 0.0077412114368045825 0 -0.014604788532529498 0.0084685620638024484 0 -0.015355833356875473 0.0092919526786688668 0 -0.015925504909840033 0.0084195455541180644 0 -0.014604788532529498 0.0084685620638024484 0 -0.014743338512936129 0.0099331812737621893 0 -0.015355833356875473 0.0092919526786688668 0 -0.016078480532047777 0.0094704091637361713 0 -0.015925504909840033 0.0084195455541180644 0 -0.016707698729488581 0.0088792902927232308 0 -0.015355833356875473 0.0092919526786688668 0 -0.016078480532047777 0.0094704091637361713 0 -0.015925504909840033 0.0084195455541180644 0 -0.015818989201963361 0.0070709553863685364 0 -0.015925504909840033 0.0084195455541180644 0 -0.017126137565980401 0.0080853346122623862 0 -0.015818989201963361 0.0070709553863685364 0 -0.015516797587774108 0.0077412114368045825 0 -0.015925504909840033 0.0084195455541180644 0 -0.015925504909840033 0.0084195455541180644 0 -0.017126137565980401 0.0080853346122623862 0 -0.016707698729488581 0.0088792902927232308 0 -0.016632312319984594 0.0067253151148686952 0 -0.013929896299497372 0.012760420572455543 0 -0.015647587335903056 0.006694582650010353 0 -0.015333442332990228 0.0066244932976300269 0 -0.015187510607015155 0.006355680013769985 0 -0.015341872104859034 0.0068707913474212404 0 -0.015333442332990228 0.0066244932976300269 0 -0.014957791901083435 0.0064707415450536779 0 -0.015341872104859034 0.0068707913474212404 0 -0.015647587335903056 0.006694582650010353 0 -0.015333442332990228 0.0066244932976300269 0 -0.015349943383025751 0.017126750433277913 0 -0.013929896299497372 0.012760420572455543 0 -0.017304097868929579 0.0089033129910158909 0 -0.017137339328712881 0.0096946647872622003 0 -0.018263877195076227 0.0090455825680912233 0 -0.012599245771679587 0.024199397985175734 0 -0.013462546703941562 0.023651889838351894 0 -0.012423801036833475 0.024355841551785697 0 -0.017126137565980401 0.0080853346122623862 0 -0.017304097868929579 0.0089033129910158909 0 -0.018263877195076227 0.0090455825680912233 0 -0.012599245771679587 0.024199397985175734 0 -0.012546261282457533 0.024380264360605114 0 -0.012423801036833475 0.024355841551785697 0 -0.016078480532047777 0.0094704091637361713 0 -0.016707698729488581 0.0088792902927232308 0 -0.017137339328712881 0.0096946647872622003 0 -0.017126137565980401 0.0080853346122623862 0 -0.016707698729488581 0.0088792902927232308 0 -0.017304097868929579 0.0089033129910158909 0 -0.016707698729488581 0.0088792902927232308 0 -0.017304097868929579 0.0089033129910158909 0 -0.017137339328712881 0.0096946647872622003 0 -0.01346971514806807 0.023356605302809294 0 -0.013462546703941562 0.023651889838351894 0 -0.014767887898185185 0.022896276231858175 0 -0.015349943383025751 0.017126750433277913 0 -0.015381176905317633 0.01631280548705194 0 -0.012764559719148992 0.024006643462988121 0 -0.013022662289054651 0.023304858447315908 0 -0.012136927413119407 0.024488782346734846 0 -0.012180844697520782 0.024772515766799209 0 -0.011870522637655362 0.025105471105946204 0 -0.012136927413119407 0.024488782346734846 0 -0.012180844697520782 0.024772515766799209 0 -0.012346462070761625 0.02462539664106788 0 -0.012599245771679587 0.024199397985175734 0 -0.01346971514806807 0.023356605302809294 0 -0.013462546703941562 0.023651889838351894 0 -0.012630217922335906 0.024139813146796019 0 -0.012764559719148992 0.024006643462988121 0 -0.012599245771679587 0.024199397985175734 0 -0.012136927413119407 0.024488782346734846 0 -0.01244379807778569 0.024455133545053898 0 -0.01244379807778569 0.024455133545053898 0 -0.012467600491529713 0.02457937111609269 0 -0.012546261282457533 0.024380264360605114 0 -0.012599245771679587 0.024199397985175734 0 -0.01244379807778569 0.024455133545053898 0 -0.012546261282457533 0.024380264360605114 0 -0.012180844697520782 0.024772515766799209 0 -0.012346462070761625 0.02462539664106788 0 -0.012385366928770385 0.024759524147227197 0 -0.012136927413119407 0.024488782346734846 0 -0.01244379807778569 0.024455133545053898 0 -0.012346462070761625 0.02462539664106788 0 -0.012346462070761625 0.02462539664106788 0 -0.012467600491529713 0.02457937111609269 0 -0.012385366928770385 0.024759524147227197 0 -0.01244379807778569 0.024455133545053898 0 -0.012346462070761625 0.02462539664106788 0 -0.012467600491529713 0.02457937111609269 0 -0.012467600491529713 0.02457937111609269 0 -0.012385366928770385 0.024759524147227197 0 -0.012512007668876415 0.024738495444606799 0 -0.012347530965869003 0.025080962907162888 0 -0.012613391802721099 0.024680442981196038 0 -0.012180844697520782 0.024772515766799209 0 -0.012385366928770385 0.024759524147227197 0 -0.012406428882400379 0.02503950816551162 0 -0.012385366928770385 0.024759524147227197 0 -0.012512007668876415 0.024738495444606799 0 -0.012406428882400379 0.02503950816551162 0 -0.012180844697520782 0.024772515766799209 0 -0.012283559013923738 0.025433432281696627 0 -0.013171667168066187 0.025834431059334622 0 -0.012136927413119407 0.024488782346734846 0 -0.011870522637655362 0.025105471105946204 0 -0.011387538003596693 0.025124996904962858 0 -0.012180844697520782 0.024772515766799209 0 -0.011870522637655362 0.025105471105946204 0 -0.012283559013923738 0.025433432281696627 0 -0.012283559013923738 0.025433432281696627 0 -0.011901576565976036 0.025580344068246191 0 -0.01236009492328945 0.025886422926559242 0 -0.011870522637655362 0.025105471105946204 0 -0.011901576565976036 0.025580344068246191 0 -0.011487136942875812 0.025618085159219602 0 -0.011870522637655362 0.025105471105946204 0 -0.012283559013923738 0.025433432281696627 0 -0.011901576565976036 0.025580344068246191 0 -0.013022662289054651 0.023304858447315908 0 -0.014940115300496347 0.028967363572097282 0 -0.011870522637655362 0.025105471105946204 0 -0.011487136942875812 0.025618085159219602 0 -0.011387538003596693 0.025124996904962858 0 -0.011487136942875812 0.025618085159219602 0 -0.011387538003596693 0.025124996904962858 0 -0.01060642561521484 0.025821817982816631 0 -0.014835491833555051 0.01111051892272571 0 -0.015348997140937697 0.010236224512222168 0 -0.015996195515290947 0.010386805808168741 0 -0.016140200415279859 0.019316132209431146 0 -0.015381176905317633 0.01631280548705194 0 -0.014562342318757309 0.022505418917863843 0 -0.015945670562455005 0.022244468879182872 0 -0.014767887898185185 0.022896276231858175 0 -0.014562342318757309 0.022505418917863843 0 -0.015945670562455005 0.022244468879182872 0 -0.015544808620973835 0.021784319486872854 0 -0.016140200415279859 0.019316132209431146 0 -0.015895133620119909 0.028917245691093357 0 -0.014782857894502554 0.010614925693747003 0 -0.014835491833555051 0.01111051892272571 0 -0.015348997140937697 0.010236224512222168 0 -0.014743338512936129 0.0099331812737621893 0 -0.015355833356875473 0.0092919526786688668 0 -0.015348997140937697 0.010236224512222168 0 -0.015355833356875473 0.0092919526786688668 0 -0.016078480532047777 0.0094704091637361713 0 -0.015348997140937697 0.010236224512222168 0 -0.014743338512936129 0.0099331812737621893 0 -0.014782857894502554 0.010614925693747003 0 -0.015348997140937697 0.010236224512222168 0 -0.016078480532047777 0.0094704091637361713 0 -0.017137339328712881 0.0096946647872622003 0 -0.015996195515290947 0.010386805808168741 0 -0.01346971514806807 0.023356605302809294 0 -0.014562342318757309 0.022505418917863843 0 -0.014767887898185185 0.022896276231858175 0 -0.016078480532047777 0.0094704091637361713 0 -0.015348997140937697 0.010236224512222168 0 -0.015996195515290947 0.010386805808168741 0 -0.0067983771814303798 0.01644641471497638 0 -0.004251271175547626 0.016924822000655329 0 -0.0057185338964898733 0.013865266009980335 0 -0.0067983771814303798 0.01644641471497638 0 -0.0071369887709825828 0.018939396435336629 0 -0.004251271175547626 0.016924822000655329 0 -0.0067983771814303798 0.01644641471497638 0 -0.0087701263365402241 0.015835437936673462 0 -0.009240995688947623 0.017967339981679591 0 -0.0067983771814303798 0.01644641471497638 0 -0.0087701263365402241 0.015835437936673462 0 -0.0077175452782395669 0.013948063034815496 0 -0.0071369887709825828 0.018939396435336629 0 -0.009240995688947623 0.017967339981679591 0 -0.0094443911617964095 0.02058096408449105 0 -0.0067983771814303798 0.01644641471497638 0 -0.0071369887709825828 0.018939396435336629 0 -0.009240995688947623 0.017967339981679591 0 -0.013222365425408394 0.024940882352981853 0 -0.013040610858226932 0.025012485644365656 0 -0.012910292229474589 0.024614649326530225 0 -0.0099474196380314357 0.021843467231974834 0 -0.0099069439321287905 0.019089199378796107 0 -0.013040610858226932 0.025012485644365656 0 -0.012801373664704985 0.024871658828387502 0 -0.012910292229474589 0.024614649326530225 0 -0.012801373664704985 0.024871658828387502 0 -0.012637899436736924 0.024618360896935924 0 -0.012910292229474589 0.024614649326530225 0 -0.013040610858226932 0.025012485644365656 0 -0.012801373664704985 0.024871658828387502 0 -0.012875202400285345 0.025090300526197186 0 -0.012599818454316918 0.024863067767001215 0 -0.012512007668876415 0.024738495444606799 0 -0.012406428882400379 0.02503950816551162 0 -0.012801373664704985 0.024871658828387502 0 -0.012599818454316918 0.024863067767001215 0 -0.012696288878400618 0.025104682173426644 0 -0.012801373664704985 0.024871658828387502 0 -0.012599818454316918 0.024863067767001215 0 -0.012637899436736924 0.024618360896935924 0 -0.012599818454316918 0.024863067767001215 0 -0.012512007668876415 0.024738495444606799 0 -0.012637899436736924 0.024618360896935924 0 -0.012467600491529713 0.02457937111609269 0 -0.012637899436736924 0.024618360896935924 0 -0.012546261282457533 0.024380264360605114 0 -0.012467600491529713 0.02457937111609269 0 -0.012512007668876415 0.024738495444606799 0 -0.012637899436736924 0.024618360896935924 0 -0.012637899436736924 0.024618360896935924 0 -0.012690283490822383 0.024393209807431884 0 -0.012546261282457533 0.024380264360605114 0 -0.012637899436736924 0.024618360896935924 0 -0.012690283490822383 0.024393209807431884 0 -0.012910292229474589 0.024614649326530225 0 -0.004251271175547626 0.016924822000655329 0 -0.0027625707436044304 0.014728974949217153 0 -0.0057185338964898733 0.013865266009980335 0 -0.010915354350170523 0.015484096986055311 0 -0.012411627785241948 0.01668434775407307 0 -0.011467136152679816 0.015165330773764281 0 -0.012404132054263873 0.020460833146354447 0 -0.0099069439321287905 0.019089199378796107 0 -0.0099069439321287905 0.019089199378796107 0 -0.0071995008947722088 0.014797070565062298 0 -0.0027625707436044304 0.014728974949217153 0 -0.0045364698844074141 0.010626765317728819 0 -0.0057185338964898733 0.013865266009980335 0 -0.0027625707436044304 0.014728974949217153 0 -0.0013256881213774662 0.012516536976966452 0 -0.0045364698844074141 0.010626765317728819 0 -0.010915354350170523 0.015484096986055311 0 -0.010503944109746165 0.013675503869683581 0 -0.0094143614504295613 0.01430717813773065 0 -0.010915354350170523 0.015484096986055311 0 -0.011467136152679816 0.015165330773764281 0 -0.010503944109746165 0.013675503869683581 0 -0.015333442332990228 0.0066244932976300269 0 -0.014957791901083435 0.0064707415450536779 0 -0.015187510607015155 0.006355680013769985 0 -0.012404132054263873 0.020460833146354447 0 -0.013929896299497372 0.012760420572455543 0 -0.012690283490822383 0.024393209807431884 0 -0.012546261282457533 0.024380264360605114 0 -0.012423801036833475 0.024355841551785697 0 -0.0071995008947722088 0.014797070565062298 0 -0.010021991552206381 0.0075079705288980539 0 -0.010021991552206381 0.0075079705288980539 0 -0.013929896299497372 0.012760420572455543 0 -0.014888896412507721 -0.0011111602155289384 0 -0.010021991552206381 0.0075079705288980539 0 -0.013789072597643916 -0.0031594709214541462 0 -0.012497149452684318 -0.0049783119029423867 0 -0.012414014766279343 -0.0039103070648169582 0 -0.010021991552206381 0.0075079705288980539 0 -0.0072214490101110019 0.0030106340974943792 0 -0.012497149452684318 -0.0049783119029423867 0 -0.012414014766279343 -0.0039103070648169582 0 -0.010823424840500553 -0.004136085302006892 0 -0.0045364698844074141 0.010626765317728819 0 -0.0057185338964898733 0.013865266009980335 0 -0.0074139080070042915 0.011202511605997384 0 -0.0045364698844074141 0.010626765317728819 0 -0.0074139080070042915 0.011202511605997384 0 -0.0078789124380530904 0.0086179526512643791 0 -0.0067983771814303798 0.01644641471497638 0 -0.0057185338964898733 0.013865266009980335 0 -0.0084210551446937051 0.013261394830306292 0 -0.0087701263365402241 0.015835437936673462 0 -0.0077175452782395669 0.013948063034815496 0 -0.009878069161855553 0.014216380504825536 0 -0.0057185338964898733 0.013865266009980335 0 -0.0084210551446937051 0.013261394830306292 0 -0.0074139080070042915 0.011202511605997384 0 -0.0068999165400175982 0.016220849961494133 0 -0.0080748023684678906 0.013524601031994793 0 -0.0080748023684678906 0.013524601031994793 0 -0.0094483564803140695 0.011147808933836292 0 -0.0077175452782395669 0.013948063034815496 0 -0.0095157538216045501 0.012789635196608466 0 -0.0087969985230245823 0.011117156836378057 0 -0.0084210551446937051 0.013261394830306292 0 -0.0074139080070042915 0.011202511605997384 0 -0.0099020546577406644 0.010025066323033415 0 -0.0074139080070042915 0.011202511605997384 0 -0.0078789124380530904 0.0086179526512643791 0 -0.0099020546577406644 0.010025066323033415 0 -0.0078789124380530904 0.0086179526512643791 0 -0.011297518053309823 0.0066070874411286824 0 -0.0099020546577406644 0.010025066323033415 0 -0.0090149759130777555 0.002459621230208564 0 -0.0072789893842991693 0.0031715028747961137 0 -0.010823424840500553 -0.004136085302006892 0 -0.0091378508928614231 -0.0032507545646221544 0 -0.010163239211748743 -0.0023867343272006335 0 -0.0072214490101110019 0.0030106340974943792 0 -0.0090149759130777555 0.002459621230208564 0 -0.010163239211748743 -0.0023867343272006335 0 -0.011576340195370984 -0.0017843772976442883 0 -0.0098896714609812107 -0.0005125534787865433 0 -0.010163239211748743 -0.0023867343272006335 0 -0.0086481705370156751 -0.0019168808838297159 0 -0.0098896714609812107 -0.0005125534787865433 0 -0.0091378508928614231 -0.0032507545646221544 0 -0.010163239211748743 -0.0023867343272006335 0 -0.0086481705370156751 -0.0019168808838297159 0 -0.0091378508928614231 -0.0032507545646221544 0 -0.0086481705370156751 -0.0019168808838297159 0 -0.0075919691847922193 -0.0024009843209683831 0 -0.013957364857052562 -0.0033268658733457113 0 -0.012414014766279343 -0.0039103070648169582 0 -0.012806832948998981 -0.0029471201448122292 0 -0.014888896412507721 -0.0011111602155289384 0 -0.012013004575862202 -0.0042508771827390107 0 -0.013957364857052562 -0.0033268658733457113 0 -0.012806832948998981 -0.0029471201448122292 0 -0.013061151197621109 -0.001848747497082266 0 -0.012414014766279343 -0.0039103070648169582 0 -0.012806832948998981 -0.0029471201448122292 0 -0.011509613258609398 -0.0030136417004900237 0 -0.012414014766279343 -0.0039103070648169582 0 -0.010823424840500553 -0.004136085302006892 0 -0.011509613258609398 -0.0030136417004900237 0 -0.010823424840500553 -0.004136085302006892 0 -0.010163239211748743 -0.0023867343272006335 0 -0.011509613258609398 -0.0030136417004900237 0 -0.012806832948998981 -0.0029471201448122292 0 -0.011509613258609398 -0.0030136417004900237 0 -0.011576340195370984 -0.0017843772976442883 0 -0.010163239211748743 -0.0023867343272006335 0 -0.011509613258609398 -0.0030136417004900237 0 -0.011576340195370984 -0.0017843772976442883 0 -0.012806832948998981 -0.0029471201448122292 0 -0.011576340195370984 -0.0017843772976442883 0 -0.013061151197621109 -0.001848747497082266 0 -0.011576340195370984 -0.0017843772976442883 0 -0.013061151197621109 -0.001848747497082266 0 -0.012202687886185563 2.8689338016750914e-05 0 -0.01410879434326308 -0.00087410207040098309 0 -0.013061151197621109 -0.001848747497082266 0 -0.012202687886185563 2.8689338016750914e-05 0 -0.012520374192970866 -0.00070809183340832 0 -0.0098017273478438593 -0.00094327198719456706 0 -0.011576340195370984 -0.0017843772976442883 0 -0.012202687886185563 2.8689338016750914e-05 0 -0.0098896714609812107 -0.0005125534787865433 0 -0.010754138948998383 0.00028757006734423762 0 -0.0121407773893426 -0.0013121219665861927 0 -0.012403948596261248 2.7773696675004449e-06 0 -0.010754138948998383 0.00028757006734423762 0 -0.0121407773893426 -0.0013121219665861927 0 -0.0098412340834385225 -0.0013862645962045702 0 -0.014488175486228176 -0.001157091534245936 0 -0.0121407773893426 -0.0013121219665861927 0 -0.012403948596261248 2.7773696675004449e-06 0 -0.01310095150938702 0.0004080853396186111 0 -0.012520374192970866 -0.00070809183340832 0 -0.0098412340834385225 -0.0013862645962045702 0 -0.0083710562868443434 -0.00062024670264569518 0 -0.0077925897936614403 -0.0012258305413439827 0 -0.0086481705370156751 -0.0019168808838297159 0 -0.0098896714609812107 -0.0005125534787865433 0 -0.0077925897936614403 -0.0012258305413439827 0 -0.0098017273478438593 -0.00094327198719456706 0 -0.0079748351665951921 -0.0012095473001255397 0 -0.010754138948998383 0.00028757006734423762 0 -0.0098412340834385225 -0.0013862645962045702 0 -0.0090886315265751479 7.9246401873060539e-05 0 -0.0081935971247737421 0.00066894337026827944 0 -0.0090886315265751479 7.9246401873060539e-05 0 -0.0077589184473436787 8.180724729133392e-05 0 -0.0098412340834385225 -0.0013862645962045702 0 -0.0090886315265751479 7.9246401873060539e-05 0 -0.0083710562868443434 -0.00062024670264569518 0 -0.0090886315265751479 7.9246401873060539e-05 0 -0.0083710562868443434 -0.00062024670264569518 0 -0.0077589184473436787 8.180724729133392e-05 0 -0.0077589184473436787 8.180724729133392e-05 0 -0.0075275883470286679 -0.00052957819356059372 0 -0.0069891856275075184 0.000364204885381163 0 -0.0083710562868443434 -0.00062024670264569518 0 -0.0077589184473436787 8.180724729133392e-05 0 -0.0075275883470286679 -0.00052957819356059372 0 -0.0077925897936614403 -0.0012258305413439827 0 -0.0067711795053517878 -0.00091468216928668829 0 -0.007767161168348205 -0.0018625132038703547 0 -0.0083710562868443434 -0.00062024670264569518 0 -0.0075275883470286679 -0.00052957819356059372 0 -0.0077925897936614403 -0.0012258305413439827 0 -0.0075275883470286679 -0.00052957819356059372 0 -0.0077925897936614403 -0.0012258305413439827 0 -0.0067711795053517878 -0.00091468216928668829 0 -0.0056944457317388781 0.00066928645768618577 0 -0.0055644835601080965 0.00071393669755116936 0 -0.0056231806120706166 0.00054231334002526846 0 -0.0057209304132143576 0.0012497057987077701 0 -0.0063208612287943425 -0.00095889557133737539 0 -0.0075275883470286679 -0.00052957819356059372 0 -0.0067711795053517878 -0.00091468216928668829 0 -0.0069891856275075184 0.000364204885381163 0 -0.0057948974031321833 0.00094839829103500429 0 -0.0056944457317388781 0.00066928645768618577 0 -0.0055644835601080965 0.00071393669755116936 0 -0.0057948974031321833 0.00094839829103500429 0 -0.0067711795053517878 -0.00091468216928668829 0 -0.0069891856275075184 0.000364204885381163 0 -0.0057948974031321833 0.00094839829103500429 0 -0.0053187511081440059 0.00086922775166106464 0 -0.0055644835601080965 0.00071393669755116936 0 -0.0053187511081440059 0.00086922775166106464 0 -0.0055644835601080965 0.00071393669755116936 0 -0.0053543517015486814 0.00061992794861165997 0 -0.0053187511081440059 0.00086922775166106464 0 -0.0050991974388299227 0.00096171514610153075 0 -0.0049354640594356765 0.0010479941467093936 0 -0.0053187511081440059 0.00086922775166106464 0 -0.0053543517015486814 0.00061992794861165997 0 -0.0049354640594356765 0.0010479941467093936 0 -0.0044106543761667366 0.0022372650588596324 0 -0.0032166804840292528 0.0017184682151130414 0 -0.0049354640594356765 0.0010479941467093936 0 -0.0044423612936857412 0.0011344592708366532 0 -0.0048037101418849336 0.0010523124558520947 0 -0.0044106543761667366 0.0022372650588596324 0 -0.0032166804840292528 0.0017184682151130414 0 -0.002754616924463515 0.0029660001492578959 0 -0.0032166804840292528 0.0017184682151130414 0 -0.002754616924463515 0.0029660001492578959 0 -0.0011262131422126672 0.0029045304599551115 0 -0.0055644835601080965 0.00071393669755116936 0 -0.0053543517015486814 0.00061992794861165997 0 -0.0056231806120706166 0.00054231334002526846 0 -0.0044423612936857412 0.0011344592708366532 0 -0.0025556317426934897 0.0019506059510311575 0 -0.002754616924463515 0.0029660001492578959 0 -0.0011262131422126672 0.0029045304599551115 0 -0.0014463711766891311 0.0042511073109951225 0 -0.0037773313510818043 0.0040737161451752466 0 -0.0016240031421114022 0.0042139725868521787 0 -0.002754616924463515 0.0029660001492578959 0 -0.0039740530910953942 0.0034820154779731417 0 -0.0014463711766891311 0.0042511073109951225 0 -0.0044106543761667366 0.0022372650588596324 0 -0.002754616924463515 0.0029660001492578959 0 -0.0039740530910953942 0.0034820154779731417 0 -0.0044106543761667366 0.0022372650588596324 0 -0.0039740530910953942 0.0034820154779731417 0 -0.0048341368967787356 0.0026047286122774659 0 -0.0040582292278580926 0.0046302934914176754 0 -0.0041301446952439116 0.0064715532344906991 0 -0.0024756874060366282 0.0064065609545050058 0 -0.0040582292278580926 0.0046302934914176754 0 -0.0041301446952439116 0.0064715532344906991 0 -0.0052439516220337519 0.0057700463652199481 0 -0.0040582292278580926 0.0046302934914176754 0 -0.0024756874060366282 0.0064065609545050058 0 -0.0014463711766891311 0.0042511073109951225 0 -0.0024756874060366282 0.0064065609545050058 0 -0.00044017286745416916 0.005709129340772447 0 -0.0014463711766891311 0.0042511073109951225 0 -0.00044017286745416916 0.005709129340772447 0 0.0012796828664408781 0.0043686546070032112 0 0.00030702725894648884 0.0077998330917296941 0 -0.0024756874060366282 0.0064065609545050058 0 -0.00044017286745416916 0.005709129340772447 0 0.00030702725894648884 0.0077998330917296941 0 -0.00044017286745416916 0.005709129340772447 0 -0.0014463711766891311 0.0042511073109951225 0 -9.0583354055404417e-05 0.0043792604807430975 0 -0.00044017286745416916 0.005709129340772447 0 0.0012796828664408781 0.0043686546070032112 0 -9.0583354055404417e-05 0.0043792604807430975 0 -0.0072789893842991693 0.0031715028747961137 0 -0.0094483564803140695 0.011147808933836292 0 -0.01002059041665344 0.0080646283076985445 0 -0.0087969985230245823 0.011117156836378057 0 -0.011139536538768455 0.01213208282859869 0 -0.0072789893842991693 0.0031715028747961137 0 -0.0052093224028623552 0.0096312985002936502 0 -0.0063208612287943425 -0.00095889557133737539 0 -0.0072789893842991693 0.0031715028747961137 0 -0.0067711795053517878 -0.00091468216928668829 0 -0.0076543859796139261 -0.0023180896255193218 0 -0.007767161168348205 -0.0018625132038703547 0 -0.0072789893842991693 0.0031715028747961137 0 -0.0068183807119690954 -0.0016453386736358325 0 -0.0086481705370156751 -0.0019168808838297159 0 -0.0075919691847922193 -0.0024009843209683831 0 -0.007767161168348205 -0.0018625132038703547 0 -0.0086481705370156751 -0.0019168808838297159 0 -0.0077925897936614403 -0.0012258305413439827 0 -0.007767161168348205 -0.0018625132038703547 0 0.0012796828664408781 0.0043686546070032112 0 -0.0011262131422126672 0.0029045304599551115 0 -9.0583354055404417e-05 0.0043792604807430975 0 -0.0056944457317388781 0.00066928645768618577 0 -0.0057920186365202405 0.00048593054207265551 0 -0.0056231806120706166 0.00054231334002526846 0 -0.0072789893842991693 0.0031715028747961137 0 -0.0025556317426934897 0.0019506059510311575 0 -0.0011262131422126672 0.0029045304599551115 0 -0.0014463711766891311 0.0042511073109951225 0 -9.0583354055404417e-05 0.0043792604807430975 0 -0.0073672166601211472 0.0020383845087543376 0 -0.0071465279634151477 0.0014145024460569819 0 -0.0066139724825426951 0.0018066216360593627 0 -0.0071465279634151477 0.0014145024460569819 0 -0.0066711055616016065 0.0012362049924417142 0 -0.0066139724825426951 0.0018066216360593627 0 -0.0074682843651178218 0.00054585852058111834 0 -0.0071465279634151477 0.0014145024460569819 0 -0.0066711055616016065 0.0012362049924417142 0 -0.0074914812717286694 0.00049112012073887913 0 -0.0065534021530711207 3.1356432891459809e-05 0 -0.007164381936815868 -0.00052446136070428561 0 -0.0074682843651178218 0.00054585852058111834 0 -0.0066829496965284362 -0.00070462408257871269 0 -0.0074682843651178218 0.00054585852058111834 0 -0.0066711055616016065 0.0012362049924417142 0 -0.0062773972496167688 0.0007098954806735294 0 -0.0066711055616016065 0.0012362049924417142 0 -0.0062773972496167688 0.0007098954806735294 0 -0.0060609761975269219 0.0015665294713252389 0 -0.0066711055616016065 0.0012362049924417142 0 -0.0066139724825426951 0.0018066216360593627 0 -0.0060609761975269219 0.0015665294713252389 0 -0.0066139724825426951 0.0018066216360593627 0 -0.0062285751797259443 0.0020475258454619749 0 -0.0060609761975269219 0.0015665294713252389 0 -0.0060609761975269219 0.0015665294713252389 0 -0.0055567089871601935 0.0011686200886675822 0 -0.0053702695755695334 0.0019817557348510745 0 -0.0060609761975269219 0.0015665294713252389 0 -0.0053702695755695334 0.0019817557348510745 0 -0.005908524950826108 0.0022159585773636093 0 -0.0062285751797259443 0.0020475258454619749 0 -0.0060609761975269219 0.0015665294713252389 0 -0.005908524950826108 0.0022159585773636093 0 -0.0062773972496167688 0.0007098954806735294 0 -0.0060609761975269219 0.0015665294713252389 0 -0.0055567089871601935 0.0011686200886675822 0 -0.00525809563237996 0.00073513049813760838 0 -0.0062773972496167688 0.0007098954806735294 0 -0.0055567089871601935 0.0011686200886675822 0 -0.00525809563237996 0.00073513049813760838 0 -0.0055567089871601935 0.0011686200886675822 0 -0.0049354640594356765 0.0010479941467093936 0 -0.00525809563237996 0.00073513049813760838 0 -0.0050991974388299227 0.00096171514610153075 0 -0.0049354640594356765 0.0010479941467093936 0 -0.0044106543761667366 0.0022372650588596324 0 -0.0049354640594356765 0.0010479941467093936 0 -0.0053702695755695334 0.0019817557348510745 0 -0.0055567089871601935 0.0011686200886675822 0 -0.0049354640594356765 0.0010479941467093936 0 -0.0053702695755695334 0.0019817557348510745 0 -0.0044106543761667366 0.0022372650588596324 0 -0.0053702695755695334 0.0019817557348510745 0 -0.0048341368967787356 0.0026047286122774659 0 -0.0037773313510818043 0.0040737161451752466 0 -0.006322228758704339 0.0037350362142308936 0 -0.0039740530910953942 0.0034820154779731417 0 -0.0048341368967787356 0.0026047286122774659 0 -0.0054549993659727654 0.0028254496895345543 0 -0.0040582292278580926 0.0046302934914176754 0 -0.0062118258931975348 0.0049143305115696518 0 -0.0052439516220337519 0.0057700463652199481 0 -0.0053702695755695334 0.0019817557348510745 0 -0.0048341368967787356 0.0026047286122774659 0 -0.0054549993659727654 0.0028254496895345543 0 -0.0061115442395925567 0.0058126751186007913 0 -0.0072939233197912524 0.0051966179986093859 0 -0.0055192909828157026 0.0068368206673263873 0 -0.0041301446952439116 0.0064715532344906991 0 -0.0052439516220337519 0.0057700463652199481 0 -0.0055192909828157026 0.0068368206673263873 0 -0.0052439516220337519 0.0057700463652199481 0 -0.0061115442395925567 0.0058126751186007913 0 -0.0055192909828157026 0.0068368206673263873 0 -0.0062118258931975348 0.0049143305115696518 0 -0.0052439516220337519 0.0057700463652199481 0 -0.0061115442395925567 0.0058126751186007913 0 -0.0042919028573213574 0.0097967282391470765 0 -0.0028922237491853338 0.016022122085025368 0 -0.0019301319551153723 0.022148651004723279 0 -0.0023952734324053206 0.024970369521111504 0 2.5650180743666846e-05 0.024198368889129178 0 -0.0062118258931975348 0.0049143305115696518 0 -0.0061115442395925567 0.0058126751186007913 0 -0.0071585453605626801 0.005249386515198122 0 -0.0075835022378919533 0.0053487444451546864 0 -0.0042919028573213574 0.0097967282391470765 0 -0.0054549993659727654 0.0028254496895345543 0 -0.005908524950826108 0.0022159585773636093 0 -0.0063218275071300857 0.0025669088992471699 0 -0.0062118258931975348 0.0049143305115696518 0 -0.0071585453605626801 0.005249386515198122 0 -0.0078448188209685361 0.0049665348820559516 0 -0.006322228758704339 0.0037350362142308936 0 -0.004566829617844821 0.0053729114617156676 0 -0.0053702695755695334 0.0019817557348510745 0 -0.0054549993659727654 0.0028254496895345543 0 -0.005908524950826108 0.0022159585773636093 0 -0.004566829617844821 0.0053729114617156676 0 -0.0027417938112397466 0.0064423771507532857 0 -0.0019451897907218846 0.0068129780348379458 0 -0.0027713155925590993 0.0074618822660601483 0 -0.0040511498781806597 0.0062374783820331493 0 -0.0066139724825426951 0.0018066216360593627 0 -0.0062285751797259443 0.0020475258454619749 0 -0.0063218275071300857 0.0025669088992471699 0 -0.0010143812649295292 0.0073284036266378387 0 -0.0019451897907218846 0.0068129780348379458 0 -0.0027713155925590993 0.0074618822660601483 0 -0.0062285751797259443 0.0020475258454619749 0 -0.005908524950826108 0.0022159585773636093 0 -0.0063218275071300857 0.0025669088992471699 0 -0.0042919028573213574 0.0097967282391470765 0 -0.004566829617844821 0.0053729114617156676 0 -0.0042919028573213574 0.0097967282391470765 0 -0.0032832778377969475 0.01705966925740119 0 -0.0010143812649295292 0.0073284036266378387 0 -0.0028703349545476532 0.0090964953396952437 0 -0.0027713155925590993 0.0074618822660601483 0 -0.0019301319551153723 0.022148651004723279 0 -0.0039909623145510031 0.02378731617653497 0 -0.0023952734324053206 0.024970369521111504 0 -0.0028703349545476532 0.0090964953396952437 0 -0.0027713155925590993 0.0074618822660601483 0 -0.004102906453994924 0.0076856883188543678 0 -0.0027713155925590993 0.0074618822660601483 0 -0.004102906453994924 0.0076856883188543678 0 -0.0040511498781806597 0.0062374783820331493 0 -0.0053376100575038407 0.0088063365403223508 0 -0.0028703349545476532 0.0090964953396952437 0 -0.004102906453994924 0.0076856883188543678 0 -0.0057849292934342642 0.0067374704467831155 0 -0.0048064393807352472 0.0044047431077611455 0 -0.0040511498781806597 0.0062374783820331493 0 -0.0073672166601211472 0.0020383845087543376 0 -0.0066139724825426951 0.0018066216360593627 0 -0.0063218275071300857 0.0025669088992471699 0 -0.0059960927999480312 0.0030955288312187941 0 -0.004566829617844821 0.0053729114617156676 0 -0.0057849292934342642 0.0067374704467831155 0 -0.004102906453994924 0.0076856883188543678 0 -0.0040511498781806597 0.0062374783820331493 0 -0.0048064393807352472 0.0044047431077611455 0 -0.0010933191461219652 0.0063652271482247218 0 -0.0040511498781806597 0.0062374783820331493 0 -0.006381096930849788 0.027808868733263055 0 -0.0050275675011971291 0.026513280963448436 0 -0.0034170426534151565 0.02813966368257851 0 -0.0065242858748369064 0.025890826471564984 0 -0.006381096930849788 0.027808868733263055 0 -0.0050275675011971291 0.026513280963448436 0 -0.0039909623145510031 0.02378731617653497 0 -0.0050275675011971291 0.026513280963448436 0 -0.0037127188849243186 0.026194789401722519 0 -0.0057054035945928727 0.018594050278196012 0 -0.0032832778377969475 0.01705966925740119 0 -0.0053376100575038407 0.0088063365403223508 0 -0.0052550079078731785 0.011513529900160958 0 -0.0028703349545476532 0.0090964953396952437 0 -0.0065242858748369064 0.025890826471564984 0 -0.0039909623145510031 0.02378731617653497 0 -0.0050275675011971291 0.026513280963448436 0 -0.0039909623145510031 0.02378731617653497 0 -0.0037127188849243186 0.026194789401722519 0 -0.0023952734324053206 0.024970369521111504 0 -0.0026000546069992704 0.026900224190494957 0 -0.0037127188849243186 0.026194789401722519 0 -0.0034170426534151565 0.02813966368257851 0 -0.0050275675011971291 0.026513280963448436 0 -0.0037127188849243186 0.026194789401722519 0 -0.0034170426534151565 0.02813966368257851 0 -0.0026000546069992704 0.026900224190494957 0 -0.0037127188849243186 0.026194789401722519 0 -0.0023952734324053206 0.024970369521111504 0 -0.0012599370991221517 0.026487659255919518 0 2.5650180743666846e-05 0.024198368889129178 0 0.00033760659636927797 0.027191955490152107 0 -0.0026000546069992704 0.026900224190494957 0 -0.0012599370991221517 0.026487659255919518 0 -0.0023952734324053206 0.024970369521111504 0 -0.0012599370991221517 0.026487659255919518 0 -0.0023952734324053206 0.024970369521111504 0 2.5650180743666846e-05 0.024198368889129178 0 -0.0012599370991221517 0.026487659255919518 0 0.00033760659636927797 0.027191955490152107 0 -0.0011853770134494341 0.028750735344344872 0 0.00033760659636927797 0.027191955490152107 0 -0.0011853770134494341 0.028750735344344872 0 0.0007569790303172142 0.029472621114531378 0 -0.0019227620684405934 0.030498516147393677 0 0.0015698421223329694 0.032516179528461739 0 -0.0020556461576842805 0.032542278136287489 0 0.00014802579577826995 0.034288871550957119 0 -0.0013876812741036679 0.034801637104627019 0 -0.0020556461576842805 0.032542278136287489 0 -0.0041357388096943956 0.034522328609019076 0 -0.0013876812741036679 0.034801637104627019 0 -0.0026000546069992704 0.026900224190494957 0 -0.0011853770134494341 0.028750735344344872 0 -0.0034170426534151565 0.02813966368257851 0 -0.0019227620684405934 0.030498516147393677 0 -0.004146863687341326 0.029230115303276429 0 -0.0026000546069992704 0.026900224190494957 0 -0.0012599370991221517 0.026487659255919518 0 -0.0011853770134494341 0.028750735344344872 0 -0.0020556461576842805 0.032542278136287489 0 -0.0048004557533531658 0.030411014077429563 0 -0.0053126625827069028 0.032574456705136715 0 -0.0048004557533531658 0.030411014077429563 0 -0.0053126625827069028 0.032574456705136715 0 -0.005567135091280589 0.029660934829093329 0 -0.0053126625827069028 0.032574456705136715 0 -0.0074951416766823684 0.034009651963735212 0 -0.0041357388096943956 0.034522328609019076 0 -0.0020556461576842805 0.032542278136287489 0 -0.0053126625827069028 0.032574456705136715 0 -0.0041357388096943956 0.034522328609019076 0 -0.0053126625827069028 0.032574456705136715 0 -0.0074951416766823684 0.034009651963735212 0 -0.005567135091280589 0.029660934829093329 0 -0.0062509688582461686 0.033163247065465758 0 -0.0056648752601514661 0.029993136686817863 0 -0.0064236613010836031 0.027861938365803467 0 -0.004146863687341326 0.029230115303276429 0 -0.0063891119353359531 0.029626800634292304 0 -0.0051232445801690984 0.032219369589335176 0 -0.005567135091280589 0.029660934829093329 0 -0.006381096930849788 0.027808868733263055 0 -0.0048004557533531658 0.030411014077429563 0 -0.005567135091280589 0.029660934829093329 0 -0.006381096930849788 0.027808868733263055 0 -0.0063891119353359531 0.029626800634292304 0 -0.005567135091280589 0.029660934829093329 0 -0.0052093224028623552 0.0096312985002936502 0 -0.0045307502350608294 0.018081693844934747 0 0.00030702725894648884 0.0077998330917296941 0 -0.0032446282996253023 0.0089027402541917017 0 -0.00058708966550865378 0.011062832143466936 0 -0.009878069161855553 0.014216380504825536 0 -0.011139536538768455 0.01213208282859869 0 -0.012095646145038639 0.015805896295597869 0 -0.0087701263365402241 0.015835437936673462 0 -0.009878069161855553 0.014216380504825536 0 -0.012095646145038639 0.015805896295597869 0 -0.0077175452782395669 0.013948063034815496 0 -0.009878069161855553 0.014216380504825536 0 -0.0095157538216045501 0.012789635196608466 0 -0.0095157538216045501 0.012789635196608466 0 -0.0087969985230245823 0.011117156836378057 0 -0.011139536538768455 0.01213208282859869 0 -0.009878069161855553 0.014216380504825536 0 -0.0095157538216045501 0.012789635196608466 0 -0.011139536538768455 0.01213208282859869 0 2.5650180743666846e-05 0.024198368889129178 0 0.00033760659636927797 0.027191955490152107 0 0.0017577863497474332 0.025821437845825006 0 -0.0041301446952439116 0.0064715532344906991 0 -0.0024756874060366282 0.0064065609545050058 0 -0.0032446282996253023 0.0089027402541917017 0 -0.0024756874060366282 0.0064065609545050058 0 0.00030702725894648884 0.0077998330917296941 0 -0.0032446282996253023 0.0089027402541917017 0 -0.0028922237491853338 0.016022122085025368 0 0.00040627960603863849 0.017699878202726272 0 -0.0041301446952439116 0.0064715532344906991 0 -0.0055192909828157026 0.0068368206673263873 0 -0.0032446282996253023 0.0089027402541917017 0 0.00033760659636927797 0.027191955490152107 0 0.0017577863497474332 0.025821437845825006 0 0.0018204932032809817 0.02800340727074728 0 0.00040627960603863849 0.017699878202726272 0 -0.0045307502350608294 0.018081693844934747 0 0.0018204932032809817 0.02800340727074728 0 0.0030018175620027572 0.028774123685909276 0 0.0034414910035608813 0.02720250122331265 0 0.0017577863497474332 0.025821437845825006 0 0.0018204932032809817 0.02800340727074728 0 0.0034414910035608813 0.02720250122331265 0 0.00033760659636927797 0.027191955490152107 0 0.0018204932032809817 0.02800340727074728 0 0.0007569790303172142 0.029472621114531378 0 0.0018204932032809817 0.02800340727074728 0 0.0007569790303172142 0.029472621114531378 0 0.0020341174299795843 0.029134214508348594 0 -0.0044972090693759896 0.023632230129307784 0 -0.0030339180554047138 0.029285247643818898 0 0.0020341174299795843 0.029134214508348594 0 0.0030018175620027572 0.028774123685909276 0 0.0025481894635291324 0.030266665102393051 0 0.0018204932032809817 0.02800340727074728 0 0.0020341174299795843 0.029134214508348594 0 0.0030018175620027572 0.028774123685909276 0 -0.011891853725597262 0.018432134483070808 0 -0.009240995688947623 0.017967339981679591 0 -0.010976220149207485 0.019648313167596309 0 -0.011891853725597262 0.018432134483070808 0 -0.011306404847623344 0.016519073490148854 0 -0.009240995688947623 0.017967339981679591 0 -0.0044972090693759896 0.023632230129307784 0 -0.0045307502350608294 0.018081693844934747 0 -0.0087701263365402241 0.015835437936673462 0 -0.012095646145038639 0.015805896295597869 0 -0.009240995688947623 0.017967339981679591 0 -0.0045307502350608294 0.018081693844934747 0 -0.01205686884387118 0.016639151187959549 0 -0.009240995688947623 0.017967339981679591 0 -0.0094443911617964095 0.02058096408449105 0 -0.010976220149207485 0.019648313167596309 0 -0.011379872697069519 0.024783215501484844 0 -0.011258092894755817 0.032706891029486554 0 -0.013538098264228462 0.025300310361368181 0 -0.013459901731121545 0.025571269283159479 0 -0.013696809083690314 0.025472259069016616 0 -0.013412600764855119 0.032258157918600351 0 -0.011258092894755817 0.032706891029486554 0 -0.011971806873931316 0.039142649567221161 0 -0.012471274386885552 0.039402945756296291 0 -0.011667871183798327 0.039808860750473657 0 -0.011971806873931316 0.039142649567221161 0 -0.011667871183798327 0.039808860750473657 0 -0.011436123200455967 0.039124805564988097 0 -0.011667871183798327 0.039808860750473657 0 -0.010776497306952014 0.03931081707031446 0 -0.011436123200455967 0.039124805564988097 0 -0.0085337055386254402 0.037666314857514302 0 -0.009019601241922243 0.03782841034417455 0 -0.0090676738554568929 0.03814673617531858 0 -0.011258092894755817 0.032706891029486554 0 -0.010159873475073187 0.039269385012239547 0 -0.0085337055386254402 0.037666314857514302 0 -0.009019601241922243 0.03782841034417455 0 -0.0089301047259191801 0.037486126510221436 0 -0.0094443911617964095 0.02058096408449105 0 -0.011812277542148565 0.020774832252374639 0 -0.010976220149207485 0.019648313167596309 0 -0.011379872697069519 0.024783215501484844 0 -0.0089610190821421496 0.029563116919899945 0 -0.011891853725597262 0.018432134483070808 0 -0.010976220149207485 0.019648313167596309 0 -0.012453777504678994 0.020467625750704398 0 -0.011039541776517918 0.028531522237611608 0 -0.010479544472304276 0.028145600144439214 0 -0.0098318561012918672 0.028469058164622221 0 -0.011258092894755817 0.032706891029486554 0 -0.0089610190821421496 0.029563116919899945 0 -0.011812277542148565 0.020774832252374639 0 -0.010976220149207485 0.019648313167596309 0 -0.012453777504678994 0.020467625750704398 0 0.0015698421223329694 0.032516179528461739 0 -0.0030339180554047138 0.029285247643818898 0 0.0007569790303172142 0.029472621114531378 0 0.0020341174299795843 0.029134214508348594 0 0.0025481894635291324 0.030266665102393051 0 0.00014802579577826995 0.034288871550957119 0 0.0014445199451172187 0.035425698981464263 0 0.0015124844417893613 0.035175749942759675 0 -0.009019601241922243 0.03782841034417455 0 -0.0089301047259191801 0.037486126510221436 0 -0.0091695131452199461 0.037521397779245666 0 -0.0089610190821421496 0.029563116919899945 0 -0.0057571993228420527 0.03456795688016006 0 -0.0089610190821421496 0.029563116919899945 0 -0.0030339180554047138 0.029285247643818898 0 -0.0075432204203754382 0.030567528939376705 0 -0.0033803780639611956 0.030234800827492928 0 -0.003969911303883117 0.032303757006675544 0 -0.0057571993228420527 0.03456795688016006 0 -0.0030339180554047138 0.029285247643818898 0 0.00014802579577826995 0.034288871550957119 0 0.0014445199451172187 0.035425698981464263 0 -0.00011126286824574747 0.035716048702972132 0 -0.0057571993228420527 0.03456795688016006 0 -0.0041305051014370537 0.037522038661912581 0 -0.0093479324006251249 0.038753915386830866 0 -0.0088560307352860343 0.038814826300822031 0 -0.0091826739848934417 0.038599870356566965 0 -0.0088560307352860343 0.038814826300822031 0 -0.0091826739848934417 0.038599870356566965 0 -0.0089043556172190546 0.038447447313104996 0 -0.0091826739848934417 0.038599870356566965 0 -0.0089043556172190546 0.038447447313104996 0 -0.0092242542076765351 0.038398692291513492 0 -0.009019601241922243 0.03782841034417455 0 -0.0091695131452199461 0.037521397779245666 0 -0.0093193410814220827 0.038305433329661936 0 -0.0057571993228420527 0.03456795688016006 0 -0.010234388666136617 0.03988292572078829 0 -0.0093479324006251249 0.038753915386830866 0 -0.0091826739848934417 0.038599870356566965 0 -0.0093193410814220827 0.038305433329661936 0 -0.0091826739848934417 0.038599870356566965 0 -0.0093193410814220827 0.038305433329661936 0 -0.0092242542076765351 0.038398692291513492 0 -0.009019601241922243 0.03782841034417455 0 -0.0090676738554568929 0.03814673617531858 0 -0.0093193410814220827 0.038305433329661936 0 -0.010776497306952014 0.03931081707031446 0 -0.01050195757615301 0.038639348408331373 0 -0.011053902532152023 0.038820338429766246 0 -0.0090676738554568929 0.03814673617531858 0 -0.0093193410814220827 0.038305433329661936 0 -0.0095185904436432388 0.038451988796472748 0 -0.010159873475073187 0.039269385012239547 0 -0.009410815661237323 0.038327199703074487 0 -0.010776497306952014 0.03931081707031446 0 -0.01050195757615301 0.038639348408331373 0 -0.0095185904436432388 0.038451988796472748 0 -0.01015856949142435 0.03833228999427573 0 -0.01050195757615301 0.038639348408331373 0 -0.0095185904436432388 0.038451988796472748 0 -0.01050195757615301 0.038639348408331373 0 -0.010875767766061918 0.038340832989181506 0 -0.011053902532152023 0.038820338429766246 0 -0.01015856949142435 0.03833228999427573 0 -0.01050195757615301 0.038639348408331373 0 -0.010875767766061918 0.038340832989181506 0 -0.0089043556172190546 0.038447447313104996 0 -0.0092242542076765351 0.038398692291513492 0 -0.0090888733455168642 0.038311671911833864 0 -0.0092242542076765351 0.038398692291513492 0 -0.0095185904436432388 0.038451988796472748 0 -0.0090888733455168642 0.038311671911833864 0 -0.0093193410814220827 0.038305433329661936 0 -0.0092242542076765351 0.038398692291513492 0 -0.0095185904436432388 0.038451988796472748 0 -0.0095185904436432388 0.038451988796472748 0 -0.0090888733455168642 0.038311671911833864 0 -0.0090722268103457047 0.038052306144250349 0 -0.0090722268103457047 0.038052306144250349 0 -0.0094992136346588388 0.037981389434439586 0 -0.0093257604475100921 0.03767816271453224 0 -0.0095185904436432388 0.038451988796472748 0 -0.0094992136346588388 0.037981389434439586 0 -0.0099882190037725738 0.038016160645698148 0 -0.0095185904436432388 0.038451988796472748 0 -0.0090722268103457047 0.038052306144250349 0 -0.0094992136346588388 0.037981389434439586 0 -0.0094992136346588388 0.037981389434439586 0 -0.0099820367012521689 0.037711693198547724 0 -0.0093257604475100921 0.03767816271453224 0 -0.0094992136346588388 0.037981389434439586 0 -0.0099820367012521689 0.037711693198547724 0 -0.0099882190037725738 0.038016160645698148 0 -0.01015856949142435 0.03833228999427573 0 -0.010634941065313569 0.037926505760897247 0 -0.010875767766061918 0.038340832989181506 0 -0.01015856949142435 0.03833228999427573 0 -0.0095185904436432388 0.038451988796472748 0 -0.0099882190037725738 0.038016160645698148 0 -0.01015856949142435 0.03833228999427573 0 -0.0099882190037725738 0.038016160645698148 0 -0.010634941065313569 0.037926505760897247 0 -0.0099820367012521689 0.037711693198547724 0 -0.0099882190037725738 0.038016160645698148 0 -0.010634941065313569 0.037926505760897247 0 -0.0099820367012521689 0.037711693198547724 0 -0.010634941065313569 0.037926505760897247 0 -0.010602455213392913 0.037629112983421753 0 -0.010634941065313569 0.037926505760897247 0 -0.01147984242264825 0.037966189872603924 0 -0.011121754187114257 0.037636823181901341 0 -0.010634941065313569 0.037926505760897247 0 -0.010875767766061918 0.038340832989181506 0 -0.01147984242264825 0.037966189872603924 0 -0.010875767766061918 0.038340832989181506 0 -0.01147984242264825 0.037966189872603924 0 -0.011626861427270164 0.038591258411005198 0 -0.01147984242264825 0.037966189872603924 0 -0.012126418235970158 0.038176256325975336 0 -0.012028074413656721 0.037764322969854866 0 -0.01147984242264825 0.037966189872603924 0 -0.012126418235970158 0.038176256325975336 0 -0.011626861427270164 0.038591258411005198 0 -0.011971806873931316 0.039142649567221161 0 -0.012446286192018425 0.038795552601561305 0 -0.011626861427270164 0.038591258411005198 0 -0.012126418235970158 0.038176256325975336 0 -0.012250682505709477 0.038616121446673236 0 -0.011626861427270164 0.038591258411005198 0 -0.012443316570320554 0.038706504190997269 0 -0.011676636760738013 0.038573047933900033 0 -0.011971806873931316 0.039142649567221161 0 -0.012471274386885552 0.039402945756296291 0 -0.012446286192018425 0.038795552601561305 0 -0.011436123200455967 0.039124805564988097 0 -0.011053902532152023 0.038820338429766246 0 -0.011626861427270164 0.038591258411005198 0 -0.011971806873931316 0.039142649567221161 0 -0.011436123200455967 0.039124805564988097 0 -0.011626861427270164 0.038591258411005198 0 -0.010776497306952014 0.03931081707031446 0 -0.011436123200455967 0.039124805564988097 0 -0.011053902532152023 0.038820338429766246 0 -0.010875767766061918 0.038340832989181506 0 -0.011053902532152023 0.038820338429766246 0 -0.011626861427270164 0.038591258411005198 0 -0.0077487120515561045 0.037593563103201354 0 -0.0066340751310757715 0.037476169080235641 0 -0.0071820358904421044 0.037925723443948185 0 -0.006783447017261488 0.034526521847777596 0 -0.0051232445801690984 0.032219369589335176 0 -0.0052031730134381735 0.035724969348049404 0 -0.0074951416766823684 0.034009651963735212 0 -0.0077487120515561045 0.037593563103201354 0 -0.0066340751310757715 0.037476169080235641 0 -0.0062509688582461686 0.033163247065465758 0 -0.0064795307029114069 0.036513273403043056 0 -0.0074951416766823684 0.034009651963735212 0 -0.0041357388096943956 0.034522328609019076 0 -0.0066340751310757715 0.037476169080235641 0 -0.0041357388096943956 0.034522328609019076 0 -0.0066340751310757715 0.037476169080235641 0 -0.0025731370639684604 0.036521344393391886 0 -0.0066340751310757715 0.037476169080235641 0 -0.0078582692241443985 0.038628801075273229 0 -0.0075632533979739592 0.038033304592700899 0 -0.0066340751310757715 0.037476169080235641 0 -0.0075632533979739592 0.038033304592700899 0 -0.0071820358904421044 0.037925723443948185 0 -0.006592335022369401 0.037532196046817998 0 -0.005402053469613915 0.037509433504847291 0 -0.0078582692241443985 0.038628801075273229 0 -0.0075632533979739592 0.038033304592700899 0 -0.0083046598256604643 0.038358688829368312 0 -0.0041357388096943956 0.034522328609019076 0 -0.0025731370639684604 0.036521344393391886 0 -0.0013876812741036679 0.034801637104627019 0 -0.0041305051014370537 0.037522038661912581 0 -0.005402053469613915 0.037509433504847291 0 0.00014802579577826995 0.034288871550957119 0 -0.00011126286824574747 0.035716048702972132 0 -0.0013876812741036679 0.034801637104627019 0 -0.00011126286824574747 0.035716048702972132 0 -0.0025731370639684604 0.036521344393391886 0 -0.0013876812741036679 0.034801637104627019 0 -0.0088560307352860343 0.038814826300822031 0 -0.0078582692241443985 0.038628801075273229 0 -0.0083046598256604643 0.038358688829368312 0 -0.0088560307352860343 0.038814826300822031 0 -0.0089043556172190546 0.038447447313104996 0 -0.0083046598256604643 0.038358688829368312 0 -0.0089043556172190546 0.038447447313104996 0 -0.0083046598256604643 0.038358688829368312 0 -0.0084082024068590257 0.038101220261845585 0 -0.0089043556172190546 0.038447447313104996 0 -0.0090888733455168642 0.038311671911833864 0 -0.0084082024068590257 0.038101220261845585 0 -0.0090888733455168642 0.038311671911833864 0 -0.0090722268103457047 0.038052306144250349 0 -0.0084082024068590257 0.038101220261845585 0 -0.0084082024068590257 0.038101220261845585 0 -0.0086332977686301438 0.037731387273487182 0 -0.0077639843471181023 0.037847701274822135 0 -0.0090722268103457047 0.038052306144250349 0 -0.0084082024068590257 0.038101220261845585 0 -0.0086332977686301438 0.037731387273487182 0 -0.0090722268103457047 0.038052306144250349 0 -0.0093257604475100921 0.03767816271453224 0 -0.0086332977686301438 0.037731387273487182 0 -0.0093257604475100921 0.03767816271453224 0 -0.0086332977686301438 0.037731387273487182 0 -0.0090646029310368116 0.037334718889899948 0 -0.0086332977686301438 0.037731387273487182 0 -0.0077639843471181023 0.037847701274822135 0 -0.0080407192835429964 0.03728218518715351 0 -0.0077639843471181023 0.037847701274822135 0 -0.007332172732206375 0.037689473668739287 0 -0.0080407192835429964 0.03728218518715351 0 -0.0075632533979739592 0.038033304592700899 0 -0.0083046598256604643 0.038358688829368312 0 -0.0084082024068590257 0.038101220261845585 0 -0.0075632533979739592 0.038033304592700899 0 -0.0084082024068590257 0.038101220261845585 0 -0.0077639843471181023 0.037847701274822135 0 -0.0075632533979739592 0.038033304592700899 0 -0.0077639843471181023 0.037847701274822135 0 -0.0071820358904421044 0.037925723443948185 0 -0.0077639843471181023 0.037847701274822135 0 -0.007332172732206375 0.037689473668739287 0 -0.0071820358904421044 0.037925723443948185 0 -0.0062153540889042843 0.039706747914322847 0 -0.0072565341473842249 0.039913244174134173 0 -0.0060693276860053743 0.04110046982508244 0 -0.0051627992417484737 0.041624934724427173 0 -0.0057736302044860896 0.041961404142402133 0 -0.0063989544771014409 0.039030619304753746 0 -0.0062153540889042843 0.039706747914322847 0 -0.0060693276860053743 0.04110046982508244 0 -0.0059881304514625994 0.040687395809209055 0 -0.0051627992417484737 0.041624934724427173 0 -0.0063989544771014409 0.039030619304753746 0 -0.0064795307029114069 0.036513273403043056 0 -0.0073262852104936825 0.037979186410147435 0 -0.007332172732206375 0.037689473668739287 0 -0.0071820358904421044 0.037925723443948185 0 -0.0073262852104936825 0.037979186410147435 0 -0.0077487120515561045 0.037593563103201354 0 -0.0071820358904421044 0.037925723443948185 0 -0.0053807052748750684 0.042583247256462051 0 -0.0055050766742278847 0.043012287743313934 0 -0.0050851154851943459 0.043112909761114232 0 -0.0062081248555443192 0.042503192649001369 0 -0.0053807052748750684 0.042583247256462051 0 -0.0055050766742278847 0.043012287743313934 0 -0.0062081248555443192 0.042503192649001369 0 -0.0053807052748750684 0.042583247256462051 0 -0.0057736302044860896 0.041961404142402133 0 -0.0051627992417484737 0.041624934724427173 0 -0.0053807052748750684 0.042583247256462051 0 -0.0057736302044860896 0.041961404142402133 0 -0.0051627992417484737 0.041624934724427173 0 -0.0053807052748750684 0.042583247256462051 0 -0.0050947053900989026 0.042669997640123823 0 -0.0051627992417484737 0.041624934724427173 0 -0.0050947053900989026 0.042669997640123823 0 -0.0049272941975993228 0.042558635448719462 0 -0.0053807052748750684 0.042583247256462051 0 -0.0050947053900989026 0.042669997640123823 0 -0.0050851154851943459 0.043112909761114232 0 -0.0050947053900989026 0.042669997640123823 0 -0.005099349183693952 0.043019960399091561 0 -0.0050851154851943459 0.043112909761114232 0 -0.005099349183693952 0.043019960399091561 0 -0.0049272941975993228 0.042558635448719462 0 -0.0051910576238646507 0.043106976370551595 0 -0.0050947053900989026 0.042669997640123823 0 -0.005099349183693952 0.043019960399091561 0 -0.0049272941975993228 0.042558635448719462 0 -0.005099349183693952 0.043019960399091561 0 -0.0051910576238646507 0.043106976370551595 0 -0.0052302656015114565 0.043147156612201996 0 -0.0086980581078159487 0.039722462068322653 0 -0.010446695043020784 0.038373174777306888 0 -0.010593719127648223 0.038763540245115601 0 -0.0080407192835429964 0.03728218518715351 0 -0.0090646029310368116 0.037334718889899948 0 -0.0093370953022013769 0.036841580708681668 0 -0.0072565341473842249 0.039913244174134173 0 -0.007799860411560779 0.041044849083618266 0 -0.0072565341473842249 0.039913244174134173 0 -0.01023399676837409 0.037572031256917389 0 -0.0086332977686301438 0.037731387273487182 0 -0.0080407192835429964 0.03728218518715351 0 -0.0090646029310368116 0.037334718889899948 0 -0.0049272941975993228 0.042558635448719462 0 -0.0051910576238646507 0.043106976370551595 0 -0.0053539613849782411 0.043296718742646699 0 -0.0051910576238646507 0.043106976370551595 0 -0.0054229004004822364 0.043255074247122383 0 -0.0053539613849782411 0.043296718742646699 0 -0.005480304734963512 0.043176267818423285 0 -0.0051536155517361518 0.043013123225102146 0 -0.0052302656015114565 0.043147156612201996 0 -0.0054229004004822364 0.043255074247122383 0 -0.005480304734963512 0.043176267818423285 0 -0.0057823737570527585 0.043339323401607691 0 -0.0054229004004822364 0.043255074247122383 0 -0.005480304734963512 0.043176267818423285 0 -0.0052302656015114565 0.043147156612201996 0 -0.0051910576238646507 0.043106976370551595 0 -0.0054229004004822364 0.043255074247122383 0 -0.0052302656015114565 0.043147156612201996 0 -0.005480304734963512 0.043176267818423285 0 -0.0054793754321069811 0.042994843065851898 0 -0.0058033940924637206 0.043193520678888903 0 -0.005480304734963512 0.043176267818423285 0 -0.0054793754321069811 0.042994843065851898 0 -0.0051536155517361518 0.043013123225102146 0 -0.0050577543323449981 0.04276662904289398 0 -0.0054793754321069811 0.042994843065851898 0 -0.0051536155517361518 0.043013123225102146 0 -0.0050577543323449981 0.04276662904289398 0 -0.0051536155517361518 0.043013123225102146 0 -0.0049695739778808411 0.042997454372348198 0 -0.0051536155517361518 0.043013123225102146 0 -0.0051015994350152045 0.043096089576063659 0 -0.0049695739778808411 0.042997454372348198 0 -0.0051536155517361518 0.043013123225102146 0 -0.0051015994350152045 0.043096089576063659 0 -0.0052302656015114565 0.043147156612201996 0 -0.005099349183693952 0.043019960399091561 0 -0.0051015994350152045 0.043096089576063659 0 -0.0052302656015114565 0.043147156612201996 0 -0.0051015994350152045 0.043096089576063659 0 -0.0050851154851943459 0.043112909761114232 0 -0.0049695739778808411 0.042997454372348198 0 -0.005099349183693952 0.043019960399091561 0 -0.0051015994350152045 0.043096089576063659 0 -0.0050851154851943459 0.043112909761114232 0 -0.0050851154851943459 0.043112909761114232 0 -0.0049695739778808411 0.042997454372348198 0 -0.0049177667424094539 0.043056706087262774 0 -0.004670346903470797 0.042715685481280581 0 -0.0049695739778808411 0.042997454372348198 0 -0.0049177667424094539 0.043056706087262774 0 -0.0045530897893192165 0.042807517437231303 0 -0.004670346903470797 0.042715685481280581 0 -0.0049177667424094539 0.043056706087262774 0 -0.0045530897893192165 0.042807517437231303 0 -0.0050600616241979895 0.043253628532412353 0 -0.0049177667424094539 0.043056706087262774 0 -0.0050600616241979895 0.043253628532412353 0 -0.0050851154851943459 0.043112909761114232 0 -0.0049177667424094539 0.043056706087262774 0 -0.0050600616241979895 0.043253628532412353 0 -0.0055050766742278847 0.043012287743313934 0 -0.0050851154851943459 0.043112909761114232 0 -0.011724266210091301 0.037193949274583943 0 -0.01221017208839143 0.03736581897508863 0 -0.011669104057215164 0.037481257685526556 0 -0.011724266210091301 0.037193949274583943 0 -0.011669104057215164 0.037481257685526556 0 -0.011027379559135958 0.037286453713589067 0 -0.011724266210091301 0.037193949274583943 0 -0.011027379559135958 0.037286453713589067 0 -0.01094636405553878 0.036735874211172144 0 -0.011724266210091301 0.037193949274583943 0 -0.01221017208839143 0.03736581897508863 0 -0.012421335005300561 0.037313980139621762 0 -0.012126418235970158 0.038176256325975336 0 -0.012028074413656721 0.037764322969854866 0 -0.012556959759700583 0.037809618806826095 0 -0.01221017208839143 0.03736581897508863 0 -0.012028074413656721 0.037764322969854866 0 -0.012556959759700583 0.037809618806826095 0 -0.01221017208839143 0.03736581897508863 0 -0.012028074413656721 0.037764322969854866 0 -0.011669104057215164 0.037481257685526556 0 -0.01147984242264825 0.037966189872603924 0 -0.011669104057215164 0.037481257685526556 0 -0.011121754187114257 0.037636823181901341 0 -0.01147984242264825 0.037966189872603924 0 -0.012028074413656721 0.037764322969854866 0 -0.011669104057215164 0.037481257685526556 0 -0.011669104057215164 0.037481257685526556 0 -0.011121754187114257 0.037636823181901341 0 -0.011027379559135958 0.037286453713589067 0 -0.010634941065313569 0.037926505760897247 0 -0.011121754187114257 0.037636823181901341 0 -0.010602455213392913 0.037629112983421753 0 -0.0099820367012521689 0.037711693198547724 0 -0.010602455213392913 0.037629112983421753 0 -0.010310745686544498 0.037358665806370463 0 -0.010310745686544498 0.037358665806370463 0 -0.010022748561874396 0.037090105064181381 0 -0.010549155718728227 0.037101509405056167 0 -0.010310745686544498 0.037358665806370463 0 -0.011027379559135958 0.037286453713589067 0 -0.010549155718728227 0.037101509405056167 0 -0.011121754187114257 0.037636823181901341 0 -0.010602455213392913 0.037629112983421753 0 -0.011027379559135958 0.037286453713589067 0 -0.010602455213392913 0.037629112983421753 0 -0.010310745686544498 0.037358665806370463 0 -0.011027379559135958 0.037286453713589067 0 -0.0090646029310368116 0.037334718889899948 0 -0.0096411131627299231 0.037362115480045435 0 -0.0094793820905987296 0.03715525424684913 0 -0.0093257604475100921 0.03767816271453224 0 -0.0090646029310368116 0.037334718889899948 0 -0.0096411131627299231 0.037362115480045435 0 -0.0099820367012521689 0.037711693198547724 0 -0.010310745686544498 0.037358665806370463 0 -0.0096411131627299231 0.037362115480045435 0 -0.0099820367012521689 0.037711693198547724 0 -0.0093257604475100921 0.03767816271453224 0 -0.0096411131627299231 0.037362115480045435 0 -0.0096411131627299231 0.037362115480045435 0 -0.010022748561874396 0.037090105064181381 0 -0.0094793820905987296 0.03715525424684913 0 -0.010310745686544498 0.037358665806370463 0 -0.0096411131627299231 0.037362115480045435 0 -0.010022748561874396 0.037090105064181381 0 -0.010022748561874396 0.037090105064181381 0 -0.0094793820905987296 0.03715525424684913 0 -0.0093370953022013769 0.036841580708681668 0 -0.0090646029310368116 0.037334718889899948 0 -0.0094793820905987296 0.03715525424684913 0 -0.0093370953022013769 0.036841580708681668 0 -0.01023399676837409 0.037572031256917389 0 -0.011346165570355209 0.037424287023797513 0 -0.010446695043020784 0.038373174777306888 0 -0.010593719127648223 0.038763540245115601 0 -0.011979570166473394 0.037913492623511451 0 -0.010022748561874396 0.037090105064181381 0 -0.0093370953022013769 0.036841580708681668 0 -0.01094636405553878 0.036735874211172144 0 -0.0054229004004822364 0.043255074247122383 0 -0.0053539613849782411 0.043296718742646699 0 -0.0057320456118890523 0.043360448976354549 0 -0.010446695043020784 0.038373174777306888 0 -0.011979570166473394 0.037913492623511451 0 -0.011838976271812844 0.037469470101175732 0 -0.011027379559135958 0.037286453713589067 0 -0.010549155718728227 0.037101509405056167 0 -0.01094636405553878 0.036735874211172144 0 -0.010022748561874396 0.037090105064181381 0 -0.010549155718728227 0.037101509405056167 0 -0.01094636405553878 0.036735874211172144 0 -0.0064721641286218674 0.043588559621264518 0 -0.0060667294616530178 0.043337495306410762 0 -0.0062742315338597116 0.043250967741856668 0 -0.0053539613849782411 0.043296718742646699 0 -0.0064721641286218674 0.043588559621264518 0 -0.0057320456118890523 0.043360448976354549 0 -0.007799860411560779 0.041044849083618266 0 -0.0092077700325035854 0.040463079431034644 0 -0.0054229004004822364 0.043255074247122383 0 -0.0057823737570527585 0.043339323401607691 0 -0.0057320456118890523 0.043360448976354549 0 -0.0064721641286218674 0.043588559621264518 0 -0.0057823737570527585 0.043339323401607691 0 -0.0057320456118890523 0.043360448976354549 0 -0.0057823737570527585 0.043339323401607691 0 -0.0060667294616530178 0.043337495306410762 0 -0.0058033940924637206 0.043193520678888903 0 -0.0064721641286218674 0.043588559621264518 0 -0.0057823737570527585 0.043339323401607691 0 -0.0060667294616530178 0.043337495306410762 0 -0.005480304734963512 0.043176267818423285 0 -0.0057823737570527585 0.043339323401607691 0 -0.0058033940924637206 0.043193520678888903 0 -0.0060667294616530178 0.043337495306410762 0 -0.0058033940924637206 0.043193520678888903 0 -0.0062742315338597116 0.043250967741856668 0 -0.0058033940924637206 0.043193520678888903 0 -0.0059292052146042483 0.042998847917735242 0 -0.0062742315338597116 0.043250967741856668 0 -0.0054793754321069811 0.042994843065851898 0 -0.0058033940924637206 0.043193520678888903 0 -0.0059292052146042483 0.042998847917735242 0 -0.0065246694871602647 0.042843177513482204 0 -0.0059292052146042483 0.042998847917735242 0 -0.0062742315338597116 0.043250967741856668 0 -0.0064721641286218674 0.043588559621264518 0 -0.007172951181525414 0.043012672195406609 0 -0.0062742315338597116 0.043250967741856668 0 -0.0069273369912775246 0.042692552131536145 0 -0.0063445645570599177 0.043271698976913055 0 -0.0064721641286218674 0.043588559621264518 0 -0.007172951181525414 0.043012672195406609 0 -0.0080617125083330739 0.043159064911868682 0 -0.0073575916255650547 0.042499339509128847 0 -0.007172951181525414 0.043012672195406609 0 -0.0062742315338597116 0.043250967741856668 0 -0.011838976271812844 0.037469470101175732 0 -0.012539559607019756 0.037403149191852086 0 -0.012421335005300561 0.037313980139621762 0 -0.0092077700325035854 0.040463079431034644 0 -0.01028791056098676 0.040312171077900673 0 -0.011724266210091301 0.037193949274583943 0 -0.01094636405553878 0.036735874211172144 0 -0.012421335005300561 0.037313980139621762 0 -0.011979570166473394 0.037913492623511451 0 -0.011838976271812844 0.037469470101175732 0 -0.012421335005300561 0.037313980139621762 0 -0.011346165570355209 0.037424287023797513 0 -0.012310987514557361 0.037277199144654674 0 -0.012421335005300561 0.037313980139621762 0 -0.012736650063877102 0.037548678191971795 0 -0.012587271949979309 0.037316589486666434 0 -0.01221017208839143 0.03736581897508863 0 -0.012421335005300561 0.037313980139621762 0 -0.012587271949979309 0.037316589486666434 0 -0.012539559607019756 0.037403149191852086 0 -0.012421335005300561 0.037313980139621762 0 -0.012736650063877102 0.037548678191971795 0 -0.012602742220227647 0.038224178700563015 0 -0.012736650063877102 0.037548678191971795 0 -0.01278155987131515 0.037226030042456691 0 -0.012602742220227647 0.038224178700563015 0 -0.01278155987131515 0.037226030042456691 0 -0.012079816461889858 0.037832795554845408 0 -0.012797734002509935 0.03720909675444365 0 -0.012771286090609622 0.03720565649977773 0 -0.01278155987131515 0.037226030042456691 0 -0.013231682746430809 0.037491945136147557 0 -0.013746971875778093 0.037068154393402809 0 -0.01278155987131515 0.037226030042456691 0 -0.012587271949979309 0.037316589486666434 0 -0.013231682746430809 0.037491945136147557 0 -0.012736650063877102 0.037548678191971795 0 -0.01278155987131515 0.037226030042456691 0 -0.012587271949979309 0.037316589486666434 0 -0.012587271949979309 0.037316589486666434 0 -0.013231682746430809 0.037491945136147557 0 -0.012556959759700583 0.037809618806826095 0 -0.01221017208839143 0.03736581897508863 0 -0.012587271949979309 0.037316589486666434 0 -0.012556959759700583 0.037809618806826095 0 -0.013231682746430809 0.037491945136147557 0 -0.01330960272463453 0.038053563304045808 0 -0.012556959759700583 0.037809618806826095 0 -0.01330960272463453 0.038053563304045808 0 -0.012556959759700583 0.037809618806826095 0 -0.013315852764750832 0.038674845027739137 0 -0.014451514281420485 0.038001317186041342 0 -0.014136747896209025 0.038214522407983419 0 -0.014197991199473858 0.037754170550151747 0 -0.014451514281420485 0.038001317186041342 0 -0.014197991199473858 0.037754170550151747 0 -0.014653558103347751 0.037714696722437331 0 -0.014451514281420485 0.038001317186041342 0 -0.014653558103347751 0.037714696722437331 0 -0.014875428597192392 0.037930276657509865 0 -0.014451514281420485 0.038001317186041342 0 -0.014136747896209025 0.038214522407983419 0 -0.014568533407166843 0.038249448285777282 0 -0.014451514281420485 0.038001317186041342 0 -0.014875428597192392 0.037930276657509865 0 -0.014568533407166843 0.038249448285777282 0 -0.014136747896209025 0.038214522407983419 0 -0.013756565272781508 0.037899990687500502 0 -0.014197991199473858 0.037754170550151747 0 -0.01330960272463453 0.038053563304045808 0 -0.013756565272781508 0.037899990687500502 0 -0.013781460812749809 0.038371586712092356 0 -0.014136747896209025 0.038214522407983419 0 -0.013756565272781508 0.037899990687500502 0 -0.013781460812749809 0.038371586712092356 0 -0.013756565272781508 0.037899990687500502 0 -0.014021419019262984 0.037424530340088628 0 -0.014197991199473858 0.037754170550151747 0 -0.013231682746430809 0.037491945136147557 0 -0.013756565272781508 0.037899990687500502 0 -0.014021419019262984 0.037424530340088628 0 -0.013231682746430809 0.037491945136147557 0 -0.01330960272463453 0.038053563304045808 0 -0.013756565272781508 0.037899990687500502 0 -0.014021419019262984 0.037424530340088628 0 -0.014197991199473858 0.037754170550151747 0 -0.014694570019200839 0.037393047847182351 0 -0.014197991199473858 0.037754170550151747 0 -0.014653558103347751 0.037714696722437331 0 -0.014694570019200839 0.037393047847182351 0 -0.014021419019262984 0.037424530340088628 0 -0.014604918534155496 0.036979314123183511 0 -0.014694570019200839 0.037393047847182351 0 -0.014021419019262984 0.037424530340088628 0 -0.014604918534155496 0.036979314123183511 0 -0.013746971875778093 0.037068154393402809 0 -0.013231682746430809 0.037491945136147557 0 -0.014021419019262984 0.037424530340088628 0 -0.013746971875778093 0.037068154393402809 0 -0.01278155987131515 0.037226030042456691 0 -0.013746971875778093 0.037068154393402809 0 -0.013567959069835113 0.036520015757715393 0 -0.013746971875778093 0.037068154393402809 0 -0.013567959069835113 0.036520015757715393 0 -0.01418772908575397 0.03663751337968095 0 -0.01422772754473667 0.036097015620413946 0 -0.013567959069835113 0.036520015757715393 0 -0.01418772908575397 0.03663751337968095 0 -0.014604918534155496 0.036979314123183511 0 -0.013746971875778093 0.037068154393402809 0 -0.01418772908575397 0.03663751337968095 0 -0.014604918534155496 0.036979314123183511 0 -0.01418772908575397 0.03663751337968095 0 -0.014723230431118313 0.036520623015900797 0 -0.01422772754473667 0.036097015620413946 0 -0.01418772908575397 0.03663751337968095 0 -0.014723230431118313 0.036520623015900797 0 -0.014604918534155496 0.036979314123183511 0 -0.014723230431118313 0.036520623015900797 0 -0.015209030733715391 0.036730769795332338 0 -0.014604918534155496 0.036979314123183511 0 -0.015209030733715391 0.036730769795332338 0 -0.015183324447252429 0.037065430192129212 0 -0.015209030733715391 0.036730769795332338 0 -0.015643352295837118 0.036885115946031 0 -0.015183324447252429 0.037065430192129212 0 -0.015768123745606474 0.036667021201977415 0 -0.015209030733715391 0.036730769795332338 0 -0.015643352295837118 0.036885115946031 0 -0.015768123745606474 0.036667021201977415 0 -0.015643352295837118 0.036885115946031 0 -0.016086597208322454 0.036847725136993442 0 -0.015643352295837118 0.036885115946031 0 -0.015625958545625807 0.037102205272243047 0 -0.016032102384072263 0.037039545850157646 0 -0.015643352295837118 0.036885115946031 0 -0.015625958545625807 0.037102205272243047 0 -0.015183324447252429 0.037065430192129212 0 -0.015625958545625807 0.037102205272243047 0 -0.016012148489040864 0.037235874426510183 0 -0.015659033264602492 0.037325544668582268 0 -0.015625958545625807 0.037102205272243047 0 -0.015236121461499472 0.037339181974760681 0 -0.015183324447252429 0.037065430192129212 0 -0.015625958545625807 0.037102205272243047 0 -0.015236121461499472 0.037339181974760681 0 -0.015659033264602492 0.037325544668582268 0 -0.015236121461499472 0.037339181974760681 0 -0.015183324447252429 0.037065430192129212 0 -0.014694570019200839 0.037393047847182351 0 -0.014604918534155496 0.036979314123183511 0 -0.015183324447252429 0.037065430192129212 0 -0.014694570019200839 0.037393047847182351 0 -0.016433384529651141 0.036907202296045695 0 -0.016522138732429806 0.037138240405440476 0 -0.016291803808886753 0.037075030827525168 0 -0.016433384529651141 0.036907202296045695 0 -0.016086597208322454 0.036847725136993442 0 -0.016291803808886753 0.037075030827525168 0 -0.016086597208322454 0.036847725136993442 0 -0.016032102384072263 0.037039545850157646 0 -0.016291803808886753 0.037075030827525168 0 -0.015643352295837118 0.036885115946031 0 -0.016086597208322454 0.036847725136993442 0 -0.016032102384072263 0.037039545850157646 0 -0.015625958545625807 0.037102205272243047 0 -0.016032102384072263 0.037039545850157646 0 -0.016012148489040864 0.037235874426510183 0 -0.016032102384072263 0.037039545850157646 0 -0.016012148489040864 0.037235874426510183 0 -0.016291803808886753 0.037075030827525168 0 -0.016522138732429806 0.037138240405440476 0 -0.016291803808886753 0.037075030827525168 0 -0.016296611470458165 0.037254674290807414 0 -0.016012148489040864 0.037235874426510183 0 -0.016291803808886753 0.037075030827525168 0 -0.016296611470458165 0.037254674290807414 0 -0.018362371717303948 0.035999365776472982 0 -0.016225187826781895 0.037337228977653319 0 -0.016685268968318338 0.037564630941501947 0 -0.016548348693613445 0.037338907515337423 0 -0.016296611470458165 0.037254674290807414 0 -0.016225187826781895 0.037337228977653319 0 -0.017783904275538279 0.036497957104059453 0 -0.016169867054543041 0.037330885784052303 0 -0.016296611470458165 0.037254674290807414 0 -0.016225187826781895 0.037337228977653319 0 -0.016098467911704328 0.037334444848490016 0 -0.016012148489040864 0.037235874426510183 0 -0.016296611470458165 0.037254674290807414 0 -0.016098467911704328 0.037334444848490016 0 -0.016225187826781895 0.037337228977653319 0 -0.016098467911704328 0.037334444848490016 0 -0.015945324652986165 0.037557238334105798 0 -0.016012148489040864 0.037235874426510183 0 -0.016098467911704328 0.037334444848490016 0 -0.015871481747323106 0.037394357131742266 0 -0.016012148489040864 0.037235874426510183 0 -0.015871481747323106 0.037394357131742266 0 -0.015659033264602492 0.037325544668582268 0 -0.016098467911704328 0.037334444848490016 0 -0.015871481747323106 0.037394357131742266 0 -0.015945324652986165 0.037557238334105798 0 -0.015871481747323106 0.037394357131742266 0 -0.015945324652986165 0.037557238334105798 0 -0.015609944918974158 0.037557769459949902 0 -0.015945324652986165 0.037557238334105798 0 -0.015971516602465857 0.037852235696012475 0 -0.015620954736988173 0.037835595633422293 0 -0.015971516602465857 0.037852235696012475 0 -0.015620954736988173 0.037835595633422293 0 -0.015759228600748423 0.038006644119956433 0 -0.015971516602465857 0.037852235696012475 0 -0.015759228600748423 0.038006644119956433 0 -0.016131584338525757 0.038061095914380456 0 -0.015971516602465857 0.037852235696012475 0 -0.016212332463427064 0.037656588639885177 0 -0.016436834624424052 0.037987582963868019 0 -0.015971516602465857 0.037852235696012475 0 -0.016436834624424052 0.037987582963868019 0 -0.016131584338525757 0.038061095914380456 0 -0.016225187826781895 0.037337228977653319 0 -0.015945324652986165 0.037557238334105798 0 -0.016212332463427064 0.037656588639885177 0 -0.015945324652986165 0.037557238334105798 0 -0.015971516602465857 0.037852235696012475 0 -0.016212332463427064 0.037656588639885177 0 -0.016953062558457081 0.038100450621738592 0 -0.016436834624424052 0.037987582963868019 0 -0.016685268968318338 0.037564630941501947 0 -0.016225187826781895 0.037337228977653319 0 -0.016212332463427064 0.037656588639885177 0 -0.016685268968318338 0.037564630941501947 0 -0.016212332463427064 0.037656588639885177 0 -0.016436834624424052 0.037987582963868019 0 -0.016685268968318338 0.037564630941501947 0 -0.017425065200181701 0.038198627296419728 0 -0.016751457881181937 0.037612236398103363 0 -0.015002010721055255 0.037580888847417136 0 -0.01533197336745911 0.037536178760380429 0 -0.015252197933454765 0.037751147465731383 0 -0.014653558103347751 0.037714696722437331 0 -0.015002010721055255 0.037580888847417136 0 -0.014875428597192392 0.037930276657509865 0 -0.014653558103347751 0.037714696722437331 0 -0.015002010721055255 0.037580888847417136 0 -0.014694570019200839 0.037393047847182351 0 -0.015236121461499472 0.037339181974760681 0 -0.015002010721055255 0.037580888847417136 0 -0.014694570019200839 0.037393047847182351 0 -0.015236121461499472 0.037339181974760681 0 -0.015002010721055255 0.037580888847417136 0 -0.01533197336745911 0.037536178760380429 0 -0.015236121461499472 0.037339181974760681 0 -0.015659033264602492 0.037325544668582268 0 -0.01533197336745911 0.037536178760380429 0 -0.015659033264602492 0.037325544668582268 0 -0.015609944918974158 0.037557769459949902 0 -0.01533197336745911 0.037536178760380429 0 -0.015871481747323106 0.037394357131742266 0 -0.015659033264602492 0.037325544668582268 0 -0.015609944918974158 0.037557769459949902 0 -0.015609944918974158 0.037557769459949902 0 -0.01533197336745911 0.037536178760380429 0 -0.015252197933454765 0.037751147465731383 0 -0.015609944918974158 0.037557769459949902 0 -0.015252197933454765 0.037751147465731383 0 -0.015620954736988173 0.037835595633422293 0 -0.015252197933454765 0.037751147465731383 0 -0.015620954736988173 0.037835595633422293 0 -0.015251589463892433 0.038028196335077896 0 -0.015945324652986165 0.037557238334105798 0 -0.015609944918974158 0.037557769459949902 0 -0.015620954736988173 0.037835595633422293 0 -0.015620954736988173 0.037835595633422293 0 -0.015759228600748423 0.038006644119956433 0 -0.015529580187313452 0.038158388682289594 0 -0.015620954736988173 0.037835595633422293 0 -0.015251589463892433 0.038028196335077896 0 -0.015529580187313452 0.038158388682289594 0 -0.015251589463892433 0.038028196335077896 0 -0.014875428597192392 0.037930276657509865 0 -0.014927795677476824 0.038205748426991745 0 -0.015002010721055255 0.037580888847417136 0 -0.015252197933454765 0.037751147465731383 0 -0.014875428597192392 0.037930276657509865 0 -0.015252197933454765 0.037751147465731383 0 -0.015251589463892433 0.038028196335077896 0 -0.014875428597192392 0.037930276657509865 0 -0.014875428597192392 0.037930276657509865 0 -0.014927795677476824 0.038205748426991745 0 -0.014568533407166843 0.038249448285777282 0 -0.014927795677476824 0.038205748426991745 0 -0.014735485246431663 0.038499757613205808 0 -0.014568533407166843 0.038249448285777282 0 -0.014735485246431663 0.038499757613205808 0 -0.01516013521670391 0.038347512513555004 0 -0.015016886723906992 0.038752338490122308 0 -0.01516013521670391 0.038347512513555004 0 -0.015493569968866919 0.03853180359834632 0 -0.015016886723906992 0.038752338490122308 0 -0.014927795677476824 0.038205748426991745 0 -0.014735485246431663 0.038499757613205808 0 -0.01516013521670391 0.038347512513555004 0 -0.015251589463892433 0.038028196335077896 0 -0.014927795677476824 0.038205748426991745 0 -0.01516013521670391 0.038347512513555004 0 -0.01516013521670391 0.038347512513555004 0 -0.015529580187313452 0.038158388682289594 0 -0.015493569968866919 0.03853180359834632 0 -0.015251589463892433 0.038028196335077896 0 -0.01516013521670391 0.038347512513555004 0 -0.015529580187313452 0.038158388682289594 0 -0.015529580187313452 0.038158388682289594 0 -0.015493569968866919 0.03853180359834632 0 -0.015890361684608167 0.038248649219596684 0 -0.015759228600748423 0.038006644119956433 0 -0.015529580187313452 0.038158388682289594 0 -0.015890361684608167 0.038248649219596684 0 -0.015493569968866919 0.03853180359834632 0 -0.015890361684608167 0.038248649219596684 0 -0.015871965061123927 0.038541168154615862 0 -0.015493569968866919 0.03853180359834632 0 -0.015710565421649916 0.038888992487675113 0 -0.015295095341761922 0.038981991747449055 0 -0.015493569968866919 0.03853180359834632 0 -0.015295095341761922 0.038981991747449055 0 -0.015016886723906992 0.038752338490122308 0 -0.015493569968866919 0.03853180359834632 0 -0.015710565421649916 0.038888992487675113 0 -0.015871965061123927 0.038541168154615862 0 -0.015710565421649916 0.038888992487675113 0 -0.016176639738118705 0.038871831683583151 0 -0.01554747116984218 0.039311982577704511 0 -0.015710565421649916 0.038888992487675113 0 -0.015295095341761922 0.038981991747449055 0 -0.01554747116984218 0.039311982577704511 0 -0.015016886723906992 0.038752338490122308 0 -0.014781343009782854 0.039343065770665382 0 -0.014454226398868116 0.038889661274351339 0 -0.015295095341761922 0.038981991747449055 0 -0.015016886723906992 0.038752338490122308 0 -0.014781343009782854 0.039343065770665382 0 -0.014735485246431663 0.038499757613205808 0 -0.015016886723906992 0.038752338490122308 0 -0.014454226398868116 0.038889661274351339 0 -0.016953062558457081 0.038100450621738592 0 -0.016436834624424052 0.037987582963868019 0 -0.016657213125645845 0.038271428144591765 0 -0.016765907641863313 0.03841939012131191 0 -0.016657213125645845 0.038271428144591765 0 -0.016573940583581692 0.038569614720591443 0 -0.016436834624424052 0.037987582963868019 0 -0.016657213125645845 0.038271428144591765 0 -0.016281147621295067 0.038259393036660233 0 -0.016657213125645845 0.038271428144591765 0 -0.016450085166621786 0.038417021034766269 0 -0.016573940583581692 0.038569614720591443 0 -0.016657213125645845 0.038271428144591765 0 -0.016450085166621786 0.038417021034766269 0 -0.016281147621295067 0.038259393036660233 0 -0.01608287013379742 0.038401809530176391 0 -0.016281147621295067 0.038259393036660233 0 -0.016279066447247938 0.038558261002560351 0 -0.016450085166621786 0.038417021034766269 0 -0.016281147621295067 0.038259393036660233 0 -0.016279066447247938 0.038558261002560351 0 -0.01608287013379742 0.038401809530176391 0 -0.016281147621295067 0.038259393036660233 0 -0.015890361684608167 0.038248649219596684 0 -0.016436834624424052 0.037987582963868019 0 -0.016281147621295067 0.038259393036660233 0 -0.016131584338525757 0.038061095914380456 0 -0.016281147621295067 0.038259393036660233 0 -0.016131584338525757 0.038061095914380456 0 -0.015890361684608167 0.038248649219596684 0 -0.015759228600748423 0.038006644119956433 0 -0.016131584338525757 0.038061095914380456 0 -0.015890361684608167 0.038248649219596684 0 -0.01608287013379742 0.038401809530176391 0 -0.015890361684608167 0.038248649219596684 0 -0.015871965061123927 0.038541168154615862 0 -0.01608287013379742 0.038401809530176391 0 -0.015871965061123927 0.038541168154615862 0 -0.016279066447247938 0.038558261002560351 0 -0.015710565421649916 0.038888992487675113 0 -0.015871965061123927 0.038541168154615862 0 -0.016176639738118705 0.038871831683583151 0 -0.016176639738118705 0.038871831683583151 0 -0.016279066447247938 0.038558261002560351 0 -0.016421813100340337 0.038702457325474698 0 -0.016176639738118705 0.038871831683583151 0 -0.016421813100340337 0.038702457325474698 0 -0.016454342668273513 0.038802821659981973 0 -0.015871965061123927 0.038541168154615862 0 -0.016176639738118705 0.038871831683583151 0 -0.016279066447247938 0.038558261002560351 0 -0.016279066447247938 0.038558261002560351 0 -0.016421813100340337 0.038702457325474698 0 -0.016573940583581692 0.038569614720591443 0 -0.016450085166621786 0.038417021034766269 0 -0.016279066447247938 0.038558261002560351 0 -0.016573940583581692 0.038569614720591443 0 -0.016421813100340337 0.038702457325474698 0 -0.016601863645220358 0.038712415997176862 0 -0.016573940583581692 0.038569614720591443 0 -0.016421813100340337 0.038702457325474698 0 -0.016601863645220358 0.038712415997176862 0 -0.016454342668273513 0.038802821659981973 0 -0.016727072120640462 0.03862769072201469 0 -0.016601863645220358 0.038712415997176862 0 -0.016573940583581692 0.038569614720591443 0 -0.016727072120640462 0.03862769072201469 0 -0.016601863645220358 0.038712415997176862 0 -0.016664767879534376 0.03872025977247423 0 -0.016727072120640462 0.03862769072201469 0 -0.016765907641863313 0.03841939012131191 0 -0.016573940583581692 0.038569614720591443 0 -0.016617953639585192 0.038061629732556113 0 -0.016765876914537878 0.038642236156485661 0 -0.016975091122879826 0.037788608363215161 0 -0.016378660718548071 0.038181115420253972 0 -0.016617953639585192 0.038061629732556113 0 -0.016765876914537878 0.038642236156485661 0 -0.016378660718548071 0.038181115420253972 0 -0.016765876914537878 0.038642236156485661 0 -0.016634980169772266 0.038773737085713779 0 -0.016634980169772266 0.038773737085713779 0 -0.016664767879534376 0.03872025977247423 0 -0.016646417956523656 0.038750194926584228 0 -0.016601863645220358 0.038712415997176862 0 -0.016664767879534376 0.03872025977247423 0 -0.016646417956523656 0.038750194926584228 0 -0.016765876914537878 0.038642236156485661 0 -0.016634980169772266 0.038773737085713779 0 -0.016646417956523656 0.038750194926584228 0 -0.016646417956523656 0.038750194926584228 0 -0.016454342668273513 0.038802821659981973 0 -0.01643009744770442 0.038914163479225848 0 -0.016765876914537878 0.038642236156485661 0 -0.016646417956523656 0.038750194926584228 0 -0.01643009744770442 0.038914163479225848 0 -0.016601863645220358 0.038712415997176862 0 -0.016646417956523656 0.038750194926584228 0 -0.016454342668273513 0.038802821659981973 0 -0.017140015527441665 0.038484066084907231 0 -0.015829734829308457 0.037644803973418545 0 -0.016765876914537878 0.038642236156485661 0 -0.018030493611828385 0.038668677925417415 0 -0.016975091122879826 0.037788608363215161 0 -0.014172816937314895 0.033301184402805176 0 -0.014100145816146064 0.033345987843681368 0 -0.014060559091982663 0.03328946779474716 0 -0.016176639738118705 0.038871831683583151 0 -0.016418557997633684 0.039290888414194022 0 -0.01554747116984218 0.039311982577704511 0 -0.015829734829308457 0.037644803973418545 0 -0.014687382592135808 0.036217179315114027 0 -0.016176639738118705 0.038871831683583151 0 -0.016454342668273513 0.038802821659981973 0 -0.01643009744770442 0.038914163479225848 0 -0.016431799521233217 0.039087014328627774 0 -0.015829734829308457 0.037644803973418545 0 -0.011487136942875812 0.025618085159219602 0 -0.011632729067957837 0.026144371217647663 0 -0.01060642561521484 0.025821817982816631 0 -0.014172816937314895 0.033301184402805176 0 -0.014100145816146064 0.033345987843681368 0 -0.014214335459327803 0.033354948946763011 0 -0.012336334779469811 0.029727987334804779 0 -0.014940115300496347 0.028967363572097282 0 -0.011901576565976036 0.025580344068246191 0 -0.011487136942875812 0.025618085159219602 0 -0.011632729067957837 0.026144371217647663 0 -0.018030493611828385 0.038668677925417415 0 -0.016983162515967366 0.03681424301664734 0 -0.016975091122879826 0.037788608363215161 0 -0.015829734829308457 0.037644803973418545 0 -0.015652307829223444 0.031673573080187006 0 -0.014172816937314895 0.033301184402805176 0 -0.014220520947728164 0.033351425166412124 0 -0.014214335459327803 0.033354948946763011 0 -0.015945670562455005 0.022244468879182872 0 -0.015544808620973835 0.021784319486872854 0 -0.015687236318928148 0.021823416630024333 0 -0.016119632213733987 0.037545216892981619 0 -0.017140595195839447 0.036703623870152385 0 -0.017034214320164925 0.036518194879797752 0 -0.015652307829223444 0.031673573080187006 0 -0.014940115300496347 0.028967363572097282 0 -0.016331136557101403 0.027195617535822798 0 -0.014921318927977333 0.028308007833583806 0 -0.01737569127731178 0.029013485335965074 0 -0.014940115300496347 0.028967363572097282 0 -0.015895133620119909 0.028917245691093357 0 -0.015652307829223444 0.031673573080187006 0 -0.015895133620119909 0.028917245691093357 0 -0.015309157457064774 0.036922265559836534 0 -0.015652307829223444 0.031673573080187006 0 -0.016119632213733987 0.037545216892981619 0 -0.016617953639585192 0.038061629732556113 0 -0.016975091122879826 0.037788608363215161 0 -0.016119632213733987 0.037545216892981619 0 -0.016983162515967366 0.03681424301664734 0 -0.016975091122879826 0.037788608363215161 0 -0.015295095341761922 0.038981991747449055 0 -0.014781343009782854 0.039343065770665382 0 -0.01554747116984218 0.039311982577704511 0 -0.014346317101176375 0.036291333314526456 0 -0.014687382592135808 0.036217179315114027 0 -0.01392933313949897 0.03328843494454866 0 -0.013966942709553986 0.033332643315053166 0 -0.014060559091982663 0.03328946779474716 0 -0.01392933313949897 0.03328843494454866 0 -0.013966942709553986 0.033332643315053166 0 -0.013815955240911388 0.033322916605335859 0 -0.014100145816146064 0.033345987843681368 0 -0.013966942709553986 0.033332643315053166 0 -0.014060559091982663 0.03328946779474716 0 -0.012336334779469811 0.029727987334804779 0 -0.013703531717465722 0.029970176607016445 0 -0.011632729067957837 0.026144371217647663 0 -0.01281470906715357 0.026592996936973767 0 -0.01236009492328945 0.025886422926559242 0 -0.011901576565976036 0.025580344068246191 0 -0.011632729067957837 0.026144371217647663 0 -0.01236009492328945 0.025886422926559242 0 -0.012283559013923738 0.025433432281696627 0 -0.01236009492328945 0.025886422926559242 0 -0.013171667168066187 0.025834431059334622 0 -0.01281470906715357 0.026592996936973767 0 -0.013171667168066187 0.025834431059334622 0 -0.014136437799744868 0.027034686719557346 0 -0.01281470906715357 0.026592996936973767 0 -0.01236009492328945 0.025886422926559242 0 -0.013171667168066187 0.025834431059334622 0 -0.012599818454316918 0.024863067767001215 0 -0.012406428882400379 0.02503950816551162 0 -0.012696288878400618 0.025104682173426644 0 -0.012613391802721099 0.024680442981196038 0 -0.012866695957131498 0.03060495095044017 0 -0.012406428882400379 0.02503950816551162 0 -0.012696288878400618 0.025104682173426644 0 -0.012643232698174241 0.02546174147476548 0 -0.01392933313949897 0.03328843494454866 0 -0.013815955240911388 0.033322916605335859 0 -0.013789108697239467 0.033304359228762126 0 -0.013703531717465722 0.029970176607016445 0 -0.012866695957131498 0.03060495095044017 0 -0.014346317101176375 0.036291333314526456 0 -0.01403769981621463 0.036800734857925496 0 -0.012866695957131498 0.03060495095044017 0 -0.01403769981621463 0.036800734857925496 0 -0.012643232698174241 0.02546174147476548 0 -0.012924958190160436 0.025581369331281269 0 -0.012830823448261129 0.025342388720574767 0 -0.012769120992274686 0.038235065726395519 0 -0.012771363331740048 0.038356155829857019 0 -0.012774706485674841 0.038340100990818332 0 -0.012866695957131498 0.03060495095044017 0 -0.012700614081478719 0.031901943833877136 0 -0.012769120992274686 0.038235065726395519 0 -0.012774706485674841 0.038340100990818332 0 -0.012769740615741806 0.038286353402176149 0 -0.012931858970720925 0.037420673321574956 0 -0.01403769981621463 0.036800734857925496 0 -0.012924958190160436 0.025581369331281269 0 -0.012830823448261129 0.025342388720574767 0 -0.01307357345642623 0.025354821938960718 0 -0.012696288878400618 0.025104682173426644 0 -0.012643232698174241 0.02546174147476548 0 -0.012830823448261129 0.025342388720574767 0 -0.012830823448261129 0.025342388720574767 0 -0.012875202400285345 0.025090300526197186 0 -0.01307357345642623 0.025354821938960718 0 -0.012696288878400618 0.025104682173426644 0 -0.012830823448261129 0.025342388720574767 0 -0.012875202400285345 0.025090300526197186 0 -0.012801373664704985 0.024871658828387502 0 -0.012696288878400618 0.025104682173426644 0 -0.012875202400285345 0.025090300526197186 0 -0.013040610858226932 0.025012485644365656 0 -0.012875202400285345 0.025090300526197186 0 -0.01307357345642623 0.025354821938960718 0 -0.013040610858226932 0.025012485644365656 0 -0.013345638614908976 0.025233803434613594 0 -0.01307357345642623 0.025354821938960718 0 -0.013222365425408394 0.024940882352981853 0 -0.01354797136272114 0.025261532121106461 0 -0.013345638614908976 0.025233803434613594 0 -0.0099474196380314357 0.021843467231974834 0 -0.011379872697069519 0.024783215501484844 0 -0.013345638614908976 0.025233803434613594 0 -0.013269440376135479 0.02546319094627909 0 -0.01307357345642623 0.025354821938960718 0 -0.013222365425408394 0.024940882352981853 0 -0.013040610858226932 0.025012485644365656 0 -0.013345638614908976 0.025233803434613594 0 -0.013538098264228462 0.025300310361368181 0 -0.013459901731121545 0.025571269283159479 0 -0.013345638614908976 0.025233803434613594 0 -0.011379872697069519 0.024783215501484844 0 -0.013826961678397816 0.025209906459869716 0 -0.013412600764855119 0.032258157918600351 0 -0.013044877996975459 0.035811139983932025 0 -0.013459901731121545 0.025571269283159479 0 -0.013269440376135479 0.02546319094627909 0 -0.013202797536482866 0.025704648795023367 0 -0.013459901731121545 0.025571269283159479 0 -0.013345638614908976 0.025233803434613594 0 -0.013269440376135479 0.02546319094627909 0 -0.012924958190160436 0.025581369331281269 0 -0.01307357345642623 0.025354821938960718 0 -0.013202797536482866 0.025704648795023367 0 -0.013269440376135479 0.02546319094627909 0 -0.01307357345642623 0.025354821938960718 0 -0.013202797536482866 0.025704648795023367 0 -0.012700614081478719 0.031901943833877136 0 -0.013044877996975459 0.035811139983932025 0 -0.012771363331740048 0.038356155829857019 0 -0.012774706485674841 0.038340100990818332 0 -0.01274918717679332 0.038393059088608981 0 -0.012774706485674841 0.038340100990818332 0 -0.01274918717679332 0.038393059088608981 0 -0.012790446747923923 0.038301718473023591 0 -0.012771363331740048 0.038356155829857019 0 -0.01274918717679332 0.038393059088608981 0 -0.012752079943654437 0.038379827366412413 0 -0.012232330515589356 0.037443187667918543 0 -0.013044877996975459 0.035811139983932025 0 -0.01274918717679332 0.038393059088608981 0 -0.012628015940668653 0.038556634554797242 0 -0.012617922358956953 0.038407477978170623 0 -0.01274918717679332 0.038393059088608981 0 -0.012617922358956953 0.038407477978170623 0 -0.012790446747923923 0.038301718473023591 0 -0.012250682505709477 0.038616121446673236 0 -0.012628015940668653 0.038556634554797242 0 -0.012617922358956953 0.038407477978170623 0 -0.012471274386885552 0.039402945756296291 0 -0.012446286192018425 0.038795552601561305 0 -0.01326129263500875 0.038992021800353771 0 -0.012443316570320554 0.038706504190997269 0 -0.013044877996975459 0.035811139983932025 0 -0.012250682505709477 0.038616121446673236 0 -0.012617922358956953 0.038407477978170623 0 -0.012504692322814131 0.038251094776053797 0 -0.012556959759700583 0.037809618806826095 0 -0.012504692322814131 0.038251094776053797 0 -0.012790446747923923 0.038301718473023591 0 -0.012126418235970158 0.038176256325975336 0 -0.012250682505709477 0.038616121446673236 0 -0.012504692322814131 0.038251094776053797 0 -0.012126418235970158 0.038176256325975336 0 -0.012556959759700583 0.037809618806826095 0 -0.012504692322814131 0.038251094776053797 0 -0.01254693745934266 0.037706258109672236 0 -0.013028414780598754 0.038842157974879506 0 -0.01330960272463453 0.038053563304045808 0 -0.013315852764750832 0.038674845027739137 0 -0.013781460812749809 0.038371586712092356 0 -0.012617922358956953 0.038407477978170623 0 -0.012504692322814131 0.038251094776053797 0 -0.012790446747923923 0.038301718473023591 0 -0.013315852764750832 0.038674845027739137 0 -0.013781460812749809 0.038371586712092356 0 -0.013971657173366733 0.038764589565167928 0 -0.013781460812749809 0.038371586712092356 0 -0.01425993378243412 0.038536448163802861 0 -0.013971657173366733 0.038764589565167928 0 -0.014136747896209025 0.038214522407983419 0 -0.013781460812749809 0.038371586712092356 0 -0.01425993378243412 0.038536448163802861 0 -0.014136747896209025 0.038214522407983419 0 -0.014568533407166843 0.038249448285777282 0 -0.01425993378243412 0.038536448163802861 0 -0.014735485246431663 0.038499757613205808 0 -0.014568533407166843 0.038249448285777282 0 -0.01425993378243412 0.038536448163802861 0 -0.014735485246431663 0.038499757613205808 0 -0.01425993378243412 0.038536448163802861 0 -0.014454226398868116 0.038889661274351339 0 -0.014036955174916535 0.039348444548174044 0 -0.014454226398868116 0.038889661274351339 0 -0.013971657173366733 0.038764589565167928 0 -0.014781343009782854 0.039343065770665382 0 -0.014036955174916535 0.039348444548174044 0 -0.014454226398868116 0.038889661274351339 0 -0.01425993378243412 0.038536448163802861 0 -0.014454226398868116 0.038889661274351339 0 -0.013971657173366733 0.038764589565167928 0 -0.01403769981621463 0.036800734857925496 0 -0.013028414780598754 0.038842157974879506 0 -0.012774706485674841 0.038340100990818332 0 -0.012783882597093704 0.038339165782888499 0 -0.012790446747923923 0.038301718473023591 0 -0.014036955174916535 0.039348444548174044 0 -0.013315852764750832 0.038674845027739137 0 -0.013971657173366733 0.038764589565167928 0 
</DataArray>
</PointData>
<CellData Scalars="region_id,cross_section_updated," Vectors="" Tensors="stress,">
<DataArray type="Float64" Name="region_id" format="ascii">
5 5 5 5 5 5 5 5 5 5 5 5 5 5 5 5 5 5 5 5 5 5 5 5 5 5 6 5 5 5 5 6 6 5 5 6 6 5 5 5 6 5 6 5 5 5 5 5 5 6 5 6 5 5 5 5 5 5 6 5 5 5 6 5 5 5 5 5 5 5 5 5 5 5 5 5 5 6 5 5 6 5 5 5 5 5 5 5 5 5 5 5 5 5 5 5 5 5 5 5 6 5 5 5 6 5 6 6 6 5 6 5 5 5 5 5 6 5 6 5 5 5 5 5 5 5 5 5 6 5 5 5 5 5 5 5 5 6 5 5 5 6 5 5 5 5 5 5 5 6 5 5 6 6 6 5 5 5 5 6 5 5 5 5 5 5 5 5 6 6 5 5 5 5 6 5 6 6 5 5 5 5 5 5 6 5 5 5 5 5 6 5 5 6 5 5 5 5 5 5 5 5 5 6 5 5 5 5 5 5 5 5 5 5 5 5 5 5 5 5 5 5 5 5 5 5 5 5 5 6 5 5 5 5 6 5 5 5 5 5 5 5 5 5 5 5 5 5 5 5 5 5 5 5 5 5 6 5 5 6 5 5 5 5 5 5 5 5 5 6 5 5 5 5 5 5 5 5 5 5 5 5 5 5 5 5 5 5 5 5 5 5 6 5 5 5 5 6 5 5 5 5 5 6 5 5 5 5 5 5 5 5 6 5 6 5 5 5 5 5 5 5 5 5 5 5 5 5 5 5 5 5 5 5 5 5 5 5 5 5 5 5 5 5 6 5 5 5 5 6 6 5 5 6 5 5 5 5 5 6 6 6 6 5 5 5 5 5 5 5 5 5 5 5 5 5 5 5 6 5 5 5 5 5 5 5 5 5 5 5 5 5 5 5 5 5 5 5 5 5 5 5 6 5 5 5 5 6 6 5 5 5 6 5 5 5 5 6 5 5 5 5 5 5 5 5 5 5 6 5 5 5 5 5 6 5 5 5 5 5 5 5 5 5 5 6 5 5 5 5 6 5 5 6 5 5 6 5 5 6 5 5 5 6 5 6 5 5 5 5 5 5 5 5 5 5 5 6 5 5 5 5 5 5 5 5 5 5 5 5 5 5 5 5 5 5 5 5 5 5 6 5 5 5 5 5 5 6 5 5 5 6 5 5 6 5 6 5 6 5 5 6 5 5 5 5 5 5 5 6 5 6 5 5 5 5 5 6 5 5 6 5 6 5 5 5 5 6 5 5 5 5 5 5 5 5 5 5 5 6 5 5 5 5 5 5 6 5 5 5 6 5 5 6 5 5 5 5 5 5 5 5 5 5 5 5 5 6 5 5 5 5 5 5 5 5 6 5 5 5 5 6 5 5 5 5 5 5 5 5 6 5 5 5 6 5 5 6 5 5 6 5 5 5 5 5 5 5 5 5 5 5 5 5 5 5 5 5 6 5 5 5 5 5 5 6 5 5 5 5 5 6 5 5 5 5 5 5 5 5 5 5 6 5 5 5 5 5 5 5 5 5 5 5 6 5 5 5 5 5 5 5 5 5 5 5 5 5 5 5 5 5 5 5 6 5 5 5 5 5 5 5 5 5 5 5 5 5 5 6 5 5 5 5 6 5 5 5 5 5 6 5 5 5 5 5 6 5 5 6 5 5 5 5 5 5 6 5 5 5 5 5 5 5 6 5 5 5 5 6 5 6 5 6 6 5 6 5 5 5 6 5 5 5 5 6 5 5 5 5 5 5 6 5 5 5 5 6 5 5 6 5 5 5 6 5 5 5 6 5 5 5 5 5 5 6 5 5 5 5 5 5 5 5 5 5 5 5 6 5 5 6 5 5 5 6 5 6 5 5 5 6 5 6 5 5 5 6 5 6 5 6 6 5 5 5 5 6 5 5 5 5 5 5 5 6 5 5 5 5 5 5 5 5 5 5 6 5 5 5 5 5 5 5 5 5 5 5 6 5 5 5 5 5 5 6 5 5 5 6 5 5 5 6 5 5 5 5 6 5 5 5 5 5 5 5 5 5 5 5 5 6 5 5 5 5 5 5 5 5 6 5 5 5 5 5 5 5 5 6 5 5 6 5 5 5 5 5 5 5 6 5 5 5 6 5 5 6 5 5 5 5 5 6 5 6 5 5 5 5 5 5 5 5 5 5 5 6 5 5 5 5 6 5 5 5 5 5 5 5 5 5 5 6 5 5 5 5 5 5 5 5 5 5 5 5 5 5 5 5 5 5 6 6 5 5 5 5 5 5 5 5 6 5 5 6 5 5 5 5 5 5 5 5 6 5 5 5 5 5 5 5 5 5 5 5 5 5 5 5 5 5 5 5 5 6 5 5 5 6 5 5 5 5 5 5 5 5 5 5 6 5 5 5 5 6 5 5 5 5 5 5 5 6 5 5 5 5 6 5 6 5 5 5 6 6 5 6 6 5 5 6 5 5 5 5 5 6 5 5 5 5 5 5 5 5 5 5 5 5 5 6 5 6 5 5 6 5 5 6 5 5 5 5 5 6 5 5 5 5 5 5 5 5 5 5 5 5 5 6 5 5 5 6 5 5 5 5 5 6 5 5 5 5 5 5 5 6 5 5 5 5 5 5 5 5 5 5 5 5 5 5 5 5 5 5 5 5 5 5 5 5 5 5 5 5 5 5 5 5 5 5 5 5 5 5 5 5 5 5 5 5 5 5 5 5 5 5 5 5 5 5 5 5 5 5 5 5 5 5 5 5 5 5 5 5 5 5 5 5 5 5 5 5 5 5 5 6 5 5 5 6 6 5 5 5 5 5 5 5 5 5 5 5 5 5 5 5 5 5 5 5 5 5 5 5 5 5 5 5 5 5 5 5 5 5 5 5 5 6 5 5 6 5 5 5 5 5 5 5 5 5 5 5 5 5 5 5 5 5 5 6 5 5 5 5 5 5 5 5 6 5 5 5 5 5 5 6 5 5 5 5 5 5 5 5 5 5 5 5 5 5 6 5 5 5 5 5 5 5 5 5 5 5 5 5 5 5 5 5 5 5 5 5 5 5 5 5 5 5 6 5 5 5 5 5 5 5 5 6 5 5 5 6 5 5 5 5 5 5 5 5 5 5 5 5 5 5 5 5 5 5 5 6 5 5 5 5 6 5 5 5 5 5 5 5 6 5 5 5 6 5 5 5 5 5 5 5 5 5 5 5 5 5 5 6 5 5 6 5 6 5 6 5 6 5 6 5 5 5 5 5 5 5 6 5 5 5 5 5 5 5 6 5 5 5 5 6 5 5 5 5 6 5 5 6 5 5 5 5 5 5 5 5 6 5 5 5 5 5 5 5 6 5 5 5 6 5 5 6 5 5 5 5 5 5 5 5 5 5 5 6 6 5 6 5 5 5 5 6 5 5 5 5 6 5 5 6 5 5 6 5 6 5 6 5 5 5 6 5 5 5 5 5 5 5 6 5 5 5 5 5 5 5 5 5 5 5 5 5 5 5 5 5 5 5 5 6 6 5 5 5 5 5 6 6 5 6 5 5 5 5 6 5 6 6 5 5 5 6 5 5 5 5 6 6 5 5 5 6 5 6 5 5 5 5 6 5 5 5 5 5 5 5 5 5 5 5 5 6 5 5 6 5 5 6 5 6 5 5 5 6 5 5 5 5 5 5 6 5 6 5 5 6 5 5 6 6 5 5 6 5 6 5 5 5 6 5 5 5 5 6 5 5 5 5 5 6 6 5 5 5 5 5 6 5 5 6 5 5 5 5 6 5 5 5 5 6 6 6 5 6 5 5 5 6 5 6 5 6 5 6 5 5 6 5 5 5 5 5 5 5 5 5 5 5 5 5 5 5 5 6 6 6 5 5 5 6 5 6 6 5 5 5 5 5 5 5 5 5 5 5 6 6 5 6 5 6 5 5 5 6 5 5 5 5 5 5 5 5 6 5 5 5 6 5 5 5 5 6 5 5 5 5 5 5 5 5 5 6 5 5 5 5 5 6 5 6 5 5 5 5 5 5 5 5 5 5 5 5 6 5 5 5 5 5 5 5 5 5 5 5 5 5 5 5 5 5 5 5 5 6 5 5 6 6 5 5 5 5 5 6 5 5 5 5 5 5 5 5 5 5 5 5 5 6 5 6 5 5 5 5 5 6 6 5 6 5 5 5 5 5 5 5 5 5 5 5 6 5 5 6 5 5 5 5 5 5 6 5 5 5 5 5 5 5 5 6 6 5 5 5 5 5 5 5 6 5 5 6 5 6 5 5 5 5 6 5 5 5 5 6 6 5 5 5 5 5 5 5 5 6 6 5 5 5 5 5 5 5 5 5 5 5 5 5 5 5 5 6 5 5 5 5 5 5 5 5 5 5 5 5 5 5 5 5 5 5 5 5 5 5 5 5 5 5 5 5 5 5 5 5 5 5 5 5 5 5 5 5 5 6 5 5 5 5 5 6 5 5 5 5 5 5 5 6 5 6 6 5 6 5 5 5 5 5 5 5 5 5 6 5 5 5 6 5 5 5 6 5 5 5 5 5 5 5 5 5 5 5 5 5 5 5 5 5 5 5 5 5 5 5 5 5 5 5 5 5 5 5 5 5 5 5 5 5 6 5 5 5 5 5 5 5 5 5 5 6 5 6 5 5 6 5 5 5 6 5 5 5 5 5 5 5 5 5 6 5 5 6 5 5 5 6 5 5 6 6 6 5 5 5 5 5 6 6 5 5 5 5 6 5 5 5 5 5 5 6 5 5 5 6 5 6 5 6 5 5 5 5 5 5 6 6 5 6 6 6 5 5 5 5 5 6 5 6 5 5 5 5 6 5 5 6 5 5 5 5 6 5 5 5 5 5 5 5 6 5 6 5 5 5 5 5 5 5 5 5 5 5 5 6 5 6 5 5 6 5 5 5 5 6 6 5 5 6 5 5 5 5 5 5 5 6 5 6 6 5 5 5 6 5 6 5 5 5 6 5 6 6 5 6 6 5 5 5 5 5 5 5 5 5 5 6 5 5 5 6 5 6 5 5 5 5 5 5 5 6 5 5 5 6 5 5 5 6 5 5 5 5 5 5 5 5 5 5 6 5 5 5 5 6 5 5 5 6 5 5 5 5 5 5 5 5 5 6 5 6 5 5 5 5 5 5 5 5 5 5 5 5 5 6 5 5 5 5 5 5 5 5 5 5 5 5 5 5 5 5 5 5 5 5 5 5 5 5 5 5 6 5 5 5 5 5 6 5 5 5 5 5 5 5 5 5 5 5 5 5 5 5 6 5 5 6 6 5 5 5 5 5 6 5 5 5 5 5 5 6 5 5 5 6 6 5 5 5 5 5 5 5 5 5 5 5 6 5 5 5 5 6 6 6 5 5 6 5 6 5 5 5 5 5 6 6 5 6 5 5 5 6 6 5 5 5 6 5 5 5 5 5 5 5 5 5 5 6 5 5 5 6 5 6 6 5 5 6 5 5 5 5 6 5 5 5 5 5 5 5 5 6 5 5 5 5 5 5 5 6 5 5 5 6 5 5 5 5 5 5 5 5 5 5 6 5 5 5 6 5 5 6 5 5 5 5 5 5 5 6 5 6 5 5 5 5 5 5 5 5 5 5 6 5 5 5 6 5 5 5 6 5 5 5 5 5 5 5 5 5 6 5 5 5 5 5 5 5 5 5 5 5 5 5 5 5 6 6 5 5 5 5 6 5 6 5 6 5 5 5 6 6 6 5 5 5 5 5 5 5 5 5 5 5 5 6 5 5 5 5 6 6 5 5 5 5 5 6 6 5 5 5 5 5 6 5 5 6 5 5 5 5 5 5 5 5 5 6 5 5 5 5 5 5 5 5 5 6 5 5 5 5 5 5 6 6 5 6 5 5 6 5 5 6 6 5 5 6 6 5 5 5 6 5 6 6 5 5 5 6 5 5 5 5 5 5 6 5 6 5 5 6 6 5 5 5 5 6 5 5 5 5 6 5 5 5 5 5 5 5 5 5 6 5 5 5 5 5 5 5 5 5 5 5 5 5 5 5 5 5 5 5 5 6 5 5 5 6 5 5 5 5 5 5 5 5 6 5 5 6 5 5 6 5 5 5 5 5 5 6 5 5 5 5 5 5 5 5 5 5 5 6 5 5 5 5 5 5 6 5 5 5 6 5 5 5 5 5 5 5 5 5 5 5 5 6 5 5 6 5 5 5 5 5 6 5 5 5 5 5 5 5 5 5 5 5 5 5 5 5 5 5 5 5 5 5 6 5 5 5 5 5 5 5 5 5 5 5 5 5 5 5 6 5 5 6 5 5 5 5 5 5 5 6 5 5 5 5 6 5 5 5 5 5 5 5 5 5 6 5 5 5 5 5 5 5 5 5 5 5 5 6 5 6 5 6 5 6 5 5 5 5 5 5 5 5 6 5 5 5 5 5 5 5 5 5 5 5 5 6 5 5 5 6 5 5 6 5 5 6 5 5 6 5 5 5 5 5 5 5 5 5 5 5 5 5 5 6 5 6 5 6 5 5 5 5 6 5 5 6 5 5 5 5 5 6 5 5 6 5 5 5 5 6 5 5 5 5 6 6 5 5 5 5 5 5 5 5 6 6 5 5 5 5 6 5 5 6 5 6 5 5 5 6 5 5 5 5 6 6 5 5 5 6 5 5 5 5 5 5 5 5 5 5 5 5 5 5 6 5 5 6 5 5 6 5 5 5 5 6 5 5 5 5 6 5 5 5 5 5 5 5 5 6 5 5 5 5 5 5 6 6 5 6 5 5 5 5 5 5 5 5 5 5 5 5 6 5 5 5 5 5 5 5 5 6 5 5 5 5 5 5 6 5 5 6 5 5 5 5 5 5 5 5 6 5 5 5 5 5 5 5 5 5 5 5 5 5 5 5 5 5 6 5 5 5 5 5 5 5 5 5 5 5 5 5 5 5 6 6 5 5 5 5 5 5 5 5 5 5 5 5 5 5 5 5 5 5 5 5 5 5 5 5 5 5 5 5 5 5 5 5 5 6 5 5 6 5 6 5 5 6 5 5 5 6 6 5 5 6 6 5 5 6 5 5 6 5 6 5 5 5 5 6 5 5 6 6 5 5 6 6 5 6 5 5 6 6 5 5 6 5 5 6 5 5 6 5 6 5 5 5 5 5 6 5 6 5 5 5 6 5 5 6 5 6 6 5 5 5 6 6 5 5 6 6 5 5 6 5 6 5 5 5 6 5 6 5 5 5 6 5 5 5 5 5 5 5 6 5 6 5 5 5 5 6 5 5 6 5 5 5 5 5 5 5 5 5 6 5 5 5 5 5 5 5 5 5 5 5 6 6 5 5 5 5 5 5 5 6 5 5 5 5 5 5 5 5 5 5 5 5 5 5 5 5 5 5 5 5 5 6 5 6 5 6 5 5 5 6 5 5 5 5 5 6 6 5 5 6 5 5 5 5 5 5 5 5 5 5 6 5 5 5 5 5 6 5 5 5 5 5 5 5 5 5 5 5 5 5 5 5 5 5 5 5 5 5 5 5 5 6 6 5 5 5 6 5 5 5 5 5 5 5 5 5 5 5 6 6 5 5 5 5 6 6 5 6 5 5 5 6 5 5 5 6 6 5 5 6 6 5 5 5 5 5 5 5 5 5 5 5 5 6 5 5 5 5 5 5 5 5 5 5 5 5 5 5 6 5 6 5 5 5 6 6 5 5 5 5 5 5 5 6 5 5 5 5 6 6 5 6 5 5 6 6 6 5 5 5 6 6 5 5 5 5 5 5 5 5 5 6 5 6 6 5 6 5 5 5 5 5 6 6 5 5 5 6 5 5 5 5 6 5 5 5 5 5 5 5 5 5 5 5 5 5 5 5 5 5 6 6 5 5 5 6 5 5 5 6 5 5 5 5 5 5 5 5 5 5 5 6 5 5 5 5 5 5 5 5 5 5 5 5 5 5 5 5 5 6 5 5 5 5 5 5 5 5 5 5 5 5 5 5 5 5 5 6 5 5 5 5 5 5 5 5 5 5 5 5 5 6 5 5 6 5 5 6 5 5 5 5 5 5 5 5 5 6 5 6 5 5 5 5 5 5 5 5 6 5 5 5 5 5 5 5 5 5 6 5 5 5 5 5 5 5 5 5 5 5 5 5 5 6 5 5 5 5 5 5 5 5 6 5 5 6 5 5 5 6 5 5 5 6 5 6 6 5 5 5 6 5 6 5 5 5 5 6 5 5 5 5 5 5 5 6 6 5 5 5 5 6 6 6 5 6 5 5 5 5 5 5 5 6 5 5 5 5 6 5 5 5 5 5 5 5 5 5 5 5 5 5 5 5 5 5 5 5 5 5 5 5 5 5 5 5 5 5 5 6 5 5 5 5 5 5 5 5 5 5 5 5 5 5 6 5 5 5 5 6 5 5 5 5 5 5 5 5 5 5 5 5 5 6 5 5 6 5 5 5 5 5 5 5 5 5 5 6 5 5 5 6 5 5 6 5 5 5 6 5 5 6 5 5 5 6 5 5 6 5 5 5 5 5 5 5 5 6 5 6 5 5 5 6 5 5 5 5 5 5 5 6 5 5 6 5 5 6 5 5 5 5 5 5 5 5 5 5 5 5 5 5 5 5 5 5 5 5 5 5 6 5 5 6 5 5 5 6 5 5 5 5 5 6 5 5 5 5 5 5 5 5 5 5 5 5 5 6 5 5 5 5 5 5 5 5 5 5 6 5 5 5 5 5 5 5 5 5 5 5 5 5 5 6 5 5 5 6 5 5 5 5 5 5 5 5 5 5 5 6 5 5 5 5 5 6 5 5 5 5 6 5 5 5 6 5 5 5 5 5 5 5 5 5 5 5 5 5 5 5 5 6 5 5 5 6 5 5 5 6 5 5 5 5 5 5 5 5 5 5 5 5 5 5 5 5 5 5 5 5 6 6 5 5 5 5 5 5 6 6 5 6 5 5 5 5 5 5 5 5 5 5 6 5 5 5 6 5 5 6 5 5 5 5 5 5 5 5 6 5 5 5 5 6 5 5 5 5 5 5 5 5 5 5 5 5 6 5 5 6 5 5 5 5 5 5 5 5 5 5 5 5 5 5 5 5 5 5 5 5 5 5 5 5 6 5 5 5 5 5 5 6 5 5 5 6 5 5 5 5 5 5 5 5 5 5 5 5 5 5 5 5 5 5 5 5 5 5 5 5 6 5 6 5 5 5 5 5 5 5 5 5 5 5 5 5 5 6 5 5 5 5 5 5 6 5 5 6 6 5 5 5 5 6 5 5 5 5 5 5 5 5 5 5 5 5 5 5 5 5 5 5 5 5 5 5 5 5 5 5 5 5 5 5 5 5 5 5 5 5 5 5 5 5 5 5 5 5 5 5 6 5 5 5 6 5 5 5 5 5 5 6 5 5 5 6 5 5 5 5 5 5 5 5 5 5 5 5 5 5 6 5 5 6 5 5 6 5 5 6 5 6 5 5 5 6 5 6 5 5 6 5 5 6 5 5 5 5 5 5 5 5 5 5 6 5 5 5 5 6 5 5 5 5 5 6 5 5 6 5 6 5 5 5 5 6 5 5 5 6 5 5 5 5 6 5 5 5 5 5 5 6 5 6 5 5 5 5 5 5 6 5 5 5 5 5 5 5 5 5 5 5 5 6 5 5 6 5 5 5 5 5 5 6 5 5 5 6 5 5 5 5 6 5 5 6 5 5 5 5 6 6 5 5 6 5 6 5 5 6 5 5 5 5 5 6 5 5 5 5 5 5 5 5 5 5 5 5 5 5 5 5 5 6 5 5 5 5 5 5 5 5 5 5 5 5 5 6 5 5 5 5 5 5 6 5 5 5 5 6 6 5 5 5 5 5 5 5 5 5 5 5 5 5 5 5 5 5 5 5 5 5 5 6 5 5 5 5 5 5 5 5 5 6 5 6 5 5 5 5 5 5 5 5 5 5 5 5 5 5 5 5 5 5 5 5 5 6 5 5 5 6 5 5 5 5 5 5 5 5 5 5 5 5 5 5 5 5 5 5 5 5 5 5 6 5 5 5 6 6 5 5 5 5 5 5 5 5 5 6 5 5 5 5 5 5 5 5 5 6 5 5 6 5 5 5 6 5 6 5 5 6 5 5 6 5 6 6 5 5 5 5 5 5 5 5 5 5 5 5 5 6 5 5 5 5 5 6 5 5 5 5 5 6 5 6 5 6 5 5 6 6 5 5 5 5 5 5 5 5 5 5 5 5 5 6 5 5 5 5 5 5 6 5 5 5 5 5 5 6 5 6 5 5 5 5 5 6 5 6 6 5 5 5 5 6 5 5 6 6 5 5 5 5 6 5 6 6 5 5 6 6 5 5 5 5 5 5 5 6 5 5 6 5 6 5 5 5 6 5 5 5 5 5 6 5 6 5 5 5 6 6 5 5 5 5 6 6 5 5 5 5 5 5 5 5 6 5 5 5 5 5 5 5 5 6 6 5 5 5 5 5 5 5 5 5 5 6 5 5 5 5 5 5 6 5 5 5 5 5 5 5 5 5 5 6 5 5 6 5 5 5 5 5 5 5 5 5 5 5 5 5 5 5 6 5 5 5 5 6 5 5 6 5 5 5 5 5 5 5 5 5 6 5 6 5 5 5 5 5 5 5 5 5 5 5 5 5 5 5 5 5 5 5 6 5 5 5 5 5 5 6 5 5 5 6 5 5 5 5 5 5 6 5 5 5 5 6 5 5 5 6 5 5 6 6 5 5 5 6 5 5 5 5 5 5 5 5 5 5 6 5 5 5 5 6 5 6 6 5 5 5 5 5 5 5 5 5 6 5 5 5 5 5 5 5 6 5 6 5 5 5 5 5 5 5 6 5 5 6 5 5 5 5 5 5 5 6 5 5 5 6 5 5 5 5 5 5 5 5 5 5 5 5 5 5 6 5 5 5 5 5 5 5 6 5 5 5 5 6 6 5 6 5 6 5 5 6 5 5 5 6 5 5 5 5 5 5 5 5 6 5 6 5 6 5 5 5 5 5 6 6 5 5 5 5 5 5 6 5 6 5 5 5 5 5 5 5 5 5 5 5 5 5 5 5 5 5 5 5 5 6 5 5 5 5 5 5 6 5 5 5 5 5 5 5 5 5 5 5 5 5 5 5 5 5 5 5 6 5 5 6 5 5 5 5 5 6 5 6 5 6 5 5 5 5 5 5 5 6 5 5 5 6 6 5 5 5 6 5 6 5 5 5 5 5 5 5 5 6 6 5 5 5 6 5 5 5 6 5 6 6 6 5 5 6 5 5 6 5 5 5 6 5 5 5 5 6 5 5 5 5 5 5 5 5 5 6 5 5 5 5 5 6 5 5 5 5 5 6 5 5 5 5 5 5 5 5 5 5 5 5 5 5 5 5 5 5 5 5 5 5 5 5 5 5 5 5 5 5 5 5 5 5 5 5 5 5 5 5 5 5 6 5 5 5 5 5 5 5 5 5 5 6 5 5 5 5 6 5 5 5 5 5 5 5 5 5 5 5 5 5 5 6 5 5 5 6 5 5 5 5 5 5 5 5 5 6 5 5 5 5 5 5 6 5 5 5 5 5 5 5 5 5 5 5 6 5 5 5 5 6 5 5 5 5 5 5 5 6 5 5 5 5 5 5 5 6 5 5 5 5 6 5 5 6 5 5 5 5 5 5 5 5 5 5 5 6 5 5 5 6 5 5 5 6 6 5 5 5 6 5 5 5 5 5 5 5 6 5 5 6 6 5 5 5 5 5 6 6 5 6 5 5 5 5 5 5 5 5 5 5 5 5 5 5 5 5 6 5 5 5 5 5 5 6 6 5 5 5 5 5 5 5 6 5 6 5 5 6 5 5 5 5 5 5 5 5 5 5 6 5 5 5 5 5 6 5 5 5 5 5 5 5 5 5 5 6 5 5 5 5 5 5 5 6 5 6 5 5 5 6 5 5 6 5 5 6 5 5 6 5 6 5 6 5 5 5 6 5 5 5 5 6 5 5 5 6 6 5 5 5 5 5 5 5 5 5 6 5 5 5 5 5 5 5 5 5 5 5 5 5 5 5 5 6 5 5 5 5 6 5 5 6 5 5 5 5 5 5 5 6 5 5 5 5 5 5 5 5 5 5 5 5 5 5 5 6 5 5 5 5 5 5 5 5 6 5 5 5 5 5 5 5 5 5 5 6 5 6 5 5 5 5 6 5 5 5 5 6 6 5 5 6 5 5 5 5 5 5 5 5 5 5 5 5 5 6 5 5 5 5 5 5 5 5 5 5 5 5 5 5 5 5 6 5 5 6 6 5 5 5 5 5 5 5 5 5 5 5 5 6 5 5 5 6 6 5 5 5 5 6 5 5 6 5 6 5 5 6 6 6 5 5 5 5 5 5 5 6 5 6 5 5 5 5 6 5 5 5 5 5 5 5 5 5 5 5 5 5 5 6 5 5 6 5 5 5 6 5 6 5 6 5 6 5 5 5 5 5 5 6 5 6 5 5 5 5 5 5 5 5 5 5 6 5 5 5 6 5 5 5 5 5 6 5 5 5 5 5 5 5 5 5 5 5 5 5 5 5 5 5 5 5 5 6 5 5 5 6 5 5 6 5 5 5 5 6 6 5 5 5 5 6 5 5 5 6 5 5 5 5 5 5 5 5 5 5 5 5 5 6 5 5 5 6 5 5 6 5 5 5 5 5 5 5 5 5 5 5 5 5 5 6 5 5 5 5 5 5 5 5 5 6 6 5 5 5 5 5 5 5 5 6 6 5 5 6 5 6 5 6 5 5 5 5 5 5 5 5 5 5 5 6 5 5 5 5 5 5 5 5 5 5 6 5 6 5 5 5 5 5 5 5 5 5 5 5 5 5 5 5 5 5 5 5 5 5 5 5 5 5 6 5 5 5 5 5 5 6 5 5 6 5 5 5 5 5 5 5 5 5 5 5 5 5 5 5 6 5 5 5 5 6 5 5 5 6 5 6 5 6 5 5 5 5 5 5 5 5 6 5 5 5 5 5 5 5 6 5 5 5 5 5 5 5 5 5 5 5 6 5 6 5 5 5 5 5 5 6 5 5 5 5 5 5 5 5 5 5 5 5 5 5 5 5 5 5 6 5 5 5 5 5 5 5 5 5 5 5 5 5 5 5 5 5 6 5 5 5 5 5 5 6 5 5 5 5 5 5 6 5 5 5 5 5 5 5 6 5 5 5 6 5 5 5 5 5 5 5 5 5 5 5 5 5 5 5 5 5 5 5 5 5 5 5 5 5 5 5 5 5 5 5 5 5 5 5 5 5 5 5 5 5 5 5 5 5 5 5 5 5 5 5 5 5 5 5 5 5 5 5 5 5 6 5 5 5 6 5 6 6 5 5 5 5 5 5 5 5 5 5 5 5 5 5 5 5 5 5 5 5 6 5 6 6 5 5 5 5 5 5 5 5 5 5 5 5 5 5 5 5 5 6 6 5 5 5 5 5 6 6 5 5 6 5 5 6 5 5 5 6 5 5 5 5 5 5 5 6 5 5 5 5 5 5 5 5 5 5 5 6 5 5 5 5 6 5 5 5 5 5 5 5 5 5 5 5 5 5 5 5 5 5 5 5 5 5 5 5 5 5 5 5 5 5 5 5 5 5 5 5 5 5 5 5 5 5 5 5 5 5 5 5 5 5 5 5 5 5 5 5 5 5 5 5 5 5 5 5 5 5 5 6 5 5 5 5 5 5 6 5 5 5 5 5 5 6 5 5 5 5 6 5 5 5 5 5 5 5 5 5 5 5 5 5 5 6 5 5 5 5 5 5 5 5 5 5 5 5 5 5 5 5 5 5 5 5 5 5 5 5 6 5 5 5 5 5 5 5 5 5 5 5 6 5 6 6 5 5 5 5 5 5 5 5 5 5 5 5 5 5 5 6 5 5 5 5 5 5 5 5 5 5 6 5 5 5 5 5 5 5 5 6 5 5 5 5 5 5 5 5 5 5 5 5 5 5 5 6 5 5 6 5 5 5 5 6 5 5 5 5 5 5 5 6 5 5 5 5 5 5 6 5 5 5 6 5 5 5 5 6 6 5 5 6 5 5 5 5 5 5 5 5 5 5 6 5 5 5 5 5 6 5 5 5 5 5 5 5 5 5 5 5 5 5 5 5 5 5 5 6 5 5 5 6 6 5 5 5 6 6 5 5 5 6 5 5 5 5 5 5 5 5 5 5 5 5 5 5 5 5 5 5 5 5 5 5 5 5 5 5 5 5 5 5 5 5 5 5 5 5 5 5 5 5 5 5 5 5 5 5 5 5 5 5 5 5 5 5 5 5 5 5 5 5 5 5 5 5 5 5 6 5 5 5 5 6 5 5 6 5 5 5 5 5 5 5 5 5 5 5 5 5 5 6 5 6 5 5 5 5 5 5 5 5 5 5 5 5 5 5 5 5 5 5 5 5 5 5 5 5 5 5 5 5 5 5 6 5 5 6 5 5 5 5 5 5 5 5 6 5 5 5 5 6 5 5 5 5 5 5 5 5 5 5 5 5 5 5 5 5 5 5 5 5 5 5 5 5 5 5 5 5 5 5 5 5 5 5 5 5 5 5 5 5 5 5 5 5 5 5 5 5 5 5 5 5 5 5 5 5 5 5 5 5 5 5 5 5 5 5 5 5 5 5 5 5 5 5 5 5 5 5 5 5 5 5 5 5 5 5 5 5 5 6 5 5 5 5 6 5 5 5 5 5 5 5 6 5 5 5 5 6 5 5 5 5 5 5 5 5 5 5 5 5 5 5 5 5 5 5 5 5 5 5 5 5 5 5 5 5 5 5 5 5 5 5 5 5 5 5 5 5 6 6 5 5 5 5 5 5 5 5 5 5 5 5 5 5 5 6 5 5 5 5 5 5 5 5 5 6 5 5 5 5 5 6 5 5 5 5 5 5 5 5 5 5 5 5 5 5 5 5 5 5 5 5 5 5 5 5 5 5 5 5 5 6 6 5 5 6 6 6 5 5 5 5 5 6 6 5 6 5 5 5 5 5 5 5 5 6 5 6 5 5 5 5 5 5 5 5 5 5 5 5 5 5 5 5 5 5 5 5 5 5 5 5 5 5 5 5 6 5 5 5 5 5 6 5 5 5 5 5 5 5 5 5 5 5 5 5 6 5 5 5 5 5 5 5 6 5 5 5 5 5 5 5 6 5 5 5 5 5 5 5 5 5 5 5 5 5 5 5 5 5 5 5 5 6 5 6 5 5 5 5 6 5 5 6 5 5 5 6 5 5 5 5 5 5 5 5 6 6 5 6 5 6 5 5 6 5 5 5 6 5 5 5 5 5 5 5 5 5 6 5 5 6 5 5 5 5 5 5 5 5 6 5 5 5 6 5 5 5 5 6 5 5 5 5 5 5 5 5 5 5 5 5 6 5 5 5 6 5 5 5 5 5 5 5 5 6 5 5 5 5 6 5 5 5 5 5 6 5 5 5 5 5 6 5 5 6 5 5 5 5 5 5 6 5 5 5 5 5 5 5 5 5 5 5 5 5 5 5 5 5 5 5 5 5 5 5 5 5 5 5 6 5 5 5 5 5 6 5 5 5 5 5 5 5 6 5 5 5 5 5 5 5 5 5 5 5 5 5 5 6 5 5 5 5 6 5 5 5 5 5 5 5 5 5 5 5 5 5 5 5 5 5 5 5 5 5 5 5 5 5 5 5 5 5 5 5 6 6 5 5 5 5 5 5 6 5 5 6 5 5 5 5 5 5 5 5 5 5 5 5 6 5 5 5 5 5 5 5 5 5 5 5 6 5 5 5 6 5 5 5 6 5 5 5 6 5 5 5 6 5 5 5 5 5 5 5 6 5 5 5 5 6 5 5 5 5 5 5 5 5 5 5 5 5 5 6 5 5 5 5 5 5 5 5 5 5 6 5 5 5 5 6 5 5 5 6 5 5 5 5 5 5 5 6 6 5 6 6 5 5 5 6 5 5 5 5 5 5 5 6 5 5 6 5 5 5 5 5 5 5 5 5 5 5 6 5 5 5 6 5 5 6 5 5 6 5 5 5 5 5 5 5 5 5 5 6 5 5 5 5 5 6 6 5 5 5 5 5 5 5 5 6 5 5 5 6 5 5 5 5 5 6 5 5 5 5 5 6 5 5 5 5 6 5 5 5 5 5 6 5 5 6 5 5 5 5 6 5 5 5 5 5 5 5 5 5 5 5 5 5 5 5 5 5 5 6 5 5 6 5 5 5 5 5 5 5 6 5 5 6 5 5 6 6 5 5 5 5 5 6 5 5 5 6 5 5 5 6 6 5 6 5 5 5 5 5 5 5 5 5 5 5 5 5 6 5 5 5 6 5 5 5 5 5 5 5 5 5 5 5 5 5 5 5 5 5 5 5 5 5 5 5 5 5 5 5 5 5 5 5 5 5 5 5 5 5 6 5 5 6 5 5 5 5 5 6 5 5 6 5 5 5 6 5 5 6 5 5 5 5 5 5 5 5 5 5 5 5 5 5 5 5 5 5 5 5 5 5 6 5 6 5 5 5 5 5 5 5 5 5 5 5 5 5 5 5 6 5 5 5 5 5 5 6 6 5 6 5 5 5 5 5 5 5 5 5 6 5 5 6 5 5 5 5 5 5 5 5 5 6 5 5 5 5 5 5 6 5 5 5 6 5 6 5 6 5 5 5 5 5 6 5 5 5 5 6 5 5 5 5 5 5 5 5 5 5 6 5 5 5 5 5 5 5 5 5 6 5 5 5 5 6 5 5 6 5 5 5 6 5 5 5 5 6 5 5 5 6 5 5 5 6 5 5 5 5 6 6 5 5 6 5 5 5 5 5 5 5 5 5 6 5 6 5 5 5 5 6 5 5 5 5 6 6 5 5 6 5 6 6 5 5 6 5 5 5 5 5 5 5 5 5 5 5 5 5 5 5 5 5 5 5 5 5 5 5 5 6 5 6 5 5 5 5 5 5 6 5 6 5 5 5 5 5 5 6 5 5 5 6 5 5 5 5 5 6 5 6 5 5 5 5 5 5 6 5 6 5 5 5 5 5 5 6 5 5 6 5 6 6 5 5 6 5 6 5 5 6 5 5 5 6 5 6 5 6 5 5 5 5 5 5 5 6 5 5 5 5 5 5 5 5 6 5 5 5 6 5 5 5 5 5 6 5 6 5 5 6 6 6 5 5 6 5 5 5 6 5 5 5 5 6 5 5 5 5 5 5 5 5 5 5 5 5 6 5 5 6 5 5 6 5 6 5 6 5 5 6 5 5 5 5 5 5 5 6 5 6 5 5 5 5 5 5 5 6 5 5 5 6 5 5 5 5 6 5 5 5 5 5 5 5 5 5 5 5 5 5 5 5 5 5 5 5 5 5 5 5 5 5 5 5 5 5 5 5 5 6 5 5 5 5 5 5 5 5 5 5 5 5 5 5 5 5 5 5 6 5 5 5 5 5 5 5 5 5 5 5 5 5 5 5 5 5 5 5 5 5 5 5 5 5 5 5 5 5 5 6 5 5 5 5 5 5 6 5 5 5 5 6 5 5 5 5 5 5 5 5 5 5 5 5 6 5 6 5 5 5 5 5 5 5 5 5 5 5 5 6 5 5 5 5 5 5 5 5 5 5 5 5 5 5 5 5 5 5 5 5 5 5 5 5 5 5 5 5 5 5 5 5 5 5 5 5 5 5 5 5 5 5 5 6 5 5 5 5 5 5 5 5 5 5 6 5 5 5 5 5 5 5 5 5 5 5 5 6 5 5 5 5 5 5 5 5 5 5 5 5 5 5 5 5 5 5 5 5 5 5 5 5 5 5 5 5 6 5 5 5 5 5 6 6 5 5 6 5 5 6 5 5 5 5 5 5 5 6 5 5 5 5 5 5 5 5 5 5 5 5 5 5 6 5 5 5 5 6 5 6 5 6 6 5 5 5 6 6 5 5 5 5 5 6 5 5 5 5 5 6 5 5 5 5 5 5 5 5 6 5 5 5 5 6 5 6 5 5 6 5 5 5 5 5 6 5 5 5 5 5 5 5 5 6 5 6 5 5 5 5 5 5 6 5 5 5 5 5 5 5 5 6 5 5 5 6 5 5 6 5 5 6 5 5 5 5 5 5 5 5 5 5 5 5 5 5 5 5 5 5 5 5 5 5 5 5 5 5 6 5 5 5 5 5 5 5 5 5 5 5 5 5 5 5 5 5 5 5 5 5 5 5 5 5 5 5 5 5 5 5 5 5 5 5 5 5 5 5 5 5 5 5 5 5 5 5 5 5 5 6 5 5 5 5 5 5 5 6 5 6 5 5 5 5 5 5 5 5 5 5 5 5 5 5 5 5 5 5 5 5 5 6 5 5 5 6 5 5 5 5 5 5 5 5 5 5 5 5 5 5 5 5 6 5 5 5 5 5 5 5 5 5 5 6 5 5 6 5 5 5 5 5 5 5 5 5 5 5 5 5 5 5 5 5 5 5 5 5 5 5 5 5 5 5 6 5 5 5 5 5 5 5 6 5 5 5 5 5 5 5 5 5 5 6 5 5 5 5 6 5 5 6 5 6 5 5 5 5 5 6 5 5 5 5 5 6 5 5 5 5 5 5 5 5 5 5 5 5 5 5 6 5 5 5 5 5 5 5 5 5 5 5 5 5 6 5 5 5 5 5 5 5 5 5 5 5 5 5 5 5 5 5 5 5 5 5 5 5 5 5 5 5 5 5 5 5 5 5 5 6 5 6 5 5 5 5 5 5 5 5 6 5 5 5 5 5 5 5 6 5 5 6 5 5 5 6 5 5 5 5 5 5 6 5 5 5 5 5 5 5 5 5 5 5 5 5 5 5 5 5 5 5 5 5 5 5 5 5 5 5 5 5 5 5 5 6 6 5 5 5 5 5 5 5 5 5 5 5 5 6 5 5 5 5 5 5 5 5 5 6 5 5 5 5 5 6 5 5 5 6 5 5 5 5 5 5 5 5 5 5 5 5 5 5 5 5 5 5 6 5 5 5 5 5 5 5 6 5 5 5 6 5 5 5 5 5 5 5 5 5 5 6 5 5 5 5 5 5 5 5 5 5 5 5 5 5 6 5 6 5 5 5 5 6 5 5 5 5 5 5 5 5 5 5 5 5 5 5 5 5 5 5 6 5 5 5 5 5 5 5 5 5 5 5 5 5 5 5 5 5 5 5 5 5 5 6 5 5 5 5 5 5 5 6 5 5 5 5 5 5 6 5 5 5 5 6 5 5 5 5 5 5 5 5 5 5 5 5 5 5 5 5 5 6 6 5 5 5 5 5 5 5 5 5 5 5 5 5 5 5 5 5 5 5 5 5 5 5 5 5 5 6 5 5 5 6 5 5 5 5 6 5 6 6 5 5 5 5 5 5 5 5 5 5 6 5 5 6 6 5 5 5 6 5 5 5 5 5 5 5 5 5 6 6 6 5 5 5 5 5 6 5 5 5 5 6 5 5 5 5 5 5 5 5 5 5 5 5 5 5 5 5 5 5 5 5 5 5 5 5 5 5 5 6 5 5 5 5 5 5 6 6 5 5 5 5 5 5 5 6 5 6 5 5 5 6 5 5 6 5 6 6 5 5 6 6 5 5 6 5 6 5 5 5 5 5 6 5 5 5 5 5 6 5 5 6 5 5 5 6 6 5 6 5 5 5 6 5 6 6 5 5 5 5 5 5 5 5 5 5 6 5 5 5 6 5 5 6 5 5 5 5 5 5 5 5 5 5 5 5 5 5 5 5 6 5 5 5 5 5 6 5 5 5 5 5 5 5 5 6 5 5 5 5 5 5 6 5 6 6 5 6 6 5 5 5 6 5 6 6 5 5 5 5 5 5 5 5 6 5 5 5 6 5 5 6 5 6 5 5 6 5 5 5 5 5 6 5 5 5 5 5 5 6 5 5 5 5 5 5 5 6 6 6 6 6 5 5 5 5 5 6 5 5 6 5 5 5 6 6 5 6 5 5 5 5 5 6 6 6 6 5 5 5 6 6 5 5 5 5 5 5 5 5 6 5 5 5 5 6 5 5 5 6 5 5 5 5 5 6 5 5 5 6 5 5 5 5 5 5 5 5 5 5 5 5 5 5 5 5 5 5 6 5 6 5 5 5 5 5 5 5 6 5 6 5 5 5 5 5 6 5 5 5 5 5 5 5 5 5 5 5 5 6 5 5 5 5 5 5 5 5 5 5 5 5 5 5 6 6 5 5 5 5 5 6 6 5 5 6 5 6 5 5 5 5 6 5 5 5 5 6 5 6 6 5 6 5 5 5 6 5 5 6 5 5 5 5 5 5 5 5 5 6 5 5 5 5 6 6 5 6 5 5 5 5 5 5 5 5 5 5 5 5 6 5 5 5 5 5 5 5 5 5 5 6 5 5 5 5 6 5 5 5 6 5 5 5 5 5 5 5 5 5 5 5 5 5 5 5 6 5 5 5 5 5 5 5 5 6 5 5 5 5 5 5 6 6 5 5 5 6 5 6 5 5 5 5 5 5 5 5 6 6 5 5 5 6 5 5 5 5 5 5 5 5 5 5 5 5 5 5 5 6 6 5 5 5 5 5 5 5 6 5 5 6 5 5 6 5 5 5 5 5 5 5 5 5 5 5 5 5 5 6 5 5 5 5 6 5 5 5 5 5 5 5 5 6 5 5 5 5 5 5 5 5 6 6 6 6 5 5 6 5 5 5 6 6 5 5 6 5 6 5 5 6 6 6 5 5 6 5 5 5 6 6 5 6 5 5 5 5 6 5 5 6 6 6 5 5 5 5 6 5 6 5 5 5 5 5 5 6 5 5 5 5 5 5 6 5 5 5 5 5 5 5 5 5 6 5 5 5 5 5 5 5 5 6 6 5 5 5 5 5 5 5 5 5 5 5 6 5 5 5 5 6 5 5 5 5 5 5 5 5 5 6 5 5 5 6 5 5 5 5 5 5 5 5 5 5 5 5 5 5 5 5 5 6 5 5 5 5 5 5 5 5 5 5 6 5 5 5 5 5 5 5 5 5 5 5 6 5 5 5 5 5 5 5 5 5 5 5 5 5 5 5 6 5 5 5 5 6 5 6 5 5 5 5 5 5 5 5 5 5 5 5 5 5 6 6 5 5 5 5 5 6 5 6 5 5 5 5 6 5 5 5 5 5 5 5 5 5 5 5 5 6 5 5 5 5 5 5 5 5 5 5 5 5 5 5 5 5 5 5 6 5 5 5 5 5 6 5 5 5 5 5 5 5 5 5 5 5 5 5 5 5 5 5 5 5 5 5 5 6 5 5 5 5 5 5 5 5 5 5 5 5 5 5 5 5 5 5 6 5 5 6 5 5 5 5 5 5 6 5 5 5 6 5 5 5 6 5 5 5 5 6 5 5 6 5 5 6 5 6 5 5 5 6 5 6 5 5 6 5 6 5 5 5 5 5 5 5 5 6 5 5 6 5 5 6 5 5 5 6 6 5 5 5 5 5 5 5 5 5 6 5 5 5 5 5 5 5 5 5 5 5 5 5 5 5 5 5 5 5 5 6 5 5 5 5 5 5 5 6 5 6 5 5 5 5 6 5 5 5 5 5 5 5 5 5 5 5 5 5 5 5 5 5 5 5 5 5 5 5 6 5 5 5 5 5 6 5 5 5 5 5 6 5 5 6 5 6 5 6 5 5 5 5 5 5 5 5 5 5 5 6 5 6 6 5 5 5 5 5 6 5 6 6 6 5 5 5 5 6 5 6 5 6 6 5 5 6 6 5 6 5 6 5 5 6 5 5 5 5 5 5 5 5 5 5 5 5 5 5 6 5 5 5 5 5 6 5 6 5 6 5 6 5 5 6 5 6 5 5 5 5 5 5 5 5 6 5 5 5 5 5 5 5 6 5 5 5 5 5 5 6 5 6 5 5 6 5 5 6 5 5 5 5 5 6 5 5 6 5 5 6 5 5 5 6 5 5 5 5 5 5 5 5 6 6 5 5 5 6 5 6 5 5 5 6 5 5 5 5 6 6 6 5 5 5 6 5 6 6 5 5 5 5 6 5 5 5 6 5 5 6 6 5 5 5 5 6 5 5 5 5 6 6 5 5 5 6 6 5 5 6 5 5 5 5 5 5 6 5 5 6 5 5 5 6 5 5 6 5 5 6 5 5 5 5 5 5 5 5 5 5 5 5 5 5 5 6 5 5 6 6 5 5 5 6 5 5 5 6 5 5 6 5 5 5 5 5 5 5 5 5 6 5 5 5 6 5 5 5 5 5 5 5 5 6 6 5 5 5 6 5 5 5 5 5 5 5 5 6 5 5 5 5 5 5 5 5 6 5 5 5 6 5 5 6 5 5 5 5 5 5 5 5 5 5 5 5 5 5 6 5 5 5 5 5 5 5 5 5 5 5 5 5 6 6 5 5 5 5 5 6 5 6 6 6 5 6 5 5 5 5 5 5 6 6 5 5 5 5 6 5 6 5 5 5 5 5 6 5 5 5 5 5 5 5 5 5 6 5 5 5 5 6 5 5 6 5 5 5 5 5 5 5 5 5 5 6 5 5 5 5 5 5 5 5 6 5 5 5 6 5 6 5 5 5 5 5 5 5 5 5 5 5 6 5 6 6 5 6 5 5 5 5 6 5 5 5 5 6 5 5 5 5 5 5 5 5 5 5 5 5 5 5 5 6 5 5 5 5 5 5 5 6 5 5 6 5 5 6 5 6 5 5 5 5 6 6 5 5 5 5 5 5 5 6 5 5 5 5 5 6 5 5 5 5 5 5 5 5 5 5 5 6 5 5 5 6 5 5 5 5 5 5 6 6 5 5 5 6 5 5 5 5 5 5 5 5 5 6 5 5 6 5 5 5 5 6 5 5 5 5 6 5 6 5 6 5 6 5 5 5 5 6 5 5 6 5 5 6 5 6 5 5 5 6 6 5 6 5 6 5 5 5 5 6 5 5 5 5 5 6 5 5 5 5 5 5 5 5 5 5 5 5 5 5 5 5 5 5 5 5 5 5 5 5 5 6 5 5 5 5 5 5 5 5 6 5 5 5 5 6 5 5 6 5 5 5 5 5 5 5 5 5 5 5 5 5 5 5 5 5 6 5 6 5 6 5 5 5 5 5 5 5 5 5 5 5 5 5 5 5 6 6 5 5 5 5 5 5 5 5 5 5 5 5 5 5 5 5 5 5 5 5 5 5 5 5 5 5 5 5 5 5 5 5 5 5 5 5 5 5 5 5 5 5 5 5 5 5 6 5 5 5 5 5 5 5 5 6 5 5 5 5 5 5 5 5 5 5 6 5 5 5 6 5 5 6 5 5 5 5 5 6 5 5 5 5 5 5 5 5 5 5 5 5 5 5 5 5 5 5 5 5 5 5 5 5 5 5 5 5 5 5 5 5 5 5 5 5 5 5 5 5 5 5 5 5 5 5 5 5 5 5 5 6 5 5 5 5 5 5 5 5 5 5 5 5 5 5 5 5 5 6 5 5 5 5 5 5 5 5 5 5 5 5 5 5 5 5 5 5 5 5 5 5 5 5 5 5 5 5 5 5 5 5 5 5 5 5 5 5 5 5 5 5 5 5 5 5 5 5 5 5 5 5 5 5 5 5 5 5 5 5 5 5 5 5 5 5 5 5 5 6 5 5 5 6 5 6 5 5 6 5 5 6 5 5 5 6 5 6 6 6 5 5 5 6 5 5 5 6 5 5 5 5 5 5 6 5 5 6 6 6 5 5 6 5 6 5 5 5 5 5 5 5 5 6 5 5 5 6 6 5 5 5 5 6 5 5 5 6 5 5 5 5 6 5 5 5 5 6 5 5 5 5 5 5 5 5 5 5 5 6 5 5 
</DataArray>
<DataArray type="Float64" Name="stress" NumberOfComponents="9" format="ascii">
0.65838288511804421 2745.4081577085963 0 2745.4081577085963 -1587.1819448106253 0 0 0 0 -2058.367614000319 2404.9062648270283 0 2404.9062648270283 0.41859510380891152 0 0 0 0 -998.17777746794309 2299.7194348299636 0 2299.7194348299636 -2298.7535315397145 0 0 0 0 -1039.5518658391302 2143.414901043594 0 2143.414901043594 -1931.666971114857 0 0 0 0 -1865.5917151980902 1421.1243552165251 0 1421.1243552165251 -1.8845101152172099 0 0 0 0 -2476.3585470362887 1682.5417623165122 0 1682.5417623165122 -1011.0010205305589 0 0 0 0 -2899.2908700651715 2265.4786452439566 0 2265.4786452439566 -691.46247343438154 0 0 0 0 -976.07699144392245 1485.3622066563148 0 1485.3622066563148 -2314.8188364663474 0 0 0 0 -2981.0929822552926 2040.0622017017952 0 2040.0622017017952 -685.67032583646505 0 0 0 0 -2074.9620253722824 2411.9118649836673 0 2411.9118649836673 -2881.9608022614702 0 0 0 0 -3171.2371177305031 3752.3659214259169 0 3752.3659214259169 -4171.1981483264535 0 0 0 0 -2926.223196469844 2005.226013141888 0 2005.226013141888 -935.66411783700642 0 0 0 0 -2935.7519292230136 1395.4784076406654 0 1395.4784076406654 -1860.7952202123997 0 0 0 0 -3844.8686519505281 2194.6089831193385 0 2194.6089831193385 -1757.4743164698712 0 0 0 0 -4520.4106910328846 822.67449811747065 0 822.67449811747065 -4012.1820961274207 0 0 0 0 -2011.7800029416994 2067.0780453820662 0 2067.0780453820662 -2015.5212013028504 0 0 0 0 -1989.6031088669797 2212.1567597581857 0 2212.1567597581857 -3408.9004230612045 0 0 0 0 -5994.1792430961068 2774.5152554908927 0 2774.5152554908927 -1311.5265770361148 0 0 0 0 -3546.3395951793937 2607.6665713187904 0 2607.6665713187904 -1766.8118394679768 0 0 0 0 -4536.3020016797236 3846.7589838361891 0 3846.7589838361891 -3715.0281919477857 0 0 0 0 -3437.4633826427453 3480.8433905423663 0 3480.8433905423663 -3593.244895908545 0 0 0 0 -3187.6869751051854 1255.9021561217705 0 1255.9021561217705 -490.41621388058775 0 0 0 0 -2851.5007223512948 2626.7154344198061 0 2626.7154344198061 -1771.1357999839825 0 0 0 0 -2467.8448159422187 2089.5146082051033 0 2089.5146082051033 -1236.5630894650385 0 0 0 0 -48.358899981161812 363.31984834310424 0 363.31984834310424 -395.11348138155881 0 0 0 0 -416.66778444981901 869.76815855543828 0 869.76815855543828 -3863.2719365614539 0 0 0 0 -10.783553300156456 5.8114326735466761 0 5.8114326735466761 -11.777958697204497 0 0 0 0 -311.7215354463624 204.47195074504998 0 204.47195074504998 -450.12959200247133 0 0 0 0 -115.65337601758074 -94.857098075231988 0 -94.857098075231988 -1520.7794603460788 0 0 0 0 -444.81303850076074 204.16816191768885 0 204.16816191768885 -97.962573368335143 0 0 0 0 5.9236035987414652 67.39228375734092 0 67.39228375734092 -26.783230368717341 0 0 0 0 -9.7253557858174844 18.095517398583468 0 18.095517398583468 -1.2214792532211618 0 0 0 0 -22.677234401060787 60.226828543878085 0 60.226828543878085 -58.110570395443517 0 0 0 0 -451.02176447334796 2058.2365379269686 0 2058.2365379269686 -5500.3673419781844 0 0 0 0 -5806.923664016882 3382.9163952494855 0 3382.9163952494855 -1916.3799248406722 0 0 0 0 -8.5656487193431872 11.169286839293065 0 11.169286839293065 -8.9345202613811523 0 0 0 0 -16.099407805461965 32.894526886284297 0 32.894526886284297 19.596950232383222 0 0 0 0 -372.34445242563379 175.6709313818501 0 175.6709313818501 -26.39664056800757 0 0 0 0 -428.78839674341725 353.95615241904306 0 353.95615241904306 47.609240155608859 0 0 0 0 -513.54323602963996 525.24925962463749 0 525.24925962463749 -107.3458276217716 0 0 0 0 -19.383406511121848 52.033477828785351 0 52.033477828785351 -26.877283095547668 0 0 0 0 14.527895191393327 56.591371098351374 0 56.591371098351374 27.073611941654235 0 0 0 0 -52.410475266818224 33.921613380793836 0 33.921613380793836 4.5523124119916361 0 0 0 0 -48.027443415892776 665.28167251029663 0 665.28167251029663 268.28052202526305 0 0 0 0 -447.10841503168922 209.86916057798953 0 209.86916057798953 501.44915540992224 0 0 0 0 -142.32989759770862 300.75952055078233 0 300.75952055078233 -236.23604996297217 0 0 0 0 -148.4155448331876 228.93204067541956 0 228.93204067541956 16.434867864707485 0 0 0 0 213.91559370720643 408.72087119778735 0 408.72087119778735 -107.86071891934262 0 0 0 0 364.32896292557416 273.05779874396649 0 273.05779874396649 -86.813547951023793 0 0 0 0 -10.285232693302333 22.707200619660824 0 22.707200619660824 10.016035576582794 0 0 0 0 -1100.9955006325472 336.41355357454449 0 336.41355357454449 177.12279267506528 0 0 0 0 -5.6547194275527346 10.493552381355329 0 10.493552381355329 14.106976557211482 0 0 0 0 32.209621962476376 250.08623479856305 0 250.08623479856305 556.25878758463659 0 0 0 0 -2087.9826145058832 692.32092082961208 0 692.32092082961208 221.77948844218918 0 0 0 0 -265.21778652089415 -9.6438421658604057 0 -9.6438421658604057 -142.78174103670244 0 0 0 0 1063.8789070797211 107.93921149992821 0 107.93921149992821 -348.79652378823448 0 0 0 0 -127.64430197487309 458.45323343962809 0 458.45323343962809 -161.13813693191332 0 0 0 0 -1968.5055148679967 2522.3198038088012 0 2522.3198038088012 -1403.5223932791632 0 0 0 0 -12.349869433765434 9.886140529396215 0 9.886140529396215 21.857939369970069 0 0 0 0 -44.653804391226004 58.000907271267351 0 58.000907271267351 51.23453936498845 0 0 0 0 -45.879104550396733 -93.250651034860311 0 -93.250651034860311 1304.6685861155856 0 0 0 0 -30.471154943239526 -2.9145648651901865 0 -2.9145648651901865 60.854130917017756 0 0 0 0 -1.5376113327111511 3.9274150308594358 0 3.9274150308594358 6.5564953766106271 0 0 0 0 -1818.1272024154387 2029.9907574942827 0 2029.9907574942827 3.8649421221634839 0 0 0 0 -1072.2976114319354 2415.6471003899424 0 2415.6471003899424 -1403.6286940515347 0 0 0 0 -768.02461639625835 1987.0904988498551 0 1987.0904988498551 -801.5846633095498 0 0 0 0 -678.72111424877949 2148.1454621883095 0 2148.1454621883095 -1341.6560871752299 0 0 0 0 -1.5282427250640467 2109.2085676557781 0 2109.2085676557781 -1749.064742190265 0 0 0 0 -509.5165540975795 2502.6188304035786 0 2502.6188304035786 -1989.1296018474895 0 0 0 0 -1440.7980298517432 2575.0631899095133 0 2575.0631899095133 -2261.2146954683049 0 0 0 0 -1221.313687829519 2134.3883226627513 0 2134.3883226627513 -1433.4873697221901 0 0 0 0 -339.63063791704189 278.2814379147967 0 278.2814379147967 -0.41513927402013301 0 0 0 0 -44.939189047476248 315.47796121415377 0 315.47796121415377 -84.736567477011704 0 0 0 0 -312.96195168919076 331.14245572980872 0 331.14245572980872 -81.21790206625883 0 0 0 0 -12.831759347660409 287.64575720056018 0 287.64575720056018 -98.948953980740043 0 0 0 0 33.437643179989209 414.38896813019574 0 414.38896813019574 -298.59375172470754 0 0 0 0 66.63830560221686 263.0277243399687 0 263.0277243399687 -227.68721637490671 0 0 0 0 -2.3584067496128682 0.30738312683487834 0 0.30738312683487834 3.006057636276239 0 0 0 0 -172.68497879695133 411.21452957829388 0 411.21452957829388 -105.16187810611882 0 0 0 0 -311.39566926294356 280.33033698169311 0 280.33033698169311 -184.24881555169486 0 0 0 0 -2.2808385686498553 0.96372604368690418 0 0.96372604368690418 3.7053628872532727 0 0 0 0 -181.04409434598347 465.40506322442889 0 465.40506322442889 -223.63977781366702 0 0 0 0 -173.57200103624632 620.72025085758389 0 620.72025085758389 -437.42545665754005 0 0 0 0 -42.213159600572908 308.19345085615714 0 308.19345085615714 -166.2666408753139 0 0 0 0 -9.726097885533818 270.69031036327942 0 270.69031036327942 -141.85829327312968 0 0 0 0 -0.97396544429648202 379.59426819509099 0 379.59426819509099 -513.67451738045202 0 0 0 0 13.527201504221011 238.40091376171767 0 238.40091376171767 -680.89557123281702 0 0 0 0 -434.1127644578155 831.04738121016999 0 831.04738121016999 -767.39683748726384 0 0 0 0 -120.01839046433088 597.91160379390567 0 597.91160379390567 -699.4748841101682 0 0 0 0 -158.55905734802218 533.45721920124197 0 533.45721920124197 -333.42249745702065 0 0 0 0 -460.70131876853338 716.78498799498993 0 716.78498799498993 -0.37150089116039453 0 0 0 0 -781.01343841957714 1086.1662250152913 0 1086.1662250152913 -408.04897734245787 0 0 0 0 -855.32265973185895 1543.4001796110538 0 1543.4001796110538 -1031.0925429646522 0 0 0 0 -311.60052458239807 922.75921947856114 0 922.75921947856114 -1144.553702272844 0 0 0 0 -798.84800518343036 1761.8405582712039 0 1761.8405582712039 -2407.1898978994723 0 0 0 0 -411.2799445276396 820.54064747817029 0 820.54064747817029 -911.58084279745526 0 0 0 0 -69.747796379555439 6.2688518571235363 0 6.2688518571235363 -168.73613798347651 0 0 0 0 22.74719927260594 564.38172681085416 0 564.38172681085416 -661.72094735104474 0 0 0 0 -70.852845200977754 635.4226293415486 0 635.4226293415486 -1410.4464885960406 0 0 0 0 -186.50922345948493 283.70525264296884 0 283.70525264296884 87.785778358353127 0 0 0 0 -19.024565205615403 83.510644871049948 0 83.510644871049948 -46.016599005952457 0 0 0 0 -72.148508903308539 173.74003524215368 0 173.74003524215368 -129.7288703352533 0 0 0 0 -21.065735776588554 87.217144867056049 0 87.217144867056049 32.538062431243816 0 0 0 0 262.05586235804367 80.382849567613448 0 80.382849567613448 -194.14497080384535 0 0 0 0 -9.7518195664474661 30.617755251620622 0 30.617755251620622 10.924286778592716 0 0 0 0 272.35953626953415 499.92653254729703 0 499.92653254729703 94.855629358266015 0 0 0 0 -30.966118350966269 30.087559102717535 0 30.087559102717535 -2.6764123899192214 0 0 0 0 -37.056095844807189 39.711625134778444 0 39.711625134778444 54.800357013551206 0 0 0 0 -30.669735921977491 43.051872487552735 0 43.051872487552735 -2.5144181211983323 0 0 0 0 326.94994153664447 215.59779842197895 0 215.59779842197895 218.22528537789185 0 0 0 0 -12.737034605961512 8.245573894487876 0 8.245573894487876 31.575988796226113 0 0 0 0 428.9399344837293 83.633250460312411 0 83.633250460312411 63.168901719684072 0 0 0 0 412.05753094088868 142.28395727550378 0 142.28395727550378 -47.325031666548966 0 0 0 0 -157.56446209912247 -20.53992911309615 0 -20.53992911309615 49.575729104792117 0 0 0 0 399.17778335235198 32.60131045793969 0 32.60131045793969 -22.500890000883373 0 0 0 0 -166.95408523090009 53.058518250436464 0 53.058518250436464 117.39936565965036 0 0 0 0 -51.99669575468738 34.55897053278035 0 34.55897053278035 -16.714492304049685 0 0 0 0 -77.595676056240336 138.58519841179805 0 138.58519841179805 167.61078265459219 0 0 0 0 -44.138181869888399 36.190496802002961 0 36.190496802002961 -11.452895614886614 0 0 0 0 -61.29696268560383 136.76984513665093 0 136.76984513665093 195.32378704388248 0 0 0 0 -105.85294878809509 65.731814925471554 0 65.731814925471554 157.3792338812782 0 0 0 0 -105.83952527365182 14.519482641997456 0 14.519482641997456 113.95770141814864 0 0 0 0 41.790129538072506 99.614429793364252 0 99.614429793364252 44.647214857832296 0 0 0 0 -163.83344576308446 35.78707319858222 0 35.78707319858222 42.223630477696133 0 0 0 0 -103.8094924329489 -81.811934070508869 0 -81.811934070508869 -14.8924751180366 0 0 0 0 -32.865784199690097 11.135731954895164 0 11.135731954895164 136.70477735273744 0 0 0 0 -101.28372154742101 206.00615332372945 0 206.00615332372945 348.72961831407156 0 0 0 0 -60.747037233708397 218.94259920551849 0 218.94259920551849 194.71987906286085 0 0 0 0 -34.39837819565011 86.619754750511845 0 86.619754750511845 -52.030486890929396 0 0 0 0 149.82525905281 79.802281684955233 0 79.802281684955233 -231.87593568558805 0 0 0 0 -85.06356355094249 344.13916806431735 0 344.13916806431735 -251.03913104507956 0 0 0 0 -10.192043960501906 155.34835646510328 0 155.34835646510328 -239.12472282427188 0 0 0 0 -66.305594336074137 242.99909533682512 0 242.99909533682512 -63.896494278487808 0 0 0 0 2.029619557033584 178.0379673386924 0 178.0379673386924 -167.87132444024508 0 0 0 0 -40.852409422976052 202.84398801518182 0 202.84398801518182 43.412839409196749 0 0 0 0 36.131829662634118 140.02596558951336 0 140.02596558951336 -21.532150334325706 0 0 0 0 -92.571076216205256 313.7028869214555 0 313.7028869214555 314.56383803764038 0 0 0 0 -42.756579660395118 90.153644265858873 0 90.153644265858873 -52.502314934475862 0 0 0 0 -81.23133980228522 192.27340645404547 0 192.27340645404547 258.2407628837318 0 0 0 0 -46.390244014102791 193.96826686692475 0 193.96826686692475 42.838220621211804 0 0 0 0 -101.54046826655394 176.49201745630853 0 176.49201745630853 198.27114590054407 0 0 0 0 -46.1271197157931 91.332747755016555 0 91.332747755016555 -53.464012619824857 0 0 0 0 -194.58019661994331 203.05575234431308 0 203.05575234431308 240.41833381426113 0 0 0 0 -127.19324427249376 275.07130083723314 0 275.07130083723314 47.877646466396982 0 0 0 0 -48.195827883952006 254.75068345940235 0 254.75068345940235 -92.563237431633752 0 0 0 0 -162.50619043413462 296.12593013094738 0 296.12593013094738 -17.476948194358556 0 0 0 0 -85.284055878544677 233.54340671029422 0 233.54340671029422 26.834464424580801 0 0 0 0 -125.58327499592997 145.37142395107367 0 145.37142395107367 -108.60568031136427 0 0 0 0 -109.61547956065624 89.592665238793415 0 89.592665238793415 30.992946319252951 0 0 0 0 -79.40371523860415 52.369834960108911 0 52.369834960108911 -10.370487799040674 0 0 0 0 75.639909853605786 159.34554432634468 0 159.34554432634468 -230.9460760750444 0 0 0 0 13.086886857665377 268.11506770001142 0 268.11506770001142 -69.578018603922828 0 0 0 0 -43.630410732002076 14.993498835639315 0 14.993498835639315 5.7654532157310481 0 0 0 0 -20.767521328436345 63.831145509819919 0 63.831145509819919 4.571347929591667 0 0 0 0 48.486844177420693 46.493953733393539 0 46.493953733393539 19.871219281685114 0 0 0 0 -112.05509326522588 277.73494338081218 0 277.73494338081218 -340.35977726299461 0 0 0 0 95.592244554281933 -2.6626843590456701 0 -2.6626843590456701 -57.810588368229219 0 0 0 0 -154.18721825891407 191.48573871294502 0 191.48573871294502 144.3746757529762 0 0 0 0 -184.46433305909886 389.3586717430544 0 389.3586717430544 -309.9074873245554 0 0 0 0 38.492508257974066 28.149819694562183 0 28.149819694562183 24.140087462667367 0 0 0 0 -105.8134806908638 211.97044056560117 0 211.97044056560117 -211.0233054221535 0 0 0 0 -52.710762931485078 334.3540856999025 0 334.3540856999025 -127.26178989751497 0 0 0 0 -173.81180595473415 299.08528835244215 0 299.08528835244215 217.82195561648041 0 0 0 0 -136.71976637997432 345.11436158962897 0 345.11436158962897 -334.47286012949917 0 0 0 0 -109.22104776315064 216.93173169470265 0 216.93173169470265 -172.69522742836853 0 0 0 0 -147.6496922642109 131.88208886059147 0 131.88208886059147 -286.89992378835086 0 0 0 0 -74.696083206185449 82.517996898246338 0 82.517996898246338 70.554934332911216 0 0 0 0 -192.50631768192397 295.58592782663982 0 295.58592782663982 -150.62037247046828 0 0 0 0 -66.678405747030752 49.726886729920075 0 49.726886729920075 -31.214500528498405 0 0 0 0 -4.495698216621804 16.784646315861309 0 16.784646315861309 -8.7952184318091629 0 0 0 0 -345.86419250334257 803.9534059298494 0 803.9534059298494 -594.86615045455255 0 0 0 0 -373.07096044441278 176.29928112473863 0 176.29928112473863 -294.96993591138016 0 0 0 0 -164.9075581825382 364.89097217224844 0 364.89097217224844 -483.89376365274074 0 0 0 0 -91.375022996733605 156.01559805024226 0 156.01559805024226 -72.447210724239994 0 0 0 0 -2.8867998672020576 25.896197329179017 0 25.896197329179017 11.781537263662727 0 0 0 0 -34.966342636646004 49.776636379334377 0 49.776636379334377 23.740486678529351 0 0 0 0 -27.028686660178664 58.894967705207108 0 58.894967705207108 3.5802769950222482 0 0 0 0 -42.202041583142602 39.229905049778097 0 39.229905049778097 4.5479130250548678 0 0 0 0 -506.34938879552647 413.86603942707734 0 413.86603942707734 -162.40106191370432 0 0 0 0 -295.34685181641544 25.49932173900379 0 25.49932173900379 56.440500119336605 0 0 0 0 -132.06115927624342 379.40725416316855 0 379.40725416316855 -481.75427188952744 0 0 0 0 -123.54717789376082 284.64093184158719 0 284.64093184158719 -36.547696225636173 0 0 0 0 -59.990586879510374 26.828804897335431 0 26.828804897335431 -60.386678780661896 0 0 0 0 -122.68453870732264 -21.083166903067195 0 -21.083166903067195 -271.09831711815059 0 0 0 0 -59.937367319532541 43.381546853733568 0 43.381546853733568 -29.508290590272509 0 0 0 0 84.763654946582392 211.22980447229565 0 211.22980447229565 1.3242759915374336 0 0 0 0 -222.40954526420683 187.82503679417641 0 187.82503679417641 11.01349034083978 0 0 0 0 -92.967236271986621 118.14910871452594 0 118.14910871452594 36.033950612516492 0 0 0 0 -249.00069449806324 -60.956443782115912 0 -60.956443782115912 -59.862416768934054 0 0 0 0 -125.58084505696024 25.434762413864519 0 25.434762413864519 91.06508717694669 0 0 0 0 -55.761644163683457 37.562062750304584 0 37.562062750304584 -21.177784477167393 0 0 0 0 -47.727708033737144 215.39755070476895 0 215.39755070476895 155.61377695936244 0 0 0 0 -171.6195415880502 98.324753734537808 0 98.324753734537808 -24.308056449168362 0 0 0 0 -0.70501997280241824 6.9617745137777263 0 6.9617745137777263 19.249408847993664 0 0 0 0 -330.97090739947453 -6.5737405714207853 0 -6.5737405714207853 94.820504341667402 0 0 0 0 -26.903816616963923 14.414337957255157 0 14.414337957255157 -57.081862455292139 0 0 0 0 650.16529902401089 601.82131311227567 0 601.82131311227567 750.16692297266854 0 0 0 0 562.93547149118967 -256.08781704947614 0 -256.08781704947614 398.38013502980175 0 0 0 0 654.79433629616688 796.98199498079703 0 796.98199498079703 399.93207430788607 0 0 0 0 867.37707602050796 756.3158338080575 0 756.3158338080575 -49.425365899180179 0 0 0 0 826.18177623433439 626.00255081002251 0 626.00255081002251 283.38594743773865 0 0 0 0 1070.5241357932246 232.05950350969215 0 232.05950350969215 54.999085566966642 0 0 0 0 -450.12712828224176 145.73615626575702 0 145.73615626575702 -83.287072246050229 0 0 0 0 -0.2575752279208956 3.9379455116288398 0 3.9379455116288398 5.917602663775142 0 0 0 0 1925.5672942436941 514.37525569598438 0 514.37525569598438 -370.87738941648422 0 0 0 0 333.22596864186926 209.06425486629087 0 209.06425486629087 -47.664359764470646 0 0 0 0 1042.0838396643667 594.2755155183695 0 594.2755155183695 -10.534145735058701 0 0 0 0 570.11627763695651 195.85293527034082 0 195.85293527034082 -208.578493696441 0 0 0 0 643.80800897922018 299.37095371164469 0 299.37095371164469 -306.11194827505824 0 0 0 0 327.62370892145918 155.44265154767186 0 155.44265154767186 327.53003157505009 0 0 0 0 265.41890722357493 534.26834040940957 0 534.26834040940957 -109.32657828583979 0 0 0 0 327.0492320152116 256.33662948298297 0 256.33662948298297 -190.50186877312444 0 0 0 0 372.23541487939656 124.08273423166975 0 124.08273423166975 -238.13148018527681 0 0 0 0 380.61920204400667 -18.15393447700626 0 -18.15393447700626 29.334036037802434 0 0 0 0 330.69289205169298 157.42205371799855 0 157.42205371799855 -118.39099035426625 0 0 0 0 521.27574741844728 16.909575257428514 0 16.909575257428514 1.4620410448987968 0 0 0 0 482.85991003781965 -156.10380959523536 0 -156.10380959523536 54.857649733217841 0 0 0 0 100.62753620062722 38.733245276966045 0 38.733245276966045 -7.3257637543720193 0 0 0 0 68.543261494167382 -182.25930578417319 0 -182.25930578417319 223.28816697814909 0 0 0 0 245.25537297006667 -108.72448419168359 0 -108.72448419168359 140.13323783934175 0 0 0 0 357.33352763026778 -34.117334729104186 0 -34.117334729104186 63.973494062418467 0 0 0 0 329.20411304608842 499.01320003722537 0 499.01320003722537 68.551108167775965 0 0 0 0 -350.7150968437636 448.65179585067381 0 448.65179585067381 81.1439777364576 0 0 0 0 -122.51207530108513 550.50833632782451 0 550.50833632782451 -101.825815667813 0 0 0 0 -76.950523666891968 94.139303790223494 0 94.139303790223494 83.817059035787679 0 0 0 0 29.431269676992088 315.07045703501353 0 315.07045703501353 121.98701684051775 0 0 0 0 116.0273456157156 272.86202084741672 0 272.86202084741672 -715.09152471357447 0 0 0 0 -235.09659505417221 342.31547610825874 0 342.31547610825874 693.99169697719481 0 0 0 0 75.510683430067729 -286.63693628153123 0 -286.63693628153123 701.93634660316457 0 0 0 0 2.2934156530748737 3.7954920175869518 0 3.7954920175869518 4.2941376279695334 0 0 0 0 265.30930054429336 551.10414812077215 0 551.10414812077215 -475.63076435904804 0 0 0 0 291.61501648370177 556.61370344952957 0 556.61370344952957 -195.07237079067636 0 0 0 0 -342.59385101842054 416.53495365538402 0 416.53495365538402 -177.47849480895093 0 0 0 0 -285.17352276948077 280.51349878437577 0 280.51349878437577 -226.26521284474438 0 0 0 0 8.6563565392998498 8.9767920854843055 0 8.9767920854843055 10.782877925395582 0 0 0 0 -79.008974372933153 59.761605311810854 0 59.761605311810854 99.578164655380533 0 0 0 0 -82.784588098627864 -59.771960825895803 0 -59.771960825895803 289.97869138531678 0 0 0 0 -114.43801339007041 113.65851086645853 0 113.65851086645853 40.168720829249651 0 0 0 0 -153.93406881030387 192.95009759069217 0 192.95009759069217 38.940230979234912 0 0 0 0 -197.25863008861779 142.42218124557621 0 142.42218124557621 179.32739632864832 0 0 0 0 -209.79783717467217 75.713825678642024 0 75.713825678642024 253.90120121398286 0 0 0 0 -142.27274123897951 104.13927573056208 0 104.13927573056208 181.3556424633789 0 0 0 0 -227.26134441031172 290.04734210920651 0 290.04734210920651 155.51200205150235 0 0 0 0 -83.173151674127439 232.24860013217403 0 232.24860013217403 -130.1675759735017 0 0 0 0 -272.77334308878926 187.63840483223612 0 187.63840483223612 -137.16394986236901 0 0 0 0 -293.10718337840808 395.70841087008739 0 395.70841087008739 -219.75879033929232 0 0 0 0 -76.084709052418475 388.765565179845 0 388.765565179845 -556.70994571699703 0 0 0 0 -191.22443281134474 323.99616822660118 0 323.99616822660118 -110.78580081867403 0 0 0 0 -168.70964140552678 222.21186796335678 0 222.21186796335678 -92.607508456690994 0 0 0 0 -117.6645648618578 196.67222834568383 0 196.67222834568383 39.319102406372622 0 0 0 0 -122.85594492917517 216.39439779084296 0 216.39439779084296 -12.748683051926491 0 0 0 0 6.7279556027788203 149.44377681853075 0 149.44377681853075 -125.96404196892399 0 0 0 0 800.63411282928428 -1239.1567442108058 0 -1239.1567442108058 -1025.2975206619012 0 0 0 0 -10.827774327946827 145.20992655571899 0 145.20992655571899 -302.40231809408215 0 0 0 0 -7.2404206690407591 118.42648884206574 0 118.42648884206574 -102.64214061774328 0 0 0 0 -9.3283139384584501 131.13911795970489 0 131.13911795970489 -71.572661113066715 0 0 0 0 66.446166449775944 26.969603981824719 0 26.969603981824719 6.899874104488589 0 0 0 0 5.9483759085960628 153.93456304798383 0 153.93456304798383 -88.400256890985474 0 0 0 0 53.305331619951176 100.75635932152363 0 100.75635932152363 -31.189893920185568 0 0 0 0 -77.687415109186304 49.13182488297717 0 49.13182488297717 -15.621211264950944 0 0 0 0 -54.271738451169767 163.13959859011061 0 163.13959859011061 30.729708500257402 0 0 0 0 -121.77629695753058 148.76805572778358 0 148.76805572778358 68.781344258677564 0 0 0 0 -54.623847707349341 171.84114701163708 0 171.84114701163708 6.4801109429627104 0 0 0 0 -114.55465875262234 113.78069925882392 0 113.78069925882392 52.826385878011934 0 0 0 0 94.417657597801735 81.179309165666382 0 81.179309165666382 -90.660882429445337 0 0 0 0 -339.16219014105445 693.34824562725407 0 693.34824562725407 -1111.722235293495 0 0 0 0 88.133404440115555 6.242386204579816 0 6.242386204579816 -128.18090868440049 0 0 0 0 -365.3609269921144 950.85013290089046 0 950.85013290089046 -1331.0141095102226 0 0 0 0 48.211753703668364 -37.153677614907792 0 -37.153677614907792 -11.388340414407139 0 0 0 0 2.094074815304964 -1.5546950131053734 0 -1.5546950131053734 -3.7801081493513209 0 0 0 0 -364.84639015530553 840.71119547863077 0 840.71119547863077 -1537.3481561691951 0 0 0 0 -52.141743308311561 618.02028926239655 0 618.02028926239655 -1393.5349369935175 0 0 0 0 -52.709380195534322 589.96715042954747 0 589.96715042954747 -2713.4922563155487 0 0 0 0 -0.52873159629234578 1274.5289243624393 0 1274.5289243624393 -1775.2497195937794 0 0 0 0 -375.25645402551163 1235.5146745048914 0 1235.5146745048914 -1508.3320421195967 0 0 0 0 -373.17815722544037 1166.6955418660509 0 1166.6955418660509 -1163.5262110223339 0 0 0 0 -0.95360305727808736 1529.2929588525603 0 1529.2929588525603 -1290.4143421645349 0 0 0 0 -450.36998178121576 1801.6627274821112 0 1801.6627274821112 -1192.317713489203 0 0 0 0 -541.7420014197487 1493.193926098229 0 1493.193926098229 -872.33955363357381 0 0 0 0 -1015.2124444006149 1430.0005962007581 0 1430.0005962007581 -565.77063857317262 0 0 0 0 -764.72442163193773 1643.7749703848531 0 1643.7749703848531 -897.12014521470883 0 0 0 0 -722.23431535343116 1205.1760625621755 0 1205.1760625621755 -1030.158533965463 0 0 0 0 -652.98184029555341 976.30939187311014 0 976.30939187311014 -383.61533596256777 0 0 0 0 -766.73369578513666 1069.5148688161862 0 1069.5148688161862 -80.048135879705114 0 0 0 0 -538.0207081358094 683.74202173369849 0 683.74202173369849 1346.6134586613516 0 0 0 0 -745.23354702554934 1176.9389748193971 0 1176.9389748193971 343.91070598136866 0 0 0 0 -181.84967794951081 954.59620461598024 0 954.59620461598024 682.36841091347742 0 0 0 0 -144.94270378479268 387.79925626445038 0 387.79925626445038 472.1583449736645 0 0 0 0 -182.15809500886826 709.08077109376609 0 709.08077109376609 39.015698850227636 0 0 0 0 -249.71864972487674 501.82067588507198 0 501.82067588507198 -371.16519790185703 0 0 0 0 358.32369260225096 699.10359073831205 0 699.10359073831205 -8.922842510859482 0 0 0 0 -3080.7111343121942 -266.14286290941527 0 -266.14286290941527 1438.9776814260622 0 0 0 0 -2.7565426244456006 4.663222105733837 0 4.663222105733837 8.0011729590992502 0 0 0 0 1619.2438483903097 1299.556739556916 0 1299.556739556916 454.21590667401324 0 0 0 0 302.98050322875497 594.13469423554488 0 594.13469423554488 417.33680998134878 0 0 0 0 -16.488859720451728 1222.3393363764817 0 1222.3393363764817 1301.6366029401688 0 0 0 0 -970.83017322886735 -591.18458714360895 0 -591.18458714360895 515.71162433610152 0 0 0 0 8.2332970038077065 10.257684219168965 0 10.257684219168965 10.548243904089645 0 0 0 0 648.92216098022618 870.00298673732004 0 870.00298673732004 -382.3335256454011 0 0 0 0 -569.63594000833109 451.73179116362007 0 451.73179116362007 1087.5579435485706 0 0 0 0 58.874959592736559 88.980641491245478 0 88.980641491245478 -420.35327346712666 0 0 0 0 55.519786331016803 115.10728912049672 0 115.10728912049672 -73.696201455883056 0 0 0 0 788.55051517283573 600.94045498951527 0 600.94045498951527 -206.50563960055297 0 0 0 0 17.912913780261277 22.505449367435062 0 22.505449367435062 22.870474900444975 0 0 0 0 -104.25605463865213 881.99447211860388 0 881.99447211860388 -620.36487360375395 0 0 0 0 -803.76688828454644 651.37698455201462 0 651.37698455201462 -189.11887454341922 0 0 0 0 -218.54243798137759 170.88836896377325 0 170.88836896377325 -220.97398779790092 0 0 0 0 -77.281325220992585 430.41338173797885 0 430.41338173797885 -374.85767600964027 0 0 0 0 -295.86634043064623 472.73836591705549 0 472.73836591705549 -327.27221293955517 0 0 0 0 -179.95397037691873 428.40737043828267 0 428.40737043828267 -573.04884368006606 0 0 0 0 -288.41170699882787 359.66316206607007 0 359.66316206607007 -267.58514575759182 0 0 0 0 -582.5169399398219 571.53543633915433 0 571.53543633915433 -273.59467096628578 0 0 0 0 18.763091781240064 23.371013201662151 0 23.371013201662151 26.664275531948732 0 0 0 0 -26.682276331499452 230.50165274060419 0 230.50165274060419 -566.19675155120285 0 0 0 0 16.633397863988421 25.718908734547341 0 25.718908734547341 23.982835842330559 0 0 0 0 -374.47308671793144 416.15651517428705 0 416.15651517428705 -231.92727618378558 0 0 0 0 -41.572528361575678 161.46797469639569 0 161.46797469639569 -405.5882268320911 0 0 0 0 -670.37086651447316 712.47675794969109 0 712.47675794969109 -439.73952039231517 0 0 0 0 -862.74785356070424 188.15804887516879 0 188.15804887516879 -7.2072761696035741 0 0 0 0 222.70393243950093 148.64638223208749 0 148.64638223208749 -280.50957203206872 0 0 0 0 267.1469455018705 343.77624454173838 0 343.77624454173838 -296.16108213544067 0 0 0 0 192.55061288455909 113.97252575327002 0 113.97252575327002 -286.32828787576 0 0 0 0 -58.050375998558593 425.27650264312979 0 425.27650264312979 -476.00524603384838 0 0 0 0 -64.143696777308378 267.45290257433203 0 267.45290257433203 -238.79344877661788 0 0 0 0 445.44787244859617 128.73826685921449 0 128.73826685921449 -151.33883121805593 0 0 0 0 226.6861031113076 191.52184670425049 0 191.52184670425049 -115.91288166927552 0 0 0 0 26.466380269950605 280.5215466047157 0 280.5215466047157 -217.15291831137438 0 0 0 0 -47.329351109874551 100.7979220123525 0 100.7979220123525 -92.789270548841159 0 0 0 0 143.32648905376482 190.25443940596961 0 190.25443940596961 -54.088179053956992 0 0 0 0 -77.389834599773167 65.556819663121132 0 65.556819663121132 138.64407247688359 0 0 0 0 140.32966229514204 190.89180136171217 0 190.89180136171217 146.98850017924997 0 0 0 0 180.18879807909252 128.03636407124941 0 128.03636407124941 151.37655007487615 0 0 0 0 -228.56622294947738 126.51449634313394 0 126.51449634313394 -953.19851283574826 0 0 0 0 -121.66258491149347 405.43208605449763 0 405.43208605449763 -59.082432130031521 0 0 0 0 -1085.1195425626793 372.61706481500732 0 372.61706481500732 -52.879765489218698 0 0 0 0 -244.78549193674553 249.72686648793024 0 249.72686648793024 -220.33734048182669 0 0 0 0 -36.559580895147519 242.81854065097286 0 242.81854065097286 -270.39531088541116 0 0 0 0 -297.30075454236066 -6.5144285977403342 0 -6.5144285977403342 8.6823667215649039 0 0 0 0 -132.14598471373029 227.69775816098445 0 227.69775816098445 319.21882224133878 0 0 0 0 -413.3038404101826 328.0061223290013 0 328.0061223290013 260.8683642771357 0 0 0 0 -120.17984460896696 190.15330238168099 0 190.15330238168099 325.69394311991346 0 0 0 0 -112.64582922265981 441.50355820254481 0 441.50355820254481 357.3601927497657 0 0 0 0 -103.40405096225732 295.62747841380406 0 295.62747841380406 171.15787015320529 0 0 0 0 -76.784107990635675 600.61003160988548 0 600.61003160988548 403.33864030019686 0 0 0 0 -8.7683489226230336 9.2242573656365607 0 9.2242573656365607 -8.106114092239153 0 0 0 0 698.84267373321381 329.32251478639773 0 329.32251478639773 -693.06391116958548 0 0 0 0 743.98146030379576 530.70317826069322 0 530.70317826069322 -384.38082129753457 0 0 0 0 -116.55626774570555 655.80222263914766 0 655.80222263914766 -1395.2192897357454 0 0 0 0 -181.36191464112198 795.4863459535336 0 795.4863459535336 -422.00665451525128 0 0 0 0 -1.6062872398574655 7.5821905335934261 0 7.5821905335934261 3.3924958616070171 0 0 0 0 3.0938920636498324 4.7980827051423205 0 4.7980827051423205 -4.2147673487795032 0 0 0 0 691.02434485111007 207.5240310700101 0 207.5240310700101 32.615471392316977 0 0 0 0 443.44500939227146 599.14294333604266 0 599.14294333604266 336.22830693754076 0 0 0 0 3.6054307858251491 22.396772546632405 0 22.396772546632405 -11.664180572017102 0 0 0 0 13.304014563142118 11.749800424557179 0 11.749800424557179 -50.545385402190732 0 0 0 0 14.75914796971847 14.466204725893476 0 14.466204725893476 -68.244363143210649 0 0 0 0 5.569277476737625 42.949789770151256 0 42.949789770151256 -30.462618333393038 0 0 0 0 3.9766259192110738 91.536255107399484 0 91.536255107399484 -106.8426988558931 0 0 0 0 -0.016209721594350412 24.905920846780646 0 24.905920846780646 -16.671539726434276 0 0 0 0 4.6150077136022105 5.0522341562422923 0 5.0522341562422923 -2.9201560761348588 0 0 0 0 -5.2424155069211906 2.7055575827686305 0 2.7055575827686305 -3.7890052548696929 0 0 0 0 -2.3630417523280016 21.453025264831332 0 21.453025264831332 -16.341721084971937 0 0 0 0 3.5993667522287751 -2.5092587737464953 0 -2.5092587737464953 -14.302499353835969 0 0 0 0 -464.96498560544569 680.18641767519148 0 680.18641767519148 758.34532942959413 0 0 0 0 -630.18786667837412 570.50280964047852 0 570.50280964047852 1274.1685264392836 0 0 0 0 -27.273113413986721 -386.83647161785939 0 -386.83647161785939 1562.8097705544933 0 0 0 0 1.4731072190697887 776.04042245792152 0 776.04042245792152 -18.533182350161951 0 0 0 0 134.65584589351784 576.87885602515234 0 576.87885602515234 -920.12971374603148 0 0 0 0 -599.85104800625413 1395.0852917769371 0 1395.0852917769371 -251.97789085951081 0 0 0 0 -676.00068825033668 -144.23676513127793 0 -144.23676513127793 237.75610543871881 0 0 0 0 -751.69769620410807 521.21048863856049 0 521.21048863856049 430.62372570535808 0 0 0 0 -511.93131795225054 1104.653099608056 0 1104.653099608056 -355.61250785157608 0 0 0 0 -0.82149228580237832 596.0719313806967 0 596.0719313806967 59.054393377313318 0 0 0 0 -327.36268597083472 541.45867741667644 0 541.45867741667644 260.6904677795319 0 0 0 0 -110.02968150029483 197.86076704455263 0 197.86076704455263 373.96934331062857 0 0 0 0 -241.88506064776448 277.01815130243449 0 277.01815130243449 277.54735916850029 0 0 0 0 329.92285977903521 772.3582399660263 0 772.3582399660263 369.26070422043176 0 0 0 0 361.87211718607523 361.47868046496205 0 361.47868046496205 306.15871220477857 0 0 0 0 -20.65427971311189 23.559728048124072 0 23.559728048124072 -22.608313547773207 0 0 0 0 302.41710806395895 590.83289110242936 0 590.83289110242936 449.56239360711334 0 0 0 0 319.71098835775047 469.30585311030154 0 469.30585311030154 258.44064880519727 0 0 0 0 93.276367979444331 289.96937251740019 0 289.96937251740019 284.57587187496165 0 0 0 0 74.33024743234273 568.91087349366353 0 568.91087349366353 274.98680752835207 0 0 0 0 444.39263550417672 374.07314434906948 0 374.07314434906948 354.06583499718545 0 0 0 0 627.91873804437637 590.85645826071777 0 590.85645826071777 140.56257203653513 0 0 0 0 564.26229268631141 697.5230194595606 0 697.5230194595606 -156.79012281321047 0 0 0 0 541.18993272501393 517.40519456432776 0 517.40519456432776 146.44004237942863 0 0 0 0 492.60562067756837 609.16473845264409 0 609.16473845264409 23.685896177012182 0 0 0 0 501.15138155542081 583.85513684486796 0 583.85513684486796 28.957280060494668 0 0 0 0 -614.99774008775421 87.392926742073541 0 87.392926742073541 62.669195419133757 0 0 0 0 -305.93308119532594 982.34827925547506 0 982.34827925547506 247.05856836004023 0 0 0 0 637.14789871091489 1160.6314018172579 0 1160.6314018172579 1.4707313981525658 0 0 0 0 1404.9264811122557 706.49797818590741 0 706.49797818590741 -261.09927259958931 0 0 0 0 -0.015684383222007499 271.38332270771082 0 271.38332270771082 -149.42150260754715 0 0 0 0 -203.60258003662602 448.42454499325868 0 448.42454499325868 318.79543581805046 0 0 0 0 -111.24049786589148 172.51959180562028 0 172.51959180562028 -663.15581287843088 0 0 0 0 -0.16127281200897414 271.7334777495289 0 271.7334777495289 -149.44141186035654 0 0 0 0 -109.05774635422131 129.08686657724684 0 129.08686657724684 -336.27384313852235 0 0 0 0 0.019357691664481536 169.11101135236095 0 169.11101135236095 -215.20095016971754 0 0 0 0 -58.559234899134026 252.00570089598295 0 252.00570089598295 -327.79481839576692 0 0 0 0 -276.4870205819243 164.70097567855191 0 164.70097567855191 -75.166605880793213 0 0 0 0 -422.74541346667684 313.21759254153949 0 313.21759254153949 -225.21896431249843 0 0 0 0 -1.3856427719788833 0.31606630838606975 0 0.31606630838606975 -13.350494534305824 0 0 0 0 -570.22837980616896 -224.4499134658854 0 -224.4499134658854 55.393305912013602 0 0 0 0 171.80918741304777 -762.30539683481766 0 -762.30539683481766 381.70546505114908 0 0 0 0 281.81814698438211 361.77070570454339 0 361.77070570454339 -767.53293057969859 0 0 0 0 170.04931465881236 -275.72616830651532 0 -275.72616830651532 -63.410559290423407 0 0 0 0 31.229975124386783 17.79268201261533 0 17.79268201261533 -0.57137937868537847 0 0 0 0 6.1508603636475279 -2.2541497564628799 0 -2.2541497564628799 -38.866111735994679 0 0 0 0 -1.0981687176681589 -87.822591647262016 0 -87.822591647262016 -247.11526444089031 0 0 0 0 -12.781402654321937 46.986204201003829 0 46.986204201003829 -0.67251166523783468 0 0 0 0 -10.555019603430082 56.848302394228085 0 56.848302394228085 -54.963678072992479 0 0 0 0 8.5331705601567478 -0.88071749747678041 0 -0.88071749747678041 -19.348835879016576 0 0 0 0 -23.079777733961237 3.966961213538525 0 3.966961213538525 -56.679034346019762 0 0 0 0 -0.19329527271474944 50.479147980340713 0 50.479147980340713 -190.93797446881945 0 0 0 0 -13.383380612209294 105.05419752228727 0 105.05419752228727 -133.54407529381933 0 0 0 0 1.3232778709061677 57.443542004035407 0 57.443542004035407 -195.05809249967751 0 0 0 0 -2.6876892157191605 -0.5006257521624633 0 -0.5006257521624633 1.1591005844058913 0 0 0 0 -96.301109366846504 146.07263305082779 0 146.07263305082779 -144.09096930248415 0 0 0 0 -46.44602336105163 69.589845805835239 0 69.589845805835239 -105.15441978415402 0 0 0 0 -67.487695864532725 67.085505902237855 0 67.085505902237855 -90.232581113804827 0 0 0 0 110.95039599365555 502.48356711052838 0 502.48356711052838 -212.54477811854304 0 0 0 0 -6.3485629474307643 388.37204514972564 0 388.37204514972564 197.78497506015992 0 0 0 0 -9.1852989189428627 229.52572635904289 0 229.52572635904289 156.62221654674067 0 0 0 0 160.59349510086759 190.05707912713297 0 190.05707912713297 36.136781869816332 0 0 0 0 149.24690627183008 149.74399290652582 0 149.74399290652582 -63.676064524421236 0 0 0 0 93.835761605507287 103.06993989757757 0 103.06993989757757 32.530178365555912 0 0 0 0 34.708746002492262 26.889430471306696 0 26.889430471306696 -21.010913081354374 0 0 0 0 24.653152711145935 12.213681983025793 0 12.213681983025793 5.7733893094016224 0 0 0 0 80.651668580452679 90.312981945226056 0 90.312981945226056 -79.894160244326486 0 0 0 0 448.58117163271527 194.02438053594233 0 194.02438053594233 -57.351897068757353 0 0 0 0 88.502126295032213 -26.411978445361456 0 -26.411978445361456 -55.230540328608186 0 0 0 0 152.3960955541952 1118.3911871079054 0 1118.3911871079054 399.38386890142283 0 0 0 0 853.50153180101188 -233.67601567966994 0 -233.67601567966994 0.64837857286693179 0 0 0 0 9.2444414113336393 5.7954263354841089 0 5.7954263354841089 3.1618756507474188 0 0 0 0 -296.65572753021843 -64.497068783570285 0 -64.497068783570285 -259.98923554116845 0 0 0 0 -106.98657735594315 880.08876932747444 0 880.08876932747444 747.70237993116098 0 0 0 0 1648.3361071026593 724.74310606377549 0 724.74310606377549 27.966334155087679 0 0 0 0 261.61098558965023 933.4853774310759 0 933.4853774310759 449.82052539080905 0 0 0 0 947.22081076339236 435.99185699131704 0 435.99185699131704 -380.52448522382622 0 0 0 0 -98.795709068097494 349.10038227760833 0 349.10038227760833 1183.9810430947546 0 0 0 0 1208.5326808743848 485.15028667957085 0 485.15028667957085 -324.99227724820048 0 0 0 0 -49.091260085031536 73.542456612243541 0 73.542456612243541 -498.57779155165917 0 0 0 0 -956.41857259600511 712.82076860443885 0 712.82076860443885 368.63554647421915 0 0 0 0 -852.20262555030058 52.9116618805092 0 52.9116618805092 141.12565185250423 0 0 0 0 -10.604693932505398 6.8046416718919431 0 6.8046416718919431 -6.4582349381479673 0 0 0 0 -9.4237988925815444 241.50763909541456 0 241.50763909541456 179.61135484035913 0 0 0 0 301.11363715864718 368.24539027792707 0 368.24539027792707 -34.42182712424983 0 0 0 0 23.451545870630071 -240.22709425207358 0 -240.22709425207358 -353.3048455026933 0 0 0 0 -121.77421110500291 89.205324594293415 0 89.205324594293415 1.0151850058609853 0 0 0 0 -21.449799870066897 30.566160927484219 0 30.566160927484219 -19.625980713538596 0 0 0 0 50.85211878402697 162.79064079585805 0 162.79064079585805 -7.7030093336725258 0 0 0 0 -11.055148827028461 90.689543847067398 0 90.689543847067398 160.4429761313877 0 0 0 0 18.932438524971076 26.975710077235362 0 26.975710077235362 4.2542317111735741 0 0 0 0 95.144864353904268 163.88087510241894 0 163.88087510241894 -225.04878274911607 0 0 0 0 1217.332191707841 -116.61394467594505 0 -116.61394467594505 -5.578934758916148 0 0 0 0 8.1239009660879447 19.037312298955243 0 19.037312298955243 0.15600749422821991 0 0 0 0 -47.984001361619448 220.56557137465643 0 220.56557137465643 690.69474613226657 0 0 0 0 -11.747359986555693 15.413471524605114 0 15.413471524605114 91.115107845311286 0 0 0 0 -26.134849669243579 42.16097767819528 0 42.16097767819528 -30.821620539838904 0 0 0 0 748.55175307145691 321.40509265956644 0 321.40509265956644 -84.745826463557023 0 0 0 0 260.44826955313329 -10.943987166028819 0 -10.943987166028819 -12.593160614220778 0 0 0 0 769.96869901861646 541.84170092982095 0 541.84170092982095 -41.369020255981013 0 0 0 0 11.854989475316074 -0.0094167865591145983 0 -0.0094167865591145983 -12.982172595990434 0 0 0 0 83.385652036493411 292.49310864962536 0 292.49310864962536 374.28063052209473 0 0 0 0 -28.940143848525508 31.081775987729138 0 31.081775987729138 -30.570183883764685 0 0 0 0 -80.341026997804875 209.95207669971569 0 209.95207669971569 449.92908680180699 0 0 0 0 586.62940179486759 546.82372069219127 0 546.82372069219127 326.85512979247142 0 0 0 0 -57.264347078074934 172.20068351306327 0 172.20068351306327 476.37477920291713 0 0 0 0 14.170475448743673 159.04226276936242 0 159.04226276936242 118.56876524263316 0 0 0 0 -37.758440018558758 104.11714505456257 0 104.11714505456257 351.0357312210399 0 0 0 0 -107.87427835140261 90.733163390410482 0 90.733163390410482 352.56923095806815 0 0 0 0 -129.6051011713862 156.65073035698879 0 156.65073035698879 332.62600879699585 0 0 0 0 -214.6142393288319 169.61416396463756 0 169.61416396463756 476.34042766006314 0 0 0 0 36.335278434911743 197.33299258923944 0 197.33299258923944 441.24608315432488 0 0 0 0 -148.51247479092126 294.05279541642994 0 294.05279541642994 420.67753397078195 0 0 0 0 921.37657014104479 -8.6026876849427936 0 -8.6026876849427936 -189.04123495325621 0 0 0 0 11.324847454582255 5.3283219239294226 0 5.3283219239294226 5.2546186280608111 0 0 0 0 -27.358196387827775 6.2012025367375827 0 6.2012025367375827 1040.3350980451505 0 0 0 0 -16.893049980062642 -29.127549992372224 0 -29.127549992372224 323.95059839792884 0 0 0 0 -106.19835447459627 40.093125038041762 0 40.093125038041762 598.41089610019117 0 0 0 0 13.664436697028577 83.76969506599562 0 83.76969506599562 159.80424974762627 0 0 0 0 -109.15889502910431 235.46178618164049 0 235.46178618164049 621.49435972588981 0 0 0 0 162.1229053009738 268.89963891235675 0 268.89963891235675 299.0646067373782 0 0 0 0 631.64862699856894 581.6133800839707 0 581.6133800839707 579.67030814498867 0 0 0 0 1021.5185931101878 -37.444155594086624 0 -37.444155594086624 -79.770153696907073 0 0 0 0 468.43437953312241 -381.46555923902633 0 -381.46555923902633 652.81175888542202 0 0 0 0 563.21457223543257 978.34594264051702 0 978.34594264051702 456.5477034798073 0 0 0 0 -144.77236493946111 778.98997913982384 0 778.98997913982384 -100.74635287867204 0 0 0 0 -519.63600860902807 365.37715584896068 0 365.37715584896068 271.2251861988625 0 0 0 0 55.658347866374243 151.11383850041057 0 151.11383850041057 -288.86095125884458 0 0 0 0 37.260671128664399 146.78403196029467 0 146.78403196029467 69.824907030939357 0 0 0 0 -292.78075506933965 8.1297235071469913 0 8.1297235071469913 25.149579775126767 0 0 0 0 -266.79607277552714 159.28697439097596 0 159.28697439097596 -133.47400691000803 0 0 0 0 -745.64093035558471 213.25553080352256 0 213.25553080352256 111.02191106744795 0 0 0 0 -16.294734168157447 750.79612459214695 0 750.79612459214695 228.83614415102056 0 0 0 0 -510.16543138309498 970.29210169929138 0 970.29210169929138 855.77532579994295 0 0 0 0 -625.127843034541 -485.2816146125333 0 -485.2816146125333 -869.26926578814164 0 0 0 0 -3038.250683683902 -222.92650279781083 0 -222.92650279781083 1870.0149585810868 0 0 0 0 -613.58812856186705 767.61317522657191 0 767.61317522657191 -681.15516956501324 0 0 0 0 18.331683539238838 11.226213582541305 0 11.226213582541305 3.0054142399030823 0 0 0 0 -57.010570181708317 355.47485334673729 0 355.47485334673729 1111.0876928416983 0 0 0 0 -5.5821505015846924 982.4585502903069 0 982.4585502903069 -1142.3418878112643 0 0 0 0 1138.1776574128744 1183.3365930001746 0 1183.3365930001746 -1455.8515014155273 0 0 0 0 398.47126154089347 198.90494914264855 0 198.90494914264855 111.06578557052126 0 0 0 0 213.48009604911203 22.702393520343321 0 22.702393520343321 -49.209542152311769 0 0 0 0 -1185.2810851313261 439.80777382112137 0 439.80777382112137 25.238609230516886 0 0 0 0 -1.057139895597679 0.79927488776215228 0 0.79927488776215228 -23.790414992030975 0 0 0 0 -164.55646691808215 122.77191895088072 0 122.77191895088072 33.659290417926968 0 0 0 0 -314.41355828146334 509.03262557787093 0 509.03262557787093 -500.78587977558345 0 0 0 0 73.471002420468722 149.45385186185922 0 149.45385186185922 -388.60310885206127 0 0 0 0 6.9865673902311229 21.382616464351287 0 21.382616464351287 -64.261360071457403 0 0 0 0 223.941893375988 80.479587174129847 0 80.479587174129847 -145.08825600333512 0 0 0 0 106.24336434423458 251.64239810929394 0 251.64239810929394 -177.46434008506185 0 0 0 0 46.671285791125513 63.582236379837553 0 63.582236379837553 45.995033229247412 0 0 0 0 323.24370024558448 -52.887159220237663 0 -52.887159220237663 224.06438251793588 0 0 0 0 -25.265756974485015 72.251654768635433 0 72.251654768635433 81.654472406755559 0 0 0 0 371.6184381499188 94.281063944603375 0 94.281063944603375 -69.814033963288239 0 0 0 0 6.2482644434983854 26.015998591453467 0 26.015998591453467 -11.318540482551654 0 0 0 0 315.63395942409988 115.87280303463376 0 115.87280303463376 323.19298035421525 0 0 0 0 17.904290331905941 -58.084620533023553 0 -58.084620533023553 121.90709638786211 0 0 0 0 -1.9672622358542071 7.0933727995538476 0 7.0933727995538476 0.47778975029058302 0 0 0 0 -18.580679767452239 79.249801615516844 0 79.249801615516844 -336.29201931632997 0 0 0 0 140.01316957500239 1019.418999769834 0 1019.418999769834 -65.707614564780215 0 0 0 0 231.41500434036425 170.45932431597612 0 170.45932431597612 -5.8184879683667532 0 0 0 0 242.24181889440661 919.47018491185281 0 919.47018491185281 -360.52753160818247 0 0 0 0 -30.990480314576416 340.17065493715927 0 340.17065493715927 -228.81380672262458 0 0 0 0 188.50205201423523 345.18609535609357 0 345.18609535609357 -133.25719994550127 0 0 0 0 -373.58317394982805 206.78564968491355 0 206.78564968491355 4.7970272723105154 0 0 0 0 3.7917538125742425 12.157794455386664 0 12.157794455386664 32.689361806263889 0 0 0 0 -476.56273296420113 140.73135852680753 0 140.73135852680753 697.22384125052849 0 0 0 0 11.535731324676064 24.474642249687122 0 24.474642249687122 43.301326927987617 0 0 0 0 -273.11163795574066 2083.2924091709474 0 2083.2924091709474 1859.2399070992687 0 0 0 0 740.61835653722665 350.81625595254809 0 350.81625595254809 -220.7882668400016 0 0 0 0 744.99188275901849 -104.78618905566483 0 -104.78618905566483 -109.25337291012693 0 0 0 0 212.60925187978864 8.8985534086168627 0 8.8985534086168627 -133.52891713828649 0 0 0 0 223.8855557343486 900.13841092952134 0 900.13841092952134 -385.09567439478269 0 0 0 0 55.302176566472951 19.753372952751064 0 19.753372952751064 4.1811004511761638 0 0 0 0 -85.944463661322516 -74.429312811098498 0 -74.429312811098498 291.67074634714663 0 0 0 0 -201.00116275888286 -214.66859650865808 0 -214.66859650865808 1214.1424215768784 0 0 0 0 9.9427619291080305 12.268921618763386 0 12.268921618763386 15.75371670612823 0 0 0 0 -126.03103637805907 -35.202126275169576 0 -35.202126275169576 275.7415981259519 0 0 0 0 32.504188390775482 36.303751380040865 0 36.303751380040865 39.878191499299476 0 0 0 0 -130.85804065926641 351.30996967608735 0 351.30996967608735 194.55518538997512 0 0 0 0 -131.59375046064088 96.760619281420077 0 96.760619281420077 63.982489597226959 0 0 0 0 -78.894392300469917 153.71251077940178 0 153.71251077940178 23.399276770272991 0 0 0 0 -155.64273449293978 141.70835783136317 0 141.70835783136317 139.38828874463798 0 0 0 0 -58.567181545168637 36.348769212715126 0 36.348769212715126 -0.53558206732781599 0 0 0 0 -183.17028069432126 50.195222540751274 0 50.195222540751274 59.068094315700819 0 0 0 0 -372.89184004379786 56.002284288828378 0 56.002284288828378 1118.2594102029689 0 0 0 0 -265.32645025195961 69.142711910422804 0 69.142711910422804 117.82541455745923 0 0 0 0 154.96096353270696 272.90251167534734 0 272.90251167534734 81.850523373330361 0 0 0 0 -362.82132117373112 221.7431402607981 0 221.7431402607981 278.47297642549529 0 0 0 0 531.05010299336573 282.98028406150115 0 282.98028406150115 113.48012230268796 0 0 0 0 -41.342456346203107 531.42608486040263 0 531.42608486040263 290.74521307222312 0 0 0 0 203.47783775975404 396.68038441200042 0 396.68038441200042 106.80512194285984 0 0 0 0 100.78727508984593 286.17796934447324 0 286.17796934447324 -40.140513781749178 0 0 0 0 379.44621953144087 150.77220974299598 0 150.77220974299598 -55.45889021622861 0 0 0 0 703.70177092617087 52.675858812355727 0 52.675858812355727 -46.42180038101651 0 0 0 0 2.6197951476589196 4.9953441974491 0 4.9953441974491 10.852516071179139 0 0 0 0 1344.4474873298896 161.97759884462721 0 161.97759884462721 -172.15055458266215 0 0 0 0 877.40902869045385 544.36596978028319 0 544.36596978028319 89.301887735535274 0 0 0 0 -375.92780374793438 -57.54664463284098 0 -57.54664463284098 485.36691732947656 0 0 0 0 -374.08798803738682 35.034731083928818 0 35.034731083928818 2.3164790255032131 0 0 0 0 609.04424791217389 785.58201834288866 0 785.58201834288866 -689.11706559218874 0 0 0 0 468.22651536620106 -265.56071682331094 0 -265.56071682331094 -1055.24851002574 0 0 0 0 -4.4459712738951112 8.547734011652004 0 8.547734011652004 -6.1025011590468807 0 0 0 0 -492.38676725902769 509.02105391401165 0 509.02105391401165 432.42836632902981 0 0 0 0 -1119.4752716260991 363.40168168532546 0 363.40168168532546 1458.9571793108043 0 0 0 0 1307.4888820891792 -478.82463584913421 0 -478.82463584913421 835.96444065341348 0 0 0 0 -32.592620898808889 21.390653412054242 0 21.390653412054242 -13.550325852362391 0 0 0 0 573.22673169267364 441.16944157039416 0 441.16944157039416 -127.76224584634838 0 0 0 0 -169.85375529695739 -239.87578795356421 0 -239.87578795356421 433.48140987026272 0 0 0 0 -13.595808598857957 13.593328241745851 0 13.593328241745851 -12.706461369602579 0 0 0 0 -858.99642189823498 -198.95255551805894 0 -198.95255551805894 187.43739865106818 0 0 0 0 -1101.5082296816399 185.71488671304905 0 185.71488671304905 -122.14059840310074 0 0 0 0 -361.67766195606964 -259.09747819336553 0 -259.09747819336553 142.43427545798113 0 0 0 0 539.65005701017799 567.58549097999639 0 567.58549097999639 268.24635093032703 0 0 0 0 339.80758865794633 1285.0505341194657 0 1285.0505341194657 -341.82693783171271 0 0 0 0 -809.97947314992052 -1895.362016112349 0 -1895.362016112349 -168.78581299053621 0 0 0 0 -617.49488182354253 797.0335841626802 0 797.0335841626802 -1216.7586347875294 0 0 0 0 -423.35804911339073 344.00805181199394 0 344.00805181199394 -198.26320217423563 0 0 0 0 -1060.5057513682987 -1016.9268324496334 0 -1016.9268324496334 1140.2695571310178 0 0 0 0 -103.28155521739973 -570.92376969028555 0 -570.92376969028555 -2178.1461905787874 0 0 0 0 -157.3919494307047 -215.19101872644751 0 -215.19101872644751 160.24793751093239 0 0 0 0 15.014727699337527 -79.955003934141132 0 -79.955003934141132 -542.38217087106023 0 0 0 0 25.151828576206753 -171.12136768419259 0 -171.12136768419259 263.51629166858038 0 0 0 0 -8.289280432794385 9.5511556297290383 0 9.5511556297290383 -4.6525962103606986 0 0 0 0 -5.6720465755570331 410.29480670893645 0 410.29480670893645 -124.10652913586819 0 0 0 0 37.534080887780874 387.203110009792 0 387.203110009792 -379.22306834865958 0 0 0 0 283.10784392018104 567.73747720683787 0 567.73747720683787 539.4779536332062 0 0 0 0 340.62985353268232 402.31568182440606 0 402.31568182440606 67.930944710566109 0 0 0 0 -36.778280698199524 521.28297044151259 0 521.28297044151259 310.38604437123831 0 0 0 0 285.96027568302816 549.13850239045223 0 549.13850239045223 301.1138888669193 0 0 0 0 -704.32280087195977 -298.83130099186019 0 -298.83130099186019 215.06010748553535 0 0 0 0 -700.08487439269811 -306.72104062965991 0 -306.72104062965991 209.28124253344504 0 0 0 0 -5.1365472261266234 3.2899854878200046 0 3.2899854878200046 -1.4145852767939715 0 0 0 0 -250.55603612507548 421.24311668307564 0 421.24311668307564 217.6729424380901 0 0 0 0 -124.05729849552154 218.00266982181893 0 218.00266982181893 -190.17624576049639 0 0 0 0 -503.91702527213783 32.075733739779025 0 32.075733739779025 193.33219917160022 0 0 0 0 -97.845483873476041 101.76167845619966 0 101.76167845619966 325.2829862390081 0 0 0 0 -41.298720014227513 34.781805093403662 0 34.781805093403662 -26.429928595615777 0 0 0 0 -251.39589659973353 417.76947452058721 0 417.76947452058721 251.40448422000918 0 0 0 0 307.72953401057748 1098.7065903219627 0 1098.7065903219627 479.78639294823392 0 0 0 0 1697.3284524292685 771.74429022166987 0 771.74429022166987 417.58589021719672 0 0 0 0 246.83971413383551 -414.74558799876468 0 -414.74558799876468 71.460751861088283 0 0 0 0 -265.91357890596919 1194.6902797263147 0 1194.6902797263147 515.2193020665909 0 0 0 0 954.51633201052027 898.47726251526183 0 898.47726251526183 -51.664116625664519 0 0 0 0 1151.9577977815497 20.216474236127397 0 20.216474236127397 17.607314447887802 0 0 0 0 80.739078976010205 74.928818615873752 0 74.928818615873752 797.36945752034808 0 0 0 0 8.9922366281969062 10.739726231540459 0 10.739726231540459 2.293580339547276 0 0 0 0 -27.663636584933556 -278.35450409403074 0 -278.35450409403074 75.105838136572856 0 0 0 0 187.72770116652828 415.5364529271792 0 415.5364529271792 387.34431831404618 0 0 0 0 2.4111246948014013 28.273188985618617 0 28.273188985618617 0.8749790170986671 0 0 0 0 -4.9024895185471564 20.401815381037437 0 20.401815381037437 24.557945220309165 0 0 0 0 164.11908346647397 -29.400753809582966 0 -29.400753809582966 405.83802416961407 0 0 0 0 286.00196985789808 -116.218344446228 0 -116.218344446228 172.62520841207879 0 0 0 0 2.5171849460275553 16.20000908357369 0 16.20000908357369 -0.57389631874359281 0 0 0 0 207.99179479925078 -199.3318293800985 0 -199.3318293800985 95.208199467575469 0 0 0 0 -17.765516191109782 -12.13541780884043 0 -12.13541780884043 414.72685705133335 0 0 0 0 -1.5633044795386013 0.16210656069335982 0 0.16210656069335982 4.6467481314247578 0 0 0 0 420.42266291058331 656.30088128377065 0 656.30088128377065 625.42084423575216 0 0 0 0 192.83780635966104 691.95395924000331 0 691.95395924000331 1093.9264724303794 0 0 0 0 620.91070840179964 400.95414073528082 0 400.95414073528082 118.96015426791564 0 0 0 0 611.39975360544486 483.61970224917604 0 483.61970224917604 142.84985560322093 0 0 0 0 483.93525551876519 520.18066676100716 0 520.18066676100716 748.6075734616461 0 0 0 0 498.59206939507567 379.03771315054382 0 379.03771315054382 -65.488715941402916 0 0 0 0 325.18809351291566 403.79034628063891 0 403.79034628063891 156.80118927945068 0 0 0 0 252.33494504049304 240.41522929759958 0 240.41522929759958 179.36225006356563 0 0 0 0 265.98193379362056 303.56767747293816 0 303.56767747293816 -232.26382632054083 0 0 0 0 380.37994536116457 66.560669360882457 0 66.560669360882457 199.34119215171449 0 0 0 0 300.33925622529932 122.17886529810312 0 122.17886529810312 168.9422029212692 0 0 0 0 -775.17185675547807 -310.30809479838717 0 -310.30809479838717 399.3501301399192 0 0 0 0 -141.9215711861907 96.196970839821006 0 96.196970839821006 198.05942935226938 0 0 0 0 -142.30383562354109 117.44097448421599 0 117.44097448421599 117.40905015220414 0 0 0 0 -156.47319988903473 208.33187469722179 0 208.33187469722179 59.383194945863579 0 0 0 0 -124.08129960899532 523.46095169464206 0 523.46095169464206 364.8579996311546 0 0 0 0 -265.86967733825441 179.33576315910068 0 179.33576315910068 99.759230339313945 0 0 0 0 -0.15456236313070804 1.9785268231641169 0 1.9785268231641169 -2.2425077216121565 0 0 0 0 169.85556045323028 -72.640609968988429 0 -72.640609968988429 -371.52430960190486 0 0 0 0 300.74635918092099 225.03436199626958 0 225.03436199626958 -71.062433358488761 0 0 0 0 264.97974511733264 235.71632161985008 0 235.71632161985008 43.685817106044851 0 0 0 0 267.26326852629427 229.38221999311281 0 229.38221999311281 19.783099343945651 0 0 0 0 223.48270426384988 220.93943915159434 0 220.93943915159434 18.159135143134336 0 0 0 0 286.33150514421868 316.1045684106939 0 316.1045684106939 230.39347744143743 0 0 0 0 -0.41523179219836948 4.5860456941749206 0 4.5860456941749206 -5.2935887300276079 0 0 0 0 201.07180071171024 122.59526787121649 0 122.59526787121649 74.509119970252868 0 0 0 0 203.40318506963376 124.75501810892638 0 124.75501810892638 45.71438128643058 0 0 0 0 251.15052870198269 106.78079036784948 0 106.78079036784948 17.492639276915725 0 0 0 0 141.71554190384632 48.900991065736889 0 48.900991065736889 -4.7222906932802289 0 0 0 0 -548.25288465126505 -27.716515288173468 0 -27.716515288173468 17.044483962090453 0 0 0 0 -2.8420928255534932 3.0209821448002856 0 3.0209821448002856 -3.2001854558893115 0 0 0 0 293.5342435731111 197.4125191896008 0 197.4125191896008 -118.2365975048051 0 0 0 0 -302.55563613816048 -27.997950365743236 0 -27.997950365743236 75.028616378163861 0 0 0 0 -77.665952577492135 80.977047059758661 0 80.977047059758661 122.07916987060526 0 0 0 0 -41.942545137208072 146.53351075334467 0 146.53351075334467 219.52965298253184 0 0 0 0 -22.383162154845195 164.59856967204178 0 164.59856967204178 126.25166440705652 0 0 0 0 243.3278025813197 365.18682122287282 0 365.18682122287282 77.468730354619765 0 0 0 0 337.68250865639129 287.72773148663146 0 287.72773148663146 18.395336441331892 0 0 0 0 226.90016765596374 355.48914727517877 0 355.48914727517877 323.03058830140071 0 0 0 0 276.70743519708049 244.11763529610471 0 244.11763529610471 98.277599916176314 0 0 0 0 139.56609768014459 181.77296438334452 0 181.77296438334452 150.41149534000215 0 0 0 0 -0.92857576175754275 4.9145853010582243 0 4.9145853010582243 -5.3407313003889811 0 0 0 0 58.310294908333162 164.00785201904 0 164.00785201904 261.15961370641526 0 0 0 0 6.0934040740830824 604.71373880291139 0 604.71373880291139 403.58330189238131 0 0 0 0 -141.76737056436104 517.95432902833636 0 517.95432902833636 28.29611934555578 0 0 0 0 55.85852988134684 226.38657131822401 0 226.38657131822401 -262.60777736974705 0 0 0 0 7.2459715618751943 218.46325144305047 0 218.46325144305047 293.08313504836406 0 0 0 0 176.71660756630445 275.89671431558236 0 275.89671431558236 -62.450883181132667 0 0 0 0 -35.482097302141483 472.58355359214329 0 472.58355359214329 16.561895546325104 0 0 0 0 -137.04962776930915 537.37970957499419 0 537.37970957499419 183.57673901392263 0 0 0 0 -99.769675213334267 289.02155095859052 0 289.02155095859052 10.751049645145031 0 0 0 0 -136.10022341149306 491.01386270324929 0 491.01386270324929 -127.587934976611 0 0 0 0 -95.43461751427094 344.46645526598149 0 344.46645526598149 88.610763377346302 0 0 0 0 -0.40678380290677296 2.448027879974866 0 2.448027879974866 -2.3796732239384824 0 0 0 0 80.142200554328156 206.5343911498494 0 206.5343911498494 -375.57813837275171 0 0 0 0 117.60847076600476 189.47802522985148 0 189.47802522985148 -116.81623550394579 0 0 0 0 121.84619702596683 117.71734523948044 0 117.71734523948044 46.629120632554987 0 0 0 0 107.60168042942678 99.93856476034307 0 99.93856476034307 29.913427389554272 0 0 0 0 -50.434551963182457 247.03986649396666 0 247.03986649396666 46.327363207034068 0 0 0 0 -1.1552778438053792 144.46304438570223 0 144.46304438570223 74.361657539062435 0 0 0 0 43.931414283346385 182.75372115999016 0 182.75372115999016 15.765202030052023 0 0 0 0 -181.25738598313183 183.95574829618272 0 183.95574829618272 104.95347002121161 0 0 0 0 -143.75819582660188 301.20480278155446 0 301.20480278155446 45.27752980041987 0 0 0 0 -28.954354099580087 115.54988095794397 0 115.54988095794397 62.030512382538291 0 0 0 0 -45.822396998322802 -18.913665531516017 0 -18.913665531516017 125.44074455423106 0 0 0 0 -263.87447032087948 249.01968595027574 0 249.01968595027574 98.42907156450201 0 0 0 0 -295.44415020484303 221.31602977373768 0 221.31602977373768 85.315147784742294 0 0 0 0 -334.23563917243155 389.7970226067373 0 389.7970226067373 -277.45884151637802 0 0 0 0 -506.4550092500649 98.255528505309485 0 98.255528505309485 141.67462298233295 0 0 0 0 -385.4488424263327 366.74227002869884 0 366.74227002869884 -103.32878821567283 0 0 0 0 -577.19497665594099 427.64650582223112 0 427.64650582223112 -39.632324928054004 0 0 0 0 -839.66390064108418 917.55249440170883 0 917.55249440170883 -702.65151161242102 0 0 0 0 -327.6434007606822 483.43018882445608 0 483.43018882445608 -193.01495026058547 0 0 0 0 -0.34433962499647919 6.1227032642866561 0 6.1227032642866561 -5.6376941900095829 0 0 0 0 147.90254845305753 70.885678948367058 0 70.885678948367058 -19.427991049968114 0 0 0 0 -1.8062259659782285 205.6695483832591 0 205.6695483832591 140.3123794474086 0 0 0 0 21.509909056519973 221.51338072125873 0 221.51338072125873 -178.16700504067558 0 0 0 0 -217.46110582009715 262.90326751101384 0 262.90326751101384 34.315281359351502 0 0 0 0 -66.733943934377749 285.73629207061458 0 285.73629207061458 -5.0722550416976446 0 0 0 0 -186.74522027064813 382.8548233653637 0 382.8548233653637 -6.4470487233993481 0 0 0 0 -211.41408062419214 260.30876283032558 0 260.30876283032558 22.641603488063993 0 0 0 0 -509.8138350624431 65.4217591868819 0 65.4217591868819 145.9339846251678 0 0 0 0 -268.54265596966434 290.05315072535086 0 290.05315072535086 297.55147350806692 0 0 0 0 73.91008350624179 265.18131332276243 0 265.18131332276243 -91.321199148609594 0 0 0 0 33.536019464634592 330.692716509202 0 330.692716509202 91.390001327255959 0 0 0 0 -59.801125434216374 -152.69972281547689 0 -152.69972281547689 -84.013958334522613 0 0 0 0 251.93017847050214 80.613429575725604 0 80.613429575725604 -66.467700489982235 0 0 0 0 494.86843279469758 158.33264704635803 0 158.33264704635803 -55.120741741745405 0 0 0 0 -1.0616846870383618 -1.1835425019853574 0 -1.1835425019853574 3.8562591203822478 0 0 0 0 375.13107151993609 423.16036535370768 0 423.16036535370768 300.20002486398153 0 0 0 0 729.79243212086112 322.19301601911491 0 322.19301601911491 -20.892715757858241 0 0 0 0 -68.302887559322699 -9.3918582553378656 0 -9.3918582553378656 12.921039421540627 0 0 0 0 -52.673768857828691 -12.235034759578411 0 -12.235034759578411 -32.78560403087522 0 0 0 0 -0.85111790407408705 0.75202329348510943 0 0.75202329348510943 -0.8000794233178965 0 0 0 0 -497.97749836313596 -19.947409448972394 0 -19.947409448972394 132.92786969304143 0 0 0 0 16.68586094766215 27.977801489705598 0 27.977801489705598 -52.916474188930806 0 0 0 0 -114.5705889864912 62.053647443613954 0 62.053647443613954 -61.574382508137205 0 0 0 0 -296.38571511588816 -4.2971184125849504 0 -4.2971184125849504 10.828869756584027 0 0 0 0 -126.03861785036679 -20.557801743946129 0 -20.557801743946129 -27.941816180151363 0 0 0 0 -4.4596128606076206 8.4521456012791987 0 8.4521456012791987 -11.056326945850586 0 0 0 0 216.86987854096515 105.9802774777927 0 105.9802774777927 19.772638541508059 0 0 0 0 187.7909596428799 125.67482244519124 0 125.67482244519124 -18.157810328899359 0 0 0 0 212.05251075735214 89.798561001154667 0 89.798561001154667 -12.360983703605598 0 0 0 0 212.50451806531055 152.49187284844811 0 152.49187284844811 47.065557901783905 0 0 0 0 226.7646467536506 137.37698164017274 0 137.37698164017274 67.800802342746465 0 0 0 0 -19.92050150019287 11.583634773270433 0 11.583634773270433 -16.171582719501814 0 0 0 0 -56.508969449947472 -8.9735302029494051 0 -8.9735302029494051 -6.5282705102290493 0 0 0 0 326.90283107107098 167.61071538740725 0 167.61071538740725 2.1316733362509694 0 0 0 0 -40.902915838756655 -1.5282371190426289 0 -1.5282371190426289 -7.6175444413435809 0 0 0 0 139.62557185733749 71.289504317091996 0 71.289504317091996 57.430365068204992 0 0 0 0 324.18490610904973 76.906227271710804 0 76.906227271710804 37.471077482987312 0 0 0 0 228.83107386896154 46.405155258948071 0 46.405155258948071 158.99919494034839 0 0 0 0 -27.532955554044747 80.667202505827163 0 80.667202505827163 136.45773394698335 0 0 0 0 120.83401165762916 147.35261590484879 0 147.35261590484879 73.27309857781438 0 0 0 0 -99.427717929265782 -8.6580979926261534 0 -8.6580979926261534 -125.33470381210282 0 0 0 0 -54.523239179633805 52.942725627603949 0 52.942725627603949 -31.864016324005064 0 0 0 0 909.06524851464201 392.70443557895123 0 392.70443557895123 -177.50792526360237 0 0 0 0 181.0152178297285 163.45903515140526 0 163.45903515140526 46.932827363129036 0 0 0 0 149.26241376818507 196.10689125264616 0 196.10689125264616 221.54989586933516 0 0 0 0 709.52704190621444 -618.02659504962867 0 -618.02659504962867 -457.78599634938291 0 0 0 0 -57.150132201932138 11.633003859717064 0 11.633003859717064 -47.953861370926461 0 0 0 0 -103.62308883399237 -10.699578918234693 0 -10.699578918234693 -50.030604861301981 0 0 0 0 -3.1360936192213558 8.9806756413090625 0 8.9806756413090625 -66.836289886170562 0 0 0 0 -17.854794730121824 19.380226042242242 0 19.380226042242242 -21.716899626001982 0 0 0 0 -50.103070713288616 -2.3691611328540603 0 -2.3691611328540603 -15.146119777647073 0 0 0 0 -22.766763543040724 20.378980266068538 0 20.378980266068538 0.60124187879409874 0 0 0 0 30.44924603648542 189.29953052583824 0 189.29953052583824 78.587856239082612 0 0 0 0 -49.046686954716279 89.236804123737784 0 89.236804123737784 -47.225027000720729 0 0 0 0 -11.787418009295294 5.7962992247811371 0 5.7962992247811371 1.4878053573723662 0 0 0 0 -113.28009275748627 -24.203801291607306 0 -24.203801291607306 47.871046122068947 0 0 0 0 0.26209893786412408 22.400448217280768 0 22.400448217280768 -16.610627715350574 0 0 0 0 -13.943774583472987 25.760474349828655 0 25.760474349828655 -24.98994568965918 0 0 0 0 -20.746305950412932 19.860012730022106 0 19.860012730022106 -28.672501757885311 0 0 0 0 -29.787875768713036 31.133672074184112 0 31.133672074184112 -48.374340713687715 0 0 0 0 -57.695706684258766 89.400791527630645 0 89.400791527630645 -8.9082930485747056 0 0 0 0 -0.12976649882239144 12.79715564220195 0 12.79715564220195 -13.386929996848433 0 0 0 0 4.584798931813566 2.5011600975017245 0 2.5011600975017245 -153.38285120901367 0 0 0 0 -48.897916181900655 -16.462276251250046 0 -16.462276251250046 -71.98595564731113 0 0 0 0 -20.268146846836316 29.918798528732282 0 29.918798528732282 -106.12577190317188 0 0 0 0 -45.41698274253713 51.743571372076872 0 51.743571372076872 -50.839556385939098 0 0 0 0 18.074850931763649 89.585008465830924 0 89.585008465830924 -110.05541886262233 0 0 0 0 -215.78559079824481 234.28919131236034 0 234.28919131236034 145.03414655151573 0 0 0 0 -212.78340996195766 199.76762332268027 0 199.76762332268027 -65.099375508725643 0 0 0 0 30.233276582686813 -1.6847192556087975 0 -1.6847192556087975 47.09754961744693 0 0 0 0 -40.428500214929784 51.125875522250368 0 51.125875522250368 -59.407915868646064 0 0 0 0 87.47882528847822 316.61737053879119 0 316.61737053879119 31.298675975431252 0 0 0 0 51.033445240362198 183.00433850022227 0 183.00433850022227 -26.116005726808908 0 0 0 0 -45.658980910404352 97.647706333797032 0 97.647706333797032 47.435502085863163 0 0 0 0 -316.73749173886608 36.075493442838706 0 36.075493442838706 35.251283996483835 0 0 0 0 69.356021949322894 191.56323766429614 0 191.56323766429614 -11.199918490185837 0 0 0 0 -43.367534560486092 77.275467701596426 0 77.275467701596426 -41.095222620000641 0 0 0 0 -39.08727093526079 49.247950300856076 0 49.247950300856076 -56.410983730863308 0 0 0 0 53.292731840410852 84.034179788690835 0 84.034179788690835 -152.44278838564423 0 0 0 0 9.9467395730025601 49.00223737520821 0 49.00223737520821 -342.52631821764908 0 0 0 0 -28.886834612334496 61.945359557806114 0 61.945359557806114 -148.85754136992352 0 0 0 0 49.471147654563538 64.753194499052597 0 64.753194499052597 -263.99414492251253 0 0 0 0 3.2986293746657225 7.8264032401994541 0 7.8264032401994541 2.3102535271639946 0 0 0 0 -55.140289094750187 39.417740289731 0 39.417740289731 -17.412207047285165 0 0 0 0 137.19114092609379 45.905732865250229 0 45.905732865250229 -210.45808509340321 0 0 0 0 3.0572916062524769 8.324168255058277 0 8.324168255058277 0.61760605267383006 0 0 0 0 96.914455887192162 203.12475768335912 0 203.12475768335912 103.51481130034935 0 0 0 0 -32.929703460304154 137.70203021324426 0 137.70203021324426 -518.65131149276249 0 0 0 0 -193.22234363811731 241.2311161139769 0 241.2311161139769 733.05190306761756 0 0 0 0 1.5894726223813223 5.5981892263710886 0 5.5981892263710886 0.88262473887331505 0 0 0 0 -50.295542855965323 279.48374177378264 0 279.48374177378264 -163.26594243092768 0 0 0 0 -47.321273672991083 84.595908629627047 0 84.595908629627047 -215.6827819416103 0 0 0 0 -220.94261507305782 -10.102086066362062 0 -10.102086066362062 1222.2365039547417 0 0 0 0 0.69602551545102642 0.30532257795697504 0 0.30532257795697504 0.28708967713558403 0 0 0 0 194.50287472407217 100.14702407024424 0 100.14702407024424 -954.51337022467487 0 0 0 0 128.53463970926532 336.6572508197246 0 336.6572508197246 -99.925712213069346 0 0 0 0 -39.881179491049352 -71.112113742466732 0 -71.112113742466732 -404.59704919318028 0 0 0 0 82.988415814877953 48.313606371407786 0 48.313606371407786 -181.63463562334073 0 0 0 0 -0.22175417577091139 238.79974052583179 0 238.79974052583179 -424.49678633845269 0 0 0 0 0.075327988699427806 180.06159031259222 0 180.06159031259222 29.811158362843344 0 0 0 0 0.55439988140435759 4.2184313455380504 0 4.2184313455380504 2.0479372455622666 0 0 0 0 501.16829513156699 109.76784228855377 0 109.76784228855377 -147.72047503837621 0 0 0 0 101.92341236564971 55.471057294735147 0 55.471057294735147 87.972777975740428 0 0 0 0 101.72934545468888 120.68278956552604 0 120.68278956552604 47.96187337693118 0 0 0 0 -13.314439907742781 121.79506774312176 0 121.79506774312176 -214.67707106255585 0 0 0 0 -214.25249103843089 67.661467095609169 0 67.661467095609169 -49.377043370147476 0 0 0 0 -314.89553107551183 188.33894859557768 0 188.33894859557768 -185.3798186386723 0 0 0 0 -69.589909373680712 68.947701346412032 0 68.947701346412032 -54.983062508986677 0 0 0 0 -91.114436320240202 63.153297338783887 0 63.153297338783887 43.045150836216635 0 0 0 0 21.395997795405492 194.24890981243982 0 194.24890981243982 68.26665801379022 0 0 0 0 -34.775046066122741 30.664553390837 0 30.664553390837 -9.1733242441441689 0 0 0 0 -240.11113462797948 67.239550041716939 0 67.239550041716939 33.406800047567231 0 0 0 0 -87.430928778790985 110.15365454678522 0 110.15365454678522 60.734660163667286 0 0 0 0 -35.139428402579597 45.301769218510913 0 45.301769218510913 -53.258546403380372 0 0 0 0 0.051441720919683576 87.856649363237921 0 87.856649363237921 63.295242321000842 0 0 0 0 35.481953102160332 83.743874448145107 0 83.743874448145107 45.822913324613182 0 0 0 0 1.3979515816751231 4.7499398501221037 0 4.7499398501221037 7.889828304627585 0 0 0 0 52.86080580142152 36.952167675960482 0 36.952167675960482 7.0537514979660045 0 0 0 0 125.19354359551653 72.950121308233975 0 72.950121308233975 18.781339914668933 0 0 0 0 -3.7798822164331796 31.315763235268605 0 31.315763235268605 26.191808404320909 0 0 0 0 -5.2115166764961316 13.995632044780962 0 13.995632044780962 12.357181192053019 0 0 0 0 0.019444824516540393 59.052126996371953 0 59.052126996371953 28.964504824372852 0 0 0 0 0.29749449085795732 -3.9192038889747778 0 -3.9192038889747778 -0.99149073755799311 0 0 0 0 0.31919407099485397 117.66319849797219 0 117.66319849797219 -152.41755517388765 0 0 0 0 6.3527186175051611 50.933399511284733 0 50.933399511284733 39.27554142977533 0 0 0 0 0.58243776451854501 37.029577510781564 0 37.029577510781564 -9.775089074850257 0 0 0 0 -1.2284286884190578 3.8597337144968265 0 3.8597337144968265 -12.604042562608475 0 0 0 0 8.3732556230170303 11.871153949196014 0 11.871153949196014 -21.198348504938622 0 0 0 0 -5.1181024366968586 10.237488965971906 0 10.237488965971906 -14.546680820412206 0 0 0 0 -20.689678113150876 48.268979268998237 0 48.268979268998237 -39.53668850500253 0 0 0 0 -3.9863826751570741 -5.7945364827651247 0 -5.7945364827651247 18.41237763940444 0 0 0 0 -7.8789605921047041 3.8798141037550522 0 3.8798141037550522 -5.8242778895255469 0 0 0 0 3.0837990964369624 -0.77321918856165439 0 -0.77321918856165439 -4.799001887850757 0 0 0 0 -9.9288868855110195 -0.14512936323171743 0 -0.14512936323171743 -87.441681007221632 0 0 0 0 5.1317394963796232 7.2422235556313979 0 7.2422235556313979 -15.27668254179159 0 0 0 0 41.347398442667327 95.040904737723395 0 95.040904737723395 -126.67466056461853 0 0 0 0 -27.492821546739151 41.09618573566074 0 41.09618573566074 -47.643211395731967 0 0 0 0 4.0073026739840856 15.630496784366585 0 15.630496784366585 -30.394347276345968 0 0 0 0 -13.88616398483282 35.380506944929948 0 35.380506944929948 -35.236113803437547 0 0 0 0 -9.0045398211696011 20.484940843677578 0 20.484940843677578 -6.6459732068251469 0 0 0 0 -8.0995806719820393 24.428998180286726 0 24.428998180286726 -64.095419225152 0 0 0 0 44.776976242152159 40.446315947181574 0 40.446315947181574 -26.953189675714384 0 0 0 0 4.8378099349071704 0.44238884608559204 0 0.44238884608559204 1.4687422358233082 0 0 0 0 63.572240356705151 43.04635192727801 0 43.04635192727801 -266.48109103457227 0 0 0 0 -22.228733001975343 36.132772239150654 0 36.132772239150654 -127.3436338897518 0 0 0 0 27.097044935217127 -7.147200672316103 0 -7.147200672316103 -270.21259271679719 0 0 0 0 63.98399472321762 153.0678067634617 0 153.0678067634617 239.52789172402117 0 0 0 0 5.5670879307144787 35.142859518875412 0 35.142859518875412 10.884369251209137 0 0 0 0 174.94152835539717 215.02447636723809 0 215.02447636723809 38.738371315663244 0 0 0 0 46.737832238628471 200.84850095074398 0 200.84850095074398 -71.457030600574399 0 0 0 0 1.8874797290665697 0.6220483315108396 0 0.6220483315108396 -0.20071509919904429 0 0 0 0 9.4101662637622212 49.357881093870674 0 49.357881093870674 41.871289158807485 0 0 0 0 41.879265740745041 53.758211682740352 0 53.758211682740352 -165.4101527643943 0 0 0 0 -95.817390385916951 36.725227566952526 0 36.725227566952526 -256.3057447293213 0 0 0 0 -48.207029575831257 122.93702785616188 0 122.93702785616188 -117.53539429700322 0 0 0 0 -348.35426803087103 241.90211638669462 0 241.90211638669462 -131.69712449571671 0 0 0 0 10.761543684857315 23.959656991057273 0 23.959656991057273 -105.63323560267054 0 0 0 0 77.647367264453351 195.49023387525176 0 195.49023387525176 -19.02722423132218 0 0 0 0 78.5728963212905 62.246207965379199 0 62.246207965379199 -130.83712766318058 0 0 0 0 63.529252078078571 169.37665072450545 0 169.37665072450545 6.1371238852152601 0 0 0 0 -347.81501338727139 210.83762298621696 0 210.83762298621696 170.17182823133044 0 0 0 0 2.4111200050956398 3.7107887306671898 0 3.7107887306671898 3.8876694387635311 0 0 0 0 -119.97504658065009 136.54560270772072 0 136.54560270772072 -110.29934877005462 0 0 0 0 -86.63584804804259 37.348811288978482 0 37.348811288978482 -58.671704098109331 0 0 0 0 -55.412521129689821 66.178590144276825 0 66.178590144276825 -86.192972679723425 0 0 0 0 -179.11844930388543 154.46192335791784 0 154.46192335791784 -195.18344801072999 0 0 0 0 -57.58246646203952 80.930861478714121 0 80.930861478714121 -152.01055896636171 0 0 0 0 372.14527723273568 316.04840435400001 0 316.04840435400001 -160.35037690615218 0 0 0 0 364.54287035615926 150.29241008895769 0 150.29241008895769 -264.91846477829176 0 0 0 0 374.53588913062049 197.61841235399606 0 197.61841235399606 -79.950922801113393 0 0 0 0 282.68084930720943 240.45171457871675 0 240.45171457871675 -98.095311951556141 0 0 0 0 239.48783090911456 202.65782189719812 0 202.65782189719812 44.636050274941226 0 0 0 0 453.33271437290387 171.9961039765376 0 171.9961039765376 42.470030061842408 0 0 0 0 3.429069515657666 1.9053214909905947 0 1.9053214909905947 1.2316240989694407 0 0 0 0 -13.744464500015965 6.256722143391471 0 6.256722143391471 795.11729138144801 0 0 0 0 114.81142153017936 170.20238570221773 0 170.20238570221773 -197.03785247312589 0 0 0 0 152.28117507768525 381.16667962635688 0 381.16667962635688 258.90007688170954 0 0 0 0 -16.916846044834529 130.25356066237691 0 130.25356066237691 113.65114377808641 0 0 0 0 -73.462883578882611 112.54831647859464 0 112.54831647859464 -37.112270349134633 0 0 0 0 -45.293728571912652 5.4743335577159087 0 5.4743335577159087 -47.73501018024217 0 0 0 0 10.169457381188785 6.1135890883370543 0 6.1135890883370543 4.9459053040263363 0 0 0 0 -6.063728381492183 138.55369503707971 0 138.55369503707971 -159.940707019201 0 0 0 0 160.60923465139331 24.109634398154867 0 24.109634398154867 -15.290282701421347 0 0 0 0 -247.94954524643799 -149.85306646855634 0 -149.85306646855634 397.47571169718958 0 0 0 0 0.96292206880607978 1.6623011071805678 0 1.6623011071805678 2.2281139528329845 0 0 0 0 -194.82938036868381 40.977921358064577 0 40.977921358064577 182.06505525444118 0 0 0 0 117.50470807326019 123.9315634903237 0 123.9315634903237 -34.311081226554961 0 0 0 0 266.22197502030394 222.68567966638966 0 222.68567966638966 133.75885790017264 0 0 0 0 11.439143743021255 17.024686713073795 0 17.024686713073795 1.8266018687689431 0 0 0 0 -145.67714693898597 8.4045683721051319 0 8.4045683721051319 207.51437138080928 0 0 0 0 -176.2175241220466 91.827934824013937 0 91.827934824013937 272.31430914949669 0 0 0 0 -103.928616048408 69.961530405277699 0 69.961530405277699 158.32935666516278 0 0 0 0 -163.30484776529556 -117.24560963751856 0 -117.24560963751856 -259.9786941929633 0 0 0 0 -41.103154315024184 40.905925949671555 0 40.905925949671555 -12.142157502701451 0 0 0 0 -2.007552006813512 34.933713362137951 0 34.933713362137951 50.228734626112782 0 0 0 0 -103.80047800861576 42.306577630284664 0 42.306577630284664 109.17179046698129 0 0 0 0 -27.501049104233971 70.386585710009967 0 70.386585710009967 6.426293073076522 0 0 0 0 15.198970112662209 111.07724454258278 0 111.07724454258278 17.467429189842733 0 0 0 0 80.304328932183125 253.82685970520743 0 253.82685970520743 146.41059039962283 0 0 0 0 2.888044301966147 141.36218600816392 0 141.36218600816392 -12.187564261979787 0 0 0 0 542.71995559772529 494.35697448667997 0 494.35697448667997 -153.01597038229374 0 0 0 0 559.48803725577773 447.89378390256934 0 447.89378390256934 -25.990879276847181 0 0 0 0 507.28955512672184 354.68694710484124 0 354.68694710484124 -13.840960247038538 0 0 0 0 109.67480468995745 194.40423652548088 0 194.40423652548088 12.329040994683965 0 0 0 0 636.74841912014267 181.99004744740341 0 181.99004744740341 -64.697799926832886 0 0 0 0 276.58586181730698 216.03197622560765 0 216.03197622560765 -22.748373992271809 0 0 0 0 -40.29334690163504 34.180114876109712 0 34.180114876109712 -8.7885591622579327 0 0 0 0 -30.87987164546621 -29.791773817210014 0 -29.791773817210014 100.80481778959029 0 0 0 0 294.58002890455424 372.46772246837997 0 372.46772246837997 221.41257010640038 0 0 0 0 375.75798168945391 250.93252844754352 0 250.93252844754352 111.20484839482742 0 0 0 0 361.12975339487468 373.48898564731326 0 373.48898564731326 635.85111598065305 0 0 0 0 68.086599612407554 226.82942477679444 0 226.82942477679444 289.24008417497043 0 0 0 0 489.93068874284666 129.59105172458021 0 129.59105172458021 -47.929788598182313 0 0 0 0 68.967414762046246 87.164866212836841 0 87.164866212836841 1.9922534558945699 0 0 0 0 303.21571220841128 74.098986735008566 0 74.098986735008566 -27.265613576670148 0 0 0 0 -37.907695960917032 31.943271627098408 0 31.943271627098408 -4.919718398880903 0 0 0 0 43.747482572574881 48.84647400758422 0 48.84647400758422 -38.449300034739281 0 0 0 0 22.392900761014971 120.50744636832451 0 120.50744636832451 14.474183011448531 0 0 0 0 35.026673302612835 101.53848280759712 0 101.53848280759712 -107.67888701474203 0 0 0 0 16.364435004332336 111.85598230436653 0 111.85598230436653 6.0246164207001129 0 0 0 0 50.869316284912202 132.31410973265338 0 132.31410973265338 2.4264303505206044 0 0 0 0 26.185911859625776 32.192172181654314 0 32.192172181654314 -136.71125591026566 0 0 0 0 25.897992544731949 47.640483286518567 0 47.640483286518567 -27.003228235287679 0 0 0 0 4.1921920073218644 0.7931878394379055 0 0.7931878394379055 -48.766906004393604 0 0 0 0 -1.5510250783214587 4.7179096248453485 0 4.7179096248453485 -3.1197805344487612 0 0 0 0 6.0973126648323159 -0.50173979838200466 0 -0.50173979838200466 -54.519394394844312 0 0 0 0 173.02745909979967 301.20411697372833 0 301.20411697372833 606.84236001885165 0 0 0 0 -37.729586762079556 30.629093296933632 0 30.629093296933632 -0.91922133786893312 0 0 0 0 36.552849511862405 53.35451210208339 0 53.35451210208339 1.2443827721599519 0 0 0 0 24.671826692730974 33.305403996042969 0 33.305403996042969 -15.672605823696358 0 0 0 0 25.62630769191037 31.293568141836886 0 31.293568141836886 -12.497696855503818 0 0 0 0 10.183196653470077 14.426009822611377 0 14.426009822611377 -19.561498171108724 0 0 0 0 6.377456087313476 42.667682351006988 0 42.667682351006988 0.63102451909674073 0 0 0 0 15.401541580460162 32.077216405312697 0 32.077216405312697 12.46743269324179 0 0 0 0 3.0842835021285282 43.000473461332149 0 43.000473461332149 19.002131516529971 0 0 0 0 -2.9263343428501898 7.539849675782146 0 7.539849675782146 -5.3680826095695622 0 0 0 0 235.77199389449015 493.30580463943613 0 493.30580463943613 770.16284298965638 0 0 0 0 -5.1861332713579031 179.89983074357542 0 179.89983074357542 1281.9518010563158 0 0 0 0 316.72399868970206 172.379793668221 0 172.379793668221 494.07728542338236 0 0 0 0 -9.5504617807650192 10.705251650781362 0 10.705251650781362 -7.4256393377720062 0 0 0 0 229.69433610681153 231.56727607655648 0 231.56727607655648 589.63727040353501 0 0 0 0 77.008094998516754 371.39295586898334 0 371.39295586898334 756.59860585293427 0 0 0 0 7.3352124699321024 6.9771706550619221 0 6.9771706550619221 -2.5142873099805794 0 0 0 0 50.71732481915933 461.80375065292515 0 461.80375065292515 1199.6476261391531 0 0 0 0 157.62248626001747 230.13858903637265 0 230.13858903637265 838.31691313099736 0 0 0 0 85.509985753000365 309.16115457299748 0 309.16115457299748 816.55985202153897 0 0 0 0 -403.65104477369778 0.054657571905408986 0 0.054657571905408986 57.886170965774909 0 0 0 0 428.04324831927079 -201.95372597307778 0 -201.95372597307778 -720.92653492386103 0 0 0 0 11.729692057780213 11.558878303944155 0 11.558878303944155 -5.4092914712915388 0 0 0 0 -212.83646960255828 625.60424372518776 0 625.60424372518776 284.22726593631091 0 0 0 0 5.5768616374751474 18.013979642852426 0 18.013979642852426 -7.9898185217515341 0 0 0 0 818.65077236925208 -165.63745097224682 0 -165.63745097224682 -403.3834261484817 0 0 0 0 73.20287247217675 218.14526141895067 0 218.14526141895067 581.27065767886234 0 0 0 0 89.0295979003713 198.41540091091792 0 198.41540091091792 604.58395765324804 0 0 0 0 67.432178682229278 255.97499165461886 0 255.97499165461886 633.17780204897508 0 0 0 0 67.418446878072416 257.60636005561832 0 257.60636005561832 536.88911661501879 0 0 0 0 152.28140816765335 310.2785842344083 0 310.2785842344083 659.03271254445121 0 0 0 0 91.636758004653529 222.75872056951221 0 222.75872056951221 701.88298725032109 0 0 0 0 73.901719313911599 282.84231677962907 0 282.84231677962907 637.42481805624993 0 0 0 0 130.3356526195621 265.46288904985863 0 265.46288904985863 599.79630259967871 0 0 0 0 -18.66257868157345 25.397367563942282 0 25.397367563942282 -272.90838361777423 0 0 0 0 22.172748206663528 364.61009306179039 0 364.61009306179039 636.54437840426124 0 0 0 0 -0.75234146838747762 1.7202938940553132 0 1.7202938940553132 -0.80747558766729455 0 0 0 0 -7.3567495629649784 -26.035203194317546 0 -26.035203194317546 -74.073045032436312 0 0 0 0 354.88949591419077 380.21516227228585 0 380.21516227228585 86.866603989758914 0 0 0 0 162.96376559052442 177.25389176941826 0 177.25389176941826 337.55936228360133 0 0 0 0 147.43501842602836 220.91013867113202 0 220.91013867113202 226.91965419508233 0 0 0 0 1.8584085291810339 2.1825814281955118 0 2.1825814281955118 1.2942583290085352 0 0 0 0 -167.61071883112163 207.06556944766589 0 207.06556944766589 36.90365490255499 0 0 0 0 -60.26185893372076 561.12783329831927 0 561.12783329831927 426.42006104262509 0 0 0 0 337.23032134539062 228.7504914625838 0 228.7504914625838 327.86776131805891 0 0 0 0 248.17837075807256 411.72335796379593 0 411.72335796379593 496.56692726954043 0 0 0 0 36.986769289567746 359.02909806280968 0 359.02909806280968 501.83469041199169 0 0 0 0 93.174657808136544 278.00039939500039 0 278.00039939500039 550.99078778975672 0 0 0 0 158.76151612837202 225.22689330105732 0 225.22689330105732 458.94867207890638 0 0 0 0 116.23641806825253 173.58787004821625 0 173.58787004821625 399.49205837664249 0 0 0 0 66.689456426054676 70.53491439269601 0 70.53491439269601 303.1610556753576 0 0 0 0 138.07277926969073 147.00997979085741 0 147.00997979085741 382.80226849505016 0 0 0 0 -12.453262779054334 23.695335686929113 0 23.695335686929113 -8.6233319400325019 0 0 0 0 64.811763526617142 99.282791995912703 0 99.282791995912703 412.57711575504163 0 0 0 0 56.985149096362875 117.38836742428975 0 117.38836742428975 459.44912416785883 0 0 0 0 39.365862812584965 96.159019325647023 0 96.159019325647023 446.26512007277324 0 0 0 0 -96.083721436669293 187.2842286168825 0 187.2842286168825 113.15456240054618 0 0 0 0 81.399495785699401 122.2523762556184 0 122.2523762556184 441.64189073117723 0 0 0 0 23.615898919360916 151.93222677260292 0 151.93222677260292 498.93029044208333 0 0 0 0 53.287445473164553 219.2930855517734 0 219.2930855517734 586.67178892514494 0 0 0 0 -347.78698509222522 168.01134163860172 0 168.01134163860172 467.8833894702251 0 0 0 0 -289.10392302374748 210.2736434872096 0 210.2736434872096 185.66046407563624 0 0 0 0 -68.14564492089994 70.901846954474422 0 70.901846954474422 104.2481079085228 0 0 0 0 -142.65003160246056 78.918101579969672 0 78.918101579969672 300.79580346839111 0 0 0 0 -138.93671591239399 130.45184845679694 0 130.45184845679694 223.7885155410668 0 0 0 0 33.175175522705104 166.31226154553983 0 166.31226154553983 242.16869147358619 0 0 0 0 -66.443758843817704 37.208972224167823 0 37.208972224167823 222.7610887305089 0 0 0 0 -8.3251053220301401 163.86873217286211 0 163.86873217286211 19.662921163404462 0 0 0 0 -122.49878493485085 123.85135094198449 0 123.85135094198449 608.2054498772427 0 0 0 0 -76.834861659205671 -91.414439531812491 0 -91.414439531812491 123.82258666486723 0 0 0 0 38.14784405606224 87.290255799339093 0 87.290255799339093 390.68766259793665 0 0 0 0 -31.097216677688564 31.941396873537229 0 31.941396873537229 -16.275184219028226 0 0 0 0 -1.6719945565961467 1.7665937619845309 0 1.7665937619845309 2.6731514423295017 0 0 0 0 67.483599912375212 109.48885364298872 0 109.48885364298872 214.11695719998033 0 0 0 0 32.728480655725434 142.59236612245255 0 142.59236612245255 319.93887080948087 0 0 0 0 60.495557854028448 104.55915259755992 0 104.55915259755992 252.97022580354098 0 0 0 0 42.242701507107995 125.89334910389488 0 125.89334910389488 312.71316599145996 0 0 0 0 67.522215374349798 154.93960401084192 0 154.93960401084192 244.45168089376921 0 0 0 0 51.399480200161634 141.99738968244515 0 141.99738968244515 217.42780824215865 0 0 0 0 26.189443069444678 216.96686620296202 0 216.96686620296202 145.94414094025524 0 0 0 0 31.481454239663435 148.5627534012142 0 148.5627534012142 228.0202535969056 0 0 0 0 2.7991756726848251 7.3233499899316605 0 7.3233499899316605 -8.8271024223729242 0 0 0 0 43.697372909351543 163.13090501323904 0 163.13090501323904 267.10825891120476 0 0 0 0 -134.67400937200364 565.50859057796151 0 565.50859057796151 374.03596299304263 0 0 0 0 -50.040728488473889 37.411080092548985 0 37.411080092548985 -29.404232199721942 0 0 0 0 -223.02306937169124 519.5159029010556 0 519.5159029010556 576.11650033441401 0 0 0 0 36.439407894766191 204.40932821381466 0 204.40932821381466 -63.081941075402028 0 0 0 0 64.793187069297346 99.480978729272238 0 99.480978729272238 135.81226382809291 0 0 0 0 70.283111789925897 181.93177955700412 0 181.93177955700412 65.607054226869877 0 0 0 0 12.793062169628683 678.77497092081467 0 678.77497092081467 675.51390516456377 0 0 0 0 -236.53792958745544 136.05538017659137 0 136.05538017659137 117.39032390876491 0 0 0 0 441.251308791253 197.33092370313807 0 197.33092370313807 530.04299556488513 0 0 0 0 896.42612345486123 308.21385862806437 0 308.21385862806437 36.134325001301477 0 0 0 0 -1.4224426145153259 -1.9659802650228961 0 -1.9659802650228961 2.9783298010333255 0 0 0 0 -123.24334886105135 255.5811965428793 0 255.5811965428793 106.36833874693912 0 0 0 0 -232.97259649278567 219.40676074191288 0 219.40676074191288 527.06328358975497 0 0 0 0 -133.37761942107318 103.13464848768126 0 103.13464848768126 -78.066871707390419 0 0 0 0 -211.86714902935455 527.27755064558096 0 527.27755064558096 -178.18905445492601 0 0 0 0 -121.21336851992965 276.1633120841243 0 276.1633120841243 296.15866680121985 0 0 0 0 -115.39914289397075 -91.247883448037555 0 -91.247883448037555 -358.07139144788289 0 0 0 0 -649.29741802169883 276.63640972566054 0 276.63640972566054 286.5210923130835 0 0 0 0 63.724739400340695 95.119509121778719 0 95.119509121778719 73.408356068090143 0 0 0 0 21.717190775525523 177.35178071850532 0 177.35178071850532 144.37734976387412 0 0 0 0 9.7961991855736414 20.801652152766565 0 20.801652152766565 120.39511629000481 0 0 0 0 17.6273075963054 101.86284634861704 0 101.86284634861704 390.25328618579806 0 0 0 0 -169.1770006630577 -19.150129411158559 0 -19.150129411158559 489.2655994407578 0 0 0 0 90.672901094632834 233.42978779501777 0 233.42978779501777 288.98612877511187 0 0 0 0 139.26203532604268 194.5754253076193 0 194.5754253076193 141.55734850306908 0 0 0 0 41.798181416510488 178.06137173811658 0 178.06137173811658 152.50355171220872 0 0 0 0 138.92896939255297 192.73005385623037 0 192.73005385623037 163.54938660660991 0 0 0 0 329.95870755729266 291.00975981655574 0 291.00975981655574 132.74124341814604 0 0 0 0 184.5824414520539 144.21638320034072 0 144.21638320034072 10.559924097899057 0 0 0 0 315.6543851186434 166.80147674127511 0 166.80147674127511 -0.75944490443089308 0 0 0 0 17.991340582986595 170.83163009006967 0 170.83163009006967 100.51505106740478 0 0 0 0 57.120051207311562 95.664371183575327 0 95.664371183575327 118.22060482864951 0 0 0 0 27.426118069866789 139.80338378910619 0 139.80338378910619 77.92084824032645 0 0 0 0 -80.722645971844031 177.7783309039969 0 177.7783309039969 168.79485186652164 0 0 0 0 -86.811057334583893 197.74817610909167 0 197.74817610909167 140.40255162504218 0 0 0 0 59.564355969815864 101.72894624740199 0 101.72894624740199 139.01513540431353 0 0 0 0 -96.274104517236992 105.14479860379993 0 105.14479860379993 204.36016516525865 0 0 0 0 2.9190090769043309 145.4410237562729 0 145.4410237562729 87.123209944797054 0 0 0 0 -8.8840564630590961 135.1723651054217 0 135.1723651054217 216.23922960977825 0 0 0 0 35.497594700944319 166.67999544764371 0 166.67999544764371 129.34737204656903 0 0 0 0 27.118161801379756 176.1665452300831 0 176.1665452300831 137.18312927886882 0 0 0 0 -9.1965217811884941 125.04291811377925 0 125.04291811377925 122.85990325377497 0 0 0 0 61.245376310262145 190.15173616447692 0 190.15173616447692 115.67753047680344 0 0 0 0 50.930302706965449 209.15807546546239 0 209.15807546546239 163.75682163366491 0 0 0 0 26.783711732623487 198.30516832817284 0 198.30516832817284 235.8339311438549 0 0 0 0 70.777149242944574 161.8695371098226 0 161.8695371098226 121.39885941141256 0 0 0 0 -36.503248782931877 78.226805676067258 0 78.226805676067258 -13.77531375170441 0 0 0 0 599.11064594345953 435.06132253074065 0 435.06132253074065 237.53270292894558 0 0 0 0 -74.299181614878762 486.5223940934884 0 486.5223940934884 273.64922291106723 0 0 0 0 3.4426309179107193 155.09502182338474 0 155.09502182338474 169.3720180934888 0 0 0 0 -63.535283013894514 150.86585764729807 0 150.86585764729807 172.33931423949252 0 0 0 0 51.234262790796322 118.28228318065644 0 118.28228318065644 150.94831828069104 0 0 0 0 3.7996912771850475 139.06914542856794 0 139.06914542856794 163.92551800942601 0 0 0 0 -4.0848395467619412 119.47478577484799 0 119.47478577484799 115.23821698781467 0 0 0 0 23.808547349020955 112.14038639829232 0 112.14038639829232 146.86776161357739 0 0 0 0 44.0448321379954 126.2118505491344 0 126.2118505491344 127.62677341957897 0 0 0 0 17.336307549987396 110.19144807401608 0 110.19144807401608 222.67843625829119 0 0 0 0 71.359762599313399 105.5168597793745 0 105.5168597793745 143.04932536376873 0 0 0 0 -317.74181744531052 149.78192698521798 0 149.78192698521798 221.01889205371117 0 0 0 0 -8.786882129128287 -0.55400218957911562 0 -0.55400218957911562 -4.6340161610159782 0 0 0 0 96.447407950057823 171.44760304851843 0 171.44760304851843 -15.33240234155528 0 0 0 0 114.8140192310675 145.88349144455242 0 145.88349144455242 -540.21088597859853 0 0 0 0 131.57486105002317 202.41182901960747 0 202.41182901960747 8.7824862262132228 0 0 0 0 139.90596008604916 145.83889209582412 0 145.83889209582412 -4.0286972708418034 0 0 0 0 10.369608049010083 37.099331340728412 0 37.099331340728412 17.071320802650334 0 0 0 0 394.00325739481559 230.64418051380835 0 230.64418051380835 -102.56587679586391 0 0 0 0 72.172202392491442 137.19955880978262 0 137.19955880978262 95.519219987242224 0 0 0 0 326.39887607993296 -3.4939778025691339 0 -3.4939778025691339 172.64746614050091 0 0 0 0 173.97234490984556 81.51132262756073 0 81.51132262756073 124.73883846515673 0 0 0 0 23.798311540253053 238.32532528686534 0 238.32532528686534 45.7515316663048 0 0 0 0 73.456461948956544 129.94659808124916 0 129.94659808124916 88.984925994769014 0 0 0 0 2.357085293699015 104.59887898383701 0 104.59887898383701 50.3150475334578 0 0 0 0 77.697233976607095 67.056839409204258 0 67.056839409204258 5.4782288827991579 0 0 0 0 170.47281584112875 100.89553266469952 0 100.89553266469952 46.631870087514841 0 0 0 0 24.833309518438938 17.67799708193121 0 17.67799708193121 6.1946736469556356 0 0 0 0 69.065178321863641 281.94480746242698 0 281.94480746242698 40.842363696916436 0 0 0 0 -290.87668039403252 245.79447068630998 0 245.79447068630998 274.10908232091606 0 0 0 0 -38.52325178235418 71.474012947756307 0 71.474012947756307 -16.918884501074004 0 0 0 0 198.57720601440815 346.6975582122468 0 346.6975582122468 68.290304827244199 0 0 0 0 101.48762093966798 420.3475815021302 0 420.3475815021302 443.55616193533206 0 0 0 0 73.406609207617294 271.57777598394023 0 271.57777598394023 143.26079305988969 0 0 0 0 204.22087897545634 238.99928488595702 0 238.99928488595702 -100.41386685283942 0 0 0 0 -179.85217330280284 91.088632416023756 0 91.088632416023756 254.81569957680767 0 0 0 0 -67.053881245491084 45.771897044963964 0 45.771897044963964 -36.900376708280845 0 0 0 0 98.202618028728466 497.51922447573088 0 497.51922447573088 282.84828647217364 0 0 0 0 160.59321094818733 213.12517041719912 0 213.12517041719912 79.236496634823197 0 0 0 0 -385.66771205242549 393.05071825078448 0 393.05071825078448 27.034145082219766 0 0 0 0 -123.27095298524182 192.6964478826103 0 192.6964478826103 202.22632981128208 0 0 0 0 39.596322138691903 98.002709338711611 0 98.002709338711611 437.35224115587152 0 0 0 0 -24.654304692619917 263.28838457842267 0 263.28838457842267 143.83437389395647 0 0 0 0 152.60782167841171 302.1223352084412 0 302.1223352084412 -48.345186330314391 0 0 0 0 24.354485824407675 153.84782373319831 0 153.84782373319831 127.46263933942964 0 0 0 0 281.4023194000776 265.3548750202873 0 265.3548750202873 -113.55920549469192 0 0 0 0 -179.04253703267023 441.73776997188725 0 441.73776997188725 -116.68289609516614 0 0 0 0 -480.32616736518594 167.09332504300119 0 167.09332504300119 204.66400509916821 0 0 0 0 -353.302266550887 -91.020774569454261 0 -91.020774569454261 71.133904588901714 0 0 0 0 54.780373931735085 169.0419735180767 0 169.0419735180767 -303.19272624675295 0 0 0 0 -7.5708777234277136 1.7138952905177849 0 1.7138952905177849 -2.6865996080239753 0 0 0 0 72.296648466310216 7.0797729011310366 0 7.0797729011310366 -40.604608694440685 0 0 0 0 26.279578756723602 15.185131799994043 0 15.185131799994043 16.591998192836964 0 0 0 0 71.973255728240474 118.72193709874045 0 118.72193709874045 95.408336125865844 0 0 0 0 -30.538508163151164 127.74132927016763 0 127.74132927016763 137.38378146103059 0 0 0 0 9.9131930404577062 29.910358865655397 0 29.910358865655397 9.0084974244064036 0 0 0 0 -39.879284392984118 123.41062681453695 0 123.41062681453695 141.60147414412222 0 0 0 0 29.154329517725273 114.34581708178303 0 114.34581708178303 139.30471406990546 0 0 0 0 68.118459423866724 104.07728801566337 0 104.07728801566337 71.043443549965318 0 0 0 0 -6.2759483988584179 89.643236722712118 0 89.643236722712118 131.98741407713896 0 0 0 0 -81.250235978011915 83.353080256030808 0 83.353080256030808 139.41913542462407 0 0 0 0 -40.720744816993829 201.03909267039853 0 201.03909267039853 202.09557668076377 0 0 0 0 -163.64689951554192 141.53890008785402 0 141.53890008785402 174.84416756192331 0 0 0 0 293.26169916292929 386.27420742915001 0 386.27420742915001 50.503643843956525 0 0 0 0 47.943597704276726 100.93054198769804 0 100.93054198769804 127.87534298929086 0 0 0 0 -35.651391773613796 125.60539264951512 0 125.60539264951512 142.62991448130742 0 0 0 0 -236.25589168319129 92.073209511734603 0 92.073209511734603 237.77946304660145 0 0 0 0 -60.122466456350594 155.6529287157673 0 155.6529287157673 110.36016520986595 0 0 0 0 -52.037509953206609 237.15567706643151 0 237.15567706643151 124.11559001254864 0 0 0 0 -135.56630556143136 212.29503619651587 0 212.29503619651587 261.99213572091503 0 0 0 0 -17.58774134471787 288.73758588828059 0 288.73758588828059 199.30352518937525 0 0 0 0 -8.0563764790513233 185.92194984072648 0 185.92194984072648 42.448208192441598 0 0 0 0 -269.81416073484945 73.973566109867193 0 73.973566109867193 138.38868735941287 0 0 0 0 -290.46746623289073 345.43699766234022 0 345.43699766234022 119.15093218144102 0 0 0 0 149.48462538891272 387.57779101282131 0 387.57779101282131 -285.56776045985316 0 0 0 0 -49.716328263250034 231.19923761270002 0 231.19923761270002 122.8360090797421 0 0 0 0 14.691790698954719 263.05720557864606 0 263.05720557864606 34.830549404989142 0 0 0 0 80.695771425698695 177.59361087102116 0 177.59361087102116 106.00172380964523 0 0 0 0 57.950783655584971 94.617425172411586 0 94.617425172411586 111.6971725872131 0 0 0 0 -180.22136616653734 191.8612084762899 0 191.8612084762899 111.20657822456997 0 0 0 0 -311.80414837999706 198.89441699624876 0 198.89441699624876 201.15101257919741 0 0 0 0 -106.90751594956237 70.719469614949048 0 70.719469614949048 110.60624449052557 0 0 0 0 52.952267114087043 86.564853844427475 0 86.564853844427475 96.409319986960952 0 0 0 0 -149.59437305086612 110.71474618832872 0 110.71474618832872 84.362097998215177 0 0 0 0 381.19706142879841 55.789066334296876 0 55.789066334296876 -5.2949865488999421 0 0 0 0 -89.508342394881765 106.61704053947324 0 106.61704053947324 76.810261363036261 0 0 0 0 -72.343549460158101 117.43841201256782 0 117.43841201256782 64.14499175905803 0 0 0 0 -73.601620297144109 121.22843197700604 0 121.22843197700604 52.849253475516889 0 0 0 0 50.459300326873731 79.775994761452949 0 79.775994761452949 83.725072007623908 0 0 0 0 282.26439165323518 -101.37127635850902 0 -101.37127635850902 93.753437053455855 0 0 0 0 -149.41400474189686 -10.514540949555339 0 -10.514540949555339 203.75691187290613 0 0 0 0 -327.28987624517015 600.35833595466943 0 600.35833595466943 -288.76551634978023 0 0 0 0 -363.40401605273291 -302.96449012399898 0 -302.96449012399898 44.491594747636555 0 0 0 0 194.29726366548493 332.89328879204095 0 332.89328879204095 278.16493728152273 0 0 0 0 -484.05421986627334 177.31825140293586 0 177.31825140293586 656.21596886659336 0 0 0 0 107.87187426215678 709.54541830350354 0 709.54541830350354 773.50589065643726 0 0 0 0 -56.812776464582782 45.751236397177081 0 45.751236397177081 -32.380444107141841 0 0 0 0 159.09593407822422 172.23230612721204 0 172.23230612721204 308.42038672279887 0 0 0 0 -108.89474113124015 81.977847078738705 0 81.977847078738705 360.02311954270408 0 0 0 0 -1.9301335783020477 67.860412409163473 0 67.860412409163473 -4.9760225602003629 0 0 0 0 -22.575884317717282 167.62589625095643 0 167.62589625095643 438.07496786625416 0 0 0 0 16.296731498310692 139.5339848780477 0 139.5339848780477 163.26871664173814 0 0 0 0 -62.637093661673134 118.12119423181139 0 118.12119423181139 126.34645791949879 0 0 0 0 -63.223361793614458 162.43766472661082 0 162.43766472661082 264.45832895473359 0 0 0 0 -67.148485591911594 53.124456810821357 0 53.124456810821357 188.03137409461669 0 0 0 0 -72.242288545687188 80.939835016944926 0 80.939835016944926 62.73046030804835 0 0 0 0 -87.400206883309693 97.35237290940222 0 97.35237290940222 51.803904542895907 0 0 0 0 -63.844918042777863 99.510645605791069 0 99.510645605791069 42.935570264759008 0 0 0 0 -62.947703889266108 143.34845175793225 0 143.34845175793225 -31.135841917821381 0 0 0 0 -45.863949697304633 103.66145335199326 0 103.66145335199326 24.78574265845964 0 0 0 0 26.990277702356252 164.20762217730771 0 164.20762217730771 -317.52736024877959 0 0 0 0 -72.38816629788198 -120.53941536565981 0 -120.53941536565981 -100.80264469799295 0 0 0 0 -141.17550448921975 230.25818690563392 0 230.25818690563392 25.839423158871796 0 0 0 0 -183.82262999642262 344.88789541787446 0 344.88789541787446 -110.34895050502746 0 0 0 0 -239.14035512989358 390.01418011366695 0 390.01418011366695 242.75465051151696 0 0 0 0 -234.97574474541034 349.96434621783919 0 349.96434621783919 69.138105761463521 0 0 0 0 -252.43206053755421 221.69334663665722 0 221.69334663665722 -35.721027247545408 0 0 0 0 -260.51284249116725 199.10076057248079 0 199.10076057248079 43.164112484260841 0 0 0 0 -302.18006680962571 195.27077454879327 0 195.27077454879327 244.28044460831006 0 0 0 0 -287.42680231086524 154.54750471637817 0 154.54750471637817 76.951577327628911 0 0 0 0 -257.29298801766708 215.54756388088936 0 215.54756388088936 153.08327314607959 0 0 0 0 -247.59469097660804 196.18587889363152 0 196.18587889363152 67.83212260415894 0 0 0 0 -238.69608663688996 194.30755567044162 0 194.30755567044162 67.880302239726007 0 0 0 0 -236.46623625155189 195.13034002593122 0 195.13034002593122 33.974187888808956 0 0 0 0 -194.54275949503062 177.26559553259358 0 177.26559553259358 46.847242462677968 0 0 0 0 -252.40370167921355 200.94450499224331 0 200.94450499224331 73.47610706413252 0 0 0 0 -148.99018307548977 142.61465257157033 0 142.61465257157033 61.132979700916621 0 0 0 0 -199.68811045295479 161.64433164209277 0 161.64433164209277 62.444181041682896 0 0 0 0 -128.2587254975515 160.83139694264537 0 160.83139694264537 30.149863951621228 0 0 0 0 -116.89108930651128 157.48988986683253 0 157.48988986683253 29.272237497207243 0 0 0 0 -79.229229587195732 128.07088301085969 0 128.07088301085969 15.521646066015819 0 0 0 0 -114.07497161250558 130.35587698026211 0 130.35587698026211 44.953360859137319 0 0 0 0 -90.442506224455428 131.54172032545466 0 131.54172032545466 37.026978136622347 0 0 0 0 -148.89330762970349 130.75627954773881 0 130.75627954773881 71.728935915358306 0 0 0 0 -89.831172611928196 108.34324937999554 0 108.34324937999554 75.266132640150317 0 0 0 0 -170.99368659755964 126.23057722509748 0 126.23057722509748 121.23939778623753 0 0 0 0 -59.458331827772781 57.351530701816955 0 57.351530701816955 195.40577933131499 0 0 0 0 -104.43196421378525 105.54270714717131 0 105.54270714717131 166.57803885698377 0 0 0 0 -92.891969449570752 73.941138902935336 0 73.941138902935336 231.73964545241324 0 0 0 0 -29.283544183010235 -20.229908317734953 0 -20.229908317734953 286.52734167638846 0 0 0 0 -46.059137148899026 6.6133988003093691 0 6.6133988003093691 245.55394364474341 0 0 0 0 -201.81491024550633 14.101101776257565 0 14.101101776257565 417.25673077125975 0 0 0 0 -91.819090733770281 -110.52623772890365 0 -110.52623772890365 469.25015993284615 0 0 0 0 -204.03545230047894 21.14693158614682 0 21.14693158614682 395.13325668893958 0 0 0 0 -98.104146729641798 4.6521334650160497 0 4.6521334650160497 328.44263379555196 0 0 0 0 -277.57784125409671 116.41144489190629 0 116.41144489190629 413.90068323718151 0 0 0 0 -96.190417817022535 95.343742359887983 0 95.343742359887983 133.98915164600839 0 0 0 0 -190.55055980148609 88.055752152802597 0 88.055752152802597 231.09627132079913 0 0 0 0 -139.81031997811806 71.915889137737395 0 71.915889137737395 233.20097952231299 0 0 0 0 -377.55112696508877 107.36167460957222 0 107.36167460957222 240.78735408557441 0 0 0 0 -226.81311026662297 148.34242873048424 0 148.34242873048424 140.51441600757971 0 0 0 0 -285.25241115194513 155.2849762292899 0 155.2849762292899 235.67395319197476 0 0 0 0 -433.5843853369588 19.72453168949869 0 19.72453168949869 743.59335167735117 0 0 0 0 -609.43376299992087 277.61113295939867 0 277.61113295939867 532.02950211868301 0 0 0 0 -479.38308295767638 415.32698840890953 0 415.32698840890953 -224.37875579683168 0 0 0 0 -614.91088373775688 545.54773361380569 0 545.54773361380569 -11.935690025551594 0 0 0 0 -558.33535457137623 354.70415096011857 0 354.70415096011857 169.36915876211424 0 0 0 0 -381.66470385327807 279.46439495423999 0 279.46439495423999 102.47292542281502 0 0 0 0 -269.88043920595373 152.70442262207871 0 152.70442262207871 118.53626940772301 0 0 0 0 -244.85042276996683 206.18299618495803 0 206.18299618495803 60.670044579630485 0 0 0 0 -177.6052179006565 100.82873835430291 0 100.82873835430291 133.90251050509687 0 0 0 0 -243.98593471335516 224.20197656661867 0 224.20197656661867 -9.9939733336286736 0 0 0 0 -226.72321829203793 264.80038167023031 0 264.80038167023031 8.2844991460806341 0 0 0 0 -358.98078171769157 253.35479702690645 0 253.35479702690645 123.23872255602691 0 0 0 0 -260.69561381312815 317.86331239727588 0 317.86331239727588 -38.587175256034243 0 0 0 0 -193.27874841596349 335.54507277877201 0 335.54507277877201 -34.896265682436933 0 0 0 0 -314.04796543396515 456.18527200974859 0 456.18527200974859 -152.74969098504516 0 0 0 0 -496.04122918692883 569.04432961854764 0 569.04432961854764 -178.25582464232139 0 0 0 0 -198.3099808090883 317.19774802574466 0 317.19774802574466 -99.038312713440973 0 0 0 0 -83.737613553086703 162.25493949603697 0 162.25493949603697 -56.656468243789277 0 0 0 0 -94.266586755009484 157.75030850953408 0 157.75030850953408 -1.5227395515685203 0 0 0 0 -28.187460385859595 226.56971546942805 0 226.56971546942805 -163.45185932595996 0 0 0 0 -169.02528051439003 270.41533777518634 0 270.41533777518634 -63.226855964241622 0 0 0 0 -174.62461634814827 167.63323162952656 0 167.63323162952656 -17.406404545010446 0 0 0 0 -77.00767830672703 169.00527905390572 0 169.00527905390572 20.466083928069565 0 0 0 0 -153.23451363558706 122.82760479693388 0 122.82760479693388 72.169145547579319 0 0 0 0 40.484507654294745 21.351673752319165 0 21.351673752319165 7.4502362115570548 0 0 0 0 -17.397968452280111 151.24087538565436 0 151.24087538565436 75.389811065522736 0 0 0 0 -172.2395008264084 -16.633677361765876 0 -16.633677361765876 138.12612586031901 0 0 0 0 100.62422667445935 72.762480404397138 0 72.762480404397138 230.41417184923739 0 0 0 0 11.69742305873887 28.015602082173825 0 28.015602082173825 3.2991911107887901 0 0 0 0 43.869275098045271 76.553288813758456 0 76.553288813758456 73.501887294807105 0 0 0 0 -59.844851377551095 110.95830623254369 0 110.95830623254369 63.571391358942492 0 0 0 0 -72.253696792136907 135.3475017748251 0 135.3475017748251 49.867190875687811 0 0 0 0 -69.22169550228864 135.72646460703618 0 135.72646460703618 34.795393059892376 0 0 0 0 -76.527344119873305 116.84696136135426 0 116.84696136135426 46.558423153946933 0 0 0 0 -89.636632178437139 128.24449476945938 0 128.24449476945938 49.844190546180471 0 0 0 0 -65.818060519166465 131.00645303363126 0 131.00645303363126 41.261752905447793 0 0 0 0 -67.959031481208513 137.92362523232077 0 137.92362523232077 48.901170483932219 0 0 0 0 -64.083457828106475 119.31781968483119 0 119.31781968483119 50.513438177309581 0 0 0 0 -65.520049146616657 137.85078104388958 0 137.85078104388958 47.959442872619547 0 0 0 0 -65.179532082896912 139.38431842104546 0 139.38431842104546 46.137181477446575 0 0 0 0 -58.799789553682785 141.57256317721112 0 141.57256317721112 45.560036264003429 0 0 0 0 -55.528543784355861 125.7382837991172 0 125.7382837991172 79.007375062123174 0 0 0 0 -51.997274387409561 116.25969665602315 0 116.25969665602315 64.092631943593005 0 0 0 0 -59.273360670729744 128.38858352359694 0 128.38858352359694 69.030923431258998 0 0 0 0 -97.062218869637945 132.0623849957683 0 132.0623849957683 73.125950984023802 0 0 0 0 -53.719522615931055 126.23855607306086 0 126.23855607306086 57.949676550226286 0 0 0 0 -64.964535798106226 137.14907322252111 0 137.14907322252111 71.617157570759446 0 0 0 0 -53.575628116508597 107.40584613489045 0 107.40584613489045 101.62624551254703 0 0 0 0 -62.64921756509284 104.82565083691588 0 104.82565083691588 94.359953881001275 0 0 0 0 -57.72154684443376 119.53003514622105 0 119.53003514622105 99.361058146856521 0 0 0 0 -55.787060912141897 91.90092170708067 0 91.90092170708067 141.25601795101829 0 0 0 0 -54.76732582441764 99.582498183328426 0 99.582498183328426 149.31415150026442 0 0 0 0 -58.107069864374353 119.32190794566714 0 119.32190794566714 125.25921729094989 0 0 0 0 -55.998440881900024 90.395715806669614 0 90.395715806669614 152.26861815443408 0 0 0 0 -36.909072732036293 84.148487330925491 0 84.148487330925491 132.39814315340482 0 0 0 0 -52.207228279890842 66.787781580953379 0 66.787781580953379 197.1451840895752 0 0 0 0 -13.075164145411691 53.836471488109964 0 53.836471488109964 174.19473974372522 0 0 0 0 -50.581649962023221 115.47846889884659 0 115.47846889884659 65.732249933324056 0 0 0 0 -56.495284824995906 105.95728248226442 0 105.95728248226442 110.80840560069191 0 0 0 0 -49.430423311299819 89.574258763472244 0 89.574258763472244 101.99085557024955 0 0 0 0 -50.085418554255739 78.544749548949767 0 78.544749548949767 123.6396619148145 0 0 0 0 -43.629301121589378 84.683534224390314 0 84.683534224390314 69.109546881072674 0 0 0 0 -48.575911787193036 104.71328417695258 0 104.71328417695258 80.93199693266979 0 0 0 0 -35.189995757678844 110.79588596335998 0 110.79588596335998 46.527523003169335 0 0 0 0 -43.312903015367738 128.4998437021282 0 128.4998437021282 46.37189685642079 0 0 0 0 -43.113303286867449 123.89646537693989 0 123.89646537693989 37.372019901347812 0 0 0 0 53.216296301018055 80.269369509513069 0 80.269369509513069 48.763659567644055 0 0 0 0 68.645553962265694 144.94200793142772 0 144.94200793142772 -6.255132141730428 0 0 0 0 -124.87466645241693 164.66288847001306 0 164.66288847001306 129.41024180463137 0 0 0 0 51.003281660731176 71.908044058591102 0 71.908044058591102 31.50325947704475 0 0 0 0 -23.05148163152262 104.55944396805899 0 104.55944396805899 42.259404494958289 0 0 0 0 54.398161006134615 127.78898566004318 0 127.78898566004318 -57.133410739283136 0 0 0 0 79.393896218405644 86.658005067125487 0 86.658005067125487 10.412294743295206 0 0 0 0 15.138320781901712 -108.98557413417257 0 -108.98557413417257 -223.09949237764522 0 0 0 0 74.139245637212298 -2.2925236762239365 0 -2.2925236762239365 -72.739112423947518 0 0 0 0 238.50803536617968 87.94212998446892 0 87.94212998446892 -274.87630013673697 0 0 0 0 249.66829956888978 154.57093676046134 0 154.57093676046134 -179.30800441113752 0 0 0 0 296.3822982989368 81.365820996517868 0 81.365820996517868 -566.63887451031042 0 0 0 0 411.23701239526417 211.90079314464492 0 211.90079314464492 -426.34818214738334 0 0 0 0 380.02001553915397 260.18247484298263 0 260.18247484298263 -478.25129698897217 0 0 0 0 399.98279097207342 310.36785529566259 0 310.36785529566259 -375.56909791316502 0 0 0 0 105.04191994142639 155.54781340628506 0 155.54781340628506 -42.631534680367622 0 0 0 0 145.87819993166431 202.32870917911896 0 202.32870917911896 -90.897797398174589 0 0 0 0 254.74697675510834 430.8954406255416 0 430.8954406255416 141.22949787605103 0 0 0 0 24.331026992760599 207.53115601649279 0 207.53115601649279 -133.0590302092096 0 0 0 0 -61.243294439598685 249.66451122772924 0 249.66451122772924 -50.257941788691824 0 0 0 0 -57.504801234466868 243.08257248514565 0 243.08257248514565 -59.875717333276043 0 0 0 0 -65.6280525453476 272.79815537911782 0 272.79815537911782 -67.008683410745107 0 0 0 0 -4.6632582481087042 4.0775164110390669 0 4.0775164110390669 -5.6789002343195136 0 0 0 0 37.618466567419091 91.330767772640684 0 91.330767772640684 34.406885197982774 0 0 0 0 -144.87943644046754 222.67205453346105 0 222.67205453346105 -51.868207266150421 0 0 0 0 -85.981734257518838 240.27732502821164 0 240.27732502821164 32.128487896035949 0 0 0 0 46.490763549829808 -268.44646604802392 0 -268.44646604802392 -460.92105944364448 0 0 0 0 -82.897069898213886 344.61582743198232 0 344.61582743198232 -261.63968879089953 0 0 0 0 -686.81058225802553 -168.79412211840099 0 -168.79412211840099 -592.21728307208105 0 0 0 0 713.75847956897633 -16.626033384822222 0 -16.626033384822222 -1215.8138971295193 0 0 0 0 5.6898710452405794 336.40316449111742 0 336.40316449111742 -376.34078765101731 0 0 0 0 10.783375951358124 2.4986375454756455 0 2.4986375454756455 -0.70746556954381035 0 0 0 0 5.3823635563185235 6.3427961366248837 0 6.3427961366248837 -7.9291744897127501 0 0 0 0 0.87380020002092351 271.5325443066904 0 271.5325443066904 -306.34880287732813 0 0 0 0 14.867897015391975 64.668303642147976 0 64.668303642147976 -15.966138462052186 0 0 0 0 23.234905819835149 204.13497081474452 0 204.13497081474452 236.72189298103331 0 0 0 0 10.082316332318442 214.99194675594117 0 214.99194675594117 263.89853680992383 0 0 0 0 44.254155491184065 251.8314044562685 0 251.8314044562685 135.53847346150724 0 0 0 0 4.5525746798521212 2.9527521180131657 0 2.9527521180131657 0.64351385659585625 0 0 0 0 37.827843768784078 136.42238024515973 0 136.42238024515973 242.24673105882903 0 0 0 0 37.748891519484459 318.05466007974974 0 318.05466007974974 262.02340905360097 0 0 0 0 5.3493575968459481 238.25077423495532 0 238.25077423495532 393.59545589440677 0 0 0 0 44.412871961216297 361.89390296654528 0 361.89390296654528 407.11824517197965 0 0 0 0 49.967417345691501 292.94874433179211 0 292.94874433179211 307.84486293081136 0 0 0 0 9.1628992207406554 202.67578008786586 0 202.67578008786586 281.33848384115117 0 0 0 0 -3.8778950197447557 189.67715551329457 0 189.67715551329457 392.36964798530971 0 0 0 0 8.4546609293738584 216.17779053712047 0 216.17779053712047 434.99025468938635 0 0 0 0 25.82982968527358 291.97421195999777 0 291.97421195999777 497.44794439856196 0 0 0 0 42.318231528231991 253.15442362698377 0 253.15442362698377 577.77322003644076 0 0 0 0 33.185613117690082 227.99428510019789 0 227.99428510019789 610.69908206495165 0 0 0 0 -48.734776955257985 154.72794562460331 0 154.72794562460331 547.90250046465007 0 0 0 0 -3.3842329343897291 -17.025746355822776 0 -17.025746355822776 353.71163337585131 0 0 0 0 -139.37667904900445 -72.355808695785527 0 -72.355808695785527 694.58821548140259 0 0 0 0 1.1861201094967271 -1.01441999054272 0 -1.01441999054272 -1.5002078827962748 0 0 0 0 -118.45902155363001 60.156648921911255 0 60.156648921911255 1333.513568673101 0 0 0 0 160.05534487054683 288.18530750960053 0 288.18530750960053 779.74793332818081 0 0 0 0 109.6331751614207 219.92351823222089 0 219.92351823222089 727.95545848198526 0 0 0 0 176.18239520475345 194.34494204869998 0 194.34494204869998 685.34219010987727 0 0 0 0 71.413109084758617 175.71596333282287 0 175.71596333282287 646.42031435534591 0 0 0 0 99.970890349301044 294.30421677596314 0 294.30421677596314 601.56024948069899 0 0 0 0 122.55955132726376 415.56168415498541 0 415.56168415498541 457.81475989720639 0 0 0 0 114.69092446377363 401.48653296510292 0 401.48653296510292 643.30819609707396 0 0 0 0 85.194809415275813 332.54058224393702 0 332.54058224393702 330.14835939180921 0 0 0 0 62.274460971922963 398.08348907667096 0 398.08348907667096 312.55372160230309 0 0 0 0 69.706501377333552 421.39835815602601 0 421.39835815602601 206.81330796649854 0 0 0 0 95.144028288192203 397.19338489607071 0 397.19338489607071 142.49351496464806 0 0 0 0 54.485301951011934 416.6649470638713 0 416.6649470638713 179.40637530728418 0 0 0 0 62.121631110865565 390.33701118807585 0 390.33701118807585 190.73700277003081 0 0 0 0 80.071616214250753 397.90317003985911 0 397.90317003985911 192.55470087729918 0 0 0 0 69.167918731349346 375.37697910399038 0 375.37697910399038 180.36810687340039 0 0 0 0 59.490023609898344 389.51659047019348 0 389.51659047019348 263.24363739002899 0 0 0 0 98.121644751743588 364.57104123149111 0 364.57104123149111 131.6902620348651 0 0 0 0 288.18972787103485 516.25237021726025 0 516.25237021726025 145.26357442484732 0 0 0 0 96.0350223717669 430.34203116119534 0 430.34203116119534 110.92754004097515 0 0 0 0 332.50971203782228 329.41731577241126 0 329.41731577241126 17.19084748676687 0 0 0 0 191.29056750820462 242.20473845429456 0 242.20473845429456 -14.641210284142289 0 0 0 0 176.90978184359119 392.9465461214113 0 392.9465461214113 124.89291147849144 0 0 0 0 -15.295589508057674 117.94533387157026 0 117.94533387157026 366.55961767773988 0 0 0 0 17.098616225775913 126.50787256436888 0 126.50787256436888 1313.1500068811038 0 0 0 0 239.15158000838346 518.71329525974215 0 518.71329525974215 795.67144830857069 0 0 0 0 18.216473862034036 293.28990382790653 0 293.28990382790653 1281.6211437507236 0 0 0 0 2.575041722126258 0.098054910187556743 0 0.098054910187556743 -0.05581105219302307 0 0 0 0 277.43043149450932 334.22766592853623 0 334.22766592853623 294.24358367187961 0 0 0 0 359.90353376701751 242.7062153728366 0 242.7062153728366 220.10394464063211 0 0 0 0 170.70981007369301 197.54138860910098 0 197.54138860910098 110.00118957270388 0 0 0 0 27.60130022579142 260.04903800094144 0 260.04903800094144 288.56049338485673 0 0 0 0 -194.71754924920242 104.46443615456883 0 104.46443615456883 146.5876523335528 0 0 0 0 18.686236490821102 52.508090650704617 0 52.508090650704617 -3.595054558107222 0 0 0 0 -78.211721147730714 53.112817493969487 0 53.112817493969487 282.87253858619079 0 0 0 0 -218.26928190625586 -163.60712161527226 0 -163.60712161527226 -14.367849940132885 0 0 0 0 -12.252916586662778 6.81759564365505 0 6.81759564365505 -4.5191225773823334 0 0 0 0 197.31899796546713 432.18559161529265 0 432.18559161529265 255.72470383401196 0 0 0 0 143.2910069803329 68.24257644159843 0 68.24257644159843 224.82543043624105 0 0 0 0 498.0867235958367 414.66226697418233 0 414.66226697418233 -365.92251096793916 0 0 0 0 -2.8960228387025637 2.9609105883932116 0 2.9609105883932116 -2.4506687018002111 0 0 0 0 -801.45002768133236 -244.98759871930815 0 -244.98759871930815 -54.220768542578298 0 0 0 0 -591.81865170450328 361.73043853366971 0 361.73043853366971 48.48094552589464 0 0 0 0 -131.19613816013953 34.365716265219817 0 34.365716265219817 -80.77928095633024 0 0 0 0 -225.54198147499255 34.707562211281584 0 34.707562211281584 43.30927162001899 0 0 0 0 -118.78506074644065 86.314139298433474 0 86.314139298433474 -6.5012456596377888 0 0 0 0 -168.03670957352074 402.58995170170556 0 402.58995170170556 152.9636637045478 0 0 0 0 -53.82696998879328 325.72270475970254 0 325.72270475970254 174.06890050961647 0 0 0 0 -315.50933104669821 148.29924046689848 0 148.29924046689848 61.997082672629404 0 0 0 0 13.130012173372052 488.21880052050619 0 488.21880052050619 231.94702986169432 0 0 0 0 147.68919713007199 477.99634752245584 0 477.99634752245584 216.0737685669219 0 0 0 0 311.81423140391507 860.12880178254045 0 860.12880178254045 821.09710257843471 0 0 0 0 -43.361111557897857 -258.47024817472447 0 -258.47024817472447 1080.2139057746026 0 0 0 0 57.943807013496553 -198.82149233382188 0 -198.82149233382188 -159.22646547342447 0 0 0 0 -151.2050630474514 295.74507878024087 0 295.74507878024087 568.67533379908855 0 0 0 0 10.56016959749104 -143.76136826004404 0 -143.76136826004404 320.21542124420921 0 0 0 0 -125.94181532427501 325.66747946803662 0 325.66747946803662 77.530731514285435 0 0 0 0 18.241286706062965 -42.014371703069628 0 -42.014371703069628 -201.91955082066852 0 0 0 0 -38.664114040097047 -36.490740712790284 0 -36.490740712790284 -1.0316840772775322 0 0 0 0 -149.7226873712425 219.71587038463804 0 219.71587038463804 -416.96520808265268 0 0 0 0 -25.880597723381292 10.162200264086746 0 10.162200264086746 -4.2458031318420915 0 0 0 0 -159.03378314964539 116.91768298545867 0 116.91768298545867 62.05086860866686 0 0 0 0 81.952436162273443 -109.57258267345424 0 -109.57258267345424 -230.73750920822113 0 0 0 0 104.74845619192456 -66.615976806257095 0 -66.615976806257095 -263.15708980580803 0 0 0 0 -70.080782321352672 29.30511053759983 0 29.30511053759983 39.913389331146391 0 0 0 0 -35.810389731429936 16.960485692980555 0 16.960485692980555 -3.5203331374788895 0 0 0 0 -31.288501253246068 110.1909039694483 0 110.1909039694483 21.806167312077378 0 0 0 0 -39.632789747882271 0.54466268682881491 0 0.54466268682881491 60.761812688109785 0 0 0 0 20.85721650754931 29.908049739937269 0 29.908049739937269 -79.696697730587402 0 0 0 0 31.532523649944778 32.690172678876479 0 32.690172678876479 27.349420513570294 0 0 0 0 -43.971156853029242 91.501347652258119 0 91.501347652258119 157.18365661753796 0 0 0 0 -1.4871200294364826 60.760818683074831 0 60.760818683074831 12.183326247548393 0 0 0 0 -125.11488218395607 -21.238640394085451 0 -21.238640394085451 128.15704975731023 0 0 0 0 -9.2966229073383602 4.0097077624294393 0 4.0097077624294393 -1.8718244082170976 0 0 0 0 416.43519224241572 118.26741377746112 0 118.26741377746112 -679.90123875507652 0 0 0 0 102.29728762596278 186.15852220978741 0 186.15852220978741 -219.11620888686957 0 0 0 0 -624.88189681059157 -205.48096883385006 0 -205.48096883385006 -88.6715288604737 0 0 0 0 13.550666403273357 6.0264706505936019 0 6.0264706505936019 4.1147096692327665 0 0 0 0 9.7460095946216825 293.10918165937073 0 293.10918165937073 1376.3288624548604 0 0 0 0 348.82492001764194 840.58441235049941 0 840.58441235049941 1033.4397712081918 0 0 0 0 -46.290127916489837 -410.11112470629996 0 -410.11112470629996 978.95255013099404 0 0 0 0 -105.23121987428522 211.10233625650562 0 211.10233625650562 175.10939725959906 0 0 0 0 165.26291803500521 787.05229988529391 0 787.05229988529391 1245.8410242360428 0 0 0 0 726.77406670154596 392.33660385478743 0 392.33660385478743 -197.05972844374628 0 0 0 0 1700.5886269962748 739.76009272728243 0 739.76009272728243 -92.78760959876854 0 0 0 0 783.56087519037328 665.75041678668049 0 665.75041678668049 -174.84258605417563 0 0 0 0 559.43167813443984 378.35589921145311 0 378.35589921145311 -182.52154040356618 0 0 0 0 967.54334936280702 -210.54682173850324 0 -210.54682173850324 -77.876470857150707 0 0 0 0 -119.70335210865687 31.396221519044047 0 31.396221519044047 5.1222376637124398 0 0 0 0 239.43733645408656 2.4480283440771018 0 2.4480283440771018 -10.051214229741163 0 0 0 0 -31.835165633759061 153.61301230082063 0 153.61301230082063 -10.151307141724828 0 0 0 0 106.74897265209074 193.00511853706666 0 193.00511853706666 35.654225843571112 0 0 0 0 29.110877242346632 26.039360031217726 0 26.039360031217726 5.7837599951546466 0 0 0 0 41.436776703574651 186.08976122399235 0 186.08976122399235 -80.295854250700359 0 0 0 0 -37.354807792642532 57.713601894833118 0 57.713601894833118 -74.117160789184709 0 0 0 0 12.759919401465501 16.411923958674315 0 16.411923958674315 -9.3846630481133815 0 0 0 0 -27.720643779306556 -5.9830851992883254 0 -5.9830851992883254 10.047095387679292 0 0 0 0 -28.867766370850369 49.338444133792891 0 49.338444133792891 -6.4727532009905886 0 0 0 0 -0.0017659796867519617 33.65306048221828 0 33.65306048221828 18.472871421115997 0 0 0 0 -11.275268392016095 41.145882413230822 0 41.145882413230822 -1.6831913150061055 0 0 0 0 -71.368954415549524 30.915872273471905 0 30.915872273471905 -4.3920269220616319 0 0 0 0 -23.692005418542667 32.127655935526022 0 32.127655935526022 9.5810136736231613 0 0 0 0 4.0598058807327106 -81.634122354161264 0 -81.634122354161264 -35.943509614411596 0 0 0 0 1.3599258365964033 7.1482694306975425 0 7.1482694306975425 -2.4118479618411328 0 0 0 0 785.83099123530519 485.38928901885447 0 485.38928901885447 -344.66532827462288 0 0 0 0 -91.045045212169043 -29.751456258172311 0 -29.751456258172311 389.38036190201092 0 0 0 0 -22.053376496682176 566.38785639194066 0 566.38785639194066 601.37212127726798 0 0 0 0 -176.07737491445914 467.15336850890526 0 467.15336850890526 912.9112286455329 0 0 0 0 -156.84101268887906 180.50059274024625 0 180.50059274024625 392.94907240138855 0 0 0 0 135.54425194394662 734.47275093062399 0 734.47275093062399 722.04822097277975 0 0 0 0 636.74641149894251 -20.023766562882884 0 -20.023766562882884 -90.761023145536456 0 0 0 0 8.7951221667323765 6.3176442950872485 0 6.3176442950872485 4.8116449533116601 0 0 0 0 984.04501340187471 522.47243886652268 0 522.47243886652268 -3.9748112099550781 0 0 0 0 303.95106562837827 293.4307154127564 0 293.4307154127564 -27.388435330449738 0 0 0 0 96.533261365217186 -80.441103113429563 0 -80.441103113429563 11.225938949177362 0 0 0 0 -73.867040720453588 73.392393729503965 0 73.392393729503965 14.407103065270348 0 0 0 0 -62.672934872378391 95.344738136333035 0 95.344738136333035 -6.5576477891590912 0 0 0 0 -24.862119880543105 215.95460822815949 0 215.95460822815949 -287.83943458202384 0 0 0 0 572.3346268424375 273.43411072818708 0 273.43411072818708 -308.3961525931054 0 0 0 0 25.52773905119961 16.116431544589641 0 16.116431544589641 4.7132164471400024 0 0 0 0 -15.9496104944119 78.023922667620354 0 78.023922667620354 -74.207517235918203 0 0 0 0 205.95788578577276 549.77171626328163 0 549.77171626328163 459.31757759480388 0 0 0 0 1452.5846759520443 87.580025034222217 0 87.580025034222217 10.453769722531433 0 0 0 0 73.287222837926549 -191.80787315599719 0 -191.80787315599719 1.5987033099863766 0 0 0 0 17.629773833983492 12.085592987485121 0 12.085592987485121 -11.307992594413751 0 0 0 0 -76.053898477381836 30.857849247518971 0 30.857849247518971 -247.65384699928018 0 0 0 0 243.7261769253023 -229.36562538104954 0 -229.36562538104954 -435.37536776009074 0 0 0 0 18.738718348333521 22.490717202438759 0 22.490717202438759 -24.53198228799738 0 0 0 0 -18.835341026016977 -27.42580978337719 0 -27.42580978337719 33.39600193874503 0 0 0 0 27.333200211103119 2.7305959360088607 0 2.7305959360088607 -5.3914041625076692 0 0 0 0 -42.473886483239767 82.852285271284927 0 82.852285271284927 -2.4619276712519422 0 0 0 0 30.501245278497663 78.150147052971079 0 78.150147052971079 3.3827523104573629 0 0 0 0 8.5833398180454381 7.0009967484230806 0 7.0009967484230806 -4.1634338627360279 0 0 0 0 -44.572862857763539 70.119148255413165 0 70.119148255413165 -8.7348953991113376 0 0 0 0 -28.406272411826649 91.279544286353484 0 91.279544286353484 -46.070294653130986 0 0 0 0 11.931605249039421 25.4642290478414 0 25.4642290478414 -104.53196091829159 0 0 0 0 11.896851449029327 57.742142231831167 0 57.742142231831167 -288.63176015484351 0 0 0 0 -48.534665394592594 16.978493715465447 0 16.978493715465447 -100.3921860533078 0 0 0 0 0.14465196550372639 -31.149802036253277 0 -31.149802036253277 -284.78795682110649 0 0 0 0 106.22132659342606 49.122009213959245 0 49.122009213959245 -457.32634473051075 0 0 0 0 33.545263352387337 147.90538417309835 0 147.90538417309835 -260.07897117861285 0 0 0 0 1.2452149772736476 0.14163219115169312 0 0.14163219115169312 -0.089904317067553086 0 0 0 0 190.78839737067756 232.81461287272396 0 232.81461287272396 0.71551875809018384 0 0 0 0 430.2620064949233 120.48430790400744 0 120.48430790400744 -85.706447517841298 0 0 0 0 96.637547945931146 87.307084514231974 0 87.307084514231974 -37.706218991952483 0 0 0 0 139.14962351597569 63.033273498769631 0 63.033273498769631 -75.195880901374039 0 0 0 0 -7.1190697149868356 4.3492577398028516 0 4.3492577398028516 33.318599164493207 0 0 0 0 -34.719718202997683 58.860107802043785 0 58.860107802043785 -61.317419287421217 0 0 0 0 -17.806640897331818 82.432027233193367 0 82.432027233193367 -94.662020273091912 0 0 0 0 3.5278687524842667 1.6913297014728101 0 1.6913297014728101 -0.24413997668788801 0 0 0 0 -43.396741962516899 43.989045645605074 0 43.989045645605074 -52.806083513853082 0 0 0 0 8.9322945317235281 -33.802368443441082 0 -33.802368443441082 -128.67639237982121 0 0 0 0 103.07465038759619 103.0262171188333 0 103.0262171188333 -176.13080671778073 0 0 0 0 4.8016146152135946 2.4980967572814237 0 2.4980967572814237 -0.25629265886051367 0 0 0 0 5.9683715775399833 10.275364633449271 0 10.275364633449271 17.800584881708346 0 0 0 0 20.170229599358208 36.902131829972859 0 36.902131829972859 -11.023444242831829 0 0 0 0 27.364686278915933 8.7992105082731058 0 8.7992105082731058 3.5770343497068708 0 0 0 0 8.3388353584500692 4.7579293319877252 0 4.7579293319877252 3.3553344421779911 0 0 0 0 43.111687377328053 110.78552602345553 0 110.78552602345553 -30.02257906014529 0 0 0 0 -15.674387433260563 142.74597988304231 0 142.74597988304231 -144.62147985871707 0 0 0 0 -90.354558819690283 111.15734151924698 0 111.15734151924698 -79.454218680515623 0 0 0 0 51.653053595179699 -66.467355850031709 0 -66.467355850031709 -134.81218888485455 0 0 0 0 -53.619342959309506 112.73785534406852 0 112.73785534406852 357.82907927119959 0 0 0 0 74.887443607363821 359.65412543996899 0 359.65412543996899 -175.10789670413578 0 0 0 0 62.010859156982406 14.449613795164623 0 14.449613795164623 3.0163722215802409 0 0 0 0 16.507276754990016 67.427711475906108 0 67.427711475906108 91.133633722093123 0 0 0 0 47.695075303920021 75.055769531269107 0 75.055769531269107 -60.341718500912975 0 0 0 0 -15.183670686668847 43.615841977343734 0 43.615841977343734 -5.5894757189307711 0 0 0 0 40.551961062160515 20.695164940040883 0 20.695164940040883 0.24216176243098531 0 0 0 0 -7.5005024618642864 35.578880068423835 0 35.578880068423835 15.864470543586648 0 0 0 0 -109.91524594923612 27.883807522506686 0 27.883807522506686 39.015196412303339 0 0 0 0 -0.22916850305207248 7.6932324582583984 0 7.6932324582583984 6.4062748163904573 0 0 0 0 -47.297000016504171 24.635406839002826 0 24.635406839002826 37.957245492360016 0 0 0 0 8.0397609776969148 189.96408988816529 0 189.96408988816529 446.85508038563421 0 0 0 0 379.07045415762332 716.13092632305052 0 716.13092632305052 -367.24738845176557 0 0 0 0 30.924674328517995 138.06945590873056 0 138.06945590873056 -171.09529354277402 0 0 0 0 -26.943119981112787 35.848580709785097 0 35.848580709785097 -20.30357769241742 0 0 0 0 51.524432838198663 84.602757870583446 0 84.602757870583446 -157.73595965548157 0 0 0 0 -46.991015165731369 -35.21265089838198 0 -35.21265089838198 -224.58085903324582 0 0 0 0 76.392869104689453 88.282632078909955 0 88.282632078909955 -236.93382064797333 0 0 0 0 -86.183849003282376 -90.16734998328684 0 -90.16734998328684 -378.58863240624748 0 0 0 0 -12.480779126289258 5.0520157983331302 0 5.0520157983331302 -2.0352938162001628 0 0 0 0 -9.938399867296539 147.82682716805721 0 147.82682716805721 229.29508934363639 0 0 0 0 -13.569698978365523 68.560882085024787 0 68.560882085024787 -66.865219811756106 0 0 0 0 -15.428022305421923 24.187717148250361 0 24.187717148250361 -17.853612870487922 0 0 0 0 -4.7883987200557385 69.446415381211409 0 69.446415381211409 19.134740148481796 0 0 0 0 27.765677829062042 73.041890720101037 0 73.041890720101037 -80.588023155934934 0 0 0 0 -8.4015568439273096 35.949978499105868 0 35.949978499105868 -9.5454810511339492 0 0 0 0 40.319566045398687 151.67394744535341 0 151.67394744535341 78.581376896254369 0 0 0 0 -41.029755805842228 24.443741007155751 0 24.443741007155751 9.5414071265363987 0 0 0 0 -2.2409198113523416 102.59717030421962 0 102.59717030421962 169.00261991049047 0 0 0 0 17.48693787988276 32.159620063318457 0 32.159620063318457 -7.1495574981967422 0 0 0 0 -9.0941496036648459 57.568224835829824 0 57.568224835829824 -38.314061850775033 0 0 0 0 -199.0457158861791 -59.002526355921873 0 -59.002526355921873 95.427547479921486 0 0 0 0 -22.814016104792245 49.810760463577026 0 49.810760463577026 27.130021059708724 0 0 0 0 -31.122133465659495 34.777684113739042 0 34.777684113739042 1.0305553562486693 0 0 0 0 -1237.6265618069483 604.30728055958389 0 604.30728055958389 454.51587714418201 0 0 0 0 1554.2581683882163 -1403.9227721201896 0 -1403.9227721201896 553.32675586288678 0 0 0 0 843.63232914644323 515.9889281400101 0 515.9889281400101 -1357.3607861754354 0 0 0 0 -582.83317128865747 160.26440703232981 0 160.26440703232981 33.531673611694714 0 0 0 0 71.925926427698869 338.4834377355437 0 338.4834377355437 -185.04633059455591 0 0 0 0 -671.66116345651062 949.20034157382543 0 949.20034157382543 -550.16753971252183 0 0 0 0 -85.818326154236274 335.69548929918528 0 335.69548929918528 -174.26065535814269 0 0 0 0 -11.906558858878938 9.0930516095587208 0 9.0930516095587208 -10.543099014324355 0 0 0 0 106.04930671219154 96.034514995619247 0 96.034514995619247 -170.60232602845281 0 0 0 0 155.04189844548273 -247.47249297579219 0 -247.47249297579219 -431.13458576208905 0 0 0 0 5.7852426052304509 -8.2911448794816351 0 -8.2911448794816351 -12.003468601389613 0 0 0 0 -124.49347962459069 146.21313731676673 0 146.21313731676673 63.621711124025751 0 0 0 0 -245.37094384267402 32.304876557369425 0 32.304876557369425 81.792894810387224 0 0 0 0 -411.37851271080763 256.10340711466961 0 256.10340711466961 25.317963288674946 0 0 0 0 -151.35444737103899 209.06864967350248 0 209.06864967350248 0.58529272754094563 0 0 0 0 -15.64833839160201 229.04751047252648 0 229.04751047252648 -81.020809806745092 0 0 0 0 114.18322572070247 193.91632916662275 0 193.91632916662275 8.7886344814742188 0 0 0 0 206.62846386900856 42.21514454085991 0 42.21514454085991 11.175112716478907 0 0 0 0 -14.759169537934213 168.57273709396395 0 168.57273709396395 88.339650493689987 0 0 0 0 212.91797793463411 182.91708905163978 0 182.91708905163978 63.424131547741126 0 0 0 0 155.80374348369878 -1.5932299844862428 0 -1.5932299844862428 -21.71979489383375 0 0 0 0 280.30153650418833 76.179172528170966 0 76.179172528170966 -58.513877888726711 0 0 0 0 403.11581962503988 -65.326464169542305 0 -65.326464169542305 -227.58491496704664 0 0 0 0 256.73908705025679 251.68095620351596 0 251.68095620351596 -765.50259094974899 0 0 0 0 27.033329093728753 181.18315882111165 0 181.18315882111165 -62.984806398912042 0 0 0 0 101.89517079957659 125.47175692257952 0 125.47175692257952 -308.3916556488366 0 0 0 0 175.52088328684567 1.1486175122627174 0 1.1486175122627174 -42.384176826548355 0 0 0 0 149.41411313543904 86.127165046760638 0 86.127165046760638 4.8961978523930156 0 0 0 0 3.0604574627624856 14.519411064589031 0 14.519411064589031 -16.066348607598769 0 0 0 0 6.8075453981516176 3.7225375951481965 0 3.7225375951481965 2.7719154479740098 0 0 0 0 172.52962437794667 193.94067636127147 0 193.94067636127147 105.72645355638815 0 0 0 0 187.51992495886225 128.98026613100956 0 128.98026613100956 -23.655423947333475 0 0 0 0 128.24067624969393 121.93311271606217 0 121.93311271606217 122.98815030801234 0 0 0 0 -1.8381823210474977 72.958973123339092 0 72.958973123339092 8.5063041832254385 0 0 0 0 119.90391670892132 68.655056094223255 0 68.655056094223255 14.248767026525456 0 0 0 0 55.642973124172713 65.306463646986401 0 65.306463646986401 10.845555055637917 0 0 0 0 105.19954347628914 25.232023043779119 0 25.232023043779119 -34.915137399967342 0 0 0 0 104.77202513032535 51.185464305075584 0 51.185464305075584 -15.289825929052313 0 0 0 0 46.320945265817372 48.342854395728565 0 48.342854395728565 -8.7382496802948424 0 0 0 0 119.53021521317714 38.655936762279453 0 38.655936762279453 -72.587319609941915 0 0 0 0 29.805751723441062 63.450021640641353 0 63.450021640641353 0.4917988528686692 0 0 0 0 150.51030869271199 91.534024792912533 0 91.534024792912533 -49.109271222019743 0 0 0 0 161.62149741801113 106.36027558318347 0 106.36027558318347 -42.17597527824546 0 0 0 0 38.63755090646039 30.835299945307241 0 30.835299945307241 -21.796941254267097 0 0 0 0 131.64555090131034 57.167432874006408 0 57.167432874006408 -1.608423004989163 0 0 0 0 38.149122959491535 9.9888051661268804 0 9.9888051661268804 1.4418083712569967 0 0 0 0 40.847741927485174 66.027472345953129 0 66.027472345953129 12.72016687158245 0 0 0 0 29.995062083635275 14.256651884345047 0 14.256651884345047 5.6653428485296899 0 0 0 0 177.0059266334647 82.826241691444011 0 82.826241691444011 -29.108685236191377 0 0 0 0 189.22848168987548 106.20557229472979 0 106.20557229472979 -16.592193643155042 0 0 0 0 0.28505892735564942 -1.8489042222598187 0 -1.8489042222598187 -9.7220574440907068 0 0 0 0 136.06184578217108 141.71192189140493 0 141.71192189140493 48.822644430401851 0 0 0 0 97.561461115228667 99.80184631873999 0 99.80184631873999 45.186240174629347 0 0 0 0 116.57719594186256 -10.574326073936845 0 -10.574326073936845 -37.418799142193166 0 0 0 0 100.30151783279143 147.66577916718234 0 147.66577916718234 -27.462362989012036 0 0 0 0 47.060046524128111 80.727673341888391 0 80.727673341888391 -1.3287840578615828 0 0 0 0 21.830597570572884 20.996843227126032 0 20.996843227126032 -40.962685219065719 0 0 0 0 211.17715904886427 176.08428127939987 0 176.08428127939987 -50.151527674912359 0 0 0 0 280.39050689572468 92.813630495256803 0 92.813630495256803 -62.669558822706676 0 0 0 0 146.46976859326605 97.561598636781127 0 97.561598636781127 -57.427827958803391 0 0 0 0 8.5553849848176995 22.706488582504107 0 22.706488582504107 -10.095374084051949 0 0 0 0 88.179048385944043 -82.317482389591532 0 -82.317482389591532 136.60117128734419 0 0 0 0 5.7243376026652868 18.48220170590119 0 18.48220170590119 -11.747453829378941 0 0 0 0 -482.21247307755038 76.199405825373105 0 76.199405825373105 997.5988911188324 0 0 0 0 1205.3705036781066 -573.0055357752517 0 -573.0055357752517 -145.30305426003179 0 0 0 0 53.002419095008008 -72.144724452711671 0 -72.144724452711671 135.30511653291614 0 0 0 0 46.900310779212305 4.8601544718840159 0 4.8601544718840159 0.80735146017468651 0 0 0 0 -4.5289334566817629 5.6616273621586153 0 5.6616273621586153 8.1376865591731757 0 0 0 0 151.29770226543769 122.817385135324 0 122.817385135324 -91.107714301004307 0 0 0 0 132.18255870597659 37.825194923778781 0 37.825194923778781 -180.35204412790335 0 0 0 0 -0.44654097388047376 -66.827444961418223 0 -66.827444961418223 -150.31411003408357 0 0 0 0 68.333480399822292 35.107596772242687 0 35.107596772242687 -40.363373919019068 0 0 0 0 268.55331873527939 -183.84659013680357 0 -183.84659013680357 -372.47889022216259 0 0 0 0 -180.77720085569308 211.50798981358821 0 211.50798981358821 160.69880518871105 0 0 0 0 -239.02414846936608 155.85159822436799 0 155.85159822436799 116.16462498522014 0 0 0 0 -28.859935024755032 195.47912132725651 0 195.47912132725651 66.377175668589189 0 0 0 0 -119.54273792784443 48.591970590976416 0 48.591970590976416 58.262381900916807 0 0 0 0 -53.970054601144511 50.015378083080577 0 50.015378083080577 38.226641383953393 0 0 0 0 -101.47565683468565 53.986715556602576 0 53.986715556602576 57.646787496851175 0 0 0 0 -155.56504133928684 -85.717988641845295 0 -85.717988641845295 -46.892847693176009 0 0 0 0 -4.8100673505785849 4.8300162265364222 0 4.8300162265364222 4.2683183410582046 0 0 0 0 -94.959294297565066 32.631140287965536 0 32.631140287965536 31.686934129771544 0 0 0 0 -279.84090988444905 -27.307119841956592 0 -27.307119841956592 72.933938697271515 0 0 0 0 0.86430651449484941 1.447302404525189 0 1.447302404525189 0.83662033013845871 0 0 0 0 71.93904619735622 33.938016245108884 0 33.938016245108884 -51.440823326425743 0 0 0 0 15.236059178325377 34.702929481019964 0 34.702929481019964 11.469415778701659 0 0 0 0 -8.3317334600332345 18.932722981819616 0 18.932722981819616 14.403015122027 0 0 0 0 72.305446758313337 27.875644682790153 0 27.875644682790153 -56.438957649639633 0 0 0 0 25.040168838815021 14.093113988229575 0 14.093113988229575 -3.5556032336207863 0 0 0 0 -15.354117855055847 36.399117639008182 0 36.399117639008182 37.690486911094922 0 0 0 0 -62.88930072047242 0.07765357471180323 0 0.07765357471180323 51.226559258706402 0 0 0 0 -34.210479001649219 41.92140847286646 0 41.92140847286646 36.371954801870743 0 0 0 0 7.1702218347193245 32.00150796448483 0 32.00150796448483 32.494098575710382 0 0 0 0 -29.373662061127106 46.138056307892839 0 46.138056307892839 39.00135659903026 0 0 0 0 2.9654925280847237 58.805443946348532 0 58.805443946348532 31.361674040665093 0 0 0 0 -28.881762580029317 66.611878645133402 0 66.611878645133402 57.59970771974227 0 0 0 0 45.513259467115859 104.95406176080724 0 104.95406176080724 -9.2361167793023924 0 0 0 0 127.94259320838319 238.23319317835194 0 238.23319317835194 9.276531011753832 0 0 0 0 111.83362244178716 286.02733570870623 0 286.02733570870623 -132.44934391893912 0 0 0 0 -19.500440177275905 58.868312248645871 0 58.868312248645871 -36.869100548001967 0 0 0 0 44.67909662519196 62.836934395549179 0 62.836934395549179 -9.7392064206505893 0 0 0 0 19.198177735036371 46.153122455463453 0 46.153122455463453 -23.305207111653573 0 0 0 0 68.245087908730056 28.821082760427089 0 28.821082760427089 -46.382434502025717 0 0 0 0 32.219671667167859 76.846434040897293 0 76.846434040897293 -3.3355302167474292 0 0 0 0 11.783936301638434 43.073345538518709 0 43.073345538518709 -29.399946652530005 0 0 0 0 21.641392498277128 106.51435007708642 0 106.51435007708642 12.500596828267589 0 0 0 0 33.045059315943945 61.397693741440889 0 61.397693741440889 39.603228949476033 0 0 0 0 13.193382148038886 44.573299859722979 0 44.573299859722979 14.118930492322534 0 0 0 0 -26.366598208566387 32.182056180799762 0 32.182056180799762 5.4574185747886759 0 0 0 0 21.436667471527471 105.7294599280649 0 105.7294599280649 38.498967001176879 0 0 0 0 -44.101588658078981 69.270025931971759 0 69.270025931971759 62.644139698240906 0 0 0 0 -47.129703339556713 59.950234228645705 0 59.950234228645705 26.027239385342369 0 0 0 0 -16.210835962730926 88.533461246581282 0 88.533461246581282 31.020470453047892 0 0 0 0 -27.443687045830558 63.479912227747946 0 63.479912227747946 -10.862544419432218 0 0 0 0 24.963139912710176 174.88057513414242 0 174.88057513414242 -27.200093231527717 0 0 0 0 -31.633351662414498 74.499989364725479 0 74.499989364725479 64.066625983406993 0 0 0 0 -33.074032323496795 38.655547141257557 0 38.655547141257557 50.607584856130416 0 0 0 0 -18.948458614225871 21.162496039913407 0 21.162496039913407 57.72337852286762 0 0 0 0 -0.3069778961053089 46.287617991605657 0 46.287617991605657 19.863403413095511 0 0 0 0 -16.507375297864201 66.356872370917699 0 66.356872370917699 34.012238503113622 0 0 0 0 -22.610910445633635 38.428159840725129 0 38.428159840725129 25.203372607025813 0 0 0 0 5.7218526756387291 63.232064195202838 0 63.232064195202838 46.605872976171668 0 0 0 0 -31.841691958795295 27.626872387788147 0 27.626872387788147 13.578324935445778 0 0 0 0 -4.450343217671616 34.243256842884875 0 34.243256842884875 33.014272849006375 0 0 0 0 -23.225059830991086 45.344134387094527 0 45.344134387094527 32.145665566524258 0 0 0 0 -3.8240242551855772 35.621908945882751 0 35.621908945882751 22.215643683433882 0 0 0 0 -6.6250257945284829 34.721628538973164 0 34.721628538973164 26.400260299444199 0 0 0 0 -3.1586245655998937 74.361693759889022 0 74.361693759889022 -1.7415869532123907 0 0 0 0 11.433644447089051 29.538995358024223 0 29.538995358024223 38.613915182192216 0 0 0 0 0.6992385958926377 9.425039206347293 0 9.425039206347293 12.629309693644245 0 0 0 0 -224.64698607636819 -52.587382497018552 0 -52.587382497018552 55.3817638610617 0 0 0 0 -0.61501402735439115 62.859701840707203 0 62.859701840707203 26.33429472282296 0 0 0 0 -13.387977775195736 54.314638565056612 0 54.314638565056612 32.947694674527156 0 0 0 0 -13.754903825597125 48.757799339683515 0 48.757799339683515 20.234010589469108 0 0 0 0 -18.321234012280911 56.338851300934039 0 56.338851300934039 28.261362346573151 0 0 0 0 14.509560739408137 31.435714022091162 0 31.435714022091162 29.674584538438921 0 0 0 0 -49.035469175640173 55.931151868426241 0 55.931151868426241 33.493240367854014 0 0 0 0 -47.038062307394284 62.111772202650172 0 62.111772202650172 27.706740767811425 0 0 0 0 -5.5835114084203923 12.026309161850747 0 12.026309161850747 7.7921912332650436 0 0 0 0 -22.596932575463143 58.194360282097477 0 58.194360282097477 17.747297134279506 0 0 0 0 -8.4781345499213785 49.314163624978391 0 49.314163624978391 19.459120396324579 0 0 0 0 -12.512396672649629 45.206573362294876 0 45.206573362294876 15.347810914972797 0 0 0 0 -2.1376529442786705 48.994139797767275 0 48.994139797767275 10.238058829039801 0 0 0 0 2.4988995863868695 34.525066838440523 0 34.525066838440523 1.9831187521967308 0 0 0 0 -16.209645820010337 66.083808262264938 0 66.083808262264938 -8.7703378082806012 0 0 0 0 12.712920518370083 56.552985728914791 0 56.552985728914791 14.450464170038686 0 0 0 0 -19.453912581013356 32.409354843868641 0 32.409354843868641 -11.972189485517447 0 0 0 0 -19.459163187158993 35.782520431355806 0 35.782520431355806 -3.903482055036875 0 0 0 0 3.7745687185197028 24.925538263942343 0 24.925538263942343 5.8300618221563596 0 0 0 0 -27.073216036479995 22.147615407930019 0 22.147615407930019 4.5703073958739822 0 0 0 0 2.9114620269912521 41.943085573854034 0 41.943085573854034 8.862204112399354 0 0 0 0 -3.8709000195703993 30.560026953971828 0 30.560026953971828 10.259159909270238 0 0 0 0 -5.5060472125537814 27.872825894680716 0 27.872825894680716 15.457441667994424 0 0 0 0 -5.1550021096627461 40.574765087629203 0 40.574765087629203 18.987380460952409 0 0 0 0 -3.3893970460794662 68.266371945072024 0 68.266371945072024 13.436567142055537 0 0 0 0 -1.7858843598719432 30.576034376805183 0 30.576034376805183 4.6364364045002731 0 0 0 0 -5.7506547368081433 24.161724082387323 0 24.161724082387323 9.3377219962691527 0 0 0 0 71.92769314801717 25.972622148241499 0 25.972622148241499 3.1266680787048244 0 0 0 0 -0.39676743890969846 24.37233154662988 0 24.37233154662988 8.1917745194577236 0 0 0 0 -30.405978146893176 28.403131425031461 0 28.403131425031461 -6.6256491292733699 0 0 0 0 12.663021739167762 28.631867638484572 0 28.631867638484572 0.8313766670674454 0 0 0 0 -16.842079964852019 48.856772466104303 0 48.856772466104303 -17.078080481514917 0 0 0 0 17.449722482059176 23.319019344293622 0 23.319019344293622 -12.985428205492894 0 0 0 0 211.04885806897255 35.425835418829593 0 35.425835418829593 13.660802490339847 0 0 0 0 234.95933672254068 -34.598270318114373 0 -34.598270318114373 -42.25603805778519 0 0 0 0 8.8537803941414595 7.8175032376073403 0 7.8175032376073403 8.4105026408914796 0 0 0 0 185.22139419222185 -98.075028952167486 0 -98.075028952167486 64.520146476628724 0 0 0 0 45.220064389411164 -79.150010120603838 0 -79.150010120603838 41.785869663290214 0 0 0 0 107.09003203034263 -129.65941056261363 0 -129.65941056261363 -36.695397064613644 0 0 0 0 108.98549764224413 -40.258618055144325 0 -40.258618055144325 63.785415599588305 0 0 0 0 192.03687249621021 -79.238979965128237 0 -79.238979965128237 -8.1924686711427057 0 0 0 0 225.4852255598048 -67.020268081520044 0 -67.020268081520044 -127.82392799556692 0 0 0 0 4.8962814248755819 32.78767275053724 0 32.78767275053724 -1.9258711955480976 0 0 0 0 145.83755561234784 6.5318579546437832 0 6.5318579546437832 -8.6537736526788649 0 0 0 0 190.35009237275517 109.85620174878932 0 109.85620174878932 -158.66721665061777 0 0 0 0 -28.394161782292031 155.01116741563965 0 155.01116741563965 -53.404133737909433 0 0 0 0 -27.309003036899526 176.20850627229902 0 176.20850627229902 -128.1681637604197 0 0 0 0 -29.369630542676305 97.705027001771668 0 97.705027001771668 24.412638519104803 0 0 0 0 -12.995489477085357 164.5873109464701 0 164.5873109464701 76.063926353268471 0 0 0 0 95.681651902036606 107.85739512112741 0 107.85739512112741 -41.96872614636959 0 0 0 0 -46.299346349622283 55.82333507938165 0 55.82333507938165 26.462662940855353 0 0 0 0 98.514708026841845 119.31527829214701 0 119.31527829214701 0.67560527756722877 0 0 0 0 -37.071613394573696 36.179183920111356 0 36.179183920111356 -7.2431054864470639 0 0 0 0 -6.6615280189446651 8.1172659874716189 0 8.1172659874716189 -1.7983180268998353 0 0 0 0 11.799858756093938 35.139281752807037 0 35.139281752807037 5.3210886815724336 0 0 0 0 111.88175654927727 98.787084965781105 0 98.787084965781105 8.5200787011999637 0 0 0 0 -37.894650647485832 47.662007409729995 0 47.662007409729995 13.769230219593737 0 0 0 0 148.24465025448444 211.52965417838277 0 211.52965417838277 -85.227096529539267 0 0 0 0 -20.836397956483289 30.975230238474133 0 30.975230238474133 -7.6783636502387935 0 0 0 0 10.801010713450523 82.395627556008549 0 82.395627556008549 10.489965259534074 0 0 0 0 50.257618636767688 43.046094493553639 0 43.046094493553639 -4.1453355713491078 0 0 0 0 8.4462926847903503 33.980112766261698 0 33.980112766261698 -6.9014407528570985 0 0 0 0 -82.212779686711656 39.515613391893567 0 39.515613391893567 -9.4937592570786364 0 0 0 0 86.12613783271172 50.708229000123538 0 50.708229000123538 -38.388521873384889 0 0 0 0 66.044029311786289 2.5835987980608479 0 2.5835987980608479 106.792557066874 0 0 0 0 -67.975356132446905 341.39771424934588 0 341.39771424934588 109.30633155996111 0 0 0 0 -213.44500240847992 285.45393508553389 0 285.45393508553389 -137.95696774168755 0 0 0 0 -59.195587815949693 151.25995811184839 0 151.25995811184839 -69.343230840608157 0 0 0 0 -217.43582709549082 158.47264797085154 0 158.47264797085154 337.32015604057233 0 0 0 0 -254.26664619677103 -6.2869835321980645 0 -6.2869835321980645 187.9610458080715 0 0 0 0 -158.72987473765534 109.2091848775035 0 109.2091848775035 107.98739470849978 0 0 0 0 193.59718919231091 260.07966914180724 0 260.07966914180724 151.87984958143352 0 0 0 0 4.4133679074293468 182.28575413703948 0 182.28575413703948 255.80945265486662 0 0 0 0 -18.065641385462342 3.5284977492199516 0 3.5284977492199516 0.50770732396671292 0 0 0 0 26.538458694414388 57.724610494162107 0 57.724610494162107 -13.841668933302799 0 0 0 0 27.948747808030021 76.90228374842809 0 76.90228374842809 -126.31749171231058 0 0 0 0 15.322697624121389 7.2237525572709487 0 7.2237525572709487 -5.4049981819482582 0 0 0 0 -46.199869275660603 158.4151722769966 0 158.4151722769966 37.246954974085384 0 0 0 0 -23.348566891738386 54.439483162337822 0 54.439483162337822 27.141887507489304 0 0 0 0 -67.314001354272477 56.851010505131853 0 56.851010505131853 90.583956477021275 0 0 0 0 -145.9829695679 -23.816470383436354 0 -23.816470383436354 179.89187598275748 0 0 0 0 -102.03236189467134 57.925410984331393 0 57.925410984331393 30.652102936604933 0 0 0 0 -10.929962817080479 43.933969139128195 0 43.933969139128195 24.756314833005586 0 0 0 0 0.93964131020038622 350.27802102081296 0 350.27802102081296 -582.08804612298263 0 0 0 0 73.51303508268029 -10.021402207788924 0 -10.021402207788924 -229.31177123622183 0 0 0 0 -69.241565264805104 201.06231422213386 0 201.06231422213386 -118.05536166085949 0 0 0 0 87.095580666558817 119.20862594396749 0 119.20862594396749 -176.27951097683399 0 0 0 0 -73.198029385068367 159.95516328437498 0 159.95516328437498 -71.857582899770932 0 0 0 0 -91.430289577067015 142.79021805834054 0 142.79021805834054 131.83608290390839 0 0 0 0 -11.005191999836825 3.7147471510106698 0 3.7147471510106698 172.704661253214 0 0 0 0 -70.451823693601909 112.11341280695524 0 112.11341280695524 99.510839478898561 0 0 0 0 -0.86715335664268878 25.235547061303151 0 25.235547061303151 74.395996896099575 0 0 0 0 126.57011268151109 19.952834764837462 0 19.952834764837462 38.827584539874806 0 0 0 0 -648.64298489128123 834.56622990235701 0 834.56622990235701 -1588.9015147054015 0 0 0 0 -1147.9249487153174 1138.3473686617422 0 1138.3473686617422 -1158.4118792447407 0 0 0 0 -3.7617135889038735 12.394625580709331 0 12.394625580709331 -3.9603729582970146 0 0 0 0 -343.73128355677181 505.306226377641 0 505.306226377641 -1268.6433141818707 0 0 0 0 -1219.5270746245915 730.3311733894011 0 730.3311733894011 -351.39929116865096 0 0 0 0 -283.61209108671756 -144.41415208794933 0 -144.41415208794933 667.2457509559099 0 0 0 0 -654.92302046924306 1308.7844291355505 0 1308.7844291355505 -1822.1386390501648 0 0 0 0 -7.8387649160491151 1.7662432191121837 0 1.7662432191121837 4.6235953567477566 0 0 0 0 -984.27670112084888 1179.5678320397565 0 1179.5678320397565 -1382.6337526679417 0 0 0 0 -69.431796864286298 -255.58657308178226 0 -255.58657308178226 515.5019632296171 0 0 0 0 -20.685978699126281 -114.12084106079419 0 -114.12084106079419 338.2441926399697 0 0 0 0 64.907215358762187 -83.919190105189045 0 -83.919190105189045 284.82299942834652 0 0 0 0 -104.92604224034585 -48.674961441603955 0 -48.674961441603955 373.90258928813273 0 0 0 0 -33.387031058606226 -107.57994574178883 0 -107.57994574178883 334.91171574451437 0 0 0 0 -33.842782931460533 -162.32083588652313 0 -162.32083588652313 419.07398453835049 0 0 0 0 -270.26385587162804 2498.0621226145013 0 2498.0621226145013 -599.80841748537205 0 0 0 0 140.96691153773281 -206.74849041647394 0 -206.74849041647394 278.80086025130367 0 0 0 0 -19.354394672798207 2.9384528179451621 0 2.9384528179451621 10.558464355596676 0 0 0 0 -221.84046266827499 29.431676694101043 0 29.431676694101043 270.55000808908517 0 0 0 0 -269.06573863826634 185.41895906176796 0 185.41895906176796 81.261683882861689 0 0 0 0 -537.95866701456544 114.03982906017336 0 114.03982906017336 249.03386389440857 0 0 0 0 -400.1724477279131 101.41362439454315 0 101.41362439454315 94.313160120382236 0 0 0 0 -25.374780634316267 138.4701280749432 0 138.4701280749432 11.183041064334247 0 0 0 0 -10.545975252416895 6.013394889105939 0 6.013394889105939 6.5454998772945316 0 0 0 0 -131.42036905892019 -15.134863856881566 0 -15.134863856881566 65.285719916559174 0 0 0 0 -2.3682979571783349 23.792925230688411 0 23.792925230688411 65.176209273398968 0 0 0 0 73.380444757953228 15.984686945570502 0 15.984686945570502 -8.7688966829864512 0 0 0 0 -207.48396946224238 98.193279274349152 0 98.193279274349152 70.004630459668988 0 0 0 0 -246.13630348260722 178.81493798737461 0 178.81493798737461 -59.624465812965354 0 0 0 0 -114.61812378391915 211.15994095493443 0 211.15994095493443 -193.26382262099833 0 0 0 0 -373.16129946165711 429.47534964210627 0 429.47534964210627 -300.3898802456315 0 0 0 0 -249.52891682031623 156.25200290544672 0 156.25200290544672 -485.27740486975381 0 0 0 0 -238.45480333745218 227.24281588481608 0 227.24281588481608 -341.97438523603341 0 0 0 0 -271.9237534680351 383.75171204550088 0 383.75171204550088 -261.20728210856396 0 0 0 0 -318.78125939893653 303.1160211338065 0 303.1160211338065 -143.83792331928089 0 0 0 0 -5.3365233162621735 27.154059443681035 0 27.154059443681035 80.47193272532968 0 0 0 0 -900.98890568350907 -229.27534339819977 0 -229.27534339819977 -1421.2995774823794 0 0 0 0 -898.1295382175449 763.28532702535813 0 763.28532702535813 -235.40695139731656 0 0 0 0 -5.8921123250197525 7.003296623321134 0 7.003296623321134 13.20836283428396 0 0 0 0 154.1937911944442 -109.51349291735733 0 -109.51349291735733 191.03742931096349 0 0 0 0 75.453316478648048 -18.13010709552691 0 -18.13010709552691 94.690153571755218 0 0 0 0 -29.918228567505139 47.559073387516037 0 47.559073387516037 171.41528471418133 0 0 0 0 -33.743170450048638 37.596813757845666 0 37.596813757845666 147.92696397491341 0 0 0 0 5.4824085382570047 2.2481704326855834 0 2.2481704326855834 205.88877293773839 0 0 0 0 -1.5010434509458719 -3.1930932173163455 0 -3.1930932173163455 213.4902470146626 0 0 0 0 -40.488081076531671 56.260075589521875 0 56.260075589521875 97.991978761750943 0 0 0 0 -36.60890051505703 44.568738251553441 0 44.568738251553441 107.90245620201313 0 0 0 0 -20.215505212825519 5.1836790398110679 0 5.1836790398110679 71.128126009389234 0 0 0 0 -8.6323739656945691 38.911775951153686 0 38.911775951153686 51.109992182529822 0 0 0 0 -11.274763478257228 16.186662309180974 0 16.186662309180974 7.3068076052195465 0 0 0 0 -36.076397897011702 45.280647269318479 0 45.280647269318479 50.721842054859735 0 0 0 0 -24.457705029730278 72.607311869876867 0 72.607311869876867 76.53791402090792 0 0 0 0 2.4484844420148875 63.171064158159425 0 63.171064158159425 30.85159442794793 0 0 0 0 -24.677571827000065 83.221302582795033 0 83.221302582795033 21.633268231471448 0 0 0 0 -10.198025472088375 49.1790275790338 0 49.1790275790338 15.380355809611501 0 0 0 0 14.684812094710651 45.750294222303637 0 45.750294222303637 14.691235810798389 0 0 0 0 7.9699449681429542 47.456652920311171 0 47.456652920311171 20.499521739580814 0 0 0 0 17.581638996631227 41.760629702648657 0 41.760629702648657 18.074007139861351 0 0 0 0 9.8031755897172843 44.675649661730858 0 44.675649661730858 21.985538370190625 0 0 0 0 9.7445549419853421 19.214057413335318 0 19.214057413335318 -20.372414173689208 0 0 0 0 -538.964057226367 318.2430071616418 0 318.2430071616418 -153.04097866477969 0 0 0 0 6.3992577455064747 41.614765568090661 0 41.614765568090661 2.1863504354769248 0 0 0 0 6.2022609826964583 19.998198627738745 0 19.998198627738745 17.386333534603466 0 0 0 0 0.36057748479069573 4.5434725766787345 0 4.5434725766787345 3.3180165904740591 0 0 0 0 -470.15958057143143 -11.490907565857924 0 -11.490907565857924 -332.31392468034392 0 0 0 0 -131.1876847155072 270.32208546240145 0 270.32208546240145 -925.34249384840223 0 0 0 0 -1.1747743920714129 287.33539920832845 0 287.33539920832845 -293.56792672390293 0 0 0 0 209.47917180706827 -39.695066919506644 0 -39.695066919506644 -14.062988542616949 0 0 0 0 -103.5181531399212 148.03757020287958 0 148.03757020287958 -390.4727573262644 0 0 0 0 2.3751994032727453 1.5262599311874965 0 1.5262599311874965 -4.8764657208453599 0 0 0 0 47.836131284755538 -31.313143614645014 0 -31.313143614645014 -12.580992206298106 0 0 0 0 -127.8932735027629 297.59978183881321 0 297.59978183881321 19.783804804538704 0 0 0 0 274.90934689840651 253.99205042063841 0 253.99205042063841 -68.482602628948371 0 0 0 0 -22.105996926184162 311.58265158430731 0 311.58265158430731 -79.471291424186347 0 0 0 0 166.18742644086888 449.19999999780703 0 449.19999999780703 111.70709030657599 0 0 0 0 199.58131851494545 361.3713906680714 0 361.3713906680714 -292.07755286468455 0 0 0 0 -35.427813723490544 368.48852762932984 0 368.48852762932984 -313.60533531126566 0 0 0 0 -309.20166364133183 199.42816948174004 0 199.42816948174004 -123.93468782093987 0 0 0 0 -755.88245761374128 337.91205695960161 0 337.91205695960161 -165.84983723115147 0 0 0 0 -396.98284885079192 278.68237763935031 0 278.68237763935031 67.14553333560616 0 0 0 0 -353.31773913546931 279.48369084418664 0 279.48369084418664 19.370004760639858 0 0 0 0 -349.84489243719872 196.77153144324984 0 196.77153144324984 140.93092394196719 0 0 0 0 -292.55951130360336 247.50179522220424 0 247.50179522220424 232.79522254460971 0 0 0 0 -32.380608373272167 112.8157832271046 0 112.8157832271046 -52.932118247166379 0 0 0 0 -142.98890606623536 271.48741671961216 0 271.48741671961216 156.00723889089568 0 0 0 0 -13.341249794107796 109.25825888720382 0 109.25825888720382 -51.29932454100063 0 0 0 0 -88.102189622470178 213.4870147977781 0 213.4870147977781 149.36192571761785 0 0 0 0 -154.67367753950384 278.5861383082829 0 278.5861383082829 181.62566057188087 0 0 0 0 -106.6889282430202 223.70310768122363 0 223.70310768122363 231.30343809539045 0 0 0 0 281.4259138503694 341.61149681198003 0 341.61149681198003 179.43749835659401 0 0 0 0 -112.63098580663791 197.02417613662692 0 197.02417613662692 335.88105878089118 0 0 0 0 16.949845339953882 36.89561558016122 0 36.89561558016122 -37.16028439197602 0 0 0 0 -26.8531739722997 100.15396602260928 0 100.15396602260928 62.688933603499606 0 0 0 0 22.509724117335281 144.22530191975238 0 144.22530191975238 107.07815887502511 0 0 0 0 -48.018378025742251 38.131042310111496 0 38.131042310111496 39.72477309620723 0 0 0 0 -64.124391729891613 147.7952014072016 0 147.7952014072016 99.930182849202538 0 0 0 0 -141.94480368243239 36.711401830125396 0 36.711401830125396 326.6655084953818 0 0 0 0 -139.54872951769357 45.350001951192098 0 45.350001951192098 133.22989087798487 0 0 0 0 -226.90423659054795 185.99169838598755 0 185.99169838598755 158.67965851703775 0 0 0 0 -234.81762638108194 88.366149163499358 0 88.366149163499358 171.14488208822877 0 0 0 0 -103.36730992612138 11.385390795418061 0 11.385390795418061 37.900758020623471 0 0 0 0 -31.702797687954444 -76.559335804369766 0 -76.559335804369766 -8.0507754737554933 0 0 0 0 -91.19586222457292 -222.49332438295824 0 -222.49332438295824 383.51824498848873 0 0 0 0 -291.10629541025992 459.6822347557536 0 459.6822347557536 -81.85103343782248 0 0 0 0 -226.89885050298963 182.38242892018735 0 182.38242892018735 513.44859200241626 0 0 0 0 -624.26939765649149 134.65850747143122 0 134.65850747143122 1214.0337171511783 0 0 0 0 -41.894675585226992 62.449331728164651 0 62.449331728164651 -16.209636396574794 0 0 0 0 278.16177211656759 -361.37718886179209 0 -361.37718886179209 1282.3707230897853 0 0 0 0 -389.69680266586511 491.84093200815914 0 491.84093200815914 1296.6570051251765 0 0 0 0 4.3453510341111894 16.297550377538187 0 16.297550377538187 -55.295698153299412 0 0 0 0 -545.97116384497349 300.45242282651452 0 300.45242282651452 955.22124448281829 0 0 0 0 -216.84184254345018 -272.68363219047023 0 -272.68363219047023 120.87680100001671 0 0 0 0 35.84286146658269 86.090771713104914 0 86.090771713104914 97.521060885483166 0 0 0 0 -234.02082953185891 -347.66526128270198 0 -347.66526128270198 -118.03574487683363 0 0 0 0 -763.40229880371771 -212.92799940163968 0 -212.92799940163968 750.48568941540725 0 0 0 0 -64.827579745493495 1144.5258238848983 0 1144.5258238848983 -182.13548721946427 0 0 0 0 -6.5457055378570601 53.099084239363734 0 53.099084239363734 24.277509324949904 0 0 0 0 -24.794242258118175 105.57902339567227 0 105.57902339567227 -52.389424038119614 0 0 0 0 -201.27654116167105 80.131063515149435 0 80.131063515149435 116.38932386873421 0 0 0 0 -300.66293790881173 126.22790392306342 0 126.22790392306342 112.55964529985022 0 0 0 0 -306.554319790097 40.898749764132845 0 40.898749764132845 -67.040377277116932 0 0 0 0 -396.92470907453389 151.81559906737311 0 151.81559906737311 -74.822736915564747 0 0 0 0 -49.608238849948975 153.54788693935188 0 153.54788693935188 -93.882579612487461 0 0 0 0 -12.927782735393521 -100.73644766816051 0 -100.73644766816051 113.5379370948649 0 0 0 0 -67.211311860904971 85.942231192813779 0 85.942231192813779 -46.604597809251572 0 0 0 0 -28.591483571359618 26.830425776244482 0 26.830425776244482 51.907845260049413 0 0 0 0 7.1981528297583566 40.129383776508504 0 40.129383776508504 -25.416717829172171 0 0 0 0 -449.26018818040029 -72.208430456797942 0 -72.208430456797942 211.34885693031538 0 0 0 0 -590.03287099827867 -124.13491932058969 0 -124.13491932058969 -1776.1169983301079 0 0 0 0 -433.92944769815313 1263.9159142933845 0 1263.9159142933845 -185.39673149430018 0 0 0 0 -723.28460843242647 -154.90782564838446 0 -154.90782564838446 607.21508358152641 0 0 0 0 -406.35762097276165 -213.39156274554261 0 -213.39156274554261 367.82859075627493 0 0 0 0 -382.80001238326076 89.596888199463137 0 89.596888199463137 602.88918953064285 0 0 0 0 -37.589937219767307 58.737886033292853 0 58.737886033292853 -32.184098033809278 0 0 0 0 -20.522938456856025 62.55099926087702 0 62.55099926087702 -41.748105191091355 0 0 0 0 -23.792834044637857 92.173781813769892 0 92.173781813769892 5.0893893675020081 0 0 0 0 210.54706473736587 626.80441160459304 0 626.80441160459304 625.54652314550913 0 0 0 0 -8.8846351314276255 29.008529071976 0 29.008529071976 1.9870502106252275 0 0 0 0 1496.0655161416653 789.91786327217415 0 789.91786327217415 -406.13912790239556 0 0 0 0 -44.266964662008377 94.577564521248448 0 94.577564521248448 -51.287531237490867 0 0 0 0 -451.65947859135485 238.67280335424584 0 238.67280335424584 -286.71117337883334 0 0 0 0 -385.28888272742188 432.90337589012051 0 432.90337589012051 -217.30756602032125 0 0 0 0 -711.4230573432942 431.4883670001509 0 431.4883670001509 31.955742452846607 0 0 0 0 -197.38496290116018 132.93286483359043 0 132.93286483359043 -248.34077787824208 0 0 0 0 2.0138646288420254 53.385720942775663 0 53.385720942775663 -42.807599530925131 0 0 0 0 -368.04540222537798 316.05965510784608 0 316.05965510784608 93.201781627984019 0 0 0 0 -378.53242291983679 145.13796059833453 0 145.13796059833453 39.727132641070057 0 0 0 0 -239.14179788057663 88.517734251501679 0 88.517734251501679 -4.377728922496317 0 0 0 0 -200.8923274310846 299.68158934636858 0 299.68158934636858 -268.02042665082263 0 0 0 0 18.384643472912927 33.309061529468522 0 33.309061529468522 -24.781807593895309 0 0 0 0 -45.553069410974359 92.383114315609475 0 92.383114315609475 -52.485572366226862 0 0 0 0 -221.40869892213232 308.43488523433189 0 308.43488523433189 -132.89801346925378 0 0 0 0 -144.81607046391582 341.52230614705331 0 341.52230614705331 -128.72069387594092 0 0 0 0 -129.48199396343989 49.844786870467942 0 49.844786870467942 3.2319645162860979 0 0 0 0 -193.08433849582798 72.383622966277471 0 72.383622966277471 490.06793918627955 0 0 0 0 -3.2716636278782971 201.18782418020055 0 201.18782418020055 113.43173532278524 0 0 0 0 -44.136903402206372 -149.15710516969193 0 -149.15710516969193 277.95048453639902 0 0 0 0 -231.05740618026903 49.212555360089027 0 49.212555360089027 -310.98510288640682 0 0 0 0 133.62595114289434 437.33068891996663 0 437.33068891996663 -1642.7861771372795 0 0 0 0 -9.4204471863495201 1.0015955403505217 0 1.0015955403505217 -0.76970365500997096 0 0 0 0 -27.458141665288792 3.3100357778144343 0 3.3100357778144343 -0.80177651868854305 0 0 0 0 25.594806824083207 164.8911492244697 0 164.8911492244697 -549.69809047500894 0 0 0 0 -106.39888431003783 233.83077175077051 0 233.83077175077051 -100.16568153185654 0 0 0 0 -130.93285644351272 204.71036736520909 0 204.71036736520909 -76.173213987800409 0 0 0 0 -90.46726539948213 274.20196955689426 0 274.20196955689426 26.016643257680698 0 0 0 0 -104.10501620802097 290.77801670748158 0 290.77801670748158 16.438654101475549 0 0 0 0 -139.53184711852737 309.80613636293856 0 309.80613636293856 214.19152135858894 0 0 0 0 -186.39295352493082 230.20662633416487 0 230.20662633416487 254.1629798036156 0 0 0 0 -194.8330859635571 174.27858690762514 0 174.27858690762514 177.44365243222273 0 0 0 0 -199.20849426202039 175.78232939309964 0 175.78232939309964 489.80650178098585 0 0 0 0 25.87499277680763 407.21463406195107 0 407.21463406195107 203.05598717595421 0 0 0 0 -19.380466869260999 406.047420801915 0 406.047420801915 203.62205345606708 0 0 0 0 36.460899500438245 198.34944598597212 0 198.34944598597212 -21.509588618850103 0 0 0 0 18.711664982241928 231.13389878475573 0 231.13389878475573 66.825645884295227 0 0 0 0 170.75100687619852 415.59553718291863 0 415.59553718291863 206.31714031714364 0 0 0 0 -189.42074031825541 239.38738429638033 0 239.38738429638033 723.35941818426363 0 0 0 0 72.079453318961896 563.77939721179428 0 563.77939721179428 489.42896615728387 0 0 0 0 -7.4563475441567562 18.592930726644255 0 18.592930726644255 -26.47227539935335 0 0 0 0 -301.13170873842773 973.7073639557766 0 973.7073639557766 737.3331123739481 0 0 0 0 24.708182840062364 486.44269838595937 0 486.44269838595937 999.1481598415412 0 0 0 0 806.56288275482802 186.01167716251621 0 186.01167716251621 -21.568577583762817 0 0 0 0 640.32546805366292 881.96376515568409 0 881.96376515568409 647.75734317932802 0 0 0 0 -77.445109395863255 154.25256089825416 0 154.25256089825416 7.2519643835257739 0 0 0 0 135.09900450709392 3.4178653006238164 0 3.4178653006238164 50.36248044930835 0 0 0 0 361.26688618758635 432.43548598595953 0 432.43548598595953 68.546253364096629 0 0 0 0 48.823362162023841 260.05000963532075 0 260.05000963532075 -25.108100517478306 0 0 0 0 -30.987525901859044 -14.768140516229323 0 -14.768140516229323 -76.042954369077052 0 0 0 0 -123.34098179177636 35.568556689908291 0 35.568556689908291 -102.28214181901421 0 0 0 0 -281.68846706260956 114.45951069740113 0 114.45951069740113 -61.012221007957123 0 0 0 0 -358.62836687650997 129.9040881388355 0 129.9040881388355 -84.27404071330966 0 0 0 0 -136.97419168535862 177.3393580371694 0 177.3393580371694 -72.768208713503554 0 0 0 0 72.056191802192188 216.8658757480589 0 216.8658757480589 -91.190023994568037 0 0 0 0 -92.314240720472299 138.42561676603509 0 138.42561676603509 -139.36134098515322 0 0 0 0 -38.857618973474018 230.46318067548782 0 230.46318067548782 -132.45820412121248 0 0 0 0 -162.66602110528765 180.36270137469546 0 180.36270137469546 -105.09331595619733 0 0 0 0 -204.52890765471966 173.09385837675654 0 173.09385837675654 -99.735713271657005 0 0 0 0 -216.59367847537942 98.856359673136467 0 98.856359673136467 -148.70437527381 0 0 0 0 -384.60971159787732 112.77059522902709 0 112.77059522902709 -141.23419685022236 0 0 0 0 -566.10585184381489 185.46955844381591 0 185.46955844381591 -78.483593506505713 0 0 0 0 -374.35060038213851 142.01347844994598 0 142.01347844994598 -95.630611172775389 0 0 0 0 -713.05367976331763 304.6424199032117 0 304.6424199032117 -152.86637464981686 0 0 0 0 -582.35030311766604 142.36274083277385 0 142.36274083277385 -112.89027992965566 0 0 0 0 -583.15194180309481 157.82710401967051 0 157.82710401967051 -51.869702076044632 0 0 0 0 -798.50714848746429 233.45472224253172 0 233.45472224253172 -34.976485948776826 0 0 0 0 -737.43472939805361 255.40564915872528 0 255.40564915872528 -65.218486016161478 0 0 0 0 -373.53270759812585 65.246080349992553 0 65.246080349992553 -76.348817488731584 0 0 0 0 -617.36849445789267 152.7821083417366 0 152.7821083417366 -66.493432880670298 0 0 0 0 -640.11097404533939 121.15981407479558 0 121.15981407479558 4.7918282078026095 0 0 0 0 -351.5332851679359 -65.333611733483849 0 -65.333611733483849 -6.1895216847769916 0 0 0 0 -811.93725934425311 189.37676204055606 0 189.37676204055606 0.047787016053916886 0 0 0 0 -807.6868257337851 304.03110299600212 0 304.03110299600212 -124.88889770270907 0 0 0 0 -225.4657755037606 -169.6682591204044 0 -169.6682591204044 51.977022036415292 0 0 0 0 -824.90865127940197 82.39341791854531 0 82.39341791854531 48.800023628558847 0 0 0 0 -1029.9330689486549 652.06309543821544 0 652.06309543821544 -422.63552629297192 0 0 0 0 -2149.821741273332 1081.2841766284 0 1081.2841766284 -97.885166342690354 0 0 0 0 -1093.2797166040837 19.525999582765508 0 19.525999582765508 275.1831976169924 0 0 0 0 90.290192574622779 322.13181972148777 0 322.13181972148777 -279.14243939743028 0 0 0 0 -1132.5284637830482 -311.0691659883305 0 -311.0691659883305 -253.8351697080534 0 0 0 0 -425.84368795023693 -77.211802636906214 0 -77.211802636906214 74.909422050594003 0 0 0 0 -6.1105745470479462 -5.3256901205602105 0 -5.3256901205602105 -7.0824724239795387 0 0 0 0 -32.59485338885861 -270.24543348618317 0 -270.24543348618317 -105.30461823912083 0 0 0 0 -18.673206057913376 164.19352090619441 0 164.19352090619441 73.193713748536538 0 0 0 0 -348.36892614577664 -222.21843857609201 0 -222.21843857609201 23.909375225019176 0 0 0 0 -925.53715151049892 402.37990950278845 0 402.37990950278845 -127.60056152124889 0 0 0 0 -813.12288280458597 229.72017203728319 0 229.72017203728319 -199.54574059136212 0 0 0 0 -31.067500473407819 -17.951639588537432 0 -17.951639588537432 -5.6281443738500343 0 0 0 0 -935.32517660363374 268.57732293716981 0 268.57732293716981 -112.31264875407214 0 0 0 0 -783.5597840182545 284.17268069683996 0 284.17268069683996 -125.32876424246933 0 0 0 0 -783.33833957954221 335.6713005782758 0 335.6713005782758 -147.89706661857781 0 0 0 0 18.144019568615477 20.883036692510359 0 20.883036692510359 84.155760963287321 0 0 0 0 70.801977641750454 14.625910459351871 0 14.625910459351871 70.542771651700605 0 0 0 0 10.813109594790149 21.227275707817171 0 21.227275707817171 49.627233016304672 0 0 0 0 -105.9805621275882 -164.69476615352323 0 -164.69476615352323 36.516814463830087 0 0 0 0 -10.687813801787733 31.800360217185954 0 31.800360217185954 59.462711282131579 0 0 0 0 11.687369523097004 14.869752053171396 0 14.869752053171396 92.979533390665893 0 0 0 0 -36.834640020135943 17.919240558358702 0 17.919240558358702 49.00447630231173 0 0 0 0 -5.7007238320126525 -1.8155142123188028 0 -1.8155142123188028 -5.2981258024839235 0 0 0 0 80.577115165695432 110.88947999241645 0 110.88947999241645 44.289975203340873 0 0 0 0 0.34719913129649171 3.1700600409370097 0 3.1700600409370097 3.9683248357715684 0 0 0 0 63.38382479907159 5.1502731810833211 0 5.1502731810833211 -82.167857888678554 0 0 0 0 -132.53882037190488 23.070522449881537 0 23.070522449881537 73.937071436463157 0 0 0 0 -59.509490146985627 13.543226756970398 0 13.543226756970398 66.407484030511114 0 0 0 0 -15.645884979901894 52.437952287327789 0 52.437952287327789 72.669411946233595 0 0 0 0 19.667640474624932 16.451964600229985 0 16.451964600229985 58.673218480216747 0 0 0 0 -37.510736791671661 42.337372803129256 0 42.337372803129256 63.292025782109704 0 0 0 0 -36.393468310272056 84.826883097940026 0 84.826883097940026 43.875690291810315 0 0 0 0 128.81837088966131 33.24546159075544 0 33.24546159075544 -11.604633588445722 0 0 0 0 81.098734364226402 -29.330733337446873 0 -29.330733337446873 55.211004545453761 0 0 0 0 -3.9009126883910881 15.028348012293463 0 15.028348012293463 32.111601750133559 0 0 0 0 86.373531283807097 164.68862791126958 0 164.68862791126958 -15.434785768506117 0 0 0 0 -704.19298269638239 257.16538696664793 0 257.16538696664793 -70.42305508039135 0 0 0 0 -24.951772927319325 63.418436640658911 0 63.418436640658911 -18.061083741893526 0 0 0 0 -4.2032147002081146 2.792057142325902 0 2.792057142325902 -5.71052511499704 0 0 0 0 -773.56979566647715 216.36529656252969 0 216.36529656252969 -91.380858766264282 0 0 0 0 -1135.5514911325918 376.44659929165937 0 376.44659929165937 -65.837483719107695 0 0 0 0 -714.90691436909401 386.82578198228293 0 386.82578198228293 -241.95589623950946 0 0 0 0 -1.3324688926231936 -2.2163319932913339 0 -2.2163319932913339 -0.86505813078861138 0 0 0 0 -131.6062338546223 243.70728100871702 0 243.70728100871702 -196.79595530946972 0 0 0 0 100.58754693044102 42.630738626241509 0 42.630738626241509 -29.666876107585267 0 0 0 0 -495.01973682687822 199.12390834966573 0 199.12390834966573 -140.85304223702406 0 0 0 0 -521.7393286365841 233.40827137322776 0 233.40827137322776 17.376095305517083 0 0 0 0 -504.36610853153616 245.34775127295143 0 245.34775127295143 28.232348646284663 0 0 0 0 -340.84321683341659 131.41707509191292 0 131.41707509191292 43.740995150103117 0 0 0 0 -405.45567709852185 264.16319182601001 0 264.16319182601001 -26.944949165030266 0 0 0 0 -468.02853739852071 217.24021631462529 0 217.24021631462529 8.1586369250289863 0 0 0 0 -633.60716377208155 282.20622437807469 0 282.20622437807469 -0.084997937963635195 0 0 0 0 -496.61137449842863 249.82824698295371 0 249.82824698295371 22.207939053885639 0 0 0 0 -463.05475698709779 232.96448200270243 0 232.96448200270243 -7.2702648861813941 0 0 0 0 -478.04877872057841 270.35245933678925 0 270.35245933678925 -0.0049198175693163648 0 0 0 0 -402.91285634932865 233.527540738065 0 233.527540738065 -7.3420509859643062 0 0 0 0 -366.4122533875161 275.31560993157655 0 275.31560993157655 0.084400975138123613 0 0 0 0 -355.25089416440665 192.08390550897821 0 192.08390550897821 -60.186518165632151 0 0 0 0 -408.29029511987028 189.54758663888788 0 189.54758663888788 -60.284668573014642 0 0 0 0 -485.76668163462091 218.69420670486215 0 218.69420670486215 -5.3580728261295008 0 0 0 0 -566.97292878272128 225.24754285667586 0 225.24754285667586 -3.2950489628274227 0 0 0 0 -476.68215058183341 134.39746331856441 0 134.39746331856441 -83.043656005422235 0 0 0 0 -512.87612901427929 193.704901336896 0 193.704901336896 -95.857418966916157 0 0 0 0 -367.08583191640719 131.67212467490754 0 131.67212467490754 -103.4068060592399 0 0 0 0 -264.77703689332702 142.12463743728586 0 142.12463743728586 -129.55665987879911 0 0 0 0 -256.72927715772857 170.0784665531919 0 170.0784665531919 -119.89410997889354 0 0 0 0 -157.50551772768813 148.74780688658939 0 148.74780688658939 -154.39869152955362 0 0 0 0 -116.43731029982155 185.98783470271155 0 185.98783470271155 -159.83029572968371 0 0 0 0 -185.2314699373801 213.12149910212975 0 213.12149910212975 -118.22115897142794 0 0 0 0 -173.12678332903852 195.24557088643633 0 195.24557088643633 -157.0287960908172 0 0 0 0 -355.59819120986458 188.2375227371972 0 188.2375227371972 -74.672014344774652 0 0 0 0 -240.52451264446427 157.55106378875644 0 157.55106378875644 -127.54640700834716 0 0 0 0 -275.1112703987892 192.23216720311757 0 192.23216720311757 -83.411601502943086 0 0 0 0 -272.7651946957194 233.91535273926274 0 233.91535273926274 -70.130942829186097 0 0 0 0 -252.6208146214849 244.36406882178562 0 244.36406882178562 -70.843885153795782 0 0 0 0 -141.01373669778695 348.88126318745708 0 348.88126318745708 -0.3886664431047393 0 0 0 0 -252.62978481946936 245.34822425717863 0 245.34822425717863 -92.910699550557183 0 0 0 0 -192.75545612717178 250.90781988488379 0 250.90781988488379 -92.406882843599305 0 0 0 0 -253.36205986442656 193.54296180699021 0 193.54296180699021 -118.54186171265849 0 0 0 0 -19.651935802574371 213.28304977814696 0 213.28304977814696 -188.14286650378199 0 0 0 0 -2.8258472220632029 0.20700923360905676 0 0.20700923360905676 3.1291568465607043 0 0 0 0 -223.60289938611459 269.66198582729703 0 269.66198582729703 -212.50745268326136 0 0 0 0 -185.95177952432277 189.47716624783061 0 189.47716624783061 -171.04663056690697 0 0 0 0 -189.3366022266564 186.61586012107728 0 186.61586012107728 -193.94642638194091 0 0 0 0 -148.39598266071698 186.59941164880729 0 186.59941164880729 -165.43486095726257 0 0 0 0 -119.79529704180823 219.02194801918813 0 219.02194801918813 -151.02824020023399 0 0 0 0 -122.82001513605792 203.99405647892854 0 203.99405647892854 -197.88643507777306 0 0 0 0 -134.99174577037411 218.47714168238963 0 218.47714168238963 -94.62154092991841 0 0 0 0 -175.89188034058316 225.19674159085844 0 225.19674159085844 -96.728668797033606 0 0 0 0 8.4557292936683552 37.204451387900917 0 37.204451387900917 9.5920269142370671 0 0 0 0 1.3221777832986845 77.088102098903619 0 77.088102098903619 9.3456669927530811 0 0 0 0 -10.271043698327908 18.718315612828036 0 18.718315612828036 -7.0144808233601452 0 0 0 0 77.081465271131492 67.484449943411164 0 67.484449943411164 -5.7559370317176217 0 0 0 0 8.1720319790695264 11.260735329764273 0 11.260735329764273 -20.48723426930917 0 0 0 0 52.718834133707787 48.068299860417028 0 48.068299860417028 18.368417895311723 0 0 0 0 36.343197624070854 42.928787604687386 0 42.928787604687386 1.2638569009432103 0 0 0 0 -2.0930174882842252 34.214934648771731 0 34.214934648771731 0.77953073737359091 0 0 0 0 113.36236240510425 11.509543474327074 0 11.509543474327074 -34.396840938796231 0 0 0 0 46.758853365149662 62.943586805089581 0 62.943586805089581 -14.088887920384877 0 0 0 0 -135.86982672540944 49.979756722270395 0 49.979756722270395 -9.3733965417122818 0 0 0 0 1.7271659831009709 3.7681912922062963 0 3.7681912922062963 10.018139032455508 0 0 0 0 -163.17618332018355 142.40753210642288 0 142.40753210642288 -32.440382386179408 0 0 0 0 87.023563430967897 -19.368556935238303 0 -19.368556935238303 -72.734542804566445 0 0 0 0 -30.295494637291597 -14.779091157768562 0 -14.779091157768562 38.702767057853634 0 0 0 0 -14.348334195642337 41.546996271681564 0 41.546996271681564 29.735013757759589 0 0 0 0 -37.100235897569405 23.490890056396893 0 23.490890056396893 16.818585602886742 0 0 0 0 6.2678971618214518 31.714546007016907 0 31.714546007016907 5.7373969918407965 0 0 0 0 -49.71323454242156 75.893103691683791 0 75.893103691683791 11.428679717064369 0 0 0 0 7.2862068421093227 21.849777476803865 0 21.849777476803865 -0.19732262793695554 0 0 0 0 1.1383069887178863 61.634001833823277 0 61.634001833823277 -41.070075749928947 0 0 0 0 2.5600849565217407 11.853799764774493 0 11.853799764774493 15.586820358166221 0 0 0 0 -13.163774577624281 19.566970497464354 0 19.566970497464354 5.2397454163874499 0 0 0 0 -3.6567179495805249 15.890977227332769 0 15.890977227332769 -2.2401277719764039 0 0 0 0 -4.4146727508003947 19.298754927687838 0 19.298754927687838 3.4688259223499216 0 0 0 0 5.8916870266793921 29.698999411892146 0 29.698999411892146 21.24389183340827 0 0 0 0 4.4365888387237646 25.615738589141984 0 25.615738589141984 21.140206911455607 0 0 0 0 11.809626781922816 29.77443369559478 0 29.77443369559478 17.045230558930143 0 0 0 0 4.7690071608782922 22.415082418219669 0 22.415082418219669 -16.915577925012414 0 0 0 0 7.1296814346769679 21.507442980007909 0 21.507442980007909 -1.677118907100521 0 0 0 0 181.48185768984695 -395.61311448906781 0 -395.61311448906781 307.11576593562495 0 0 0 0 -6.0444542801976713 21.553510601895283 0 21.553510601895283 1.4724507325286709 0 0 0 0 -1.7764885496843767 29.399789533880821 0 29.399789533880821 3.947625835936833 0 0 0 0 -2.4401427519603609 9.2893608633726217 0 9.2893608633726217 9.3536591537206561 0 0 0 0 -8.8765618047053465 29.880574068662099 0 29.880574068662099 7.5191274279786739 0 0 0 0 -10.670472201145571 26.010156289994484 0 26.010156289994484 3.9882824469532352 0 0 0 0 4.2436609221767867 34.073845298262313 0 34.073845298262313 23.455940383311827 0 0 0 0 -2.5410378205542656 28.680531310965307 0 28.680531310965307 46.183214521210175 0 0 0 0 4.9054455663153931 25.528824290289776 0 25.528824290289776 19.887916714185849 0 0 0 0 1.2938528084545418 0.5451591282179038 0 0.5451591282179038 -3.6318275453356819 0 0 0 0 -6.8661768059040895 8.9618498587769011 0 8.9618498587769011 3.1563703663788374 0 0 0 0 -5.2346165403665736 8.568765892952797 0 8.568765892952797 1.6492294972194941 0 0 0 0 -7.6922619909128116 18.354204688061145 0 18.354204688061145 35.050555502530187 0 0 0 0 84.355141029252536 -149.42889201270373 0 -149.42889201270373 347.14440315162938 0 0 0 0 4.5884662825656051 19.426527213698137 0 19.426527213698137 9.5589923492807429 0 0 0 0 1.2293852032398345 14.136897449784186 0 14.136897449784186 4.8638504348979552 0 0 0 0 -9.9532198462948145 7.1302313137566671 0 7.1302313137566671 24.202544086962007 0 0 0 0 -9.9532198462384258 7.1302313136984594 0 7.1302313136984594 24.202544086911075 0 0 0 0 4.6933742820692714 26.802202314866008 0 26.802202314866008 19.441215280341567 0 0 0 0 4.2456292045244481 26.38885175055475 0 26.38885175055475 19.122907452838263 0 0 0 0 -0.9506270582187426 21.061255203589099 0 21.061255203589099 20.278480493172538 0 0 0 0 4.8707412017047318 26.390361542231403 0 26.390361542231403 19.163393300172174 0 0 0 0 -3.9397782897828737 3.4638162750486998 0 3.4638162750486998 9.3746207940880595 0 0 0 0 -27.110994742905859 -289.77722728600929 0 -289.77722728600929 234.83656365398201 0 0 0 0 140.42562027217446 30.822244175433298 0 30.822244175433298 26.424608196510235 0 0 0 0 5.3001289551048103 23.874083928516484 0 23.874083928516484 -0.34339967052801512 0 0 0 0 17.648439113822043 14.82635497112642 0 14.82635497112642 0.83940142187543643 0 0 0 0 191.40954818225509 128.69799870630959 0 128.69799870630959 -135.63845198351919 0 0 0 0 11.248467026272635 23.714765239478929 0 23.714765239478929 3.4675622015871568 0 0 0 0 4.5610257249645656 26.558018711584737 0 26.558018711584737 19.955737829819554 0 0 0 0 1.7138103580027453 15.990795136798297 0 15.990795136798297 2.8353178875374567 0 0 0 0 5.7024025478981457 24.623252007644624 0 24.623252007644624 17.009113664191034 0 0 0 0 4.6709877630055416 26.188425383850699 0 26.188425383850699 20.674971004278632 0 0 0 0 -75.905377017958472 -31.167821852955967 0 -31.167821852955967 141.60324672506249 0 0 0 0 16.812732896094531 51.608711341570597 0 51.608711341570597 15.394130440807203 0 0 0 0 22.851700028146297 22.761892223417817 0 22.761892223417817 21.816157151275547 0 0 0 0 15.804177312682441 35.146508147983695 0 35.146508147983695 13.414410009361745 0 0 0 0 -10.052829132486707 17.402917560573258 0 17.402917560573258 -0.57439699177967896 0 0 0 0 -19.80248228618844 37.738972446847406 0 37.738972446847406 15.351575716418665 0 0 0 0 -3.9258572824764997 37.91864090913441 0 37.91864090913441 6.7434748997038696 0 0 0 0 -16.127311852589884 46.50780886639896 0 46.50780886639896 1.233517409918278 0 0 0 0 46.418186752190799 40.754846414814125 0 40.754846414814125 3.0436536298154238 0 0 0 0 3.5452299742196072 8.2482614827705021 0 8.2482614827705021 -2.0939769351957693 0 0 0 0 22.343762235992472 34.461198891920503 0 34.461198891920503 18.823560968739912 0 0 0 0 1.141848617058713 97.317525589285651 0 97.317525589285651 20.882657456706511 0 0 0 0 20.045185435584244 34.967414265109255 0 34.967414265109255 90.336588638630928 0 0 0 0 -78.408958802458073 237.72456189346121 0 237.72456189346121 -160.20829153555678 0 0 0 0 49.967719378184029 6.3300411625023116 0 6.3300411625023116 29.104409635037882 0 0 0 0 -3.451755607289261 19.497293552771325 0 19.497293552771325 -26.886992637919661 0 0 0 0 20.819383025653224 47.354331735696178 0 47.354331735696178 -17.271426061226521 0 0 0 0 2.0602496886949169 5.2588600814115125 0 5.2588600814115125 -7.4783558240534234 0 0 0 0 18.215945286865349 29.227699730016411 0 29.227699730016411 2.3104182466340717 0 0 0 0 -3.2026498272944082 46.625323435146129 0 46.625323435146129 8.3350090096500935 0 0 0 0 -22.037260132334268 37.819856702641118 0 37.819856702641118 9.4926073777642159 0 0 0 0 -0.28044280776884989 22.552126892442175 0 22.552126892442175 4.37728871346917 0 0 0 0 8.8170845832041103 22.433641868988985 0 22.433641868988985 11.477131420236503 0 0 0 0 -23.437415439611868 43.862326427341031 0 43.862326427341031 -0.95500122092198581 0 0 0 0 -12.821972106699832 56.432260896581283 0 56.432260896581283 13.529184097787947 0 0 0 0 -7.9350515520972991 21.436139466809806 0 21.436139466809806 -7.0770095620591746 0 0 0 0 -1.6123969435502659 47.03432398372388 0 47.03432398372388 9.9891680586470102 0 0 0 0 0.87879728828556836 36.60764355459105 0 36.60764355459105 18.960187522847264 0 0 0 0 31.327120889436628 45.966791528429894 0 45.966791528429894 -9.0938616827188525 0 0 0 0 25.731108108249828 35.267589983062862 0 35.267589983062862 9.4170628033461981 0 0 0 0 -10.54490183714811 11.191590024975753 0 11.191590024975753 0.71680033166006751 0 0 0 0 77.273706772633886 27.717016328460886 0 27.717016328460886 4.7634418440793524 0 0 0 0 -14.672090418993321 13.231513656362949 0 13.231513656362949 22.33365506958944 0 0 0 0 -101.91676231493329 89.737971507682232 0 89.737971507682232 16.666072430482018 0 0 0 0 -139.56786088688568 76.64623816477615 0 76.64623816477615 71.811342563421931 0 0 0 0 -42.423062500402011 51.076186857651919 0 51.076186857651919 37.680734668909281 0 0 0 0 -4.3781874179858278 33.683796174664167 0 33.683796174664167 24.205361738437205 0 0 0 0 -6.471506835125183 23.477956085524056 0 23.477956085524056 18.224360478176095 0 0 0 0 7.7034900192550921 19.491894510389358 0 19.491894510389358 22.583227797994596 0 0 0 0 -120.3629762434648 9.7806628438120242 0 9.7806628438120242 40.583972251308296 0 0 0 0 -5.6534371769251663 -0.14407235146612152 0 -0.14407235146612152 1.9161568187327589 0 0 0 0 -98.495477651216788 34.093630889270571 0 34.093630889270571 34.943848327617161 0 0 0 0 -106.99634447529388 39.904081541797495 0 39.904081541797495 65.764870122417051 0 0 0 0 -75.957255478418119 69.089180991104513 0 69.089180991104513 61.509612348803785 0 0 0 0 -92.535178182784875 62.815451016809675 0 62.815451016809675 77.36550751834875 0 0 0 0 -154.44759147698642 193.90315667563118 0 193.90315667563118 156.72306916950038 0 0 0 0 -355.08797443874937 -62.964406656450592 0 -62.964406656450592 -2.9798018021101598 0 0 0 0 -122.79944126493501 61.025765430153115 0 61.025765430153115 55.775183660909534 0 0 0 0 -146.58157151503838 103.15839469947969 0 103.15839469947969 19.363485125533771 0 0 0 0 -106.69128088351863 37.340459435901721 0 37.340459435901721 71.729508435120806 0 0 0 0 -253.52272196651029 13.615475520782638 0 13.615475520782638 68.910418303366896 0 0 0 0 -54.114022577450669 -129.92464416795701 0 -129.92464416795701 -49.822086438536644 0 0 0 0 -439.05254545425123 1.7474796071182936 0 1.7474796071182936 -21.912597674527206 0 0 0 0 -6.9534181614474591 -0.31485518437469295 0 -0.31485518437469295 4.8266970223749013 0 0 0 0 -71.469753339588351 12.072527991695097 0 12.072527991695097 17.155382484212168 0 0 0 0 -16.293273545677621 11.379200363695105 0 11.379200363695105 12.95743532806182 0 0 0 0 -23.581905275150348 10.777683683409123 0 10.777683683409123 43.716219468798954 0 0 0 0 33.031230505828717 49.891880244678759 0 49.891880244678759 6.6711790372428368 0 0 0 0 15.291182405556242 14.985410807070849 0 14.985410807070849 8.3467365484535776 0 0 0 0 -12.903558597441588 39.383963593900262 0 39.383963593900262 4.3205532629508525 0 0 0 0 -220.69819277337228 -118.61312356186681 0 -118.61312356186681 -62.602208059775876 0 0 0 0 71.081620283341181 97.996986983103852 0 97.996986983103852 -64.938094710276346 0 0 0 0 -5.4176330653026525 54.326515938784723 0 54.326515938784723 -88.169909190546605 0 0 0 0 -7.4857376791457995 4.9685430874297936 0 4.9685430874297936 20.251334644749193 0 0 0 0 3.6811795617435763 2.9232329592644106 0 2.9232329592644106 0.76119928685398008 0 0 0 0 -449.88494442196679 5.0590289818792371 0 5.0590289818792371 193.87811884796247 0 0 0 0 -479.7154273343258 -173.95418171766505 0 -173.95418171766505 43.93596296623582 0 0 0 0 7.0728759474382024 20.276100210117463 0 20.276100210117463 10.507362693197479 0 0 0 0 -38.301801616283228 44.138402462602244 0 44.138402462602244 9.1045002824685071 0 0 0 0 8.0132854866842536 53.557134909340675 0 53.557134909340675 68.999982575653121 0 0 0 0 20.459166343760444 -3.1722935343786958 0 -3.1722935343786958 10.747823003439407 0 0 0 0 0.51897042596101528 10.917242114912369 0 10.917242114912369 0.80919068679213524 0 0 0 0 16.708599804040205 27.306479583668988 0 27.306479583668988 -18.25454005075153 0 0 0 0 -0.62363044223820907 14.733273083773383 0 14.733273083773383 -11.89185432701197 0 0 0 0 -13.814297233730031 3.355952018944663 0 3.355952018944663 8.0859545142536717 0 0 0 0 -4.329797712601632 16.772985537684569 0 16.772985537684569 -9.854528374333654 0 0 0 0 38.098861986356496 33.408747260167729 0 33.408747260167729 15.168638698058203 0 0 0 0 -0.99656862867093565 12.595841870928453 0 12.595841870928453 -14.950539946619813 0 0 0 0 -10.746854418755813 10.246734237048628 0 10.246734237048628 -4.1446965872140709 0 0 0 0 61.475964094292976 64.304532360896701 0 64.304532360896701 20.820508751043235 0 0 0 0 26.201678744647324 33.953529324049669 0 33.953529324049669 -20.733208169724094 0 0 0 0 27.143317560145988 29.731984588423074 0 29.731984588423074 -12.87082252005348 0 0 0 0 1.3424947202276094 7.7292220643246878 0 7.7292220643246878 -13.992979840250655 0 0 0 0 -10.835509301396087 11.335067155247089 0 11.335067155247089 -8.524308281717822 0 0 0 0 9.4074496565149559 12.544326028249429 0 12.544326028249429 0.094840193574952991 0 0 0 0 -8.0950644370136615 27.848968139060162 0 27.848968139060162 -17.560552168914001 0 0 0 0 -10.133668958085764 12.982502314313024 0 12.982502314313024 -10.226301862901892 0 0 0 0 -53.328794046927214 53.300606821634574 0 53.300606821634574 -22.393971565114043 0 0 0 0 5.3659998937815629 16.341358681419479 0 16.341358681419479 -13.107779599859327 0 0 0 0 3.4375366664316971 6.8419948316004593 0 6.8419948316004593 2.8192294858163223 0 0 0 0 -11.527976433844316 13.958308463045341 0 13.958308463045341 -6.0344183182484699 0 0 0 0 -23.343595831550999 11.666862527430197 0 11.666862527430197 -1.1089242641752435 0 0 0 0 -33.248592094889318 19.605191150396422 0 19.605191150396422 -2.2889424245222472 0 0 0 0 -4.2060632353892231 6.0692469544409278 0 6.0692469544409278 -4.9730435084650821 0 0 0 0 -4.5449874131388128 4.8173434223621712 0 4.8173434223621712 2.2987491454667861 0 0 0 0 40.773024767451716 -6.1245944432739634 0 -6.1245944432739634 -15.294674587261397 0 0 0 0 -20.7855898060443 34.504131046327529 0 34.504131046327529 -22.793914817622863 0 0 0 0 51.206661352557603 13.985744797742882 0 13.985744797742882 -38.696112926845672 0 0 0 0 31.265577347324324 18.984473423019153 0 18.984473423019153 -29.941374353540596 0 0 0 0 30.757682152223424 14.664059870992787 0 14.664059870992787 -4.887993629417906 0 0 0 0 9.3898834466090193 14.673222475154034 0 14.673222475154034 2.0342241266043857 0 0 0 0 -130.6476550237403 36.367450363574719 0 36.367450363574719 2.1413214310305193 0 0 0 0 -171.53322018131075 178.23957711857656 0 178.23957711857656 -63.484912458232429 0 0 0 0 -73.108474581222254 27.128224371481338 0 27.128224371481338 25.660820433928166 0 0 0 0 -67.752430463628116 -33.439363264216809 0 -33.439363264216809 -15.313654203506303 0 0 0 0 -17.141446949255467 0.45078010108585431 0 0.45078010108585431 12.925365478949402 0 0 0 0 -264.27506052291938 -70.847550530699664 0 -70.847550530699664 28.301153716165572 0 0 0 0 -507.81516389811441 202.58326982430299 0 202.58326982430299 20.842220399612415 0 0 0 0 -49.556447161456163 36.206407668723841 0 36.206407668723841 7.6145780762890354 0 0 0 0 -2.4811520779660512 1.4614182885532614 0 1.4614182885532614 -3.4547848910622179 0 0 0 0 -97.603109607010992 59.289006705163047 0 59.289006705163047 -15.666843658935278 0 0 0 0 2.7524476863671339 -1.2411952530173593 0 -1.2411952530173593 -3.1139621755630174 0 0 0 0 12.638627135415845 8.4688935669164493 0 8.4688935669164493 -4.8013088078296278 0 0 0 0 19.666257737706474 -88.371357461452135 0 -88.371357461452135 2.7803795056624949 0 0 0 0 -71.396344323438825 27.0887797033065 0 27.0887797033065 0.035576032940298319 0 0 0 0 9.0845407991700995 -0.99944575894551235 0 -0.99944575894551235 0.34902918423176743 0 0 0 0 4.7996875459805324 2.733550175023538 0 2.733550175023538 -1.3698767222231254 0 0 0 0 4.5075583021381362 11.152388056464133 0 11.152388056464133 -4.9138760567875579 0 0 0 0 -44.740350333339848 76.133837006069371 0 76.133837006069371 -11.5064462715236 0 0 0 0 1.4846348906318099 0.53879141297734634 0 0.53879141297734634 -3.8608730370578996 0 0 0 0 -742.62823171115087 -69.947462504278519 0 -69.947462504278519 28.379383054209256 0 0 0 0 6.2980647672738996 22.24053728695435 0 22.24053728695435 -42.112798843270866 0 0 0 0 -4.5917159617511061 -8.5572733997541945 0 -8.5572733997541945 -2.1977057186013553 0 0 0 0 0.51792679853568302 -0.7245566704489903 0 -0.7245566704489903 -3.1036798503274667 0 0 0 0 -7.8706340382559574 7.5459264603050542 0 7.5459264603050542 0.8209908957069274 0 0 0 0 -6.7982821954319661 10.618233993751346 0 10.618233993751346 -4.1175137727695983 0 0 0 0 -6.1759993229061365 5.8219137762644095 0 5.8219137762644095 -15.12958263757173 0 0 0 0 -5.0455622538414602 1.5170135852797841 0 1.5170135852797841 2.9267682252718714 0 0 0 0 -7.1139709889939695 6.7729260211199289 0 6.7729260211199289 1.5551277713093441 0 0 0 0 -1.5329022471050848 1.7308235597447492 0 1.7308235597447492 3.8453113271825714 0 0 0 0 -6.9383354652745766 4.1716213460313156 0 4.1716213460313156 -6.8905356147297425 0 0 0 0 -2.2066317878525297 5.9522429076387198 0 5.9522429076387198 -0.012624940631212667 0 0 0 0 -0.46685418409470003 2.8588390862278175 0 2.8588390862278175 0.79565506652943441 0 0 0 0 0.46536921928782249 4.0468289664568147 0 4.0468289664568147 -1.382088406739058 0 0 0 0 -9.7678318672187743 5.3547037776224897 0 5.3547037776224897 1.7588982716333703 0 0 0 0 -43.314769929100294 0.87083983120828634 0 0.87083983120828634 3.6396624042172334 0 0 0 0 -9.3498619009005779 6.8317482270358596 0 6.8317482270358596 5.5595774748944677 0 0 0 0 -14.264117752773018 0.83339521051675547 0 0.83339521051675547 0.42350548270042054 0 0 0 0 -2.8557077052061501 -0.14940879576667498 0 -0.14940879576667498 3.1619278064392233 0 0 0 0 -13.039820374419378 9.109008179324519 0 9.109008179324519 9.5103627597272862 0 0 0 0 -9.3082723784696242 14.200721126329711 0 14.200721126329711 13.168724140967242 0 0 0 0 30.861432815476292 33.312161133158952 0 33.312161133158952 0.034752610881696455 0 0 0 0 -5.9122515102762918 66.936259247115231 0 66.936259247115231 -0.81459726096363738 0 0 0 0 -1.5717601485041044 -0.178041601615746 0 -0.178041601615746 3.7680361827530078 0 0 0 0 105.69071559644362 48.153836413344834 0 48.153836413344834 1.1220126046973746 0 0 0 0 -173.33017104424698 162.46122809412191 0 162.46122809412191 58.114596493294812 0 0 0 0 110.30160941937231 34.389163503024065 0 34.389163503024065 -0.00020721866167150438 0 0 0 0 -0.56906279480236499 -0.61561922141491721 0 -0.61561922141491721 2.8044823504857277 0 0 0 0 110.49234867347332 -23.208695415320108 0 -23.208695415320108 -63.775743619858986 0 0 0 0 59.686790199259121 54.284001130923571 0 54.284001130923571 -112.35151275667886 0 0 0 0 97.22272976068416 -85.484828994158306 0 -85.484828994158306 -7.8142533296777401 0 0 0 0 12.256964097125092 -10.615829725938966 0 -10.615829725938966 40.571599142276682 0 0 0 0 -8.3649130974536092 9.2627644368694746 0 9.2627644368694746 -24.966403414815431 0 0 0 0 10.529095347839757 26.282604718988296 0 26.282604718988296 -25.090008270432008 0 0 0 0 -106.16292565694494 97.681066025150358 0 97.681066025150358 -29.008120715538098 0 0 0 0 69.734937675311812 -35.030278745900432 0 -35.030278745900432 16.138170826245187 0 0 0 0 276.12059152559686 -32.969164241541876 0 -32.969164241541876 -47.197170913772425 0 0 0 0 1.0476175070085194 1.7243074393302606 0 1.7243074393302606 5.1342931564498144 0 0 0 0 33.40119149928114 68.251641006725549 0 68.251641006725549 -15.923230363594485 0 0 0 0 1.5137892866467535 6.7900122870291995 0 6.7900122870291995 5.8458919895402346 0 0 0 0 17.253088693972131 22.054228990276897 0 22.054228990276897 -31.719832587623387 0 0 0 0 -14.0445623167534 44.702883116831799 0 44.702883116831799 -3.7520731319018523 0 0 0 0 55.333125199029752 214.39284645488806 0 214.39284645488806 -339.83710019185673 0 0 0 0 -190.03064180688943 -12.558508283720585 0 -12.558508283720585 -138.73459147468202 0 0 0 0 -91.038664293693728 107.14856818171393 0 107.14856818171393 -151.31092278118012 0 0 0 0 -276.94930379135542 139.33521179026866 0 139.33521179026866 387.14904664945789 0 0 0 0 -39.150923227171717 -24.255124471386807 0 -24.255124471386807 -11.044983961095568 0 0 0 0 27.166928081586775 51.412682655325625 0 51.412682655325625 -60.71352106014092 0 0 0 0 -47.660844356143571 22.337742642994272 0 22.337742642994272 -82.830058645406098 0 0 0 0 -95.114098897369331 109.19529099938518 0 109.19529099938518 -41.646527115808567 0 0 0 0 59.36138407099952 93.522870629603858 0 93.522870629603858 -57.189295034448151 0 0 0 0 -61.366460943704624 39.250087148771854 0 39.250087148771854 28.627909694580012 0 0 0 0 -347.58372391730347 182.80964922809017 0 182.80964922809017 116.50926581193926 0 0 0 0 -0.36171596611669998 0.49584865631854314 0 0.49584865631854314 3.3010470257872271 0 0 0 0 70.121232365412823 -142.95773605832073 0 -142.95773605832073 69.262732881121337 0 0 0 0 -233.22307495948053 127.08505347912433 0 127.08505347912433 87.325032299287159 0 0 0 0 -53.982991592160772 124.96103947985102 0 124.96103947985102 25.871887374960352 0 0 0 0 -203.60630813461239 153.16066188848345 0 153.16066188848345 89.066838521204772 0 0 0 0 -357.31459621517183 37.702798705409805 0 37.702798705409805 41.477914713759674 0 0 0 0 -210.15517615499994 28.514665394308395 0 28.514665394308395 -4.5726616456813645 0 0 0 0 -221.83508532938288 147.43970475186961 0 147.43970475186961 87.743363262619823 0 0 0 0 -80.446002522173558 98.883899468375603 0 98.883899468375603 -37.92667892499594 0 0 0 0 -251.52290989938183 242.99419727962595 0 242.99419727962595 102.1389284793695 0 0 0 0 -190.24968775598532 226.7469446726609 0 226.7469446726609 81.603530642110854 0 0 0 0 -90.38135052344569 146.47794243694807 0 146.47794243694807 66.108395248418674 0 0 0 0 -64.673774043971207 132.94621606866713 0 132.94621606866713 78.329852993483655 0 0 0 0 -211.93533023982505 227.76895611600776 0 227.76895611600776 83.780814166442724 0 0 0 0 -192.47805322329896 241.85715747805079 0 241.85715747805079 76.412918833491858 0 0 0 0 -173.95259133872128 241.07222999620717 0 241.07222999620717 73.68450443376787 0 0 0 0 118.42121132424927 59.902469886241306 0 59.902469886241306 -12.014135328572593 0 0 0 0 97.309608626513636 37.03309558750334 0 37.03309558750334 78.115563503728481 0 0 0 0 -29.570828912089837 216.76595534495573 0 216.76595534495573 101.36869750864571 0 0 0 0 390.07527772096603 260.12612257001092 0 260.12612257001092 -146.270668928948 0 0 0 0 599.14195478715283 -138.05307036452723 0 -138.05307036452723 -45.743551466704957 0 0 0 0 24.055450079845286 264.44999079572881 0 264.44999079572881 0.34338968018710148 0 0 0 0 -77.016186980813472 190.36446382719441 0 190.36446382719441 43.60484211138828 0 0 0 0 -397.03633212603813 367.68526602369911 0 367.68526602369911 -54.520488007954555 0 0 0 0 -172.5346206532663 26.157001664600102 0 26.157001664600102 -205.49062603938364 0 0 0 0 -67.915088247042149 100.08005184198555 0 100.08005184198555 -127.24546399561223 0 0 0 0 -64.411785918072837 -69.884901474353683 0 -69.884901474353683 -79.292572484424454 0 0 0 0 -2.9109025808231679 2.140848046619908 0 2.140848046619908 -0.67113832382466398 0 0 0 0 -399.76310999007455 147.58686615019542 0 147.58686615019542 -0.18793830917275045 0 0 0 0 -324.88874838343759 -41.858864576677661 0 -41.858864576677661 40.199125665967586 0 0 0 0 -16.505215215118824 -4.7410939891560702 0 -4.7410939891560702 -36.796078741361271 0 0 0 0 1.3377716836148466 7.9398413846429321 0 7.9398413846429321 -16.815692953168764 0 0 0 0 4.7188484575508483 -10.09130792043652 0 -10.09130792043652 -0.079753530459129252 0 0 0 0 -8.3578527521226977 7.0550634197044531 0 7.0550634197044531 0.27670136735089557 0 0 0 0 -16.19161360665629 20.007021013221674 0 20.007021013221674 39.939490622957237 0 0 0 0 -9.8695444196280278 -5.5714564785885159 0 -5.5714564785885159 21.234796861564973 0 0 0 0 13.438352476817045 28.60929969989229 0 28.60929969989229 38.15997943104594 0 0 0 0 1.5740986991986574 32.631524425582029 0 32.631524425582029 32.529035025178018 0 0 0 0 -7.3619662212674939 11.65034226755597 0 11.65034226755597 27.750128208455862 0 0 0 0 53.461533960024099 64.650510095118079 0 64.650510095118079 51.2857155382153 0 0 0 0 -8.0494563559382186 21.432286878436571 0 21.432286878436571 76.501514198229415 0 0 0 0 -78.799753864590457 52.538776564004365 0 52.538776564004365 155.02458056946489 0 0 0 0 47.801080938128052 150.7678448970546 0 150.7678448970546 143.30140406968712 0 0 0 0 -117.57029888518264 -43.248817889863858 0 -43.248817889863858 299.61344372307212 0 0 0 0 23.255064505057703 -54.913179322946235 0 -54.913179322946235 103.02708048094064 0 0 0 0 -62.719241018330649 15.553633311850717 0 15.553633311850717 52.715335006738314 0 0 0 0 -90.855265773317569 -68.296548761962185 0 -68.296548761962185 124.54761202790542 0 0 0 0 -127.85767427505448 10.540322602260858 0 10.540322602260858 131.70927415392362 0 0 0 0 51.987708238733148 -5.444186281131806 0 -5.444186281131806 -19.731227431271691 0 0 0 0 28.016363116803227 4.1256884732365791 0 4.1256884732365791 -2.0954071588556644 0 0 0 0 10.038154605766977 -4.0945784296200145 0 -4.0945784296200145 0.42510406029759906 0 0 0 0 2.6708295328753593 1.7862770406645723 0 1.7862770406645723 15.463607418290849 0 0 0 0 5.5144056388866005 -1.1768259949528215 0 -1.1768259949528215 -1.4267178608728273 0 0 0 0 -11.51477033772821 19.788606221008791 0 19.788606221008791 0.73353734356646783 0 0 0 0 -40.250622352178198 4.6267594152632228 0 4.6267594152632228 21.240481597997132 0 0 0 0 -23.918312131029779 26.963994698948227 0 26.963994698948227 13.819722956599435 0 0 0 0 -8.6879296609913581 42.664325974372332 0 42.664325974372332 47.560752302444598 0 0 0 0 15.869221291366557 68.851047939366254 0 68.851047939366254 -59.164143115684055 0 0 0 0 -66.667232878729919 67.448392868107476 0 67.448392868107476 98.962237483574427 0 0 0 0 -6.6144144767550461 21.301146567011045 0 21.301146567011045 8.211655130416375 0 0 0 0 144.96402035303436 -50.148582096982864 0 -50.148582096982864 11.254598421648552 0 0 0 0 -11.921060826415669 24.925380757340463 0 24.925380757340463 75.507118962617824 0 0 0 0 -100.03081009693778 -43.030587405206461 0 -43.030587405206461 102.24968527376768 0 0 0 0 21.734235222404095 66.585684600519016 0 66.585684600519016 -4.9479184932388307 0 0 0 0 -3.4077132725351476 14.893173528849729 0 14.893173528849729 -14.506178623938467 0 0 0 0 2.755360024968013 70.784930408008222 0 70.784930408008222 51.754350611561676 0 0 0 0 8.2928343513405309 4.602622376825507 0 4.602622376825507 -0.34811734804560501 0 0 0 0 102.12276570021277 61.06847184849903 0 61.06847184849903 -25.182434535541688 0 0 0 0 -48.851801329712544 41.161340393220598 0 41.161340393220598 34.268745634442894 0 0 0 0 -9.7365977313575058 70.120224224752747 0 70.120224224752747 53.91605267750856 0 0 0 0 26.33728754848088 33.145946432645474 0 33.145946432645474 19.779190679353832 0 0 0 0 -0.23072393701989602 -1.2290886934896363 0 -1.2290886934896363 -0.26238866037607522 0 0 0 0 245.21922131390863 90.844438582345902 0 90.844438582345902 14.285960356210126 0 0 0 0 85.852422425381079 -34.173136406287085 0 -34.173136406287085 -111.39628227578942 0 0 0 0 -109.13467111107769 327.85845551384409 0 327.85845551384409 177.45254746776664 0 0 0 0 83.276022558703971 24.866265960270539 0 24.866265960270539 11.284704132878687 0 0 0 0 8.3539427141995475 60.06596609223925 0 60.06596609223925 74.776197134924587 0 0 0 0 10.948806216445519 58.509864002160612 0 58.509864002160612 18.213174982505734 0 0 0 0 73.859179602324275 77.475807793016429 0 77.475807793016429 30.916618740549893 0 0 0 0 49.179086392013915 24.237478907773038 0 24.237478907773038 3.8344795447774231 0 0 0 0 27.094147757453811 60.43339837466192 0 60.43339837466192 24.802793383227254 0 0 0 0 8.1681745364492144 40.681686189163884 0 40.681686189163884 13.476637693063822 0 0 0 0 42.026178756720014 27.795780805783579 0 27.795780805783579 6.6295857926743338 0 0 0 0 0.51527663217890829 -0.26235993263383151 0 -0.26235993263383151 -2.2843700356834233 0 0 0 0 -103.63178956315798 81.453467670253303 0 81.453467670253303 65.101733916562807 0 0 0 0 46.737522848831873 28.397802068982855 0 28.397802068982855 0.26727120336727239 0 0 0 0 43.441241943974092 24.59519109633402 0 24.59519109633402 12.603971529111732 0 0 0 0 -105.38723798338208 119.34726751234848 0 119.34726751234848 -165.55934652866563 0 0 0 0 1.3933111662600812 1.4777727929170226 0 1.4777727929170226 -1.9873697377492761 0 0 0 0 0.021357599369583702 4.9551754970180024 0 4.9551754970180024 5.0131067765409512 0 0 0 0 -0.775925030804542 8.6071098736395015 0 8.6071098736395015 -4.4548175671347963 0 0 0 0 -46.959705513907522 4.874425963498652 0 4.874425963498652 15.525092440424487 0 0 0 0 -0.24970738880835697 11.116094615838847 0 11.116094615838847 5.9728136009653099 0 0 0 0 0.11779571021108221 7.5143223822592411 0 7.5143223822592411 7.5218656145843283 0 0 0 0 -6.3191368198333748 9.9311850055746618 0 9.9311850055746618 5.8883217679504014 0 0 0 0 -1.6545195020262611 9.0071974845310194 0 9.0071974845310194 10.777897652937867 0 0 0 0 -15.468178442944861 25.898834556395741 0 25.898834556395741 11.871452317005605 0 0 0 0 -14.22431073981096 28.513470123107254 0 28.513470123107254 13.515749430458527 0 0 0 0 14.107926222812239 21.12791514073615 0 21.12791514073615 -0.44642870901952847 0 0 0 0 5.2111221554832809 48.696180674742209 0 48.696180674742209 11.929204738255066 0 0 0 0 10.244135479069882 23.605996418540599 0 23.605996418540599 6.5977429017002578 0 0 0 0 7.4704171504312731 22.827155998687658 0 22.827155998687658 12.810214437056572 0 0 0 0 5.1123500958406005 18.672458521645638 0 18.672458521645638 14.897226255686292 0 0 0 0 0.37739865616731549 39.756847923908936 0 39.756847923908936 -2.3899160711152945 0 0 0 0 1.9198322928755402 9.599303294217961 0 9.599303294217961 -11.373574285918721 0 0 0 0 4.6948202370640502 48.871269561249846 0 48.871269561249846 55.046409232265432 0 0 0 0 63.89290955456454 62.906562916130497 0 62.906562916130497 8.1075719608197687 0 0 0 0 44.265979675234121 17.693984334044217 0 17.693984334044217 16.836733625728812 0 0 0 0 -6.680026684036946 21.149674471024497 0 21.149674471024497 0.15073118768580684 0 0 0 0 -7.2190922594969056 31.486685705124952 0 31.486685705124952 5.5610888910887866 0 0 0 0 -14.417728565673315 48.543084530021588 0 48.543084530021588 -8.719227661320474 0 0 0 0 -28.411264757756044 34.515053288825584 0 34.515053288825584 29.102596038865158 0 0 0 0 31.601185039293341 41.548821291082277 0 41.548821291082277 -52.454612858593464 0 0 0 0 5.6203610297376088 6.3572526644273637 0 6.3572526644273637 -0.28289558091628919 0 0 0 0 43.586245392998535 41.465452041204117 0 41.465452041204117 -117.09583827131428 0 0 0 0 -28.134241090956493 122.99343320298067 0 122.99343320298067 -67.343713017835398 0 0 0 0 -99.423484168202776 27.872836453199852 0 27.872836453199852 14.356650086207082 0 0 0 0 12.402650300275127 89.451434288130258 0 89.451434288130258 -11.634941621799953 0 0 0 0 8.6050060122724972 76.260988336653099 0 76.260988336653099 -16.775939125422155 0 0 0 0 47.85458122622731 64.643449528579367 0 64.643449528579367 5.7092777851212304 0 0 0 0 24.080497655348154 32.650410276852199 0 32.650410276852199 36.271064508506242 0 0 0 0 -20.319621475400709 51.258369756185857 0 51.258369756185857 32.081421798444353 0 0 0 0 72.014993292490544 -8.4207253546483116 0 -8.4207253546483116 21.781707307382021 0 0 0 0 55.047360875978484 57.801477734639775 0 57.801477734639775 -58.924712110281689 0 0 0 0 10.168024839822053 27.079870181505413 0 27.079870181505413 -12.499002395595483 0 0 0 0 21.755328915503924 117.97859005366627 0 117.97859005366627 57.49557312700199 0 0 0 0 -89.899540969679947 232.29796831087879 0 232.29796831087879 280.97562200881657 0 0 0 0 -39.372789706144999 70.747564611971029 0 70.747564611971029 -20.918469330877997 0 0 0 0 -41.261760438473502 32.603891623507195 0 32.603891623507195 -4.9546620813008104 0 0 0 0 -255.73509973314503 464.30710781731614 0 464.30710781731614 15.03169490264554 0 0 0 0 -3.4011144461829197 8.3411618886969165 0 8.3411618886969165 -6.4520871816598344 0 0 0 0 -13.642668838635567 16.17117735249488 0 16.17117735249488 0.18028677389521164 0 0 0 0 -9.869087095692521 10.655469677731162 0 10.655469677731162 30.698992546924273 0 0 0 0 -506.46375922168409 -103.15108388362933 0 -103.15108388362933 436.02144180037976 0 0 0 0 -16.525013166313911 2.8064192412806221 0 2.8064192412806221 5.4808042445747205 0 0 0 0 -9.9532198462575252 7.1302313137275632 0 7.1302313137275632 24.202544086962007 0 0 0 0 -17.247610143361157 18.483036324556451 0 18.483036324556451 10.913551492078113 0 0 0 0 -20.59153223825524 13.523724126724119 0 13.523724126724119 19.703038545980235 0 0 0 0 -13.301549448791093 13.070826441049576 0 13.070826441049576 17.122515049908543 0 0 0 0 -2.4311330804793041 7.4092924151168997 0 7.4092924151168997 6.7897873342002981 0 0 0 0 -20.245795370678934 29.98393204563763 0 29.98393204563763 14.413654342431983 0 0 0 0 -18.122597818449321 25.317313392195501 0 25.317313392195501 24.651882110236329 0 0 0 0 -28.457910109549175 20.241072920820443 0 20.241072920820443 47.726906480980688 0 0 0 0 -26.39972264453445 14.305585517155123 0 14.305585517155123 25.34623815586383 0 0 0 0 213.67092488828712 446.82058245973894 0 446.82058245973894 309.64460294395394 0 0 0 0 121.02455538871845 -207.0623370336989 0 -207.0623370336989 -142.31150958928629 0 0 0 0 -59.283406253656722 302.36955885771749 0 302.36955885771749 785.33405086160928 0 0 0 0 372.629905779826 -19.376084186020307 0 -19.376084186020307 -653.67170327746135 0 0 0 0 3.9943450141464609 1.9669994599741472 0 1.9669994599741472 0.030190944525541941 0 0 0 0 52.289587852061231 90.663555278617423 0 90.663555278617423 442.20882007116597 0 0 0 0 115.79560494074758 295.47046677299659 0 295.47046677299659 249.60721473400918 0 0 0 0 124.94612310135926 171.52502129110508 0 171.52502129110508 65.256962901185034 0 0 0 0 -124.67884996903376 168.40599047341675 0 168.40599047341675 108.30343205845566 0 0 0 0 94.70263084695921 121.34806055431909 0 121.34806055431909 79.354191025719047 0 0 0 0 -129.15636444421398 209.95885218365584 0 209.95885218365584 55.465761854022276 0 0 0 0 728.9441613316867 140.70001807644439 0 140.70001807644439 -84.20882341194374 0 0 0 0 0.16201131255843748 2.0798316441797375 0 2.0798316441797375 2.7780323431441616 0 0 0 0 -680.29196154061538 45.726146550783596 0 45.726146550783596 287.43902694582357 0 0 0 0 271.93156700089185 516.78884739458954 0 516.78884739458954 106.72234695349471 0 0 0 0 346.68429252986607 79.190721982031391 0 79.190721982031391 -84.088139159328421 0 0 0 0 -1.1530684034216137 3.2789327663944619 0 3.2789327663944619 -4.5904534940698341 0 0 0 0 74.751095271170925 49.401497609680519 0 49.401497609680519 159.72777031557052 0 0 0 0 163.79378510691458 47.601476674477453 0 47.601476674477453 -3.7629104565567104 0 0 0 0 133.87313847536461 84.236292415462231 0 84.236292415462231 64.038265720329946 0 0 0 0 109.4870811445071 245.91537398409127 0 245.91537398409127 27.7814049859644 0 0 0 0 184.31813161388345 -154.83558920498763 0 -154.83558920498763 -111.85392028778733 0 0 0 0 334.59182153831352 38.047354504393297 0 38.047354504393297 -26.678709459287347 0 0 0 0 253.47547486959957 137.17735847378208 0 137.17735847378208 -30.412738609954431 0 0 0 0 -299.43684543704148 338.43196893310233 0 338.43196893310233 107.07568724856355 0 0 0 0 352.70407480012 -36.658850772597361 0 -36.658850772597361 48.82401439914247 0 0 0 0 261.47227490483056 62.234532741000294 0 62.234532741000294 57.414393235685566 0 0 0 0 0.35362891331838231 5.3420412911622925 0 5.3420412911622925 5.4935176789049365 0 0 0 0 221.23883845669116 111.20645341481577 0 111.20645341481577 -1.8844198517035693 0 0 0 0 236.88992147060344 111.92927112893813 0 111.92927112893813 -19.606465301571006 0 0 0 0 206.31801998965602 115.72353787350585 0 115.72353787350585 -8.8503262927988544 0 0 0 0 -2.6297977203944711 5.2936308431942649 0 5.2936308431942649 -9.662101801199583 0 0 0 0 227.80851065839761 46.236123215192492 0 46.236123215192492 -65.853550636486034 0 0 0 0 212.42659150616964 52.132232037612994 0 52.132232037612994 -18.244369390018619 0 0 0 0 0.67686655619811642 5.6056261755003973 0 5.6056261755003973 4.3711167266953339 0 0 0 0 -49.057660115286126 205.57963215860218 0 205.57963215860218 -40.040098960555042 0 0 0 0 326.50983786365396 271.44114798746159 0 271.44114798746159 -2.1730260186886881 0 0 0 0 123.99727870810239 169.61811810013023 0 169.61811810013023 -51.250323796877638 0 0 0 0 19.956450714363655 184.14301125067504 0 184.14301125067504 65.93615157797467 0 0 0 0 -13.095877717425537 82.869151739214431 0 82.869151739214431 9.5304274286318105 0 0 0 0 156.20424163504867 293.34466103353952 0 293.34466103353952 64.719748208750389 0 0 0 0 253.94453716933094 272.65777649560914 0 272.65777649560914 2.4858559337299084 0 0 0 0 0.35276232085409198 1.2613671447353507 0 1.2613671447353507 5.1802431104000561 0 0 0 0 -370.79759486893818 185.48262249091204 0 185.48262249091204 244.07966662944818 0 0 0 0 0.31206208421134818 1.945881309770737 0 1.945881309770737 16.004752574117674 0 0 0 0 115.93821492119241 149.90497439849423 0 149.90497439849423 -91.59791824882268 0 0 0 0 119.8274611551933 185.11055977945216 0 185.11055977945216 79.970969823363703 0 0 0 0 -185.21380435764149 43.169274231499003 0 43.169274231499003 54.06948772809119 0 0 0 0 121.41515402623421 110.40819345971909 0 110.40819345971909 107.30257499890286 0 0 0 0 156.45641827148575 285.937960230116 0 285.937960230116 128.45764840580523 0 0 0 0 -390.74493877424902 504.92165086636669 0 504.92165086636669 369.93884743416857 0 0 0 0 1098.2146640662504 534.08929124768474 0 534.08929124768474 34.645332778571174 0 0 0 0 -448.61865615825263 -60.79648921226908 0 -60.79648921226908 170.82459372123412 0 0 0 0 -180.77910442696702 278.80581031895417 0 278.80581031895417 229.69835973119189 0 0 0 0 -196.41783020116782 147.92275564918964 0 147.92275564918964 205.57606910032337 0 0 0 0 0.19913511781048499 4.3263575398351009 0 4.3263575398351009 1.5298310438439557 0 0 0 0 418.45935792138334 -120.3265009421084 0 -120.3265009421084 25.477832804474019 0 0 0 0 406.22736589214583 128.04469356365735 0 128.04469356365735 -153.01350677381561 0 0 0 0 605.49060451046898 103.42142336766119 0 103.42142336766119 -59.195571962511167 0 0 0 0 0.57621751219716044 2.557884592437901 0 2.557884592437901 1.6386799017541307 0 0 0 0 -490.33286088694206 290.73904364319037 0 290.73904364319037 291.25879233292653 0 0 0 0 23.181657866180103 102.95276345431921 0 102.95276345431921 3.035071815334959 0 0 0 0 527.0883520461939 218.92987900892331 0 218.92987900892331 20.046852693081746 0 0 0 0 10.452150902318806 0.7896930420977526 0 0.7896930420977526 0.020672531411776163 0 0 0 0 449.66761514596692 -197.80438445785694 0 -197.80438445785694 -151.0613323100406 0 0 0 0 1434.2177567273611 217.18787406447518 0 217.18787406447518 -165.43932643644075 0 0 0 0 515.29739200709446 797.88528344708902 0 797.88528344708902 125.20841940239188 0 0 0 0 171.20072802063078 136.92340835920186 0 136.92340835920186 465.7420664284582 0 0 0 0 1330.0063394151346 -200.26411379922774 0 -200.26411379922774 -193.19100752173108 0 0 0 0 1432.8175184815937 517.21867294660387 0 517.21867294660387 63.225131582526956 0 0 0 0 693.94107180336141 574.35231778524758 0 574.35231778524758 543.70144390924543 0 0 0 0 852.83071070105143 270.52156484866282 0 270.52156484866282 -0.16061851863098953 0 0 0 0 -3.7310527160011588 252.92522365359036 0 252.92522365359036 427.22087799242581 0 0 0 0 -11.531921536973826 1.7790558052429049 0 1.7790558052429049 5.8009544923468406 0 0 0 0 -180.7062031450223 -122.49641493253876 0 -122.49641493253876 -73.87209997876198 0 0 0 0 -472.47671838589122 -335.39905998941686 0 -335.39905998941686 -224.04607326752739 0 0 0 0 -1186.7782222409805 -25.667889603500953 0 -25.667889603500953 194.89639596648612 0 0 0 0 128.42758759620483 322.05025820242008 0 322.05025820242008 136.3146086542838 0 0 0 0 152.32381630885357 296.91722498633317 0 296.91722498633317 -714.457543702767 0 0 0 0 -754.98829194618884 806.98275928712974 0 806.98275928712974 -62.409266420872882 0 0 0 0 155.64660923575502 192.75580203373102 0 192.75580203373102 -0.097911120583445088 0 0 0 0 -958.29248786976723 -305.02044015897354 0 -305.02044015897354 24.136745045427233 0 0 0 0 -612.20415321670953 197.8700391060629 0 197.8700391060629 0.32736840509460308 0 0 0 0 -411.58435681310948 340.51999680101289 0 340.51999680101289 -389.04973052137939 0 0 0 0 -1090.0788047960118 377.3530725596338 0 377.3530725596338 -16.366103811742505 0 0 0 0 102.51365169471683 68.910193702569813 0 68.910193702569813 -260.53794919069355 0 0 0 0 -42.770663397430326 252.77605721948203 0 252.77605721948203 -257.4107262667676 0 0 0 0 -203.64189998980146 122.98250755614572 0 122.98250755614572 183.24031281506177 0 0 0 0 -9.2196290191059234 6.8443284520762973 0 6.8443284520762973 0.002659539429394927 0 0 0 0 -5.4793588929222885 -2.3017532458541226 0 -2.3017532458541226 0.9051130525026565 0 0 0 0 -2.3578076225748212 -2.8770063734177 0 -2.8770063734177 -1.6064540529292799 0 0 0 0 -8.8156177919008769 28.609174144839926 0 28.609174144839926 -8.264667894836748 0 0 0 0 12.683205637684296 10.314769434146001 0 10.314769434146001 -9.511914127971977 0 0 0 0 -20.143782501510941 28.608429159157822 0 28.608429159157822 -8.2625757301284466 0 0 0 0 -24.283899191570526 19.863719336033682 0 19.863719336033682 -8.9470893905963749 0 0 0 0 -9.75098451915947 0.36504105610588411 0 0.36504105610588411 8.2610385176047316 0 0 0 0 154.53717342805612 -2.8289561952115037 0 -2.8289561952115037 -249.9482336442743 0 0 0 0 -8.2982934294836781 8.8806571977470838 0 8.8806571977470838 -5.7651335330328379 0 0 0 0 -15.974425867838363 4.8280683443044836 0 4.8280683443044836 6.9174403281649575 0 0 0 0 -4.5695218450246244 1.5536265286818889 0 1.5536265286818889 5.7360386335468547 0 0 0 0 -82.224087212161976 22.261526330919878 0 22.261526330919878 29.400375684985192 0 0 0 0 -16.687879102864827 67.425052802813298 0 67.425052802813298 29.165944526292151 0 0 0 0 -57.125531653906364 14.327230080176378 0 14.327230080176378 27.813581004989203 0 0 0 0 -4.8579364951396204 4.0680604549633337 0 4.0680604549633337 24.757980771236021 0 0 0 0 -14.334345739712489 9.8488364523267364 0 9.8488364523267364 15.406754126311043 0 0 0 0 -24.834190882013417 20.478388596308491 0 20.478388596308491 -0.59475716640434895 0 0 0 0 -61.904527659840824 10.385281631257385 0 10.385281631257385 34.782085737533635 0 0 0 0 -37.044381242951204 20.760090778858284 0 20.760090778858284 9.8063128365160992 0 0 0 0 -5.7408881832379848 23.28213981364388 0 23.28213981364388 9.7329602332797549 0 0 0 0 -33.776988645433448 26.138233029341791 0 26.138233029341791 -9.194947023934219 0 0 0 0 -18.259049500418769 24.065324606228387 0 24.065324606228387 -16.454707521071782 0 0 0 0 -23.6946943817602 26.101720418781042 0 26.101720418781042 -0.0047226458336808719 0 0 0 0 -23.995423506690713 20.507314286762266 0 20.507314286762266 -5.9566169557801913 0 0 0 0 -23.954185229580617 21.535538293246645 0 21.535538293246645 -3.4016536200942937 0 0 0 0 -17.920924236295832 19.149864663486369 0 19.149864663486369 -8.5428153474495048 0 0 0 0 -21.133504393343173 17.947883188913693 0 17.947883188913693 -0.0086474394920514897 0 0 0 0 -15.015976212569512 15.408143442466098 0 15.408143442466098 -4.7065018399152905 0 0 0 0 -16.811412543524057 13.020680924026237 0 13.020680924026237 -8.9932382428887649 0 0 0 0 -13.789013183621805 12.857704505395304 0 12.857704505395304 -2.0128875314065171 0 0 0 0 -16.333923146237794 16.740598590680747 0 16.740598590680747 -3.4163271517992371 0 0 0 0 -25.910724225148442 53.707429800837417 0 53.707429800837417 10.483523946408241 0 0 0 0 -6.4241214346415063 55.58958539833975 0 55.58958539833975 10.049476889937068 0 0 0 0 -9.5764944740658393 10.014167631743476 0 10.014167631743476 3.2513775133561467 0 0 0 0 -14.371790126192408 13.739092802824842 0 13.739092802824842 -8.7177070869532542 0 0 0 0 -12.532848242757026 21.772251244226538 0 21.772251244226538 -11.944950634382835 0 0 0 0 5.729978448480324 20.696155796333187 0 20.696155796333187 -27.419534708285937 0 0 0 0 16.734399791661417 34.637670820986386 0 34.637670820986386 -15.110084109881427 0 0 0 0 -63.333528907420259 71.466168940678472 0 71.466168940678472 -18.456791952296044 0 0 0 0 -10.516049428544648 48.09093729104643 0 48.09093729104643 -16.994885533960769 0 0 0 0 2.6722173640264373 28.262557881360408 0 28.262557881360408 -14.469398151093628 0 0 0 0 -15.327749518290176 16.547268050686938 0 16.547268050686938 -13.296923524183711 0 0 0 0 -4.1621347046272632 7.0040352662114742 0 7.0040352662114742 -1.3707981374741678 0 0 0 0 -32.567100376330927 48.201542876726307 0 48.201542876726307 52.336822004494024 0 0 0 0 -1.926632352238812 40.79370976627979 0 40.79370976627979 -11.946180684884894 0 0 0 0 12.420297238033527 72.336171984250541 0 72.336171984250541 53.419154423929285 0 0 0 0 -28.507539551166701 80.11713946917007 0 80.11713946917007 123.49437654626672 0 0 0 0 101.04051967725673 94.444598846735516 0 94.444598846735516 -33.21995949963457 0 0 0 0 -0.99312941110427744 1.1924895187006683 0 1.1924895187006683 2.0338136099819053 0 0 0 0 91.885065228885651 -6.6453248481484479 0 -6.6453248481484479 -19.263277023223054 0 0 0 0 -312.25783188477544 -12.460261425039789 0 -12.460261425039789 86.01881753638736 0 0 0 0 1.3094175473441432 -1.8072511604032968 0 -1.8072511604032968 0.31496622692003484 0 0 0 0 196.20050153654665 208.89117208211974 0 208.89117208211974 83.544248053891351 0 0 0 0 -165.19621657910466 169.41138200295973 0 169.41138200295973 128.16431797420228 0 0 0 0 -345.12654451305207 291.44042911296128 0 291.44042911296128 199.75534179976967 0 0 0 0 -58.199594876179617 -47.512171712543932 0 -47.512171712543932 154.1155257953651 0 0 0 0 -318.3824558492488 -172.98014656683517 0 -172.98014656683517 101.01303742032906 0 0 0 0 -16.896770455785372 -45.164653598701989 0 -45.164653598701989 30.59722715416865 0 0 0 0 -61.474882638260169 45.283648839344096 0 45.283648839344096 -14.765039067046018 0 0 0 0 -68.614432287577074 5.3262243559729541 0 5.3262243559729541 -39.973385569595848 0 0 0 0 603.95275365294219 -55.497682588447788 0 -55.497682588447788 -71.57133757401607 0 0 0 0 2.8290114915864137 2.4123855689927041 0 2.4123855689927041 4.3599655915349445 0 0 0 0 -236.15953776856259 127.87114493388071 0 127.87114493388071 37.220971063063189 0 0 0 0 -92.552771816095628 123.87700141815185 0 123.87700141815185 -0.13063920634158421 0 0 0 0 154.28065038990462 51.903908469059388 0 51.903908469059388 0.024504991379217245 0 0 0 0 -119.11400488654726 59.848947928658163 0 59.848947928658163 83.643750419374555 0 0 0 0 154.32763995494133 0.54021302730780008 0 0.54021302730780008 -9.2823447449482046 0 0 0 0 166.64106702015852 94.98497656742984 0 94.98497656742984 -5.2528959844639758 0 0 0 0 -82.346651893123635 146.24003426871786 0 146.24003426871786 -188.80582466126361 0 0 0 0 211.62160628595302 76.807392162270844 0 76.807392162270844 -56.344875574606704 0 0 0 0 -6.5270671803737059 228.58467309661501 0 228.58467309661501 -113.40318521851259 0 0 0 0 7.0962147362110954 10.039708073023391 0 10.039708073023391 8.1417069196631928 0 0 0 0 -45.48562054130889 113.66464869439369 0 113.66464869439369 64.489036971761379 0 0 0 0 -13.178261492030288 73.642734398657922 0 73.642734398657922 -134.19627092403243 0 0 0 0 -164.53204402442498 47.650439654673391 0 47.650439654673391 -33.067926099902252 0 0 0 0 34.160704809335584 30.230738020458375 0 30.230738020458375 -123.32461109038559 0 0 0 0 17.216321156480262 5.2291797186044278 0 5.2291797186044278 -5.5808249637193512 0 0 0 0 38.365250477538211 6.7717834092181874 0 6.7717834092181874 -212.92422548233299 0 0 0 0 -3.8973246996771422 8.2101444151263649 0 8.2101444151263649 -5.2039162142650071 0 0 0 0 -3.1591135700566326 4.5095303442428012 0 4.5095303442428012 -11.206102657805559 0 0 0 0 -8.9840499893180095 8.7867142126779072 0 8.7867142126779072 -2.6609421137254685 0 0 0 0 -6.6468882822487387 13.79301978905869 0 13.79301978905869 -4.7292248784710278 0 0 0 0 -43.761332365022099 -25.561955572746228 0 -25.561955572746228 118.76688488488435 0 0 0 0 32.728226275648922 -52.634113812178839 0 -52.634113812178839 53.984989500837401 0 0 0 0 0.56961072286139824 4.5868407926381849 0 4.5868407926381849 -2.6972033416920951 0 0 0 0 34.129809972888324 66.467318811439327 0 66.467318811439327 46.675443486339645 0 0 0 0 -20.838146594069258 13.666659811991849 0 13.666659811991849 -0.00065783031459432095 0 0 0 0 -3.4474580554074805 2.6823441130755299 0 2.6823441130755299 0.84632433008459884 0 0 0 0 -5.5723491768494142 -0.32018336518996193 0 -0.32018336518996193 0.9730152503473164 0 0 0 0 8.2765002695450676 0.81572288770257728 0 0.81572288770257728 -8.8151408766969439 0 0 0 0 -16.314077064746016 12.370776584923078 0 12.370776584923078 -0.614053515237174 0 0 0 0 -15.772810380326177 13.026692296954621 0 13.026692296954621 -1.1771957223967298 0 0 0 0 -8.7039580774074778 6.3958080422027166 0 6.3958080422027166 -2.3859122406745428 0 0 0 0 -18.608802527842727 22.342023924511977 0 22.342023924511977 -19.023882130204584 0 0 0 0 -18.695773158658994 15.707642313151155 0 15.707642313151155 -17.492638057476142 0 0 0 0 -20.243916549559799 19.391990859796351 0 19.391990859796351 -16.477498356660362 0 0 0 0 1.3366837005664038 10.081299335963845 0 10.081299335963845 -18.200273551499322 0 0 0 0 -7.7050933188027102 10.565871864250312 0 10.565871864250312 -31.126946071774 0 0 0 0 -12.014036410975635 16.150932998895087 0 16.150932998895087 -16.405481149001304 0 0 0 0 -8.3896305920477374 4.3838984945805137 0 4.3838984945805137 -1.0146112970422791 0 0 0 0 32.554373547118303 38.143475537050108 0 38.143475537050108 -12.270024642028147 0 0 0 0 -61.193950928737195 42.62649231047908 0 42.62649231047908 5.5842121196910739 0 0 0 0 -61.16707217135172 43.088802964458409 0 43.088802964458409 -21.585706523386762 0 0 0 0 -27.920954163166456 35.90066699460462 0 35.90066699460462 -15.938021093343707 0 0 0 0 -54.009717177930725 43.58741278553498 0 43.58741278553498 -10.35515872691758 0 0 0 0 36.328458601892635 18.390932164962578 0 18.390932164962578 -86.789585936960066 0 0 0 0 -22.357764157299243 55.809529370097152 0 55.809529370097152 7.2648060898354743 0 0 0 0 -30.006525523203891 83.545915191938548 0 83.545915191938548 -67.703556414402556 0 0 0 0 7.18576889995893 43.590393687671167 0 43.590393687671167 -49.794265957811149 0 0 0 0 -31.005208226866671 140.69616230514657 0 140.69616230514657 -253.05086008665967 0 0 0 0 2.8509010602085567 2.1754236674515255 0 2.1754236674515255 0.29680874475155861 0 0 0 0 -202.28148615470855 130.63400154415285 0 130.63400154415285 -27.514618605084252 0 0 0 0 -7.5729068491320675 18.39040253859946 0 18.39040253859946 10.488693413573174 0 0 0 0 348.80840862084733 116.01090276657487 0 116.01090276657487 -85.742198806226952 0 0 0 0 3.23071377674205 26.30318790770616 0 26.30318790770616 -9.516317490968504 0 0 0 0 -1.3804661235459434 25.527987177139948 0 25.527987177139948 -26.011205420931134 0 0 0 0 -6.4879352386992508 18.751639982028678 0 18.751639982028678 -11.657257174996516 0 0 0 0 310.37160652979219 147.03788206882018 0 147.03788206882018 -98.605288275284693 0 0 0 0 196.327418353947 84.47899222720298 0 84.47899222720298 -21.007046846090816 0 0 0 0 247.34395280206081 81.869674604939064 0 81.869674604939064 -18.633152376074577 0 0 0 0 80.557221946233767 274.96507164316426 0 274.96507164316426 -92.728686808026396 0 0 0 0 -1.9672183817853863 16.734563549157741 0 16.734563549157741 -46.133006869015844 0 0 0 0 23.079778338986216 196.17317200759135 0 196.17317200759135 59.128260101701017 0 0 0 0 165.45278286808752 62.720773741311859 0 62.720773741311859 -42.962751223240048 0 0 0 0 281.67716896287311 93.317880941569456 0 93.317880941569456 -46.455850649770582 0 0 0 0 365.62937766933464 230.34879686904605 0 230.34879686904605 154.43570628319867 0 0 0 0 11.757909640577111 4.1864712826874211 0 4.1864712826874211 -14.369012108964228 0 0 0 0 -16.141823161204229 133.57497635658365 0 133.57497635658365 267.89598341172677 0 0 0 0 168.44897929290164 135.42799783385271 0 135.42799783385271 261.33246451886953 0 0 0 0 252.33562909357715 593.02545859316888 0 593.02545859316888 -54.215477861522231 0 0 0 0 551.21091231974424 476.61189843831744 0 476.61189843831744 -121.12157058549928 0 0 0 0 -378.92182348530332 413.23213349723665 0 413.23213349723665 224.85920000651095 0 0 0 0 -316.2164216216479 -51.047094799039769 0 -51.047094799039769 271.59572375757853 0 0 0 0 -379.2711588234597 29.808572081368766 0 29.808572081368766 178.65553171276406 0 0 0 0 -472.70538312272765 -352.94610918025319 0 -352.94610918025319 105.44508560368558 0 0 0 0 -69.1388428174414 -173.4327750239172 0 -173.4327750239172 308.99544015267747 0 0 0 0 8.9442743248711594 25.200454259536031 0 25.200454259536031 27.154525318136791 0 0 0 0 25.99954298215016 72.900622053752159 0 72.900622053752159 269.41451721516205 0 0 0 0 -83.60969229870534 87.210243158537196 0 87.210243158537196 95.825351573264925 0 0 0 0 -80.957500553799036 80.602434579835972 0 80.602434579835972 15.974194955939311 0 0 0 0 7.4881584913709958 1.6564126913799555 0 1.6564126913799555 5.8866867456235923 0 0 0 0 362.35561336817773 -251.45662407358759 0 -251.45662407358759 -204.48563007431221 0 0 0 0 -34.144499707355862 -32.898305392285693 0 -32.898305392285693 299.80125388217675 0 0 0 0 208.58539135525643 -274.90632779771113 0 -274.90632779771113 -163.93461861796095 0 0 0 0 173.27561960450839 -389.27434992521012 0 -389.27434992521012 -332.82253936043708 0 0 0 0 362.81406603217783 -248.04975586153523 0 -248.04975586153523 -182.21320019371342 0 0 0 0 484.94897241585045 -104.66198789308351 0 -104.66198789308351 -142.53782667720225 0 0 0 0 494.65289227137691 -95.68166469517746 0 -95.68166469517746 -135.76987225853372 0 0 0 0 487.6839416773928 -255.79671888093321 0 -255.79671888093321 -311.30878229963128 0 0 0 0 537.01080317798187 -75.950977468193742 0 -75.950977468193742 -237.01045666553182 0 0 0 0 571.19915972770104 22.6915448374275 0 22.6915448374275 -34.657049274770543 0 0 0 0 149.1894562639427 -354.5253966585733 0 -354.5253966585733 -124.65200393646955 0 0 0 0 86.448941813097917 -177.52477078631637 0 -177.52477078631637 -229.21350931889174 0 0 0 0 1216.6104477967783 530.79046367280171 0 530.79046367280171 16.135058818908874 0 0 0 0 938.91655555652687 -429.25543982702948 0 -429.25543982702948 -527.28162245618296 0 0 0 0 643.00976075249491 127.60812591886497 0 127.60812591886497 -221.66430187787228 0 0 0 0 243.77079900386161 630.0319455168792 0 630.0319455168792 574.81981724791694 0 0 0 0 0.8430657483883266 5.772890989840846 0 5.772890989840846 -4.0168983338582507 0 0 0 0 1606.9369840775616 637.17352668795502 0 637.17352668795502 -75.10457040242909 0 0 0 0 -280.28191973381035 531.11103664521215 0 531.11103664521215 425.3417424424988 0 0 0 0 -14.767675267576124 154.49510908695811 0 154.49510908695811 -726.72516164270928 0 0 0 0 -4.0749884403079903 2.2076403447767419 0 2.2076403447767419 1.6813838862216812 0 0 0 0 -261.82487479058909 470.84939016436692 0 470.84939016436692 587.86725148044752 0 0 0 0 -857.98039900826188 589.27458670537817 0 589.27458670537817 -81.708156015200075 0 0 0 0 -646.99345817363428 1174.2875962592007 0 1174.2875962592007 -493.73138679910153 0 0 0 0 -1487.7790301680288 -158.39340017070208 0 -158.39340017070208 201.36745530457119 0 0 0 0 -354.12644830826321 -792.49723306932356 0 -792.49723306932356 -808.32520264615596 0 0 0 0 -535.45592033797402 1038.2981492453255 0 1038.2981492453255 -1375.5215249457979 0 0 0 0 166.74751650025428 -15.061879996683274 0 -15.061879996683274 189.75405053100985 0 0 0 0 693.87956599600147 -226.10982776489982 0 -226.10982776489982 -1631.4524186943054 0 0 0 0 -11.495324887894384 11.449438088131586 0 11.449438088131586 -9.3525624174482971 0 0 0 0 -489.64059693153831 74.027893241793208 0 74.027893241793208 470.85917104838882 0 0 0 0 861.6257591543108 -700.27043484820751 0 -700.27043484820751 -343.20002588356147 0 0 0 0 -34.453721803945427 23.803017296546358 0 23.803017296546358 -17.553861700188776 0 0 0 0 -1950.2593584089045 1482.9008726113243 0 1482.9008726113243 -102.93090259361361 0 0 0 0 -1179.4660846782735 519.57967133622151 0 519.57967133622151 -83.547836859084782 0 0 0 0 -1.128274381337377 3.8616372535425398 0 3.8616372535425398 -19.296135887300636 0 0 0 0 669.59573563834783 -168.90311223909157 0 -168.90311223909157 -1056.2519445217767 0 0 0 0 -263.72595553382416 14.946017067471985 0 14.946017067471985 38.233399455146355 0 0 0 0 -13.720332284297911 3.596477654602495 0 3.596477654602495 30.233031131358075 0 0 0 0 -282.57052206632943 101.04504338797415 0 101.04504338797415 244.63240463002512 0 0 0 0 -54.324001277469506 350.20330181346071 0 350.20330181346071 131.23664041274969 0 0 0 0 145.74474594365347 24.761408646643758 0 24.761408646643758 -274.13647309789667 0 0 0 0 -2.6259147563597054 2.8186755745261109 0 2.8186755745261109 -4.3016930196424994 0 0 0 0 59.934428064579151 -12.826735527865821 0 -12.826735527865821 -282.11857382497692 0 0 0 0 0.12440571583829296 34.538774207445385 0 34.538774207445385 0.52726754799368791 0 0 0 0 70.163561444089282 4.9390971350003383 0 4.9390971350003383 7.0232844247439061 0 0 0 0 66.313935658555806 102.2754877548889 0 102.2754877548889 24.903053738176823 0 0 0 0 14.063961108571675 58.502420034914394 0 58.502420034914394 -9.9572741125884932 0 0 0 0 19.217527213972062 64.279035900239251 0 64.279035900239251 -48.799378335941583 0 0 0 0 -18.128231472182961 67.801623040824779 0 67.801623040824779 81.076446739651146 0 0 0 0 -19.105657474734471 62.57426097523421 0 62.57426097523421 59.476633020858571 0 0 0 0 2.0841804567098734 45.254488532416872 0 45.254488532416872 -8.7773643812106457 0 0 0 0 15.43642238038592 73.56844344358251 0 73.56844344358251 20.438807336860918 0 0 0 0 -31.394261472727521 66.872022977331653 0 66.872022977331653 -31.072597101796418 0 0 0 0 9.6004615534572224 18.705902538730705 0 18.705902538730705 25.947919570576403 0 0 0 0 419.8436644908943 -166.9193119341071 0 -166.9193119341071 -69.642385006765835 0 0 0 0 -1.5071919143229024 75.452704434777843 0 75.452704434777843 -39.267433243672713 0 0 0 0 22.913442892720923 56.126235876698047 0 56.126235876698047 -37.692126002453733 0 0 0 0 -15.603854279259394 39.513678753544809 0 39.513678753544809 -43.851119867773377 0 0 0 0 -12.371346404957876 34.417617166007403 0 34.417617166007403 -37.47644690607558 0 0 0 0 8.5992506838520057 18.479974991525523 0 18.479974991525523 -58.26912932072446 0 0 0 0 -6.6876391167423606 11.726167554627438 0 11.726167554627438 -5.4441492998340664 0 0 0 0 35.139705574190884 43.062971164465125 0 43.062971164465125 -64.509541757492116 0 0 0 0 18.129640265869966 60.297188245895086 0 60.297188245895086 -13.915007419680478 0 0 0 0 42.35117544950117 34.0450273615279 0 34.0450273615279 16.234618003138166 0 0 0 0 14.010213193194389 7.3447705847553379 0 7.3447705847553379 -0.9841631412939682 0 0 0 0 8.2221307514109867 17.021170081161472 0 17.021170081161472 24.973996676271781 0 0 0 0 22.553694297803304 59.74501451003016 0 59.74501451003016 -18.688840289862128 0 0 0 0 390.64635355021164 -48.191590453978279 0 -48.191590453978279 158.34001295221969 0 0 0 0 457.76939740226953 96.35313934867736 0 96.35313934867736 84.891358254870283 0 0 0 0 466.85604214773048 86.686289841280086 0 86.686289841280086 -67.172232154407538 0 0 0 0 461.22281467454741 -86.651383037300548 0 -86.651383037300548 -118.52539600309683 0 0 0 0 450.66387447888519 -34.459463009126921 0 -34.459463009126921 22.967405750066973 0 0 0 0 373.17538633555341 99.892036202090821 0 99.892036202090821 143.0550875464105 0 0 0 0 368.82187630800763 61.545523474400397 0 61.545523474400397 118.69953003583942 0 0 0 0 251.30394469405292 28.371377938077785 0 28.371377938077785 198.10623478514026 0 0 0 0 -507.7173644474824 532.13303088629618 0 532.13303088629618 -136.63239306745527 0 0 0 0 -36.324807769138715 -6.325193903518084 0 -6.325193903518084 48.367132163373753 0 0 0 0 23.495099140119621 27.677751479568457 0 27.677751479568457 -7.3609366452073033 0 0 0 0 144.32628835755168 126.93769623886328 0 126.93769623886328 100.26786517107394 0 0 0 0 -5.9888812936878821 15.714096010313369 0 15.714096010313369 -0.70647227531298995 0 0 0 0 1.1713198765661446 2.4293150988159908 0 2.4293150988159908 -2.5681595759936613 0 0 0 0 -7.59816571239935 19.738757412676932 0 19.738757412676932 -2.384824016247876 0 0 0 0 -1.8807940748229157 17.079105106531642 0 17.079105106531642 -1.199083765008254 0 0 0 0 15.802091199264396 144.17970593261998 0 144.17970593261998 141.27610065508634 0 0 0 0 373.75657541153487 16.62511171202641 0 16.62511171202641 141.66401109178446 0 0 0 0 -4.7348601382982451 14.670114259701222 0 14.670114259701222 -0.08334262843709439 0 0 0 0 -12.775287105834423 15.861595165645014 0 15.861595165645014 2.447552529530526 0 0 0 0 157.44325704366202 24.550028267374728 0 24.550028267374728 222.81391870044172 0 0 0 0 337.41168734367238 39.359765542438254 0 39.359765542438254 128.21557212038897 0 0 0 0 282.11473389499588 70.013139450078597 0 70.013139450078597 147.64486975991167 0 0 0 0 350.15517938212724 43.333954161731526 0 43.333954161731526 112.46106010905351 0 0 0 0 355.77058788825525 54.660187860717997 0 54.660187860717997 128.68877782311756 0 0 0 0 303.83617853207397 83.883582244656282 0 83.883582244656282 151.44398124271538 0 0 0 0 294.84828552382533 56.363862145575695 0 56.363862145575695 132.40045042225393 0 0 0 0 231.45473011449621 178.324093854073 0 178.324093854073 312.62569653923856 0 0 0 0 332.29666382490541 218.27384670160245 0 218.27384670160245 326.48470830451697 0 0 0 0 631.39844459996948 278.94315610139165 0 278.94315610139165 74.618727002176456 0 0 0 0 -2.6189852435636567 24.660904254880734 0 24.660904254880734 -0.64159586426103488 0 0 0 0 2.2885642396977346 47.725393191925832 0 47.725393191925832 16.362155732000247 0 0 0 0 -4.158890114951646 14.260605014074827 0 14.260605014074827 0.17936218237446155 0 0 0 0 -110.71627072774572 93.341759461509355 0 93.341759461509355 432.11664074572036 0 0 0 0 -2.8375303206557874 14.36800925550051 0 14.36800925550051 -0.14991291091428138 0 0 0 0 38.823008570514503 32.91741351345263 0 32.91741351345263 27.198037223774008 0 0 0 0 -9.1100250793260784 22.714293925113452 0 22.714293925113452 25.511080575190135 0 0 0 0 9.1914607820654055 44.123009506758535 0 44.123009506758535 26.163344506287558 0 0 0 0 83.746791236151694 84.141741469407862 0 84.141741469407862 52.477318720382755 0 0 0 0 75.463276825681533 90.98324347363814 0 90.98324347363814 46.998763854629942 0 0 0 0 15.308285356353736 33.942048645447358 0 33.942048645447358 44.932629718729004 0 0 0 0 10.085805861512654 4.2229742658583973 0 4.2229742658583973 -0.02499682469582698 0 0 0 0 -85.01512071376419 174.74282561078871 0 174.74282561078871 -246.31313941878034 0 0 0 0 35.700977387339663 90.981204984227588 0 90.981204984227588 202.39980874452158 0 0 0 0 93.901558210174699 144.7526984963697 0 144.7526984963697 102.64363543807121 0 0 0 0 92.293644716348354 122.5537661628041 0 122.5537661628041 227.04511447336699 0 0 0 0 124.58859107621538 237.79710519065702 0 237.79710519065702 82.517019471430103 0 0 0 0 145.78247028578153 199.79896715291216 0 199.79896715291216 -50.971209202180034 0 0 0 0 124.39713492768169 190.07967551059119 0 190.07967551059119 31.789136171923019 0 0 0 0 209.91576231885483 170.71151594444382 0 170.71151594444382 -43.97850076261966 0 0 0 0 138.10715032581538 263.34005154742772 0 263.34005154742772 -108.80578046035953 0 0 0 0 378.85989501171207 181.80626242127619 0 181.80626242127619 -129.56282612730865 0 0 0 0 183.35531912027363 144.03323061647097 0 144.03323061647097 30.054168507787836 0 0 0 0 103.72920853049254 50.954634318135504 0 50.954634318135504 -20.95045633178961 0 0 0 0 3.2126113316808187 43.373977890172682 0 43.373977890172682 35.741390033301286 0 0 0 0 -214.27621087171792 364.67217279350734 0 364.67217279350734 -251.6941605900065 0 0 0 0 4.9240929713305377 69.56795185066585 0 69.56795185066585 -475.90844273996481 0 0 0 0 8.3875676655978992 15.001536498091987 0 15.001536498091987 9.2967014108146486 0 0 0 0 -416.44237757828159 433.13855779695587 0 433.13855779695587 -173.37306389889272 0 0 0 0 192.0198496196499 54.534959884200362 0 54.534959884200362 -24.003977249303716 0 0 0 0 9.077793138035311 9.7162263264904922 0 9.7162263264904922 6.757582019860024 0 0 0 0 -436.14274529224713 633.33789097371482 0 633.33789097371482 -285.34793472933234 0 0 0 0 -928.96824918691891 522.82853207574954 0 522.82853207574954 -169.26848158698704 0 0 0 0 -260.72549985197475 363.18890661619662 0 363.18890661619662 -425.84654275787761 0 0 0 0 -131.93060852893541 302.02906622909359 0 302.02906622909359 -70.095859919529175 0 0 0 0 -126.97153683489887 427.75489653577824 0 427.75489653577824 -265.866772329784 0 0 0 0 -298.27243343861301 381.28855441651103 0 381.28855441651103 -5.1693790169956628 0 0 0 0 -20.207233730692678 234.43381099386534 0 234.43381099386534 163.69268270832617 0 0 0 0 -61.380450623519742 96.568556400968376 0 96.568556400968376 79.926075219393454 0 0 0 0 -392.5594584758237 66.874548063311522 0 66.874548063311522 57.868446348584257 0 0 0 0 -210.48305795796841 522.74547082743265 0 522.74547082743265 -386.43084189553338 0 0 0 0 37.221024205020512 655.50555423101468 0 655.50555423101468 -391.58600254346675 0 0 0 0 739.78514926790376 325.18970949338109 0 325.18970949338109 -132.36272340842697 0 0 0 0 2.0915453044391796 3.3967635856318807 0 3.3967635856318807 3.7442510789146581 0 0 0 0 101.40486618716386 143.30607289400359 0 143.30607289400359 23.831503095439984 0 0 0 0 220.95611834679221 331.18488974786305 0 331.18488974786305 158.67006826928991 0 0 0 0 121.3954096854377 -18.774256360564323 0 -18.774256360564323 -180.12405465333723 0 0 0 0 375.80766392526857 82.05633502388082 0 82.05633502388082 -91.77880625546095 0 0 0 0 212.93947686412866 243.36461886924735 0 243.36461886924735 -64.926930172514403 0 0 0 0 135.1833563311684 160.66453873689898 0 160.66453873689898 -79.595144082224579 0 0 0 0 891.15072107848027 -168.12717013042857 0 -168.12717013042857 -115.35427292782697 0 0 0 0 303.94199014056358 -39.486238792796939 0 -39.486238792796939 34.641886170735233 0 0 0 0 64.801291059006871 -8.1796778536408965 0 -8.1796778536408965 56.343441523888032 0 0 0 0 -18.901519756443761 61.90400132441053 0 61.90400132441053 49.763630126221159 0 0 0 0 129.47944095114508 264.90658856953269 0 264.90658856953269 209.15166129532736 0 0 0 0 166.29702394164906 133.87456508834111 0 133.87456508834111 -288.93939814850455 0 0 0 0 -127.61182955347613 45.822957851152751 0 45.822957851152751 0.061724281978968065 0 0 0 0 69.74505597868847 1.5601654799538665 0 1.5601654799538665 -70.878891925305652 0 0 0 0 -713.92692694897414 231.19961392381083 0 231.19961392381083 15.536524653420202 0 0 0 0 -32.168381703559135 95.831273795331072 0 95.831273795331072 -39.43242609290246 0 0 0 0 -173.31096372097636 -63.300358460810457 0 -63.300358460810457 -192.40831430973776 0 0 0 0 -311.48520485745394 615.11610306311195 0 615.11610306311195 -692.34998048878469 0 0 0 0 -206.35409991196684 384.46503743274479 0 384.46503743274479 -233.674462494615 0 0 0 0 -107.49398954941717 362.5229312027368 0 362.5229312027368 -241.72382784331421 0 0 0 0 -166.67117232378769 326.33391261104771 0 326.33391261104771 -35.984790350310504 0 0 0 0 -118.44749634319305 87.001981333803997 0 87.001981333803997 210.17627695418196 0 0 0 0 -30.133421159466863 24.158299117328511 0 24.158299117328511 59.729219204214985 0 0 0 0 0.563498106712359 328.25990239725797 0 328.25990239725797 -64.598450716941443 0 0 0 0 -55.428119239092283 63.595555214063936 0 63.595555214063936 -24.708264512269025 0 0 0 0 -52.786050507846085 101.84335713942892 0 101.84335713942892 69.632238837393743 0 0 0 0 -4.9447750348885648 83.918480289722993 0 83.918480289722993 42.814328159672655 0 0 0 0 -291.24586831933811 288.19947503048388 0 288.19947503048388 94.911322175146779 0 0 0 0 -10.758543103734553 67.694859232541717 0 67.694859232541717 54.372190242829959 0 0 0 0 -152.33655995425943 -48.328126859352778 0 -48.328126859352778 239.6408793698065 0 0 0 0 -40.866368217164563 121.18255655316898 0 121.18255655316898 12.655373081819562 0 0 0 0 -41.591896401983831 161.53676644607185 0 161.53676644607185 -46.192852729531296 0 0 0 0 -41.96822875940893 136.86589340702426 0 136.86589340702426 -60.903770539342077 0 0 0 0 -60.205570884725603 127.78985252475832 0 127.78985252475832 -41.427314447329991 0 0 0 0 -29.168481508768309 164.9537419709668 0 164.9537419709668 -77.437261444203614 0 0 0 0 -32.191261015811506 146.4212672425424 0 146.4212672425424 -64.896731334658398 0 0 0 0 -32.699645387986493 148.05145802440165 0 148.05145802440165 -65.141182399944228 0 0 0 0 -56.882930101564746 49.199409196389297 0 49.199409196389297 -48.558960835798729 0 0 0 0 -56.647598382336582 142.37666796507619 0 142.37666796507619 -62.437527904574381 0 0 0 0 93.064854778058361 412.66473466276102 0 412.66473466276102 -38.455788654373464 0 0 0 0 -27.966707029916506 201.50136618455872 0 201.50136618455872 104.83027851562656 0 0 0 0 -243.45711791415397 446.20056361062143 0 446.20056361062143 -69.334040654914133 0 0 0 0 -51.984786365603213 242.59103222387785 0 242.59103222387785 103.91936807611734 0 0 0 0 -72.413200481332751 247.3193641268781 0 247.3193641268781 -174.80462367641667 0 0 0 0 118.30392850619864 209.94438432274546 0 209.94438432274546 -258.70991358311403 0 0 0 0 116.16772004348422 221.34736042676923 0 221.34736042676923 -109.40557079364589 0 0 0 0 -13.080945174377121 331.09231760907096 0 331.09231760907096 -139.21793833248012 0 0 0 0 61.685009677056769 233.95193357846802 0 233.95193357846802 -13.093379798679962 0 0 0 0 160.2403551171501 211.43312335431256 0 211.43312335431256 -138.47667000140791 0 0 0 0 163.15683882014895 236.60631992852439 0 236.60631992852439 -52.964467755635269 0 0 0 0 -24.617731300992624 60.753517753172957 0 60.753517753172957 -51.038248154567498 0 0 0 0 78.662946931588522 88.4929377871631 0 88.4929377871631 -91.757739949651295 0 0 0 0 -8.185347838008056 22.069454168405173 0 22.069454168405173 270.21440308673118 0 0 0 0 -10.137942854285484 12.96206198956088 0 12.96206198956088 228.52606225675117 0 0 0 0 -20.39655932615133 5.363452561921136 0 5.363452561921136 77.661437809005776 0 0 0 0 -37.159039840407786 97.285152206713974 0 97.285152206713974 -253.68032175698318 0 0 0 0 156.54988358075934 84.046157256394508 0 84.046157256394508 -494.89566746454511 0 0 0 0 -20.922027431182073 108.33481518438644 0 108.33481518438644 83.046322453907052 0 0 0 0 -239.53086291616637 -155.58118708406982 0 -155.58118708406982 -118.60835296129517 0 0 0 0 -31.374665120596546 38.844566716066765 0 38.844566716066765 259.13711303986929 0 0 0 0 -37.684900589481032 101.3367853768449 0 101.3367853768449 81.489986212753323 0 0 0 0 -101.5034968835007 -137.98423612380793 0 -137.98423612380793 671.68843680208192 0 0 0 0 -211.46760011477454 459.53037430665245 0 459.53037430665245 -385.37667571038583 0 0 0 0 1.0099531703719933 0.36356418653299727 0 0.36356418653299727 0.017918757421028886 0 0 0 0 -194.56362281144084 188.70836845964641 0 188.70836845964641 -111.81742212226527 0 0 0 0 -252.59997169082772 311.55917752565438 0 311.55917752565438 -168.89938152227114 0 0 0 0 -372.7228484485604 298.32827863468265 0 298.32827863468265 -172.48158396186045 0 0 0 0 -306.38127298751897 300.4024137715387 0 300.4024137715387 -164.72167276968321 0 0 0 0 -232.69738866440184 379.96888346748165 0 379.96888346748165 -203.40174068755732 0 0 0 0 -370.71630243733671 280.30277152376948 0 280.30277152376948 -184.49890980708369 0 0 0 0 -385.65932440612232 352.2333133391694 0 352.2333133391694 -366.59521670273534 0 0 0 0 -303.03738341985627 318.71876767097274 0 318.71876767097274 -258.35593209468061 0 0 0 0 -403.51125208477242 256.53664520386155 0 256.53664520386155 -262.42029249219559 0 0 0 0 -385.99558651825646 171.97176611835675 0 171.97176611835675 -300.2692681794033 0 0 0 0 -135.48318608738191 17.345654120930703 0 17.345654120930703 -578.95869335322641 0 0 0 0 24.455002471080661 21.011253037098868 0 21.011253037098868 183.70246749927901 0 0 0 0 -478.7454595879226 223.44409931157861 0 223.44409931157861 -72.73605926804521 0 0 0 0 -560.92853009596183 865.65010700888797 0 865.65010700888797 -236.88736167814932 0 0 0 0 -0.08810346183845752 7.9707865412268717 0 7.9707865412268717 2.6153566456855515 0 0 0 0 -398.24956135103093 125.85684207786244 0 125.85684207786244 7.8120815105430665 0 0 0 0 -2.279442489504504 5.0879123249813532 0 5.0879123249813532 6.1075070192087111 0 0 0 0 -321.57938055343493 73.004930607428832 0 73.004930607428832 12.621621795457031 0 0 0 0 12.231259918764085 36.720427387671137 0 36.720427387671137 44.782864018112228 0 0 0 0 -86.470337906348504 20.506303813937848 0 20.506303813937848 375.69942234704649 0 0 0 0 21.80975379525583 93.314778964675128 0 93.314778964675128 52.49708811327946 0 0 0 0 85.022539148030774 -42.23058966786266 0 -42.23058966786266 98.456573295397902 0 0 0 0 -39.868800584668861 16.277089976134448 0 16.277089976134448 175.96603661402332 0 0 0 0 2.9669208426973768 31.917519627247941 0 31.917519627247941 33.756225385424734 0 0 0 0 45.814702747535193 10.091247755372024 0 10.091247755372024 43.85901679152812 0 0 0 0 -46.180744006427631 -2.0030724971002201 0 -2.0030724971002201 144.88621117999355 0 0 0 0 -5.8319992165989447 5.2707684911021602 0 5.2707684911021602 20.290084379219792 0 0 0 0 -265.6897859208766 286.58747798566037 0 286.58747798566037 55.973708428216923 0 0 0 0 32.1642259757391 46.375088900338596 0 46.375088900338596 -144.13914030380147 0 0 0 0 -48.929728954326492 165.42309838972142 0 165.42309838972142 50.270128858826865 0 0 0 0 171.69445476846158 -164.73433957498492 0 -164.73433957498492 -41.690987554269668 0 0 0 0 24.639446350432991 126.51047238428509 0 126.51047238428509 70.318580301893235 0 0 0 0 -23.978460732483242 66.705869405760751 0 66.705869405760751 69.622965121105551 0 0 0 0 -92.770575836826993 72.831916587399064 0 72.831916587399064 135.13844709000841 0 0 0 0 -48.252925420840256 44.59100428241436 0 44.59100428241436 152.61805952121358 0 0 0 0 -13.191884900754545 75.69242958307116 0 75.69242958307116 37.578341971248463 0 0 0 0 -25.46689354467253 4.7299481192567328 0 4.7299481192567328 115.24505265421612 0 0 0 0 -16.061923571822263 78.255866951079952 0 78.255866951079952 46.560082688156399 0 0 0 0 -66.60419239640305 24.271864456590265 0 24.271864456590265 197.08422999395407 0 0 0 0 -86.435465307844424 -1.10409334499127 0 -1.10409334499127 -97.465957338703447 0 0 0 0 -12.859368327068054 28.903996317277858 0 28.903996317277858 35.680227748425068 0 0 0 0 -57.812802982760331 223.40328607686706 0 223.40328607686706 76.261711406892573 0 0 0 0 40.364357775140888 93.890112882298126 0 93.890112882298126 -49.224082086166163 0 0 0 0 -72.656116255800953 63.87959419505205 0 63.87959419505205 158.61867181207344 0 0 0 0 -9.6703495806796127 71.482603701795597 0 71.482603701795597 3.9370375195612723 0 0 0 0 -19.051300846222411 55.964965681412352 0 55.964965681412352 -27.140195849783254 0 0 0 0 8.0999379270963132 31.367188034828231 0 31.367188034828231 10.723074645259572 0 0 0 0 -7.6364409066936787 59.958607430031407 0 59.958607430031407 -27.667463027994017 0 0 0 0 -12.274844774913618 52.828378364780292 0 52.828378364780292 -34.639033686675248 0 0 0 0 -9.7386427409437601 92.505604173500615 0 92.505604173500615 -12.287725519203377 0 0 0 0 -2.0248369412602187 48.966311201696954 0 48.966311201696954 -8.5645161197826383 0 0 0 0 -13.528248673857888 51.630281333797029 0 51.630281333797029 -8.9272325838692268 0 0 0 0 -6.2148832340426452 37.198056582808931 0 37.198056582808931 -12.680404198719771 0 0 0 0 36.355785212010232 74.196874306762766 0 74.196874306762766 -30.579065802294281 0 0 0 0 13.530079155709245 46.14017497871464 0 46.14017497871464 -12.458252785072546 0 0 0 0 -4.5519523608444779 25.658666136326502 0 25.658666136326502 -18.237022788764648 0 0 0 0 18.86886358085297 39.037046843007886 0 39.037046843007886 -16.353824822476398 0 0 0 0 18.091814525650989 44.967307764161887 0 44.967307764161887 -25.508470330343698 0 0 0 0 35.520668590649166 55.380677951565303 0 55.380677951565303 -26.934676401197066 0 0 0 0 53.265198690745137 42.14283267823339 0 42.14283267823339 -26.058414269908099 0 0 0 0 -3.9746383789097308 66.816771866186173 0 66.816771866186173 -33.669789013001719 0 0 0 0 -5.2357138415216937 44.245004848627346 0 44.245004848627346 -39.435852075338659 0 0 0 0 -4.0701037094859203 46.529996071674759 0 46.529996071674759 -9.974360045598587 0 0 0 0 15.172150009460893 77.982637466237065 0 77.982637466237065 -59.66547713856562 0 0 0 0 8.3324525662238074 33.414404892979803 0 33.414404892979803 12.645406118138993 0 0 0 0 26.164385879186739 74.2478346181706 0 74.2478346181706 -23.396933921663731 0 0 0 0 -14.748028858334862 27.289906974689529 0 27.289906974689529 19.426663667997232 0 0 0 0 -1305.710774765952 -1162.8027145455162 0 -1162.8027145455162 417.95620213489747 0 0 0 0 907.93060353477631 352.34965680580353 0 352.34965680580353 -1186.6020065223197 0 0 0 0 327.92932267045398 754.82603957773972 0 754.82603957773972 -184.86605336843786 0 0 0 0 12.14066760229262 31.515641462211633 0 31.515641462211633 -17.342675674877597 0 0 0 0 -45.618977139502931 95.500446223313702 0 95.500446223313702 -18.392021667139488 0 0 0 0 173.60624794025216 64.28554142948451 0 64.28554142948451 -174.38493453794217 0 0 0 0 36.933925174727847 59.167329332209192 0 59.167329332209192 226.72314160724636 0 0 0 0 1623.0945732185137 -243.98802962646823 0 -243.98802962646823 147.52551238366868 0 0 0 0 2.0997201507953811 12.708947682078854 0 12.708947682078854 -1.1645188232654391 0 0 0 0 23.463928825396071 42.720663101618385 0 42.720663101618385 -21.427609323908896 0 0 0 0 503.70490344407153 -268.49689427859266 0 -268.49689427859266 217.39641449896953 0 0 0 0 -99.499543160507756 5.1598711005644873 0 5.1598711005644873 303.44375423755264 0 0 0 0 286.98181998927066 -24.311623450150364 0 -24.311623450150364 -78.692962136716233 0 0 0 0 17.333804083691419 41.518177471675173 0 41.518177471675173 -22.834036951557579 0 0 0 0 350.53493342457296 -135.76343713467213 0 -135.76343713467213 107.19609981766553 0 0 0 0 223.71568292268603 -38.526406935892737 0 -38.526406935892737 61.785517200172762 0 0 0 0 -40.444944522778314 341.12915187411636 0 341.12915187411636 -202.62097505727434 0 0 0 0 -85.411971320405428 508.29938933948142 0 508.29938933948142 -144.15987605071859 0 0 0 0 288.06679937928493 204.15844048421422 0 204.15844048421422 -145.51202996119537 0 0 0 0 498.7662245157735 158.11170054040122 0 158.11170054040122 -286.53748825201183 0 0 0 0 899.97418734152234 -114.34757714307489 0 -114.34757714307489 -104.71630462387111 0 0 0 0 744.84274800908406 383.32422162440525 0 383.32422162440525 -295.84985661972314 0 0 0 0 -95.847818854390425 435.26170405309858 0 435.26170405309858 -147.27813018258894 0 0 0 0 -806.86152952407792 601.56845013542625 0 601.56845013542625 158.56601336343738 0 0 0 0 -216.59488587814485 239.26554253548238 0 239.26554253548238 -162.86421716860013 0 0 0 0 -230.09450450820623 -24.74176955781877 0 -24.74176955781877 35.645233194161847 0 0 0 0 -752.40429207571651 16.646672233837307 0 16.646672233837307 32.968531026999699 0 0 0 0 15.403134424049767 -614.64264100199443 0 -614.64264100199443 -1211.6266563733225 0 0 0 0 -4.6714963115357122 5.9914458223401077 0 5.9914458223401077 -9.7308095363450491 0 0 0 0 -13.726272190608142 205.82710876432247 0 205.82710876432247 -495.18152763084072 0 0 0 0 55.407029716066063 0.5110703351747361 0 0.5110703351747361 241.36975310703565 0 0 0 0 -2.6044065306652682 44.153886888314979 0 44.153886888314979 -27.051161461627004 0 0 0 0 -191.15133272156163 128.26254127471839 0 128.26254127471839 535.87057380056649 0 0 0 0 124.8058782076987 500.82377525927586 0 500.82377525927586 -844.49992872727307 0 0 0 0 -5.2321212021832295 -4.8581640621997195 0 -4.8581640621997195 0.57080082609717842 0 0 0 0 51.237669005475254 269.77656877139452 0 269.77656877139452 -594.6526831688825 0 0 0 0 -571.06674970965105 703.17626350875071 0 703.17626350875071 174.77186669348339 0 0 0 0 -75.312955452469396 199.85703481468954 0 199.85703481468954 182.48605945892632 0 0 0 0 299.82446937228269 84.330126465472858 0 84.330126465472858 -58.690639871638268 0 0 0 0 12.352126305282116 20.055921494257099 0 20.055921494257099 -41.167751622417569 0 0 0 0 -255.22155144228236 -8.1993616789404768 0 -8.1993616789404768 86.995947013972909 0 0 0 0 -106.34716026237402 -34.204079175597144 0 -34.204079175597144 64.110411827321514 0 0 0 0 -183.74501295732853 -52.043019565993745 0 -52.043019565993745 89.585466087664827 0 0 0 0 286.43824941683761 131.47866533368142 0 131.47866533368142 -20.38303957687458 0 0 0 0 29.15150679800643 20.826803215521608 0 20.826803215521608 -28.122464924310279 0 0 0 0 -163.64316974199073 60.547644209825194 0 60.547644209825194 95.723839622980449 0 0 0 0 -137.50005020557728 10.185517120342411 0 10.185517120342411 48.628933144485927 0 0 0 0 -29.206146016953426 60.073761689356616 0 60.073761689356616 63.816161181312054 0 0 0 0 -103.61895800157617 117.96961136220307 0 117.96961136220307 193.27107093496306 0 0 0 0 -30.076669883139402 54.343632017444179 0 54.343632017444179 88.511813141391031 0 0 0 0 -22.226364142357852 167.07257451795886 0 167.07257451795886 97.897581340868783 0 0 0 0 3.909198000807919 71.90236279571036 0 71.90236279571036 5.211707182439568 0 0 0 0 -3.0533787043314078 54.251361750739306 0 54.251361750739306 -30.574292989571404 0 0 0 0 10.446298889122714 29.806786453993226 0 29.806786453993226 -27.365526215405282 0 0 0 0 48.08093615296093 71.588259894411749 0 71.588259894411749 -12.613641437652404 0 0 0 0 35.706069971147372 54.459556672758481 0 54.459556672758481 -32.957415087932986 0 0 0 0 105.93121294685352 45.425736741726723 0 45.425736741726723 -31.065656602931995 0 0 0 0 64.652554514539588 127.04654995024612 0 127.04654995024612 -38.210054359202331 0 0 0 0 53.76674857085527 73.610535859166703 0 73.610535859166703 -15.952000021097774 0 0 0 0 31.657101317517117 86.971934149853041 0 86.971934149853041 9.8262123827080359 0 0 0 0 -3.4780725235790655 52.025968149622315 0 52.025968149622315 -52.290612655029335 0 0 0 0 -22.239204735867858 74.237456032367561 0 74.237456032367561 6.8029565453009297 0 0 0 0 72.513178312928176 133.62040602970956 0 133.62040602970956 -119.36877984971215 0 0 0 0 15.646404603672892 50.848650946500257 0 50.848650946500257 -81.432250920701335 0 0 0 0 56.943182317776518 79.174410349856771 0 79.174410349856771 -96.618082067361684 0 0 0 0 87.362159960344798 55.262439679878298 0 55.262439679878298 -78.480412947756122 0 0 0 0 88.505051804021377 61.217678577979314 0 61.217678577979314 -143.31510406562302 0 0 0 0 87.025999053123087 41.7949711634501 0 41.7949711634501 -99.154191027799243 0 0 0 0 -72.876867826948001 140.75912639150192 0 140.75912639150192 -15.032914339273702 0 0 0 0 -188.90981643950909 34.829485598718747 0 34.829485598718747 13.502414026370388 0 0 0 0 -127.36982088578225 113.57239071351069 0 113.57239071351069 53.062467963114614 0 0 0 0 304.56897098796526 46.048127587033377 0 46.048127587033377 -62.000127975596115 0 0 0 0 -147.72518945934826 -4.0751569513158756 0 -4.0751569513158756 -97.870712697869749 0 0 0 0 -194.84245334424486 76.814202246445348 0 76.814202246445348 -25.712897925521247 0 0 0 0 377.52087582586319 12.964852086370229 0 12.964852086370229 -126.64823829925444 0 0 0 0 -347.84502917463578 -43.500021278028726 0 -43.500021278028726 -22.505942418516497 0 0 0 0 -6.4823217720491613 12.078683075039262 0 12.078683075039262 -22.683706134562158 0 0 0 0 180.53400935037553 -53.965512602491799 0 -53.965512602491799 -26.157853043245268 0 0 0 0 -251.2529563799053 78.18102574259683 0 78.18102574259683 -25.209498743988661 0 0 0 0 -236.9813464702911 52.349834878710681 0 52.349834878710681 -16.383447156826151 0 0 0 0 -729.78957625033945 -22.664220100239618 0 -22.664220100239618 -25.04759129831109 0 0 0 0 -522.27715665106825 275.57366369359079 0 275.57366369359079 -99.072437745147909 0 0 0 0 -47.749127884030031 291.21872305308443 0 291.21872305308443 -403.27857255365234 0 0 0 0 27.441311787334598 -195.99882576200616 0 -195.99882576200616 -172.1947129064356 0 0 0 0 377.4917623774254 14.894073670886428 0 14.894073670886428 -140.15503504968729 0 0 0 0 -3.0274339444322944 5.9541734560465418 0 5.9541734560465418 -6.3320498379554238 0 0 0 0 168.82355281364107 400.96572481380645 0 400.96572481380645 -394.21825793525204 0 0 0 0 35.601477295900622 -296.08176322381223 0 -296.08176322381223 -183.98026438600209 0 0 0 0 113.86522069091188 -70.982255246339264 0 -70.982255246339264 -428.83396555222862 0 0 0 0 82.355133399980957 27.746004919419988 0 27.746004919419988 -111.04747791410773 0 0 0 0 93.994441732986161 37.608304797846358 0 37.608304797846358 -97.061477226736315 0 0 0 0 82.339561915579907 27.697847428789828 0 27.697847428789828 -58.238074957334902 0 0 0 0 8.1059776480128036 48.49171590754986 0 48.49171590754986 -66.940163341985794 0 0 0 0 354.21316064822713 192.30416932281514 0 192.30416932281514 -182.12969692995102 0 0 0 0 59.007071633524902 45.365210190253492 0 45.365210190253492 -31.712338231969625 0 0 0 0 6.4504042586708064 54.102479086901639 0 54.102479086901639 -50.368678613857639 0 0 0 0 85.178185237611615 -23.818703169941728 0 -23.818703169941728 -2.8827428498352674 0 0 0 0 82.701336326717865 24.81444467890833 0 24.81444467890833 -15.952248449626495 0 0 0 0 182.29862491599852 -3.8923579432157567 0 -3.8923579432157567 -37.373650047651608 0 0 0 0 89.581923457801167 2.3829361720272573 0 2.3829361720272573 39.747638648681459 0 0 0 0 88.859254947047702 40.444898850331128 0 40.444898850331128 83.936271027167095 0 0 0 0 121.71113816953675 62.588783676214916 0 62.588783676214916 -108.66658207475848 0 0 0 0 -113.48347154633666 71.366744849670795 0 71.366744849670795 -108.48442804714068 0 0 0 0 -297.31751252298727 -36.416232534018491 0 -36.416232534018491 42.186807551348465 0 0 0 0 -0.12464977568389912 0.3235661950244122 0 0.3235661950244122 -1.1903195802200912 0 0 0 0 245.45651317045849 -142.65815326280426 0 -142.65815326280426 9.9205733864218928 0 0 0 0 -49.511215526144952 175.16419519677584 0 175.16419519677584 -30.686265019146958 0 0 0 0 -4.4474880600600954 120.46129330826261 0 120.46129330826261 29.122836703201756 0 0 0 0 -110.80776149980193 198.2591757548289 0 198.2591757548289 56.876029908657074 0 0 0 0 118.90833173200735 213.7730686825671 0 213.7730686825671 -59.620820037270278 0 0 0 0 23.978283640120935 223.49807055484052 0 223.49807055484052 39.276304374216124 0 0 0 0 49.997754481912125 186.82148980544298 0 186.82148980544298 -56.16716398234712 0 0 0 0 -74.496374746609945 267.99608581407665 0 267.99608581407665 -70.058084953503567 0 0 0 0 -111.34500813492286 200.58623628682471 0 200.58623628682471 -40.862892757519148 0 0 0 0 -119.87833441047405 83.376113639482355 0 83.376113639482355 -156.09703238508519 0 0 0 0 -461.20944626689015 10.028476906827564 0 10.028476906827564 -164.77990350739856 0 0 0 0 -95.608044799406343 261.59304705085015 0 261.59304705085015 -495.73502910020761 0 0 0 0 -57.985024105146294 131.58282125645201 0 131.58282125645201 -128.66883886182768 0 0 0 0 99.51872507068947 227.889407813047 0 227.889407813047 -197.0584259768948 0 0 0 0 77.357975416463887 19.446508835513669 0 19.446508835513669 -311.1995255095535 0 0 0 0 -38.163349740541889 -55.791371848925337 0 -55.791371848925337 -144.64611439668806 0 0 0 0 -375.61883380981453 149.08641647604236 0 149.08641647604236 56.461291260598955 0 0 0 0 5.604107547773431 -0.15473750816855159 0 -0.15473750816855159 -9.6642867052618158 0 0 0 0 -60.972241576173474 -144.08829870521004 0 -144.08829870521004 -486.39405873056967 0 0 0 0 -28.862469572368354 172.66233534336789 0 172.66233534336789 -132.56759304691514 0 0 0 0 -22.12472237917973 161.43404488200395 0 161.43404488200395 -482.6014521169127 0 0 0 0 86.739958665939412 49.303007729168257 0 49.303007729168257 -268.97208274592413 0 0 0 0 -110.75481027225032 77.61499673724029 0 77.61499673724029 -152.47756429135188 0 0 0 0 -56.448874380119378 -69.186325065995334 0 -69.186325065995334 -38.7561712932511 0 0 0 0 -196.22746763130999 -145.35117187802098 0 -145.35117187802098 -13.60934161375917 0 0 0 0 -142.34412740910193 -218.52623780686554 0 -218.52623780686554 -178.08366264461074 0 0 0 0 -58.23393322143238 -101.42265230068733 0 -101.42265230068733 -130.8330389263574 0 0 0 0 23.751135677681305 -89.774628979314002 0 -89.774628979314002 -186.05324997237767 0 0 0 0 -12.00089997224859 7.1948652835126268 0 7.1948652835126268 -59.292556369618978 0 0 0 0 -0.84423209566739388 108.75125531066442 0 108.75125531066442 36.539056266457919 0 0 0 0 -157.18906122233602 -31.524403303075815 0 -31.524403303075815 126.21608349779854 0 0 0 0 0.023868655240221415 10.401083945856954 0 10.401083945856954 -34.117021429381566 0 0 0 0 153.46192272951885 -257.2296918033353 0 -257.2296918033353 -188.99825395312746 0 0 0 0 0.18499827168366778 -1.6600581839720689 0 -1.6600581839720689 -6.4379210086934506 0 0 0 0 -0.79304148837810828 4.7497216227763488 0 4.7497216227763488 -34.245686744676505 0 0 0 0 -482.60729803498543 178.95376058505644 0 178.95376058505644 785.93007724563358 0 0 0 0 3.4524854437331669 5.7398462416967959 0 5.7398462416967959 -28.857692842226243 0 0 0 0 -258.74321441436769 -297.41281093086218 0 -297.41281093086218 -292.04568368542823 0 0 0 0 -107.09478673236208 -334.59841384412766 0 -334.59841384412766 -573.12474289392412 0 0 0 0 10.007952608022606 -208.50890584269655 0 -208.50890584269655 -544.68279155479831 0 0 0 0 39.947912982141133 -243.82139920601912 0 -243.82139920601912 -563.5795456015403 0 0 0 0 -35.325140066386666 -192.3838792470051 0 -192.3838792470051 -318.98715655462001 0 0 0 0 -101.53939267631176 -253.53163951816532 0 -253.53163951816532 -359.23561145359417 0 0 0 0 85.140172682033153 -145.30278671634733 0 -145.30278671634733 -399.42069736903068 0 0 0 0 -34.650892454290442 -196.84796697460297 0 -196.84796697460297 -291.90949911728967 0 0 0 0 192.73546540702228 -112.43917033491016 0 -112.43917033491016 -542.59948314694338 0 0 0 0 204.23010522095137 -105.8645286990868 0 -105.8645286990868 -610.87823417710024 0 0 0 0 44.517952673199034 -196.08659565407015 0 -196.08659565407015 -440.97705477924319 0 0 0 0 249.76414722265326 -12.251877335904283 0 -12.251877335904283 -432.33906948698859 0 0 0 0 232.45423157591722 9.9913969732951955 0 9.9913969732951955 -453.0027562428586 0 0 0 0 282.88235966545471 58.891785140440334 0 58.891785140440334 -406.3030133817374 0 0 0 0 261.02084278449183 81.466743135686556 0 81.466743135686556 -402.60479614174983 0 0 0 0 175.60084526950959 -1.0029561153933173 0 -1.0029561153933173 -336.57438302917581 0 0 0 0 88.150001317866554 -103.00748407420497 0 -103.00748407420497 -304.7873570669326 0 0 0 0 162.709912405262 -80.164308302031714 0 -80.164308302031714 -452.05453501612647 0 0 0 0 219.55933840386569 90.307830132398522 0 90.307830132398522 -337.96188224246725 0 0 0 0 257.01067790712113 163.36774614889509 0 163.36774614889509 -327.43216705344093 0 0 0 0 299.02179267615429 138.67450017201918 0 138.67450017201918 -335.33476671213566 0 0 0 0 230.54272947096615 122.61962069850779 0 122.61962069850779 -276.26167268125573 0 0 0 0 167.58767483016709 112.62435828832895 0 112.62435828832895 -245.31983979820507 0 0 0 0 98.793442473514006 -11.403740648675011 0 -11.403740648675011 -321.20045299606863 0 0 0 0 72.718390790047124 -18.416672473384097 0 -18.416672473384097 -187.24267830596364 0 0 0 0 28.9306767323651 -90.340684654378492 0 -90.340684654378492 -305.19759753870312 0 0 0 0 -31.025977145502111 131.41695131258166 0 131.41695131258166 -246.19847454994374 0 0 0 0 -11.190965015848633 -2.0890688019062509 0 -2.0890688019062509 -189.22785657866552 0 0 0 0 90.057733739085961 107.03719006316533 0 107.03719006316533 -235.24628116302119 0 0 0 0 -47.356857510108966 35.92850620012905 0 35.92850620012905 -94.729086602499592 0 0 0 0 -17.287561503384495 17.7566916434007 0 17.7566916434007 -83.753106662305072 0 0 0 0 1.9065677821168947 10.698673455958506 0 10.698673455958506 -13.678115568998606 0 0 0 0 -8.2641687023278791 63.581656624941388 0 63.581656624941388 -55.361608498278656 0 0 0 0 84.386923633239348 -162.47134362006909 0 -162.47134362006909 -43.972868300290429 0 0 0 0 -1.55461449505259 0.38263508620668318 0 0.38263508620668318 3.9278518077724982 0 0 0 0 -22.464579241743195 54.920443801000147 0 54.920443801000147 128.09383448724111 0 0 0 0 -8.8752153158166607 10.694240080116487 0 10.694240080116487 11.421825353979244 0 0 0 0 -5.5861453916731989 71.286967740328691 0 71.286967740328691 72.594243779389217 0 0 0 0 -9.5973319724143948 44.628101233422058 0 44.628101233422058 53.270833168513491 0 0 0 0 15.138692471486195 52.434388728835394 0 52.434388728835394 30.255669180047093 0 0 0 0 11.689282083552825 38.502034089149674 0 38.502034089149674 17.680190581741044 0 0 0 0 7.3661792237544432 21.097397240271675 0 21.097397240271675 19.716820794041269 0 0 0 0 0.61054565291851759 19.286469309125096 0 19.286469309125096 -18.026434407860506 0 0 0 0 1.1671592983553865 22.960714042652526 0 22.960714042652526 3.617441241956513 0 0 0 0 1.7030023962315965 27.342853954543116 0 27.342853954543116 -31.372613827228662 0 0 0 0 11.46747370850062 24.03332513825444 0 24.03332513825444 3.8664939503651112 0 0 0 0 4.5363105069845915 34.514523234247463 0 34.514523234247463 -16.37671300128568 0 0 0 0 -4.7740560894295498 36.126582575898396 0 36.126582575898396 -21.017090513772757 0 0 0 0 -10.807909795812691 44.254107804486701 0 44.254107804486701 -8.2998624707379918 0 0 0 0 -12.071847975137644 43.578020871223998 0 43.578020871223998 -44.601089892617892 0 0 0 0 1.2687223627872299 33.986335233435966 0 33.986335233435966 -4.3786084880121052 0 0 0 0 -1.6456767209682539 28.897659029719478 0 28.897659029719478 -14.465474130160175 0 0 0 0 -68.917816068511456 62.547134867927525 0 62.547134867927525 -112.20063215569826 0 0 0 0 -22.237194618996 39.894536883031833 0 39.894536883031833 27.982864202218479 0 0 0 0 3.6118542252952466 58.060153312943328 0 58.060153312943328 47.293780507626082 0 0 0 0 87.534573455159261 84.254940389535477 0 84.254940389535477 -62.299679070798447 0 0 0 0 -0.90529033307889506 8.9281349987427348 0 8.9281349987427348 -15.438216854698538 0 0 0 0 59.21410465912777 24.90543721159338 0 24.90543721159338 -53.716881790547632 0 0 0 0 7.9199384030362125 58.091922062794765 0 58.091922062794765 -55.496092445537215 0 0 0 0 -3.6380555545620155 17.504250574907928 0 17.504250574907928 -81.035705476810108 0 0 0 0 -52.071126540424302 14.414379248592013 0 14.414379248592013 20.784688193816692 0 0 0 0 -0.30772187045810995 9.2430911426642979 0 9.2430911426642979 -47.138641473633243 0 0 0 0 12.890175470507529 16.762704755941741 0 16.762704755941741 -77.120637102605542 0 0 0 0 31.681249907807796 318.62784501101123 0 318.62784501101123 -63.59038387624787 0 0 0 0 -0.99310158683221061 -4.6567577818507573 0 -4.6567577818507573 -14.937940548386095 0 0 0 0 0.39655713682560645 0.57210357059751971 0 0.57210357059751971 -5.4469790351368204 0 0 0 0 -0.016824617458041757 49.719691567210248 0 49.719691567210248 -27.85618018706009 0 0 0 0 9.1513610397742013 44.884071707452676 0 44.884071707452676 -75.519128921558149 0 0 0 0 -5.4910815634537471 23.289171469771702 0 23.289171469771702 -41.904285481038386 0 0 0 0 5.2138907058005088 4.8198659479557193 0 4.8198659479557193 -7.1672324902645244 0 0 0 0 -29.383303058100864 45.08614886867872 0 45.08614886867872 2.6126686068164418 0 0 0 0 -8.088269302432991 3.3593193219063551 0 3.3593193219063551 0.45932245793678916 0 0 0 0 0.031287823134334758 51.852264172179275 0 51.852264172179275 -123.73658599035116 0 0 0 0 -0.0024504167959094048 4.4242666514765006 0 4.4242666514765006 -2.6241157984386518 0 0 0 0 3.147422049720916 0.69759888567079287 0 0.69759888567079287 -4.4990132982533453 0 0 0 0 -0.11837641530229348 -3.05571405671256 0 -3.05571405671256 -1.9979495318424405 0 0 0 0 -1.0866933616489405 12.143295407600817 0 12.143295407600817 -4.196170050650835 0 0 0 0 -18.758893689635443 19.534371908783214 0 19.534371908783214 24.045557315374026 0 0 0 0 -1.4948416039704142 11.161213436574428 0 11.161213436574428 2.0392490930926783 0 0 0 0 -12.236160574502719 35.326569374585233 0 35.326569374585233 25.797548395872582 0 0 0 0 12.270711728404422 18.033286119591139 0 18.033286119591139 -49.356820616601908 0 0 0 0 -9.674487473400518 11.480884141819985 0 11.480884141819985 0.88400467940925864 0 0 0 0 -285.67455088841962 9.9413839196786284 0 9.9413839196786284 480.76421602287519 0 0 0 0 -5.2254017332015792 71.658118685867521 0 71.658118685867521 16.62317492155421 0 0 0 0 3.2012509443155182 -1.5910475980339527 0 -1.5910475980339527 -0.55558515836567324 0 0 0 0 -0.48451737870345823 111.26733963501465 0 111.26733963501465 208.64424200323992 0 0 0 0 9.9611027603306752 3.2984729849541168 0 3.2984729849541168 1.7279295176015523 0 0 0 0 -4.4811879740882432 2920.0880167864525 0 2920.0880167864525 3166.5917888681397 0 0 0 0 1950.5661567193456 1149.9146688895707 0 1149.9146688895707 2.5653659623427054 0 0 0 0 4.2490779961087917 697.80112945221845 0 697.80112945221845 -412.57977609147201 0 0 0 0 987.26325635362446 2014.4695899974504 0 2014.4695899974504 224.25785173942131 0 0 0 0 525.78234256213182 738.15167709715024 0 738.15167709715024 351.93933448544703 0 0 0 0 -1.1282087667866989 3.8168821451487247 0 3.8168821451487247 2.6149941029112824 0 0 0 0 83.25109157661791 76.428059736022988 0 76.428059736022988 -27.715153543424094 0 0 0 0 6.6805346361131228 3.8264322686697341 0 3.8264322686697341 4.3122336160735131 0 0 0 0 -46.456363607765525 83.607394945625856 0 83.607394945625856 425.34948088616511 0 0 0 0 -24.694425750738446 10.766071812648079 0 10.766071812648079 43.5078053540783 0 0 0 0 1962.3620966614617 985.3987869324701 0 985.3987869324701 495.98992041272868 0 0 0 0 26.151338424327093 11.05096836972308 0 11.05096836972308 2.7433457632408036 0 0 0 0 468.54304847825551 242.42729229920224 0 242.42729229920224 -315.07198263797181 0 0 0 0 -98.499010730534792 25.896236748412775 0 25.896236748412775 46.454756115039345 0 0 0 0 2.6546940322971864 8.3663677154557945 0 8.3663677154557945 4.9383724226669585 0 0 0 0 -3.7930091343951062 48.745755396324967 0 48.745755396324967 76.459809843305266 0 0 0 0 24.257729894103278 35.862281464379144 0 35.862281464379144 20.342777613171506 0 0 0 0 1.3192206650455489 15.542675602440532 0 15.542675602440532 4.1235394060185513 0 0 0 0 -9.1255842560749443 29.581833029373229 0 29.581833029373229 -10.625198337918846 0 0 0 0 -11.159564125804536 23.155215009682252 0 23.155215009682252 6.6159218182874611 0 0 0 0 -5.8833704595308518 22.901442070695339 0 22.901442070695339 1.7853994789002172 0 0 0 0 -22.805894481510222 17.063061640879084 0 17.063061640879084 2.3656737862393413 0 0 0 0 -5.6443897871782838 17.117854534924902 0 17.117854534924902 -0.50397195378989634 0 0 0 0 4.7137704048654996 23.891707356931875 0 23.891707356931875 -2.0442423431513816 0 0 0 0 -9.6446400043205358 -3.5257982933544554 0 -3.5257982933544554 43.565290115817334 0 0 0 0 -8.4950806316683156 6.5219083639566406 0 6.5219083639566406 0.75948915677452078 0 0 0 0 -3.384888609183804 18.568647950986076 0 18.568647950986076 -1.6284410087561518 0 0 0 0 7.9363794230666826 46.495197694525814 0 46.495197694525814 42.023405987623846 0 0 0 0 -4.7997999224899104 4.4833943166959216 0 4.4833943166959216 95.549666559170873 0 0 0 0 -2.9194917917685643 3.0421509059919032 0 3.0421509059919032 1.0843770864700559 0 0 0 0 -4.4030439112393651 -37.15028875531425 0 -37.15028875531425 158.36124186657253 0 0 0 0 2.0414601087291544 4.8669021331630518 0 4.8669021331630518 -2.2407775451257308 0 0 0 0 94.933175979720545 73.120269371705945 0 73.120269371705945 30.59280907422982 0 0 0 0 27.814704355507274 34.070008960916311 0 34.070008960916311 -59.278339567696094 0 0 0 0 0.77444454550277442 26.178644555147912 0 26.178644555147912 7.4254542397102341 0 0 0 0 -2.8830451839090756 17.878135599184162 0 17.878135599184162 -9.9229699976588108 0 0 0 0 -3.4982789045825484 33.01575395313921 0 33.01575395313921 -0.75644214430212742 0 0 0 0 2.589339660254609 28.582038500278713 0 28.582038500278713 -0.62107047313543262 0 0 0 0 -1.5605330744874664 27.720830710924929 0 27.720830710924929 6.321075083335927 0 0 0 0 27.051097086012305 40.557960480668044 0 40.557960480668044 -0.047079528252652381 0 0 0 0 39.002203119292972 50.722451632020238 0 50.722451632020238 16.74805537291104 0 0 0 0 4.8694701617297369 24.142091968474801 0 24.142091968474801 -5.7651579396108303 0 0 0 0 4.6901055259731947 27.167378002439364 0 27.167378002439364 3.8950501224026084 0 0 0 0 4.8823340125527466 31.689752925871289 0 31.689752925871289 -15.983098949043779 0 0 0 0 -1.5021041367726866 41.315251435531536 0 41.315251435531536 6.9522323122591843 0 0 0 0 6.3259475061058765 49.095727308435016 0 49.095727308435016 0.011766853087465279 0 0 0 0 39.698138144958648 55.405487747164443 0 55.405487747164443 -34.113355538385804 0 0 0 0 4.1533136832003947 41.550936403833475 0 41.550936403833475 -7.9643189621419879 0 0 0 0 0.56863458722364157 34.173954234385747 0 34.173954234385747 -16.650172459550959 0 0 0 0 2.6363067683888062 14.662996143859147 0 14.662996143859147 -7.685889027095385 0 0 0 0 4.759200420245179 20.264355948515004 0 20.264355948515004 -1.2498118638395681 0 0 0 0 7.8735708630104568 23.052143252060432 0 23.052143252060432 -15.743136635154116 0 0 0 0 27.303643366205506 34.316920529970957 0 34.316920529970957 -56.267992010107264 0 0 0 0 40.79191287397407 14.397991136849669 0 14.397991136849669 -99.294531157815072 0 0 0 0 43.235964522107679 75.852412411742989 0 75.852412411742989 29.164208947127918 0 0 0 0 5.1148255052830791 24.62396547854587 0 24.62396547854587 8.9763330506975763 0 0 0 0 -0.95226776327953644 14.362273299151695 0 14.362273299151695 -14.606918032759438 0 0 0 0 -33.956182055175304 44.065028808188799 0 44.065028808188799 32.977032778508146 0 0 0 0 -14.723339822718117 97.502671312635357 0 97.502671312635357 220.69254307688971 0 0 0 0 1.0344837311654373 2.1082335871755333 0 2.1082335871755333 0.43295159583202825 0 0 0 0 -35.861755785754212 90.3650815379915 0 90.3650815379915 284.19601666717062 0 0 0 0 8.1698840823955834 123.76919030005956 0 123.76919030005956 213.60726158374018 0 0 0 0 7.9416191143245669 36.423590063513984 0 36.423590063513984 24.005292535250192 0 0 0 0 -25.12929882689059 78.923220108859823 0 78.923220108859823 68.238907013779681 0 0 0 0 61.059716237650719 112.58276212351484 0 112.58276212351484 -145.33565741645725 0 0 0 0 2.0495705244247802 44.198420665619778 0 44.198420665619778 85.353293831347401 0 0 0 0 -34.89389109199692 53.303412097902765 0 53.303412097902765 243.3834920974914 0 0 0 0 -5.524058161987341 172.50799708525301 0 172.50799708525301 236.52194784303902 0 0 0 0 16.318372846217244 122.9207269516628 0 122.9207269516628 -32.119621751931845 0 0 0 0 24.111696202324822 53.57040529807076 0 53.57040529807076 37.391696673171865 0 0 0 0 100.99590816557429 245.64175068045654 0 245.64175068045654 -255.32690367422765 0 0 0 0 74.486030703112192 -36.68008983519394 0 -36.68008983519394 32.000811080841231 0 0 0 0 -42.327141635010776 199.3147856826854 0 199.3147856826854 -164.18291039667383 0 0 0 0 22.273444460864994 129.23497846278042 0 129.23497846278042 -166.07051794341533 0 0 0 0 250.9706776116509 162.06145924398879 0 162.06145924398879 -305.07233107767752 0 0 0 0 56.954501984677336 333.13068279827348 0 333.13068279827348 -264.76754041973618 0 0 0 0 -83.845869788718119 143.64202658333306 0 143.64202658333306 -252.02304698943044 0 0 0 0 -133.71485236544686 191.57761624947307 0 191.57761624947307 -157.57073929048966 0 0 0 0 -1.9930859174201032 122.48762141147381 0 122.48762141147381 -175.00444655219962 0 0 0 0 -65.775240528084396 186.08890508895092 0 186.08890508895092 -156.15277367280942 0 0 0 0 -21.201374325588404 110.1105488671019 0 110.1105488671019 -90.557754315559578 0 0 0 0 29.915537246111427 56.321154223986213 0 56.321154223986213 37.891179887978296 0 0 0 0 27.706681579116946 55.791618246901514 0 55.791618246901514 37.491968703562776 0 0 0 0 -79.113025818143797 168.15623931074333 0 168.15623931074333 -140.05393862552592 0 0 0 0 4.2506947118890821 73.641301752264553 0 73.641301752264553 -57.601759392262466 0 0 0 0 -4.9526028003383544 129.05491652534693 0 129.05491652534693 -61.780733817602595 0 0 0 0 20.215946517913835 115.97973257010563 0 115.97973257010563 -116.70499163202476 0 0 0 0 -10.373678378906334 158.23808375793305 0 158.23808375793305 -138.20729155138542 0 0 0 0 -2.7018295297311852 104.63621423497534 0 104.63621423497534 -54.600883762228477 0 0 0 0 62.699011158998474 165.97083220790228 0 165.97083220790228 -140.80547775743253 0 0 0 0 31.719239919364213 56.99464120442812 0 56.99464120442812 37.926897551990066 0 0 0 0 -40.730342785635003 80.453422858750855 0 80.453422858750855 -76.016687310140696 0 0 0 0 102.40454005471838 136.63050976878731 0 136.63050976878731 -155.54074113943352 0 0 0 0 72.495632818092417 125.12796989630078 0 125.12796989630078 -7.2175041939335642 0 0 0 0 78.895897542795865 111.889151766758 0 111.889151766758 -68.319203238195769 0 0 0 0 137.2798589228405 225.84476359969631 0 225.84476359969631 50.133332107325259 0 0 0 0 34.046944297396195 -70.863915688161242 0 -70.863915688161242 638.08357943166629 0 0 0 0 34.059027018112829 -83.814291387978301 0 -83.814291387978301 126.08486835721123 0 0 0 0 -47.648623824868992 46.779840977957065 0 46.779840977957065 140.92141074240499 0 0 0 0 -46.853591169026913 63.336500255929423 0 63.336500255929423 445.67318787464319 0 0 0 0 -36.265454957130714 43.848892476133187 0 43.848892476133187 134.94815579673741 0 0 0 0 -26.618477821029956 41.368373543009511 0 41.368373543009511 133.69520263399681 0 0 0 0 -16.627344318523683 143.42008315313433 0 143.42008315313433 110.28336335146014 0 0 0 0 -32.858478561567608 45.782253965677228 0 45.782253965677228 122.8990000743579 0 0 0 0 -14.173427087967866 93.721287329877669 0 93.721287329877669 96.741169803863158 0 0 0 0 61.447722272634564 69.967604312201729 0 69.967604312201729 101.49330171672773 0 0 0 0 12.164020326985337 18.542263619139703 0 18.542263619139703 131.10579060004966 0 0 0 0 -35.952855547489889 30.283278209499258 0 30.283278209499258 157.74331382078526 0 0 0 0 7.6637326611562457 28.615792066821086 0 28.615792066821086 22.973767376795877 0 0 0 0 6.5580102300300496 58.198584082238085 0 58.198584082238085 146.39071124274051 0 0 0 0 23.65735575662984 48.16472920760134 0 48.16472920760134 19.236715008279134 0 0 0 0 31.899889046377211 65.747506512034306 0 65.747506512034306 56.311652405085624 0 0 0 0 16.390806411698918 35.901028141613125 0 35.901028141613125 -15.018637979670103 0 0 0 0 8.9515862159896642 -7.8002017015533056 0 -7.8002017015533056 -156.47576314640173 0 0 0 0 0.31402179957564158 -0.48193998957509621 0 -0.48193998957509621 -14.840492139542484 0 0 0 0 -11.040293946787642 85.774400956500358 0 85.774400956500358 34.538333944612532 0 0 0 0 24.670575514922263 34.614913009206774 0 34.614913009206774 27.766108509303081 0 0 0 0 -258.97885080004926 145.48033509380912 0 145.48033509380912 12.331374530636822 0 0 0 0 22.315445545465991 90.220411987115767 0 90.220411987115767 19.362127418586169 0 0 0 0 -4.7539117865671869 21.734352918021614 0 21.734352918021614 -0.0040742601995589212 0 0 0 0 -16.103899850942383 15.916404635998902 0 15.916404635998902 1.4414605915089282 0 0 0 0 -7.6020861799624981 23.257649143524759 0 23.257649143524759 10.167062552151037 0 0 0 0 -201.49382513984165 52.77069308506907 0 52.77069308506907 -34.626421753702743 0 0 0 0 -3.2100073935434921 16.10649503528839 0 16.10649503528839 8.3693411982385442 0 0 0 0 -8.0442341364614549 25.781619996731024 0 25.781619996731024 3.0925252780580195 0 0 0 0 31.383906718852813 -3.6121600960395881 0 -3.6121600960395881 -39.781036054751894 0 0 0 0 -3.3795433848429752 3.4128317400286079 0 3.4128317400286079 -2.8403940392680624 0 0 0 0 3.1317182238130243 7.2962406402541404 0 7.2962406402541404 8.832544259936185 0 0 0 0 596.50622198391648 1095.9117356768984 0 1095.9117356768984 -249.5209645213472 0 0 0 0 -2575.9550781276921 2055.1816501530266 0 2055.1816501530266 10.442953836287924 0 0 0 0 -6.964166950234187 3.212708015094222 0 3.212708015094222 -1.6599352064898198 0 0 0 0 -274.42903337534517 -489.46031305486395 0 -489.46031305486395 -217.37008602406422 0 0 0 0 -2.8156937277817633 15.529279867580044 0 15.529279867580044 0.040262619636656512 0 0 0 0 -177.42279704271641 -7.8796132372881402 0 -7.8796132372881402 82.39784235242405 0 0 0 0 -268.63919552271545 -139.13772342997254 0 -139.13772342997254 -71.945881587227632 0 0 0 0 -547.87956889656925 -69.516062607959611 0 -69.516062607959611 223.54420651169494 0 0 0 0 -286.45027401558764 120.81300908581761 0 120.81300908581761 72.819605778537152 0 0 0 0 -297.74317267420702 226.49156972218043 0 226.49156972218043 333.43180970677713 0 0 0 0 121.0338589307139 14.055124623468146 0 14.055124623468146 101.85006176812749 0 0 0 0 1683.3990855917109 -32.085367690004205 0 -32.085367690004205 -338.24407352268463 0 0 0 0 202.17025743328122 338.11513548321818 0 338.11513548321818 -59.429006857186323 0 0 0 0 17.867327330285946 18.982471727344937 0 18.982471727344937 22.050534596543798 0 0 0 0 -14.001365646734484 -0.47098704739255481 0 -0.47098704739255481 126.5508514844114 0 0 0 0 -0.54126138009087299 39.604305190976447 0 39.604305190976447 37.632769446689053 0 0 0 0 158.00615649345855 -394.22188840642775 0 -394.22188840642775 -219.79499614584802 0 0 0 0 -483.19300312461201 343.46058410798651 0 343.46058410798651 -245.97285525207553 0 0 0 0 -1247.3004726859181 618.48304942710456 0 618.48304942710456 -33.100217295796028 0 0 0 0 8.884644620131958 21.050726288854847 0 21.050726288854847 26.376044831394893 0 0 0 0 416.03915720975056 55.882317886287638 0 55.882317886287638 -169.13706996789597 0 0 0 0 -552.60273184783 468.46331295592972 0 468.46331295592972 -294.3984211806528 0 0 0 0 -595.12468169583371 711.98377713595619 0 711.98377713595619 -0.36043108752346598 0 0 0 0 -1131.6225007343237 254.44089718109171 0 254.44089718109171 6.3685108054050943 0 0 0 0 -1550.8704850037702 713.8860949610189 0 713.8860949610189 0.099496143913711421 0 0 0 0 1444.2104792903701 -313.41466501178729 0 -313.41466501178729 -67.295158002118114 0 0 0 0 398.16559657943435 763.23530854585988 0 763.23530854585988 1.1161597915941659 0 0 0 0 -41.113048958282889 276.05094394203479 0 276.05094394203479 -102.20095694408519 0 0 0 0 -539.08965359315243 554.9252132044212 0 554.9252132044212 28.997824299076456 0 0 0 0 273.30211668636184 175.01401122404059 0 175.01401122404059 -151.79610340754334 0 0 0 0 307.21977484948002 117.62517185292745 0 117.62517185292745 -191.19266837796022 0 0 0 0 158.96570378780598 170.37966726750892 0 170.37966726750892 -61.888906425549067 0 0 0 0 200.5173661778681 406.35904197719356 0 406.35904197719356 -296.06960860639811 0 0 0 0 -445.41388895027922 472.1557964121821 0 472.1557964121821 -76.292404689418618 0 0 0 0 118.93381596420659 277.02853597440844 0 277.02853597440844 -187.50292131691117 0 0 0 0 -92.023722457051917 250.1042619588552 0 250.1042619588552 -19.012644606336835 0 0 0 0 34.528609079195121 276.50237081577598 0 276.50237081577598 -118.11562759675144 0 0 0 0 -72.548922340742138 190.96296632878511 0 190.96296632878511 7.9489620452513918 0 0 0 0 -295.88082725773711 365.06666591462272 0 365.06666591462272 -14.481457180787402 0 0 0 0 -264.55644131281588 466.82082499733224 0 466.82082499733224 -155.70607020866009 0 0 0 0 -87.735938346518992 383.65033942456967 0 383.65033942456967 -211.25567880147719 0 0 0 0 -369.64486782898166 471.22430097699544 0 471.22430097699544 -50.670732908358332 0 0 0 0 -732.03396660603175 511.56021842252812 0 511.56021842252812 -62.795866507327446 0 0 0 0 280.807826288059 797.03597708339476 0 797.03597708339476 1526.156114088546 0 0 0 0 12.336588185357627 29.21466469990623 0 29.21466469990623 39.695636184875355 0 0 0 0 6.384047662218677 6.4560804705248955 0 6.4560804705248955 7.2626562782299402 0 0 0 0 1120.1941907207438 351.12505702860653 0 351.12505702860653 -889.44824787520338 0 0 0 0 261.6696428974974 516.04669699942315 0 516.04669699942315 722.49828583235012 0 0 0 0 -428.88369377367235 312.47257350748623 0 312.47257350748623 -121.19908180735365 0 0 0 0 13.723828348769828 27.359431379406388 0 27.359431379406388 41.736508935640302 0 0 0 0 -118.65131966189074 270.36973305353604 0 270.36973305353604 -147.9494422187563 0 0 0 0 -135.78955217417388 -212.29371714447552 0 -212.29371714447552 -169.65673102502842 0 0 0 0 140.24992774076418 -23.129536586791801 0 -23.129536586791801 -43.434195280642598 0 0 0 0 7.4583363258643658 57.165552084785304 0 57.165552084785304 -46.381922275601482 0 0 0 0 216.77016948942037 -133.18510679039173 0 -133.18510679039173 -316.74080766768748 0 0 0 0 -195.18807518522954 981.78207736005425 0 981.78207736005425 -985.64572865506852 0 0 0 0 938.22632867924403 -45.959276387206046 0 -45.959276387206046 -1201.5731270430697 0 0 0 0 249.32621899025253 -388.42262712936645 0 -388.42262712936645 282.6040996403608 0 0 0 0 8.9529366684000706 281.07776225292037 0 281.07776225292037 -219.82933029617379 0 0 0 0 -187.041947096066 383.44071823689956 0 383.44071823689956 -271.6830846263183 0 0 0 0 285.63398953975411 -83.364603061241723 0 -83.364603061241723 74.084978088889329 0 0 0 0 55.557948465839772 88.854036717106268 0 88.854036717106268 -47.698163078733643 0 0 0 0 -41.146314767972882 74.008209620951831 0 74.008209620951831 53.807140506620158 0 0 0 0 -109.40426689032029 150.80808943339071 0 150.80808943339071 -80.45085486825883 0 0 0 0 53.39547293978103 143.92989107516769 0 143.92989107516769 65.184618199466058 0 0 0 0 97.586726046472904 93.644606772570114 0 93.644606772570114 120.09391365457122 0 0 0 0 -43.879523993062321 30.081624808371998 0 30.081624808371998 122.19376818752789 0 0 0 0 19.833870029206309 129.22791453696632 0 129.22791453696632 72.903251460435285 0 0 0 0 -35.447863548806879 118.6976426744523 0 118.6976426744523 18.498115511523849 0 0 0 0 -12.124817748379428 99.2660930067359 0 99.2660930067359 -8.7971047885075677 0 0 0 0 36.821050841645018 106.02422834094047 0 106.02422834094047 -20.025562032583551 0 0 0 0 50.280225758349843 157.40563202697376 0 157.40563202697376 93.336860157680348 0 0 0 0 43.700159166659432 36.696211725917237 0 36.696211725917237 3.3115196636499604 0 0 0 0 -19.29975928539352 -15.841943580635416 0 -15.841943580635416 500.48146323842593 0 0 0 0 -35.285319249458837 37.327949252056044 0 37.327949252056044 -0.098975040518780588 0 0 0 0 7.9197536382707767 37.994361323682824 0 37.994361323682824 116.63428359782847 0 0 0 0 26.066608806977456 154.40139701633598 0 154.40139701633598 133.74808924502577 0 0 0 0 17.094158667256124 44.645237563643605 0 44.645237563643605 -21.308044337434694 0 0 0 0 6.5638135434973037 36.494130718623659 0 36.494130718623659 30.028857553620355 0 0 0 0 30.530722280703912 61.03118734562895 0 61.03118734562895 34.078330538307398 0 0 0 0 24.667095464816157 61.2641870559155 0 61.2641870559155 -66.965608172293287 0 0 0 0 14.384280836318794 51.345933384363889 0 51.345933384363889 53.447226459647936 0 0 0 0 0.40534906788110447 -1.1450016032449639 0 -1.1450016032449639 0.0086877857080622789 0 0 0 0 15.849485644976255 13.279055021885483 0 13.279055021885483 18.693825421882906 0 0 0 0 104.67250936625351 62.984943121919059 0 62.984943121919059 231.11845224637364 0 0 0 0 61.549115033063572 101.00559492211323 0 101.00559492211323 64.995409492134058 0 0 0 0 -81.75106624016189 23.58987077474012 0 23.58987077474012 222.81199840383852 0 0 0 0 -205.06980655193183 309.85482661486822 0 309.85482661486822 195.00958804134279 0 0 0 0 27.530150991689879 48.001356915268843 0 48.001356915268843 -38.048175874435401 0 0 0 0 -105.33163041065563 351.32888631417882 0 351.32888631417882 -650.81856838635576 0 0 0 0 -182.8507180546876 404.78829605974897 0 404.78829605974897 -627.75038640401181 0 0 0 0 -389.99171527436556 48.204496194855892 0 48.204496194855892 -362.88488148817851 0 0 0 0 -260.86457132856594 301.45997025634279 0 301.45997025634279 -117.68845777571187 0 0 0 0 -9.2431318222515984 -46.561451915102225 0 -46.561451915102225 -433.30887245184567 0 0 0 0 -277.73430027547874 497.07185726226453 0 497.07185726226453 -954.61703618962201 0 0 0 0 -387.34628212000825 128.50452429537108 0 128.50452429537108 -170.64512244922662 0 0 0 0 49.766845573358367 78.341206341499955 0 78.341206341499955 -47.87198185406595 0 0 0 0 579.39015228349308 -207.38806760151965 0 -207.38806760151965 -238.32897796316684 0 0 0 0 24.314859330857871 101.48693529181764 0 101.48693529181764 54.324852428260783 0 0 0 0 109.90381643208093 -182.67029971921511 0 -182.67029971921511 59.926953181173303 0 0 0 0 -63.937099810591462 117.49680396038457 0 117.49680396038457 -67.43391919293208 0 0 0 0 -59.275236279127057 133.92066468532721 0 133.92066468532721 -51.768705181493715 0 0 0 0 -66.310088298436312 144.0492499092652 0 144.0492499092652 -63.915761924305571 0 0 0 0 -118.47787983421586 78.716338978738349 0 78.716338978738349 187.00983454492234 0 0 0 0 -2.7786793018458411 433.11898799763003 0 433.11898799763003 24.936985615706362 0 0 0 0 -124.52781243203208 257.92124037307804 0 257.92124037307804 -176.68972821522038 0 0 0 0 376.11177602049429 376.71149167927069 0 376.71149167927069 -278.6576793181739 0 0 0 0 -480.05464950801979 509.60738935397603 0 509.60738935397603 -186.53852210921468 0 0 0 0 -131.55555831693346 135.42985161543038 0 135.42985161543038 -162.74761491434765 0 0 0 0 -352.52012778667267 746.69433646551624 0 746.69433646551624 -492.48489928113122 0 0 0 0 14.679684560065652 142.8190430160721 0 142.8190430160721 -75.078587280959255 0 0 0 0 55.340236364478258 81.855624138002071 0 81.855624138002071 -49.27523957965073 0 0 0 0 653.44038971545524 -309.72546719222191 0 -309.72546719222191 -168.66457489687309 0 0 0 0 35.888689597155874 98.61089770348508 0 98.61089770348508 -41.419890526575102 0 0 0 0 279.37710290586983 119.46437734863866 0 119.46437734863866 -141.21036102106154 0 0 0 0 -66.835659587624832 775.45333356386254 0 775.45333356386254 -763.25764415545564 0 0 0 0 -802.38915414561052 87.258647811424453 0 87.258647811424453 752.50521749069594 0 0 0 0 -9.0641647763308129 3.5518221808798103 0 3.5518221808798103 18.178663623599785 0 0 0 0 23.5479680530553 50.073347301165285 0 50.073347301165285 79.276620362168671 0 0 0 0 -128.45103151460353 31.010393605693025 0 31.010393605693025 133.61601941950357 0 0 0 0 -238.97115590301109 519.01390729710693 0 519.01390729710693 -801.31683695768879 0 0 0 0 -214.43812348030042 109.09392175008907 0 109.09392175008907 106.18612347703311 0 0 0 0 -54.432148175939801 130.44861549310372 0 130.44861549310372 67.272439016294811 0 0 0 0 -91.233219927285973 253.29119941085446 0 253.29119941085446 -3.1087410568052292 0 0 0 0 72.828135703879525 -33.187878164451831 0 -33.187878164451831 34.239306961531838 0 0 0 0 110.21052534750197 -84.15846785008398 0 -84.15846785008398 89.429801625323307 0 0 0 0 -0.12365118406600573 -0.18475336345559867 0 -0.18475336345559867 4.342937513434137 0 0 0 0 -38.829724603157956 166.07790409534027 0 166.07790409534027 -7.970797126468824 0 0 0 0 405.09006829105783 126.07518670415811 0 126.07518670415811 -50.005913333273384 0 0 0 0 12.390724302822491 37.941303670682828 0 37.941303670682828 7.7185048032697523 0 0 0 0 115.41098714075633 81.221352333315735 0 81.221352333315735 -21.16110733840469 0 0 0 0 16.415295253020133 42.486897508401015 0 42.486897508401015 28.4833226804503 0 0 0 0 15.907800298657733 33.632102870596697 0 33.632102870596697 10.77311799365151 0 0 0 0 59.894034770935832 -13.84387028999754 0 -13.84387028999754 42.79573260064717 0 0 0 0 3.9636269286133228 13.236310921685742 0 13.236310921685742 3.8225878605986026 0 0 0 0 16.225334179594938 44.275850462453491 0 44.275850462453491 3.7280545482717571 0 0 0 0 4.231366668100236 -2.3165413548704237 0 -2.3165413548704237 203.69239729043329 0 0 0 0 12.409961771155281 18.200643705348938 0 18.200643705348938 -5.1336317287961037 0 0 0 0 23.924623026008604 62.079752404695299 0 62.079752404695299 -21.665753333529267 0 0 0 0 20.472201989393625 30.707115841287333 0 30.707115841287333 4.381858581711505 0 0 0 0 78.834951538738096 36.901574849674944 0 36.901574849674944 -33.164798429077337 0 0 0 0 -423.59959979033738 494.58402950122399 0 494.58402950122399 -601.154101127275 0 0 0 0 -36.494089484884171 29.25304521164071 0 29.25304521164071 50.553081370569998 0 0 0 0 -0.87085023278922336 3.7175436780199789 0 3.7175436780199789 2.6141390394008188 0 0 0 0 5.1909471916989105 3.9815548667797458 0 3.9815548667797458 -13.969570830698558 0 0 0 0 -492.995635428073 507.27424780019282 0 507.27424780019282 -267.11084010732884 0 0 0 0 -434.83989730298345 471.48744137694302 0 471.48744137694302 -166.83342745093978 0 0 0 0 -463.92865951267595 389.5970134034178 0 389.5970134034178 -368.1004217715963 0 0 0 0 -813.4230068346078 296.23706893393683 0 296.23706893393683 -173.10578141064616 0 0 0 0 -1148.8655817209947 894.03353578702445 0 894.03353578702445 -437.88341626644251 0 0 0 0 -47.563487525585515 102.34053769633465 0 102.34053769633465 -268.13644771813415 0 0 0 0 -290.57523027765274 465.2201984313615 0 465.2201984313615 -498.74939761185669 0 0 0 0 3.3740339250653051 30.737021108459885 0 30.737021108459885 20.13772946332756 0 0 0 0 166.47253084444674 -169.70106046411092 0 -169.70106046411092 -494.06571311107837 0 0 0 0 -0.26863482985990572 0.21484835947418901 0 0.21484835947418901 -3.0760904704623613 0 0 0 0 299.1936581598311 113.39740531751158 0 113.39740531751158 -483.7429487350164 0 0 0 0 -1.0183032704209154 3.7340163229705468 0 3.7340163229705468 -2.4024819137601869 0 0 0 0 2.8674314988235494 -1.5746443642611325 0 -1.5746443642611325 -1.9784677832801094 0 0 0 0 -50.042309297481552 20.573003992903978 0 20.573003992903978 -54.788347073429122 0 0 0 0 20.338314394312306 5.9659445595020202 0 5.9659445595020202 0.35857281658199547 0 0 0 0 11.179034191038227 29.124371013997006 0 29.124371013997006 -41.595890115897646 0 0 0 0 21.916798633465078 36.217261115962174 0 36.217261115962174 -129.29906615870277 0 0 0 0 14.121584818421979 12.968865504109999 0 12.968865504109999 -69.45546786308114 0 0 0 0 -9.2921232169028372 294.54299603383697 0 294.54299603383697 400.29160607108133 0 0 0 0 -98.722704278799938 73.464862299493689 0 73.464862299493689 -86.853494386537932 0 0 0 0 5.828675678114223 33.442616659057933 0 33.442616659057933 -1.3745815588668719 0 0 0 0 7.1914180400501095 39.388614686965894 0 39.388614686965894 24.744820985523237 0 0 0 0 -14.588531807814434 3.9805668677008725 0 3.9805668677008725 156.87090215695935 0 0 0 0 11.170715026702965 45.116471505898517 0 45.116471505898517 -73.349063384790497 0 0 0 0 0.43388408470491413 58.751418895175448 0 58.751418895175448 -44.287555676499323 0 0 0 0 1.282904908803232 39.720105102608102 0 39.720105102608102 2.0102201429548332 0 0 0 0 15.074223081304808 34.163829708435514 0 34.163829708435514 -44.260321684962491 0 0 0 0 11.541591912588046 42.473375369000678 0 42.473375369000678 26.043158495776879 0 0 0 0 29.974188625346869 52.71115633379668 0 52.71115633379668 23.547652941813737 0 0 0 0 16.771915342011198 31.34968277725784 0 31.34968277725784 -49.180284126283368 0 0 0 0 11.727177921084262 33.561127925302571 0 33.561127925302571 10.796102545831284 0 0 0 0 17.361256507458165 -33.144271159930213 0 -33.144271159930213 133.19325649837629 0 0 0 0 -70.15685362185468 -9.647417115657845 0 -9.647417115657845 229.58344952296102 0 0 0 0 29.405143990450597 -48.395423384497008 0 -48.395423384497008 50.667710149587947 0 0 0 0 -24.109309207400656 6.1216487453020818 0 6.1216487453020818 29.421046493948779 0 0 0 0 30.863654453562049 -68.880671594189153 0 -68.880671594189153 36.773081281135092 0 0 0 0 -198.03884386835853 243.1268993588601 0 243.1268993588601 -30.822073354902386 0 0 0 0 -70.333034686162136 134.16276562295752 0 134.16276562295752 60.657386313363531 0 0 0 0 -232.29447192256339 -2.9317478495177056 0 -2.9317478495177056 54.91754946445144 0 0 0 0 14.822745694051264 38.938062725732379 0 38.938062725732379 60.063170077565701 0 0 0 0 -103.52909151763015 147.93725688629729 0 147.93725688629729 168.44592133047263 0 0 0 0 -107.46195560011256 135.0907158763257 0 135.0907158763257 190.80019569208707 0 0 0 0 -66.996602350278408 162.54194049655598 0 162.54194049655598 78.03890323224914 0 0 0 0 -12.463748197711539 93.863232631520077 0 93.863232631520077 133.62813306237513 0 0 0 0 -113.83094231958967 -101.06436555812252 0 -101.06436555812252 645.21086808719701 0 0 0 0 -63.184878041065531 93.832762903362891 0 93.832762903362891 211.77939184221032 0 0 0 0 96.152114797034301 44.001345055356069 0 44.001345055356069 -202.46176982464385 0 0 0 0 37.132099206261046 54.702808830748836 0 54.702808830748836 -159.91620520919969 0 0 0 0 1.614480467966132 2.550192054344528 0 2.550192054344528 23.002420585499856 0 0 0 0 12.724196312515062 71.290146658715088 0 71.290146658715088 4.9220065958976598 0 0 0 0 10.795380099792965 47.571878131551784 0 47.571878131551784 -151.5495896650682 0 0 0 0 19.32282707648119 75.660025330776989 0 75.660025330776989 -114.62891436155769 0 0 0 0 646.52389861852862 82.496503346599638 0 82.496503346599638 324.99132592945807 0 0 0 0 13.314501046493433 3.772568916724282 0 3.772568916724282 0.14627961584768734 0 0 0 0 -7.229742012132192 34.990983631687413 0 34.990983631687413 -113.29795648022537 0 0 0 0 -13.684450901986565 5.8426372004323639 0 5.8426372004323639 -159.35506694210926 0 0 0 0 -257.88051118561998 -115.03312050021486 0 -115.03312050021486 516.46944510666071 0 0 0 0 4.7428773546342882 2.4423004922701921 0 2.4423004922701921 0.42521395062312672 0 0 0 0 -223.64736176103179 281.31315129345603 0 281.31315129345603 966.57625583087065 0 0 0 0 -171.26444761470339 372.59364826720048 0 372.59364826720048 888.27681435768318 0 0 0 0 62.569768202563864 15.498142730582913 0 15.498142730582913 -226.54440544475074 0 0 0 0 -160.8676311163872 307.56480452448159 0 307.56480452448159 655.25102105151018 0 0 0 0 -53.394718440758879 79.413019271472876 0 79.413019271472876 -243.60970064727007 0 0 0 0 -158.4299055072479 151.33854796208834 0 151.33854796208834 -166.70228167704772 0 0 0 0 -26.859917806272279 153.34940914604522 0 153.34940914604522 -175.05256784865924 0 0 0 0 -31.941896337477374 137.73668919785996 0 137.73668919785996 -173.60975237098319 0 0 0 0 113.55214115307899 176.5641190912429 0 176.5641190912429 -204.93118524509555 0 0 0 0 83.1767910376293 221.31998184631084 0 221.31998184631084 -244.67818221646303 0 0 0 0 244.35393511001166 271.56292810690866 0 271.56292810690866 -234.69031448339229 0 0 0 0 1.003271451994749 3.0249764875075051 0 3.0249764875075051 3.0700519064123313 0 0 0 0 235.00414676414221 201.33729096242314 0 201.33729096242314 -264.62897765309026 0 0 0 0 96.721908387407893 111.07638132195279 0 111.07638132195279 -283.51436098773411 0 0 0 0 325.87526031737798 427.04007425223972 0 427.04007425223972 -77.891424833549536 0 0 0 0 150.36353029025486 259.08310916819028 0 259.08310916819028 -190.41342918569717 0 0 0 0 60.14734595567279 294.67463257048803 0 294.67463257048803 -200.737659939281 0 0 0 0 149.91054597925023 349.92653745267842 0 349.92653745267842 -170.18403271767602 0 0 0 0 -337.20931546043721 235.94277807072649 0 235.94277807072649 -207.94743772242509 0 0 0 0 52.06986015268194 -120.46392813104831 0 -120.46392813104831 -297.53847667547234 0 0 0 0 19.680419461365091 416.24915109453286 0 416.24915109453286 -552.3851895590924 0 0 0 0 55.369349113243516 276.49551218823763 0 276.49551218823763 -212.01106142144727 0 0 0 0 -120.25170115585934 354.40361626748563 0 354.40361626748563 29.302894123189617 0 0 0 0 102.21987437752978 265.72830204539787 0 265.72830204539787 -159.97763226011011 0 0 0 0 26.384942786418833 362.2982916363253 0 362.2982916363253 -224.8388452963336 0 0 0 0 15.268348603829509 196.92507211289194 0 196.92507211289194 -140.75113819030048 0 0 0 0 -25.26805554942257 201.53951489276733 0 201.53951489276733 -63.679866226302693 0 0 0 0 -28.530214617669117 187.68636105400219 0 187.68636105400219 11.106865674395976 0 0 0 0 -72.380427304873592 169.48180615033561 0 169.48180615033561 137.97565960702559 0 0 0 0 33.873229483401218 55.949294496327248 0 55.949294496327248 38.09645473331426 0 0 0 0 -5.5302508473396301 100.28513671906694 0 100.28513671906694 -8.3637295346125029 0 0 0 0 15.812662943022588 111.74549417330309 0 111.74549417330309 -39.322952161855937 0 0 0 0 3.6215168029411871 141.14130014112379 0 141.14130014112379 -96.822033038537484 0 0 0 0 -35.335123521115747 161.93712952404167 0 161.93712952404167 -115.10230408557459 0 0 0 0 -99.301206112257205 175.17136712859792 0 175.17136712859792 -130.40850060394587 0 0 0 0 -31.878510629929224 164.45386459728797 0 164.45386459728797 -132.50857144973997 0 0 0 0 26.469514567153965 181.76068970227607 0 181.76068970227607 -140.66566212944599 0 0 0 0 -2.4785474440577673 130.83701159483098 0 130.83701159483098 -113.35102339150762 0 0 0 0 -163.85865692383959 100.63676172395208 0 100.63676172395208 98.442281739977261 0 0 0 0 -102.85760135718738 153.75480086715834 0 153.75480086715834 -95.498558586697527 0 0 0 0 -251.31927243876999 248.52978428089773 0 248.52978428089773 61.956969447674055 0 0 0 0 -85.503281569297542 224.10411320684216 0 224.10411320684216 -88.174453226967671 0 0 0 0 -119.39982327327016 285.00260462149527 0 285.00260462149527 -197.58177419907588 0 0 0 0 -20.454663393669762 158.31260996450874 0 158.31260996450874 -130.73450225296256 0 0 0 0 -76.30534364504274 207.94953342569715 0 207.94953342569715 -154.68599813972833 0 0 0 0 -58.2652892703627 214.08438406561618 0 214.08438406561618 -201.40356668595086 0 0 0 0 -70.256087475616368 211.27136680359399 0 211.27136680359399 -184.79956691659754 0 0 0 0 -0.0165544763429466 0.25388009849024229 0 0.25388009849024229 -3.2739977221885397 0 0 0 0 -99.142104241767811 292.71610769715335 0 292.71610769715335 -371.03387145373563 0 0 0 0 -378.35483666647633 399.72396417724303 0 399.72396417724303 -117.64329806130991 0 0 0 0 345.30694081007096 316.99852251778066 0 316.99852251778066 -273.81258458781303 0 0 0 0 512.98022240548744 172.33045043906895 0 172.33045043906895 -153.55352043153107 0 0 0 0 234.9191082091711 229.08408476255499 0 229.08408476255499 91.640040574784507 0 0 0 0 227.41848757909611 214.88317232938425 0 214.88317232938425 107.2082654623955 0 0 0 0 212.45100985073077 246.75430068112473 0 246.75430068112473 87.812949059822131 0 0 0 0 222.83546664335881 226.310157066182 0 226.310157066182 108.08209802428701 0 0 0 0 -480.74590585138503 -117.8620014057924 0 -117.8620014057924 54.241097082325723 0 0 0 0 -87.72101416325313 140.23331133487227 0 140.23331133487227 106.52218686528795 0 0 0 0 -66.412760808489111 41.25415145736406 0 41.25415145736406 1.4842563213896938 0 0 0 0 -126.86973906583444 246.54964971767185 0 246.54964971767185 -180.70049931381072 0 0 0 0 54.862335600657389 54.108177917310968 0 54.108177917310968 -273.79259011752583 0 0 0 0 0.45599595883246025 6.5901030290689846 0 6.5901030290689846 -5.484951360577071 0 0 0 0 180.84160435365629 204.05972868975368 0 204.05972868975368 156.8059505838246 0 0 0 0 -101.46782828090363 86.530636525130831 0 86.530636525130831 -50.902322221343638 0 0 0 0 -1.2851586140246809 4.9847075891020154 0 4.9847075891020154 2.1189418731924228 0 0 0 0 171.104633591327 200.64492104957753 0 200.64492104957753 239.14065497402044 0 0 0 0 -8.6870475659088697 19.880673895968357 0 19.880673895968357 52.052642036083853 0 0 0 0 -5.9093047593946437 8.7653621141070914 0 8.7653621141070914 17.917708436884169 0 0 0 0 -6.1192761142883683 22.051486334670699 0 22.051486334670699 55.456969213919365 0 0 0 0 4.8540008861309616 17.76725615196483 0 17.76725615196483 18.510712193820837 0 0 0 0 -116.60195336745528 7.1480069731114781 0 7.1480069731114781 71.083633014721272 0 0 0 0 -18.511321165598929 -2.8532326311760698 0 -2.8532326311760698 17.370397585720639 0 0 0 0 -37.078233062959043 9.2716807279575733 0 9.2716807279575733 -14.527217853305046 0 0 0 0 -95.332267905047047 -0.94205671117015299 0 -0.94205671117015299 157.5088045027951 0 0 0 0 -144.97668191016419 87.509165190916974 0 87.509165190916974 21.187230012117652 0 0 0 0 -167.76673632173333 164.1566663143094 0 164.1566663143094 -109.88845586052048 0 0 0 0 -151.0229860413092 210.03171281632603 0 210.03171281632603 -169.6565979985171 0 0 0 0 0.30707248208074134 2.1013307675888342 0 2.1013307675888342 1.8219358720513839 0 0 0 0 -76.697165146993939 223.73715800681384 0 223.73715800681384 -349.21662617877882 0 0 0 0 -0.83809166590498307 0.4129712222529065 0 0.4129712222529065 -0.2113532787423118 0 0 0 0 -39.462412718508858 163.30045820198575 0 163.30045820198575 -399.57599164480052 0 0 0 0 -243.38665265677264 147.50268926983699 0 147.50268926983699 -369.26463040658564 0 0 0 0 -171.84455623021495 157.20653882764782 0 157.20653882764782 -231.68062909308355 0 0 0 0 -180.84347462974256 91.361290338594699 0 91.361290338594699 -318.98875590180978 0 0 0 0 -135.87545083480654 158.75455475793569 0 158.75455475793569 -257.28809619235108 0 0 0 0 -80.139703494176501 169.03645678438988 0 169.03645678438988 -195.74938199654571 0 0 0 0 -116.33461620215166 221.86335995300215 0 221.86335995300215 -210.83643217699137 0 0 0 0 59.928374127019197 225.62429006946331 0 225.62429006946331 -300.14880735295446 0 0 0 0 2.5752239764003093 4.5094197413957744 0 4.5094197413957744 3.5561914192972495 0 0 0 0 252.320072447852 -48.221029783264385 0 -48.221029783264385 -218.6477162020492 0 0 0 0 -34.721287325373851 261.32821085567412 0 261.32821085567412 -266.29970691751805 0 0 0 0 6.0326637197285891 103.13924087972555 0 103.13924087972555 -133.28376662026494 0 0 0 0 -86.203349408824579 109.47150348926152 0 109.47150348926152 339.69352048909241 0 0 0 0 -43.200038395516458 -60.030126890320389 0 -60.030126890320389 249.13928356635734 0 0 0 0 -56.410463626438286 79.015611598260875 0 79.015611598260875 163.55063612440836 0 0 0 0 163.35752342862543 281.97642182621348 0 281.97642182621348 245.76060363695797 0 0 0 0 126.56204688749312 267.78096244942594 0 267.78096244942594 -7.8516291819469188 0 0 0 0 -11.389930726436432 158.23659408827734 0 158.23659408827734 192.32537300817785 0 0 0 0 16.719030649847753 73.620705791625852 0 73.620705791625852 15.761080485336979 0 0 0 0 -32.637185531006253 165.74085101749279 0 165.74085101749279 87.501213937750435 0 0 0 0 106.76933765679132 109.5534907424626 0 109.5534907424626 109.24402636734885 0 0 0 0 44.577622046301258 159.83389091553181 0 159.83389091553181 37.106246523959271 0 0 0 0 3.9374667801603209 188.91324066226662 0 188.91324066226662 83.617780090900851 0 0 0 0 72.675618822137039 213.58491180254077 0 213.58491180254077 92.381215555295057 0 0 0 0 11.875895189271091 138.83422315788937 0 138.83422315788937 -41.893050297025184 0 0 0 0 11.946991542790784 147.68842713289996 0 147.68842713289996 108.44388259754487 0 0 0 0 30.158277240407187 216.51358025851368 0 216.51358025851368 -41.669779954569094 0 0 0 0 39.659604413940542 228.22018163384473 0 228.22018163384473 -38.844888970786997 0 0 0 0 39.048376859260316 229.41288162158526 0 229.41288162158526 -30.409375604911475 0 0 0 0 10.829141594062094 260.82997223941493 0 260.82997223941493 -64.632837683792786 0 0 0 0 0.57334124814951792 192.00992080403739 0 192.00992080403739 -74.919330889086268 0 0 0 0 -50.421486421306327 231.88241539439809 0 231.88241539439809 -2.7513859196697013 0 0 0 0 122.50567950518598 151.74531628740351 0 151.74531628740351 -147.49767697310017 0 0 0 0 0.86911528765234891 -0.42833000584957404 0 -0.42833000584957404 -3.3091098904267398 0 0 0 0 149.74709422541491 211.97523253169766 0 211.97523253169766 -123.96423715938727 0 0 0 0 169.00785272849316 -48.098826518813439 0 -48.098826518813439 -197.6877173207904 0 0 0 0 96.642944813487702 219.87139240776378 0 219.87139240776378 -163.28965413871629 0 0 0 0 69.418570345646003 246.72282724362049 0 246.72282724362049 -93.460058375255358 0 0 0 0 117.34459486350534 257.32990568919195 0 257.32990568919195 -98.171338487933099 0 0 0 0 72.350477735089953 131.96998871932738 0 131.96998871932738 -90.623061499275536 0 0 0 0 76.876597351933015 76.902545315571842 0 76.902545315571842 -283.65117516004102 0 0 0 0 -31.284893925287179 81.746787724183378 0 81.746787724183378 -25.997641318659589 0 0 0 0 22.340312079161436 74.637799417702709 0 74.637799417702709 7.7127401211571431 0 0 0 0 47.787397986430733 117.64817031820166 0 117.64817031820166 -55.907907612541749 0 0 0 0 -45.13892871684584 83.689445570820681 0 83.689445570820681 127.75396504360106 0 0 0 0 19.503680484746212 73.648759810807945 0 73.648759810807945 15.383218379268706 0 0 0 0 19.222689199377783 58.834097621725959 0 58.834097621725959 79.533223456706764 0 0 0 0 6.5127311222022399 45.941864537788206 0 45.941864537788206 104.65868176909134 0 0 0 0 17.768477329452253 28.994781565899302 0 28.994781565899302 47.463023401171085 0 0 0 0 -6.8504449468454993 21.064721361257682 0 21.064721361257682 29.07220795987746 0 0 0 0 -6.9701900089276023 39.543658887021593 0 39.543658887021593 11.33215702196685 0 0 0 0 4.9515202012262307 26.465976411891461 0 26.465976411891461 0.62313979529426433 0 0 0 0 8.1142093982198276 37.023544011641206 0 37.023544011641206 -15.489420628080552 0 0 0 0 3.4379418830848181 21.926290807345765 0 21.926290807345765 -2.8928977965605895 0 0 0 0 -8.8221969742153306 35.204759483549424 0 35.204759483549424 -25.772027275332221 0 0 0 0 21.190252412733003 7.3554717925919562 0 7.3554717925919562 -23.091325212443479 0 0 0 0 5.361324173532438 25.974631741886981 0 25.974631741886981 -63.899326664975149 0 0 0 0 20.707561592760612 42.84056367984158 0 42.84056367984158 -42.563771548364457 0 0 0 0 219.02989144896856 -119.27967596328381 0 -119.27967596328381 -108.2039139790777 0 0 0 0 122.05098993676802 154.09580378966439 0 154.09580378966439 -202.06821759540617 0 0 0 0 18.535002428556226 17.321095365218881 0 17.321095365218881 -36.139607163857477 0 0 0 0 3.9521838729488081 43.720736149869481 0 43.720736149869481 -86.89708089321357 0 0 0 0 -5.6289623569186062 25.476144147730992 0 25.476144147730992 -68.728682979652262 0 0 0 0 7.3544801271928009 23.695880532872252 0 23.695880532872252 -73.947794099494786 0 0 0 0 10.622687378283445 59.918553673906899 0 59.918553673906899 -283.63504304000526 0 0 0 0 -28.828213970307843 -56.217326136979864 0 -56.217326136979864 -65.232258474243281 0 0 0 0 156.22209040596499 -128.88944839311807 0 -128.88944839311807 -73.153689073129499 0 0 0 0 -2.0271732174916792 8.507065077629818 0 8.507065077629818 -13.402213713235781 0 0 0 0 0.0071930287958821282 33.966693558546467 0 33.966693558546467 -64.080226495743773 0 0 0 0 8.5407912956579821 34.927434049981457 0 34.927434049981457 -70.438884587652865 0 0 0 0 4.677189908165019 30.454373821954505 0 30.454373821954505 -66.831095447581902 0 0 0 0 0.0037719040119554847 36.135555530068814 0 36.135555530068814 -72.083785492282914 0 0 0 0 7.9429190101946006 33.503437529971052 0 33.503437529971052 -83.228464390085719 0 0 0 0 7.7410871144384146 29.157016219520301 0 29.157016219520301 -69.915120988789567 0 0 0 0 4.0673359453357989 29.515506690335314 0 29.515506690335314 -9.6746585379150929 0 0 0 0 16.051620821700169 12.640001872340548 0 12.640001872340548 -0.047568896484222023 0 0 0 0 0.38231989666087429 -0.83233409413195147 0 -0.83233409413195147 -1.7660990889165831 0 0 0 0 -6.0008618149295216 54.381782273288991 0 54.381782273288991 -18.458139902133553 0 0 0 0 -32.424679377887514 25.327154875652923 0 25.327154875652923 36.153780686821847 0 0 0 0 -4.3553120003198273 19.331504250902071 0 19.331504250902071 -5.0791832779141259 0 0 0 0 0.0073653703439049423 36.636038399843528 0 36.636038399843528 -41.479510410281364 0 0 0 0 -5.9975453101968697 10.446885880144407 0 10.446885880144407 1.3240493785597955 0 0 0 0 10.329815213016872 5.283984866251572 0 5.283984866251572 -4.2272815964284973 0 0 0 0 0.30627122600105849 2.2563348583953342 0 2.2563348583953342 -3.2516044316964958 0 0 0 0 -0.024810982053168118 12.592994569888106 0 12.592994569888106 -5.564455444979103 0 0 0 0 1.0271786663129774 2.7523506203669115 0 2.7523506203669115 -0.089356948876087472 0 0 0 0 3.3940697027137503 1635.6652861052935 0 1635.6652861052935 1720.0684198706876 0 0 0 0 -6.2035114400496241 -351.93131367709066 0 -351.93131367709066 3807.3842296487419 0 0 0 0 -581.96124369154859 626.98656988076982 0 626.98656988076982 2242.8548286372097 0 0 0 0 -127.90786674045376 765.50220729290595 0 765.50220729290595 955.09576727348031 0 0 0 0 -14.509525373723591 917.95393751900701 0 917.95393751900701 935.82381513884138 0 0 0 0 326.51288814115105 119.3325815302087 0 119.3325815302087 1174.7999877459843 0 0 0 0 -0.67078938473423477 16.084633023125207 0 16.084633023125207 -4.1896846629242646 0 0 0 0 -0.23310428338584188 13.152588664568597 0 13.152588664568597 -0.66822865822324928 0 0 0 0 3.88546672782104 28.65437276636294 0 28.65437276636294 2.8352533182696789 0 0 0 0 -0.91778989381418796 22.132509734301493 0 22.132509734301493 19.056688253345783 0 0 0 0 12.028199346197653 23.682251495863966 0 23.682251495863966 27.552126629583654 0 0 0 0 6.6591990713932319 16.717965773979813 0 16.717965773979813 18.888486764759364 0 0 0 0 9.5234338004926258 16.690872208492095 0 16.690872208492095 -1.5661682874705924 0 0 0 0 134.65754861343885 230.94938159828598 0 230.94938159828598 299.01621992986838 0 0 0 0 163.0879591521516 281.09737148319982 0 281.09737148319982 269.33788850128622 0 0 0 0 122.81792849685007 256.26589713280555 0 256.26589713280555 256.79586874799861 0 0 0 0 163.11204544617794 281.15511814228375 0 281.15511814228375 160.36008073941775 0 0 0 0 105.78894011481316 254.95605094823986 0 254.95605094823986 650.96939214511804 0 0 0 0 -19.364322772933519 545.59334407044662 0 545.59334407044662 1061.9363988835903 0 0 0 0 261.11187682629679 661.14514506305568 0 661.14514506305568 385.03196178279904 0 0 0 0 254.97004130049027 376.54649929634616 0 376.54649929634616 14.626826422303566 0 0 0 0 360.48488267483481 356.44939305270054 0 356.44939305270054 -315.77250772927073 0 0 0 0 372.4256114368909 478.84062653342698 0 478.84062653342698 -141.21594591332541 0 0 0 0 253.74970891712246 427.15275003016097 0 427.15275003016097 91.748614144948078 0 0 0 0 265.77927317365538 265.61398371612449 0 265.61398371612449 -63.127771945801214 0 0 0 0 272.41255252638075 284.05643964977207 0 284.05643964977207 -61.979002452630084 0 0 0 0 307.72225634185452 150.76440875707794 0 150.76440875707794 -163.61067803042533 0 0 0 0 354.67062305170111 315.38762820183911 0 315.38762820183911 -216.58890415070346 0 0 0 0 317.91396640675521 160.80556531714865 0 160.80556531714865 -310.57736644009128 0 0 0 0 343.67151328382897 210.82522832090763 0 210.82522832090763 -319.76487194730726 0 0 0 0 401.18910543163656 229.13030839464773 0 229.13030839464773 -395.3223156447275 0 0 0 0 339.06202998748631 245.59864149741043 0 245.59864149741043 -389.35525618948304 0 0 0 0 335.10766048970072 93.649931199651292 0 93.649931199651292 -530.25392479327274 0 0 0 0 349.11995552142616 178.23943633714953 0 178.23943633714953 -372.89960890318252 0 0 0 0 259.92734615074005 0.71985838167893235 0 0.71985838167893235 -561.25181837613854 0 0 0 0 374.53106695933093 84.899480216829033 0 84.899480216829033 -809.56098842764914 0 0 0 0 423.6317727783171 474.36171638482483 0 474.36171638482483 -543.03495375679631 0 0 0 0 95.277657810816891 -282.82539025542064 0 -282.82539025542064 -942.79598305928812 0 0 0 0 277.93327575011426 -86.132040935988698 0 -86.132040935988698 -741.50676801681402 0 0 0 0 95.66752700129291 -230.2490678499089 0 -230.2490678499089 -668.47523543660645 0 0 0 0 -700.87209722271655 -851.44922256056816 0 -851.44922256056816 -1606.446682349444 0 0 0 0 -62.959820634336211 -165.51851593697938 0 -165.51851593697938 -728.58040761704797 0 0 0 0 0.00024670904531376436 3.0406236406270182 0 3.0406236406270182 -22.058987079188228 0 0 0 0 -0.98414273142226705 1.38039963243952 0 1.38039963243952 -13.190922842861909 0 0 0 0 1.9340057202643948 -253.81352581470674 0 -253.81352581470674 -747.64886912767543 0 0 0 0 -531.42466518844594 -969.19594710093224 0 -969.19594710093224 -1853.6901972530904 0 0 0 0 290.95654478956567 582.38091267647906 0 582.38091267647906 -407.45409484725678 0 0 0 0 -3.3587184999674746 1543.175983572472 0 1543.175983572472 -657.19171157013625 0 0 0 0 546.8710502437898 648.60148188308085 0 648.60148188308085 -2888.7972473148402 0 0 0 0 177.13131365669688 1157.1746845523303 0 1157.1746845523303 -379.36069716932252 0 0 0 0 300.26168335386319 416.75192571908701 0 416.75192571908701 -135.63815805427382 0 0 0 0 406.04513184651296 580.17157031081842 0 580.17157031081842 -135.9297683321347 0 0 0 0 384.72027049184544 494.96123491912658 0 494.96123491912658 -311.61322188039776 0 0 0 0 482.34103895252338 451.8762999953542 0 451.8762999953542 -1304.6763092362489 0 0 0 0 0.63736090448219329 -14.810216800378839 0 -14.810216800378839 14.382345251911829 0 0 0 0 10.55275751165027 -11.430453734398725 0 -11.430453734398725 15.513879047059163 0 0 0 0 18.197349551854131 -22.842348595245312 0 -22.842348595245312 8.1401382808253402 0 0 0 0 -0.11415057964768494 -2.7324572905781679 0 -2.7324572905781679 17.862485184072284 0 0 0 0 -2.0542483837071615 2.8023423142851698 0 2.8023423142851698 -0.42556612483389245 0 0 0 0 -37.266614920301436 -8.6176472934057529 0 -8.6176472934057529 -164.27926107092935 0 0 0 0 -46.858871930415262 -73.768724868397385 0 -73.768724868397385 -49.113482254193514 0 0 0 0 -62.429052389110439 94.514735648030182 0 94.514735648030182 -130.3613047558174 0 0 0 0 -62.907534950703848 108.26363708240751 0 108.26363708240751 -148.00469826582776 0 0 0 0 -2.2183282648687594 6.6943222976169636 0 6.6943222976169636 -11.627023772363344 0 0 0 0 141.54745255802118 40.999383389636932 0 40.999383389636932 -104.58567432660129 0 0 0 0 6.5323278224677779 -26.319279074124097 0 -26.319279074124097 7.1038823142516776 0 0 0 0 749.49859736702638 141.26383326985979 0 141.26383326985979 -234.64083508556723 0 0 0 0 691.08422039242578 199.51268437032377 0 199.51268437032377 -23.422192466252454 0 0 0 0 -238.57510102243396 26.369479604305525 0 26.369479604305525 49.748502438031721 0 0 0 0 12.091962759004673 549.32815456606659 0 549.32815456606659 -251.02458110522639 0 0 0 0 640.70463519249461 315.25405169361875 0 315.25405169361875 -187.18301036669436 0 0 0 0 50.025138918426819 122.51505522531625 0 122.51505522531625 74.275306180359621 0 0 0 0 393.96709020149137 167.55580757122334 0 167.55580757122334 66.713883441538201 0 0 0 0 107.65297739359085 -30.723566271655727 0 -30.723566271655727 158.82324769908155 0 0 0 0 455.815152722731 275.15875498677633 0 275.15875498677633 418.6176447320795 0 0 0 0 634.8238822240528 -25.517287199343627 0 -25.517287199343627 171.07737925648689 0 0 0 0 48.78881767517305 -3.8123074052309676 0 -3.8123074052309676 -8.236549554461817 0 0 0 0 -0.035418968967363185 12.17651949119454 0 12.17651949119454 -19.628880430183202 0 0 0 0 458.58650364290224 390.01267067937624 0 390.01267067937624 279.46060368470353 0 0 0 0 792.16270990546036 329.76273760818003 0 329.76273760818003 -54.968607296476421 0 0 0 0 3.8363622402582678 3.0108042264181591 0 3.0108042264181591 -10.370340052953011 0 0 0 0 1029.8095460037584 -19.478977552396827 0 -19.478977552396827 -62.580091785406239 0 0 0 0 1283.5352700305521 -19.23444864461635 0 -19.23444864461635 -63.238473560290004 0 0 0 0 750.29858729057014 96.388164399901143 0 96.388164399901143 -101.52182709892804 0 0 0 0 231.78727478327346 160.99361649663479 0 160.99361649663479 176.76895964698269 0 0 0 0 361.8212054441392 77.178789362018506 0 77.178789362018506 117.07899925553647 0 0 0 0 1135.1071585498285 362.41881008110067 0 362.41881008110067 70.394212612140109 0 0 0 0 722.25219114212086 327.61865724727249 0 327.61865724727249 67.571187165438459 0 0 0 0 566.22163648040441 169.27563469529377 0 169.27563469529377 -58.29208908756118 0 0 0 0 493.73264716827543 251.79449857580948 0 251.79449857580948 14.111461803491693 0 0 0 0 341.98686892385012 88.395345257778899 0 88.395345257778899 -63.16950748769159 0 0 0 0 6.349969215888791 4.6405211049658988 0 4.6405211049658988 2.504650498409724 0 0 0 0 481.5327025224251 95.903791995862775 0 95.903791995862775 -161.22726618963861 0 0 0 0 688.0720860332658 250.82872254377435 0 250.82872254377435 -144.53453443114995 0 0 0 0 54.273665566488489 65.269173857597707 0 65.269173857597707 -12.573925566699472 0 0 0 0 2.629813234537778 5.4289911002496751 0 5.4289911002496751 -29.77029040974125 0 0 0 0 602.89509218142484 153.0758311622667 0 153.0758311622667 15.372497907890647 0 0 0 0 3.6831119792768732 66.547664659541624 0 66.547664659541624 29.9366690946772 0 0 0 0 -4.438977281378115 9.42682005549932 0 9.42682005549932 -7.9757612767441373 0 0 0 0 -64.639974200996221 28.57444770481743 0 28.57444770481743 26.015771799116919 0 0 0 0 1.9147265072097071 16.906848750284553 0 16.906848750284553 -11.810819534957773 0 0 0 0 16.012704276043223 14.856945514280596 0 14.856945514280596 -18.790103924293362 0 0 0 0 11.930179851463208 11.387874391796217 0 11.387874391796217 -1.8095205326255837 0 0 0 0 39.395981126141123 34.004683875492447 0 34.004683875492447 -22.48204561824241 0 0 0 0 3.9704230713978177 0.10205466908519156 0 0.10205466908519156 8.0958806677081157 0 0 0 0 -1.4390164424857659 5.1353242757362807 0 5.1353242757362807 -3.4320312278976672 0 0 0 0 11.847083147578815 -3.4016316396600814 0 -3.4016316396600814 5.7075733753299573 0 0 0 0 0.057563216323615052 7.7776673910520913 0 7.7776673910520913 -4.8105259875228512 0 0 0 0 -5.8714148369181203 8.2245844608387415 0 8.2245844608387415 6.0763803996760544 0 0 0 0 2.3348459774309163 -0.5959437704989341 0 -0.5959437704989341 -3.4627723439937483 0 0 0 0 -0.0079296816911664791 27.516344353096429 0 27.516344353096429 -13.07619466511278 0 0 0 0 7.6958643749894691 18.809030135866124 0 18.809030135866124 -26.552848391971565 0 0 0 0 -6.8344074993140822 14.410326958528827 0 14.410326958528827 -25.785866869588006 0 0 0 0 0.96753185187844792 23.347613517058562 0 23.347613517058562 -28.304799197485409 0 0 0 0 0.0081816707461257465 31.257110616246791 0 31.257110616246791 -45.727961540535034 0 0 0 0 2.4368833860644372 30.880915438021475 0 30.880915438021475 -54.467745863235905 0 0 0 0 6.078034317746642 21.368347564233318 0 21.368347564233318 -48.421609238481324 0 0 0 0 28.171477937481541 52.400153513869554 0 52.400153513869554 198.76163960496342 0 0 0 0 49.694901703354844 39.158937286016226 0 39.158937286016226 -165.62111480171734 0 0 0 0 -148.16295963108132 -28.474499563335485 0 -28.474499563335485 46.022321569424093 0 0 0 0 12.922387540456839 23.35503540233185 0 23.35503540233185 -50.740145728288553 0 0 0 0 -9.2898612892296626 20.754766348030074 0 20.754766348030074 -45.023223081804261 0 0 0 0 136.59504039907188 -88.118621186531527 0 -88.118621186531527 -64.758773079247476 0 0 0 0 1.9097668429983514 0.32568765999894822 0 0.32568765999894822 -8.1087033065981018 0 0 0 0 248.65264493002906 134.21804702311965 0 134.21804702311965 -87.822541611323686 0 0 0 0 1850.3760319813009 -331.14497264772126 0 -331.14497264772126 -816.97809460347344 0 0 0 0 994.73199510356062 395.02362588340293 0 395.02362588340293 1178.3429074059241 0 0 0 0 2.6013210360082724 2.5690052309458054 0 2.5690052309458054 5.3311183506467614 0 0 0 0 588.72601394558296 146.58002676728665 0 146.58002676728665 256.92954880720936 0 0 0 0 -23.80539863089507 129.2730358497538 0 129.2730358497538 49.852870170177994 0 0 0 0 -107.20635845836659 -36.073993201907797 0 -36.073993201907797 18.21407749048376 0 0 0 0 186.53865622283774 89.776374067010693 0 89.776374067010693 -63.25597803205892 0 0 0 0 31.985623842367204 40.117446508251305 0 40.117446508251305 -64.743136523204157 0 0 0 0 55.455911533339531 -10.754315894233514 0 -10.754315894233514 29.352980130432115 0 0 0 0 723.50761041721853 233.28800753809628 0 233.28800753809628 -51.105324554471736 0 0 0 0 0.85907687376401043 1.824978170849505 0 1.824978170849505 -16.804100974811405 0 0 0 0 656.44605523887003 297.35746976491464 0 297.35746976491464 129.19148562634655 0 0 0 0 601.66664299413969 157.14132565431646 0 157.14132565431646 104.0277001399445 0 0 0 0 0.4550459963601412 12.769332045440336 0 12.769332045440336 14.961680786697329 0 0 0 0 537.69738811437855 236.95948533806586 0 236.95948533806586 98.76848189401062 0 0 0 0 -74.572862227563746 8.794757038633179 0 8.794757038633179 -33.219912997177744 0 0 0 0 -24.729781718842958 20.744273810228549 0 20.744273810228549 -5.6457785107101088 0 0 0 0 3.4806419780361466 22.572527353729129 0 22.572527353729129 -21.90573689219309 0 0 0 0 -17.26317973145342 41.152666539566781 0 41.152666539566781 6.9636308770895994 0 0 0 0 -26.295444769486494 67.933875428736428 0 67.933875428736428 -74.606160025250574 0 0 0 0 27.434661448089173 1.0336370076583989 0 1.0336370076583989 -64.025308980575574 0 0 0 0 -172.96397560523474 82.647625435292866 0 82.647625435292866 350.95737729847315 0 0 0 0 124.49466287554242 459.05863732732178 0 459.05863732732178 671.4075424580551 0 0 0 0 5.253410370045458 124.81174453680796 0 124.81174453680796 154.48877504079428 0 0 0 0 10.914548469823785 94.248582961887223 0 94.248582961887223 219.94951571367346 0 0 0 0 15.033421903779526 62.01936187925071 0 62.01936187925071 -46.698884907571482 0 0 0 0 104.21080996656383 237.63471848534209 0 237.63471848534209 -88.895733681851198 0 0 0 0 99.375882951339008 255.63873945930391 0 255.63873945930391 -91.219626827421052 0 0 0 0 199.1398361659958 403.69405125367302 0 403.69405125367302 189.83581863547442 0 0 0 0 371.20243396586739 204.73570732968074 0 204.73570732968074 -264.76822529355559 0 0 0 0 920.79482513850962 701.9074642179412 0 701.9074642179412 147.59734847343498 0 0 0 0 -75.474319663509959 182.7904000868366 0 182.7904000868366 -64.382838134639314 0 0 0 0 -47.548820238924236 243.17769833822604 0 243.17769833822604 -62.010060498985695 0 0 0 0 23.874246957762807 166.56767980143559 0 166.56767980143559 -209.18953252586834 0 0 0 0 22.521713113077567 188.94586533967777 0 188.94586533967777 94.594067990416079 0 0 0 0 0.87525831644597929 54.453920787711468 0 54.453920787711468 -51.735576447761559 0 0 0 0 -19.345979631863884 -122.80704506806251 0 -122.80704506806251 -84.493543854265226 0 0 0 0 -63.561805261282643 36.187212083003487 0 36.187212083003487 6.6985102672588255 0 0 0 0 -6.0658569780061953 18.291174716167006 0 18.291174716167006 -84.73152298918103 0 0 0 0 -17.419375100636501 8.6175936522041638 0 8.6175936522041638 -5.7667892289607394 0 0 0 0 9.5050148184454883 53.658573484166482 0 53.658573484166482 30.540617158860186 0 0 0 0 26.108905652945396 204.28850113627777 0 204.28850113627777 248.12860078724771 0 0 0 0 -7.8260640370958754 2.6745038602072384 0 2.6745038602072384 -0.11011008008181022 0 0 0 0 -64.853581945360929 78.595771294122642 0 78.595771294122642 320.44443404307094 0 0 0 0 111.21109503047774 114.66860445118436 0 114.66860445118436 -117.48720685704893 0 0 0 0 82.099428184315911 162.01547189961366 0 162.01547189961366 -95.403535709723656 0 0 0 0 -3.5561043410850175 0.70857635172430378 0 0.70857635172430378 0.28017968456860842 0 0 0 0 -79.915618086608447 -32.733994076359522 0 -32.733994076359522 129.69155829106239 0 0 0 0 -199.94640766191878 73.083864962223743 0 73.083864962223743 174.51901833677857 0 0 0 0 2.8964730261359364 -38.837825810616778 0 -38.837825810616778 -194.16191261296626 0 0 0 0 -78.415931177591119 204.63150111259347 0 204.63150111259347 -29.355737113357463 0 0 0 0 -10.751467204303481 88.623812185576753 0 88.623812185576753 61.964961503879749 0 0 0 0 15.490735632714518 33.505106474019158 0 33.505106474019158 2.8142785942786617 0 0 0 0 68.604575460369233 153.78663985093226 0 153.78663985093226 46.031879145150015 0 0 0 0 78.800671853299718 80.554409313568613 0 80.554409313568613 -52.958124608419894 0 0 0 0 -24.15264656022191 201.24676399171221 0 201.24676399171221 -11.595543360133888 0 0 0 0 36.989057266910095 107.23186624433583 0 107.23186624433583 -22.319065793752088 0 0 0 0 -13.344143339236325 215.71033577398794 0 215.71033577398794 -81.115043225756381 0 0 0 0 22.671953176424722 149.19262776549022 0 149.19262776549022 -133.49878450945107 0 0 0 0 -84.49885874093161 -27.882301055051357 0 -27.882301055051357 -41.23002514928703 0 0 0 0 -42.529433311865432 86.466110376743018 0 86.466110376743018 157.71487213895307 0 0 0 0 174.57477657316485 53.965406206627449 0 53.965406206627449 25.855145327281207 0 0 0 0 -107.97454099185416 -138.74733895577447 0 -138.74733895577447 -43.484469752839743 0 0 0 0 -113.88144710759661 345.16088674163257 0 345.16088674163257 -16.580601945490343 0 0 0 0 -50.985679692021222 159.66029060876099 0 159.66029060876099 -61.090048784511964 0 0 0 0 -301.79213954024453 96.164418600415956 0 96.164418600415956 135.2990026097832 0 0 0 0 18.83022535823504 31.921340019933211 0 31.921340019933211 6.4086322051945928 0 0 0 0 118.90265139564872 129.70779465981832 0 129.70779465981832 220.31841289412114 0 0 0 0 71.418390614795499 28.747397069935687 0 28.747397069935687 84.230951053694298 0 0 0 0 -139.3104275270598 55.705309072453019 0 55.705309072453019 156.57617325756291 0 0 0 0 -96.494629400986014 109.09607525256797 0 109.09607525256797 -5.2896388764274889 0 0 0 0 47.971370937564643 57.695365097224567 0 57.695365097224567 58.353632130882033 0 0 0 0 -42.033361489622621 5.1870041277361452 0 5.1870041277361452 -45.979829764164606 0 0 0 0 -49.750711180400685 -50.501215487093759 0 -50.501215487093759 -12.650047557435755 0 0 0 0 -41.355682637789869 -39.505017453104301 0 -39.505017453104301 -1.1273735347058391 0 0 0 0 -32.259932001354173 -33.974855284464866 0 -33.974855284464866 71.061898780807496 0 0 0 0 121.48534573297366 67.376426285838534 0 67.376426285838534 50.639166230415867 0 0 0 0 19.360108783289263 31.422924333599639 0 31.422924333599639 9.319257058770404 0 0 0 0 -105.68320558519918 25.897886459271831 0 25.897886459271831 35.163738623999961 0 0 0 0 49.200855922375922 35.498148307142401 0 35.498148307142401 -20.476936427203327 0 0 0 0 63.200670420657843 36.017317346966593 0 36.017317346966593 -27.483825984290888 0 0 0 0 63.479128314778791 31.72669210111053 0 31.72669210111053 -112.78604055238247 0 0 0 0 59.347345063259127 48.335715375083964 0 48.335715375083964 -62.55667593470389 0 0 0 0 77.059117258875631 101.53071990284661 0 101.53071990284661 -113.06661948781448 0 0 0 0 95.92854009950679 81.287944231298752 0 81.287944231298752 -108.24792100563718 0 0 0 0 39.727813737175893 97.155041165857256 0 97.155041165857256 -25.211364964288805 0 0 0 0 -7.9392018304497469 243.91367025742238 0 243.91367025742238 -239.24127532913189 0 0 0 0 -144.51265610178234 115.83429249217625 0 115.83429249217625 -87.511380652406814 0 0 0 0 29.16391547924286 -2.9213577402560986 0 -2.9213577402560986 -178.45068064766019 0 0 0 0 69.467863029465661 94.228744785963499 0 94.228744785963499 -87.73747389227745 0 0 0 0 29.162896032583376 40.220046173380979 0 40.220046173380979 -71.279184418715886 0 0 0 0 -22.61797747683886 127.69210919923717 0 127.69210919923717 -9.5890274693392712 0 0 0 0 -0.63418124200438797 0.52053931543191823 0 0.52053931543191823 -0.47532299758013785 0 0 0 0 159.11473319008655 -89.414468274218962 0 -89.414468274218962 -139.58894667310233 0 0 0 0 17.708701542607741 48.556132065908969 0 48.556132065908969 -189.52073014962298 0 0 0 0 637.5363118032401 -233.95784741543321 0 -233.95784741543321 -448.38179462911648 0 0 0 0 -5.0006156981286267 2.6274832144072064 0 2.6274832144072064 -1.3406516921815577 0 0 0 0 193.96255116077373 -25.14321538294098 0 -25.14321538294098 -402.1621057515249 0 0 0 0 1032.8262982920933 793.37216273884133 0 793.37216273884133 -2130.780215898194 0 0 0 0 168.0663301894383 249.55351963368048 0 249.55351963368048 -587.46427891605708 0 0 0 0 -48.458412568972562 215.16039928784448 0 215.16039928784448 -191.49568589254341 0 0 0 0 185.81240212103148 152.36516022432261 0 152.36516022432261 -269.01826554862419 0 0 0 0 135.05891812691698 145.63218092688294 0 145.63218092688294 -204.03785696678096 0 0 0 0 225.77992443514813 125.19642205549098 0 125.19642205549098 -261.48367644569453 0 0 0 0 7.1601310037513031 102.13082620466048 0 102.13082620466048 210.13342784087217 0 0 0 0 -26.430284557369305 251.5587663191327 0 251.5587663191327 -196.14062866567838 0 0 0 0 -85.637178632241557 334.80511743462557 0 334.80511743462557 285.13849593258237 0 0 0 0 -80.296160043013515 293.97332673308301 0 293.97332673308301 432.12727377978445 0 0 0 0 -7.8191337061111312 4.8219998620710243 0 4.8219998620710243 -1.6961471976964901 0 0 0 0 86.166888859457686 98.997654123815664 0 98.997654123815664 278.17345812744315 0 0 0 0 -32.665177946575568 152.02543777601204 0 152.02543777601204 375.12565255894879 0 0 0 0 49.664105415839003 62.316231551778401 0 62.316231551778401 262.86276719607758 0 0 0 0 180.16968737006027 199.18029534953212 0 199.18029534953212 -265.59860758204013 0 0 0 0 -54.173996808865923 1.3724114325723349 0 1.3724114325723349 240.38543330081393 0 0 0 0 -3.7624947142837186 1.9896778665502524 0 1.9896778665502524 -0.67134683778018456 0 0 0 0 48.972645358422596 254.67230132175973 0 254.67230132175973 -144.79791263415837 0 0 0 0 -129.62205071785138 85.424914168665055 0 85.424914168665055 335.88252633393859 0 0 0 0 43.633431372509222 -34.159438544689692 0 -34.159438544689692 50.518317491756534 0 0 0 0 -112.53769322198059 193.28199097029756 0 193.28199097029756 335.94229205722695 0 0 0 0 -8.125261312806856 2.8095737181249092 0 2.8095737181249092 -0.029753259621635664 0 0 0 0 75.02624243311584 48.392924671472429 0 48.392924671472429 4.9900444318500377 0 0 0 0 -407.90289744198526 302.26140916762461 0 302.26140916762461 -123.78312563168947 0 0 0 0 -176.21851172304741 -141.73152199274409 0 -141.73152199274409 -159.84732445520422 0 0 0 0 -5.1639975152635884 3.2237284931113521 0 3.2237284931113521 -2.4416880854256959 0 0 0 0 0.72311009471877696 45.265272890722656 0 45.265272890722656 -519.5231146513579 0 0 0 0 -24.453247323879623 225.63002853831495 0 225.63002853831495 -627.63711680742017 0 0 0 0 -107.54879024912952 66.537625157190632 0 66.537625157190632 -103.89009187180636 0 0 0 0 -413.94158585105379 -134.22508738568808 0 -134.22508738568808 -233.64387137907397 0 0 0 0 -44.088513411799795 184.54966439110194 0 184.54966439110194 -176.50382870053363 0 0 0 0 -353.58520233877061 355.15121868094684 0 355.15121868094684 -260.68744199228058 0 0 0 0 3.7665363752576013 105.81812823449309 0 105.81812823449309 38.396165908707189 0 0 0 0 61.175209503737278 26.156856751516898 0 26.156856751516898 -60.746363314527116 0 0 0 0 5.3803354066476459 140.73514126836199 0 140.73514126836199 -272.96665619767737 0 0 0 0 -91.509744317445438 -65.459618467930341 0 -65.459618467930341 -46.369927003128396 0 0 0 0 -25.454644856858067 221.73165322148816 0 221.73165322148816 -137.53008708773268 0 0 0 0 107.11205020817579 152.80585761412658 0 152.80585761412658 -124.76744361386591 0 0 0 0 -63.014019885367361 198.88960438056029 0 198.88960438056029 -86.804120306871482 0 0 0 0 -51.757734118407825 368.93403557103011 0 368.93403557103011 -124.33905903505911 0 0 0 0 -57.131721352287059 301.05696920198648 0 301.05696920198648 -211.18603399401036 0 0 0 0 -114.00768387172138 23.584626649324491 0 23.584626649324491 254.12334269147323 0 0 0 0 -3.6339053526562566 1.0663418133065221 0 1.0663418133065221 0.13758473194135235 0 0 0 0 -294.28049406946229 232.20616223944489 0 232.20616223944489 426.10508592275801 0 0 0 0 277.85845451112255 207.53929175255507 0 207.53929175255507 -252.79385858275418 0 0 0 0 216.32721037209558 304.54474496896 0 304.54474496896 -293.9374497232202 0 0 0 0 -4.6162203309973506 2.4800664711162028 0 2.4800664711162028 -0.70483475782150151 0 0 0 0 24.772284080238023 36.292293714655898 0 36.292293714655898 -5.738043270610433 0 0 0 0 -179.8222285406373 335.64155614282208 0 335.64155614282208 -528.13459916810098 0 0 0 0 -148.5407571629039 154.04465083398463 0 154.04465083398463 301.97040691306756 0 0 0 0 -2.525020563284059 3.5207290751160372 0 3.5207290751160372 -1.2451633547844665 0 0 0 0 89.207203191836015 424.91672279904742 0 424.91672279904742 -281.3534698844087 0 0 0 0 -602.95019590400625 428.65107553892267 0 428.65107553892267 500.74066704637517 0 0 0 0 44.437980251961562 60.927472500717158 0 60.927472500717158 112.44577647767437 0 0 0 0 147.35071639233502 -62.721854081501078 0 -62.721854081501078 260.73986555709962 0 0 0 0 145.22251972595404 196.65563741494771 0 196.65563741494771 -249.12478395854851 0 0 0 0 156.13574608101044 260.59058237697536 0 260.59058237697536 -77.400354162975418 0 0 0 0 87.709763030870818 235.77616730921 0 235.77616730921 -85.063688999634905 0 0 0 0 111.65375528557342 187.20595800016417 0 187.20595800016417 75.403523820543342 0 0 0 0 260.75382908814936 118.95736953002415 0 118.95736953002415 -38.853085540853499 0 0 0 0 216.19785204841173 -9.9611179045168683 0 -9.9611179045168683 44.01544628326883 0 0 0 0 254.30455421475926 -46.492058623367484 0 -46.492058623367484 83.621422611053276 0 0 0 0 216.00384313310497 -1.1771130027846084 0 -1.1771130027846084 30.853507745006937 0 0 0 0 236.85188212184585 -11.300966272498044 0 -11.300966272498044 22.959053713175308 0 0 0 0 169.42729210229299 14.5447323862536 0 14.5447323862536 33.764109141062363 0 0 0 0 222.3460505779949 4.3817807304003509 0 4.3817807304003509 20.429291988979458 0 0 0 0 559.00572787082638 -57.329169486281899 0 -57.329169486281899 12.821119424905191 0 0 0 0 -120.58600885033229 66.983110916138685 0 66.983110916138685 330.00100440791721 0 0 0 0 264.17815043640439 248.99252323265137 0 248.99252323265137 99.095344146800926 0 0 0 0 61.105905670076027 42.365478567237005 0 42.365478567237005 239.71072973754417 0 0 0 0 67.045258687874593 88.604135937097453 0 88.604135937097453 -15.9017631896495 0 0 0 0 -18.932244136099087 70.155673455303898 0 70.155673455303898 -39.52789236498451 0 0 0 0 15.647264276357262 40.034599135194895 0 40.034599135194895 62.279404609696968 0 0 0 0 -294.14074949869973 317.16026255870747 0 317.16026255870747 129.78409185641067 0 0 0 0 -375.08244777416257 71.452119682322518 0 71.452119682322518 34.038773873835453 0 0 0 0 -482.50142426101957 130.5004146741303 0 130.5004146741303 74.641328422705556 0 0 0 0 -183.70876834986848 294.30841227402198 0 294.30841227402198 -42.745201981379068 0 0 0 0 -482.37977131945081 116.82293616809693 0 116.82293616809693 28.597627629846102 0 0 0 0 257.41396885038648 -11.862437992245077 0 -11.862437992245077 30.813092489537667 0 0 0 0 -1.463826047387883 2.0896861967101188 0 2.0896861967101188 -1.4577829682923493 0 0 0 0 13.277055582257844 10.989791745569931 0 10.989791745569931 8.5479440714877484 0 0 0 0 239.99739525662881 9.2579804936224264 0 9.2579804936224264 6.3542864150367677 0 0 0 0 36.69560637806353 62.737539587630593 0 62.737539587630593 6.3984155462094066 0 0 0 0 38.613976866334269 97.559110245510965 0 97.559110245510965 -16.69669100036117 0 0 0 0 12.94019762379321 97.855442740126819 0 97.855442740126819 -4.4476516784052365 0 0 0 0 -105.5612173851332 96.84474238592702 0 96.84474238592702 -37.65695707177656 0 0 0 0 -337.84828648847179 -3.3377665742664249 0 -3.3377665742664249 25.176066927218926 0 0 0 0 -174.1078839032125 113.49482395197083 0 113.49482395197083 3.1570938189179287 0 0 0 0 -103.0998864939902 -32.64555439940159 0 -32.64555439940159 -1.5388101271237247 0 0 0 0 -51.844589827152959 53.668580976053818 0 53.668580976053818 22.646239057503408 0 0 0 0 -41.981239086439018 70.252357404388022 0 70.252357404388022 16.980633461083926 0 0 0 0 -68.565278648020467 94.648257552054929 0 94.648257552054929 7.9220247151424701 0 0 0 0 -27.381518060348753 60.413627401120493 0 60.413627401120493 -1.9052596179062675 0 0 0 0 -32.199836723984447 38.42483926255079 0 38.42483926255079 -21.254833473555365 0 0 0 0 20.850696876403845 101.61193217865352 0 101.61193217865352 19.943324072839459 0 0 0 0 116.40799021009298 133.46131287968547 0 133.46131287968547 25.54819275574755 0 0 0 0 28.452235668562935 23.99582400557847 0 23.99582400557847 15.850430784092168 0 0 0 0 -26.491141873016261 19.546842544746326 0 19.546842544746326 -16.613716515316007 0 0 0 0 -28.990828097397753 58.347919911071585 0 58.347919911071585 24.347765102280391 0 0 0 0 40.004999590615625 21.400194603502314 0 21.400194603502314 23.018582886574421 0 0 0 0 -1.5738912030630701 1.6887729113480816 0 1.6887729113480816 0.4840926784453643 0 0 0 0 77.755810746573843 67.432158792638802 0 67.432158792638802 15.914457486389438 0 0 0 0 -2.138128006234183 240.0209558501997 0 240.0209558501997 95.477587520446832 0 0 0 0 -336.2506742760379 -199.56674595003096 0 -199.56674595003096 209.12073920571856 0 0 0 0 -149.47352179489098 73.360705209364824 0 73.360705209364824 -42.341111012232432 0 0 0 0 -596.07878343810444 172.67705367892995 0 172.67705367892995 -55.274653473712533 0 0 0 0 23.203247983416077 41.699624633802159 0 41.699624633802159 55.178920309575915 0 0 0 0 -53.955682138112024 59.896021531320002 0 59.896021531320002 -1007.8793286039872 0 0 0 0 24.717213180578256 -197.350404145825 0 -197.350404145825 -651.79090601139978 0 0 0 0 -8.1943696543335989 7.521127019075422 0 7.521127019075422 -7.33894266194838 0 0 0 0 -348.99907978343253 -150.13395438969383 0 -150.13395438969383 -29.37736333099383 0 0 0 0 -745.16417320120672 -24.398980575404494 0 -24.398980575404494 -45.805648536592798 0 0 0 0 -108.01406263103127 306.45804462854267 0 306.45804462854267 -191.30240943485842 0 0 0 0 -1078.4715601443313 788.69220953838703 0 788.69220953838703 -429.96588431648706 0 0 0 0 -3.8406472118044235 3.677566831143487 0 3.677566831143487 -1.806782282230273 0 0 0 0 -58.823746204769122 114.23581735240623 0 114.23581735240623 -32.653029388158757 0 0 0 0 -165.77549441531301 -22.489778136237874 0 -22.489778136237874 -132.35405497333795 0 0 0 0 -1558.9300430924923 626.547253057528 0 626.547253057528 -1004.5147075994355 0 0 0 0 -537.56581375787209 131.80479400486001 0 131.80479400486001 111.57753987040996 0 0 0 0 -75.674122396041639 519.69786768282756 0 519.69786768282756 -665.19851639754052 0 0 0 0 43.954052824054088 256.34332110806099 0 256.34332110806099 -88.012205991151859 0 0 0 0 182.2298456790304 203.9009040589408 0 203.9009040589408 -514.93742410113191 0 0 0 0 164.30408764760068 185.79271990688903 0 185.79271990688903 -180.57731504493222 0 0 0 0 174.91478149681643 192.81738024608057 0 192.81738024608057 -192.18827056874943 0 0 0 0 154.59573833199102 178.29416456967738 0 178.29416456967738 -195.94514662798611 0 0 0 0 18.622545154954423 53.223819863985227 0 53.223819863985227 -69.401604311406118 0 0 0 0 33.547073231908143 -35.677052952379199 0 -35.677052952379199 -131.13006261702321 0 0 0 0 25.155551427663795 79.886430763038476 0 79.886430763038476 -55.50955276203355 0 0 0 0 70.049245811751462 107.57358733234651 0 107.57358733234651 175.5100847212907 0 0 0 0 31.952768609175109 233.57023706726432 0 233.57023706726432 223.4198349012604 0 0 0 0 -1.4895206126182075 5.8388579492181236 0 5.8388579492181236 -3.485475566954694 0 0 0 0 55.450434718717588 364.73164813313269 0 364.73164813313269 278.60620178824684 0 0 0 0 119.31929815539479 74.042141892595282 0 74.042141892595282 -213.17214309158226 0 0 0 0 104.8739060487278 122.33395616816506 0 122.33395616816506 161.17011001389983 0 0 0 0 147.53792687540408 253.88936801916498 0 253.88936801916498 -209.27715560466277 0 0 0 0 73.787632426639902 271.66596846196444 0 271.66596846196444 131.65359380380687 0 0 0 0 224.07659084137413 327.47489089022929 0 327.47489089022929 96.285763943771599 0 0 0 0 -134.00240325168124 301.33981163604403 0 301.33981163604403 139.65123702664641 0 0 0 0 279.95849086097223 62.194389965449773 0 62.194389965449773 270.34252279774955 0 0 0 0 148.1736128220291 250.92222072952063 0 250.92222072952063 -94.952298010903178 0 0 0 0 -149.08709348292905 156.32055190014034 0 156.32055190014034 107.07326813535838 0 0 0 0 -266.05585675752081 91.667620072739737 0 91.667620072739737 281.71996437192865 0 0 0 0 -177.78796418427373 185.72433730129706 0 185.72433730129706 370.67177475269818 0 0 0 0 -122.11047458683606 34.807892205139069 0 34.807892205139069 316.92730501631013 0 0 0 0 -189.82442132983124 -2.725215166930866 0 -2.725215166930866 50.218318017072306 0 0 0 0 -168.1523104403168 153.78013708762592 0 153.78013708762592 299.93927020440606 0 0 0 0 -158.0492295314325 83.918351452561183 0 83.918351452561183 251.81012449080026 0 0 0 0 -156.54077817245707 93.06592903848923 0 93.06592903848923 307.03952505863708 0 0 0 0 -138.51649271463975 138.88811556429391 0 138.88811556429391 275.58900270281447 0 0 0 0 -139.23903516476275 133.92334321244562 0 133.92334321244562 241.65989069142233 0 0 0 0 -124.14024071047606 111.03475393981171 0 111.03475393981171 315.83195688453634 0 0 0 0 -91.500070945927291 204.80732267154963 0 204.80732267154963 350.88643215826687 0 0 0 0 -213.00965411543439 97.199794640171604 0 97.199794640171604 368.41646674097865 0 0 0 0 -115.1358149547741 152.45932932907454 0 152.45932932907454 237.46436281825299 0 0 0 0 90.036328172878711 65.176461496612319 0 65.176461496612319 -15.307430996916082 0 0 0 0 -0.52620396522610235 3.5130830008994138 0 3.5130830008994138 -2.0161246998671167 0 0 0 0 -211.78315128450049 242.74068988023646 0 242.74068988023646 632.01513271465956 0 0 0 0 -118.20999352967192 27.481361927404578 0 27.481361927404578 633.27691642156788 0 0 0 0 -145.64972212153953 278.40398162963811 0 278.40398162963811 506.09006401932129 0 0 0 0 -195.18279722807347 119.24676578362778 0 119.24676578362778 413.97904717587517 0 0 0 0 -45.407029382799465 371.97008310650642 0 371.97008310650642 37.541216195568268 0 0 0 0 176.58835938890115 271.28643038399241 0 271.28643038399241 55.708903845155874 0 0 0 0 22.483061321424202 80.277104943801319 0 80.277104943801319 -57.014907174003071 0 0 0 0 33.121426144003635 291.97259338966251 0 291.97259338966251 565.84706415601931 0 0 0 0 45.010631110257236 195.18448905021614 0 195.18448905021614 213.07217625488556 0 0 0 0 20.797653052659371 -158.35907244701775 0 -158.35907244701775 52.809213757023826 0 0 0 0 1.8474280532791454 -2.5062236253474381 0 -2.5062236253474381 -53.673474107249504 0 0 0 0 -27.913151740300236 142.37015009835795 0 142.37015009835795 245.3888466536082 0 0 0 0 -198.48659594641504 106.84897137425742 0 106.84897137425742 257.90355600947805 0 0 0 0 -53.375492025523272 267.16476612427755 0 267.16476612427755 341.42607213779047 0 0 0 0 73.793579405755736 179.29442086488598 0 179.29442086488598 117.07564790743709 0 0 0 0 26.938792995584663 85.457465677502114 0 85.457465677502114 88.575480000971766 0 0 0 0 36.295946367172292 116.5648764502148 0 116.5648764502148 169.18571351944775 0 0 0 0 132.44819661650399 192.87036030641502 0 192.87036030641502 146.79734551417641 0 0 0 0 -17.045201787448605 139.39812629474454 0 139.39812629474454 152.89943024857348 0 0 0 0 12.849734612871544 62.992008022525624 0 62.992008022525624 8.7073455890758851 0 0 0 0 47.095125036081299 159.25290728298933 0 159.25290728298933 44.264333258983243 0 0 0 0 32.741262738421938 126.3998302447983 0 126.3998302447983 156.17136091931025 0 0 0 0 75.615627807343117 110.85931358542712 0 110.85931358542712 139.73964105721097 0 0 0 0 -9.2386971189553151 210.11583955350579 0 210.11583955350579 264.1927648628498 0 0 0 0 -25.660280993586639 56.838573242968778 0 56.838573242968778 -49.601421930287415 0 0 0 0 37.522927191428607 146.53282855695397 0 146.53282855695397 -28.390124741665204 0 0 0 0 -46.86430609576928 58.167747642378345 0 58.167747642378345 32.559266161108098 0 0 0 0 44.350811935175443 24.111789052241875 0 24.111789052241875 -345.71663332584649 0 0 0 0 26.833222391374875 107.98498628536345 0 107.98498628536345 -222.64873915321732 0 0 0 0 -130.28848779591499 56.525493353195998 0 56.525493353195998 -211.79527133593274 0 0 0 0 50.186830423161155 95.462278363796031 0 95.462278363796031 -174.12268037949616 0 0 0 0 -19.127192502535763 -33.12414333057859 0 -33.12414333057859 -170.52468451879997 0 0 0 0 -6.2940528781909961 53.790051947884194 0 53.790051947884194 -110.14662879778916 0 0 0 0 238.93284531887912 472.93732615650606 0 472.93732615650606 663.00041213069926 0 0 0 0 -59.588619823538465 86.185713781995219 0 86.185713781995219 184.87990943001205 0 0 0 0 1.8324560640051573 7.8441951183296315 0 7.8441951183296315 -2.7484960716999627 0 0 0 0 159.47218397742836 261.37631424699794 0 261.37631424699794 569.88431015609785 0 0 0 0 1.0011988509426146 3.5378439676665465 0 3.5378439676665465 0.71277643724657125 0 0 0 0 -4.159861972409999 289.74619155321852 0 289.74619155321852 898.92979773924708 0 0 0 0 -12.879183832847048 185.21799179101617 0 185.21799179101617 787.23390708193801 0 0 0 0 -34.881566545911483 121.143889068524 0 121.143889068524 -311.73127893077981 0 0 0 0 222.94877325098787 217.48951676887464 0 217.48951676887464 -626.02906223733225 0 0 0 0 170.29528170828416 339.87375125225481 0 339.87375125225481 -268.44239881212343 0 0 0 0 149.54044426798646 91.530479084856779 0 91.530479084856779 -183.65106809593817 0 0 0 0 163.48752519482514 260.85864090010728 0 260.85864090010728 169.96056964829711 0 0 0 0 151.87993638197077 111.89308668698595 0 111.89308668698595 42.65011013887306 0 0 0 0 275.99096654505774 29.526131955919482 0 29.526131955919482 -34.615913675315824 0 0 0 0 347.91179834448485 170.8309505922557 0 170.8309505922557 -164.29134097024507 0 0 0 0 -2.5818392716755625 138.01709114897676 0 138.01709114897676 -84.144141632932588 0 0 0 0 132.43757553410524 261.89737926767828 0 261.89737926767828 -217.71706584181447 0 0 0 0 -184.50194256735267 188.0431611295171 0 188.0431611295171 -175.21757870051897 0 0 0 0 -176.38640003527689 205.59695485871089 0 205.59695485871089 -160.8981982983496 0 0 0 0 2.3304472535694458 2.8754368255329439 0 2.8754368255329439 -0.34428026035581638 0 0 0 0 313.48312277796504 -4.3996898802479336 0 -4.3996898802479336 -58.426143760891648 0 0 0 0 -380.62421118426573 385.83737490533804 0 385.83737490533804 -229.39266876076908 0 0 0 0 64.702707654483675 68.514993496511124 0 68.514993496511124 24.358830234748893 0 0 0 0 81.149147490461473 67.601636561934356 0 67.601636561934356 -62.440961739277896 0 0 0 0 125.76994116949209 141.37723528879724 0 141.37723528879724 48.514485384323052 0 0 0 0 -153.47283820511075 190.28298584755066 0 190.28298584755066 -194.83252255305706 0 0 0 0 3.4881268759471311 4.4141327440064231 0 4.4141327440064231 -3.071178453476449 0 0 0 0 -163.15584395217593 199.30523781903321 0 199.30523781903321 -182.36092714640017 0 0 0 0 -162.75826605049224 198.6368463128083 0 198.6368463128083 -191.66968699807694 0 0 0 0 -0.080158249590567721 5.2500998104672192 0 5.2500998104672192 8.2710866838892088 0 0 0 0 1.0230929409689224 4.2402986314470397 0 4.2402986314470397 -0.3167937059237822 0 0 0 0 -151.78429486293317 193.96323624588331 0 193.96323624588331 -233.99630277978576 0 0 0 0 -41.646172539243707 4.2745903617442309 0 4.2745903617442309 3.6509039931697771 0 0 0 0 -28.573590262138168 43.686172957764938 0 43.686172957764938 -120.07625272697987 0 0 0 0 42.522089553211117 23.989888876185432 0 23.989888876185432 -1.7663190955991013 0 0 0 0 -0.66196230637410736 10.632845505415769 0 10.632845505415769 -2.5557207428290667 0 0 0 0 23.273218422866194 44.378407003150642 0 44.378407003150642 -148.32864305100884 0 0 0 0 8.580007606127765 -5.6708352407622442 0 -5.6708352407622442 65.530534287499904 0 0 0 0 23.834174358838936 59.335394215904671 0 59.335394215904671 -139.61182055430982 0 0 0 0 17.731763669260545 32.527391997906307 0 32.527391997906307 -91.507155132327171 0 0 0 0 48.897624992154306 39.158439335231378 0 39.158439335231378 -124.11353140272695 0 0 0 0 43.91236498499984 92.098069776949501 0 92.098069776949501 -88.215528475870087 0 0 0 0 53.141983915258606 101.44247604842803 0 101.44247604842803 -59.561651295814954 0 0 0 0 -57.0380509745155 102.74904245742255 0 102.74904245742255 -78.686202716631669 0 0 0 0 -10.539876085764263 51.536387320638823 0 51.536387320638823 -16.71577898522446 0 0 0 0 0.64741811275598593 67.252587566129478 0 67.252587566129478 -91.856225021430873 0 0 0 0 508.33280493924394 92.936938857666973 0 92.936938857666973 7.0087256993301708 0 0 0 0 124.74609519755177 259.7299823208723 0 259.7299823208723 -84.208502074001444 0 0 0 0 48.225229464500444 35.319278197724998 0 35.319278197724998 18.856160635124979 0 0 0 0 -64.34636784059694 290.8216551137084 0 290.8216551137084 111.63637503241557 0 0 0 0 11.016980847489322 227.46241689204908 0 227.46241689204908 111.83121269673148 0 0 0 0 -164.85765978683776 374.66581227939059 0 374.66581227939059 31.043822254476254 0 0 0 0 -50.246064449296682 253.5526897794698 0 253.5526897794698 -47.030308840134239 0 0 0 0 -264.0022446209623 239.97599771727073 0 239.97599771727073 -165.47859319094641 0 0 0 0 -73.36690718477621 178.88215869574788 0 178.88215869574788 -117.17921383403518 0 0 0 0 -153.44770347161102 345.20351328359357 0 345.20351328359357 -72.14109347728936 0 0 0 0 -183.85559995748918 202.53555907270311 0 202.53555907270311 -199.41148931700809 0 0 0 0 -272.62049069738714 359.47576703914456 0 359.47576703914456 -207.01132593544571 0 0 0 0 -40.933923527481966 145.80378311857294 0 145.80378311857294 -196.65660917374043 0 0 0 0 -96.830978329453501 259.34661448587576 0 259.34661448587576 -198.02219152711768 0 0 0 0 -84.926704383877222 151.18871716075591 0 151.18871716075591 -81.388867385743652 0 0 0 0 -147.68865425323747 190.36478698118253 0 190.36478698118253 -215.08426626858272 0 0 0 0 -155.21988822428102 205.08778412009269 0 205.08778412009269 -196.00062454088766 0 0 0 0 -151.69125271330995 202.02851197437303 0 202.02851197437303 -190.79360987090331 0 0 0 0 -128.62088384345407 181.33277133678712 0 181.33277133678712 -180.6607251518044 0 0 0 0 -176.70874202687992 239.69828587699158 0 239.69828587699158 -211.11547106241414 0 0 0 0 -262.06458931055022 160.41525466275198 0 160.41525466275198 -147.07392108165732 0 0 0 0 -532.080245415229 136.63714594336034 0 136.63714594336034 -135.08008152702314 0 0 0 0 -273.36388196814369 195.31153615366247 0 195.31153615366247 -140.08241804976569 0 0 0 0 -175.57890364169725 173.84382989663573 0 173.84382989663573 -136.56458373224723 0 0 0 0 -265.80299583876331 125.57222977363745 0 125.57222977363745 -42.235289115771593 0 0 0 0 -174.0322392784874 54.78267328155016 0 54.78267328155016 -13.786247045203709 0 0 0 0 -119.12349397418438 137.52610021607325 0 137.52610021607325 -126.28558465470758 0 0 0 0 -119.49658035711036 123.52260158846661 0 123.52260158846661 -96.350062416280707 0 0 0 0 -88.282666288036125 212.19864155724713 0 212.19864155724713 -186.86690926546362 0 0 0 0 -140.08303088365938 214.30490960930729 0 214.30490960930729 -181.51227545358779 0 0 0 0 -183.26728375819221 184.53367286304683 0 184.53367286304683 -128.25161345676315 0 0 0 0 427.37198260528385 321.50057372201991 0 321.50057372201991 -44.679922047306604 0 0 0 0 443.28658929621997 301.42351279343609 0 301.42351279343609 -123.86151305172825 0 0 0 0 -103.36730604898185 65.098852920158606 0 65.098852920158606 -56.494737645896748 0 0 0 0 494.60517920784332 -12.00373111064232 0 -12.00373111064232 -109.47511929114262 0 0 0 0 28.44451459942502 -55.202793490545446 0 -55.202793490545446 -39.751591932628344 0 0 0 0 0.49861674564172631 2.535732611257373 0 2.535732611257373 -0.90874081341579682 0 0 0 0 -16.515829263797059 72.821024908176241 0 72.821024908176241 120.43088569385145 0 0 0 0 -296.23803086688713 169.79660426994906 0 169.79660426994906 -98.579579318600736 0 0 0 0 824.89872530235152 82.638720845643547 0 82.638720845643547 -101.41183252643532 0 0 0 0 1.1046784795218798 1.393297861800562 0 1.393297861800562 3.3477625030193892 0 0 0 0 680.86930984846549 378.24771625646099 0 378.24771625646099 194.79040839575737 0 0 0 0 509.57500748694292 508.3771718973203 0 508.3771718973203 199.23772551936054 0 0 0 0 818.52614697649551 338.95591089324626 0 338.95591089324626 -43.934249186248394 0 0 0 0 202.4578589615121 338.33405865333771 0 338.33405865333771 361.74239006671178 0 0 0 0 722.6443742425763 294.57516896730294 0 294.57516896730294 323.82001317331014 0 0 0 0 124.95759354780603 -42.715392378304387 0 -42.715392378304387 -448.77561299777517 0 0 0 0 1.3212458655056594 2.3814464174423375 0 2.3814464174423375 -0.95122947693862159 0 0 0 0 442.41068417623319 136.46671495864575 0 136.46671495864575 -357.8394406079824 0 0 0 0 965.52942929443088 394.35402073432124 0 394.35402073432124 -92.46070315223551 0 0 0 0 -908.22503831741051 476.04619440615988 0 476.04619440615988 15.531447624471184 0 0 0 0 0.1170700947886445 0.87764359738955022 0 0.87764359738955022 0.19758640878439593 0 0 0 0 770.97038373463147 565.13963813725604 0 565.13963813725604 -188.76270411909354 0 0 0 0 -378.83914403606468 628.55437120527358 0 628.55437120527358 -174.64804282519617 0 0 0 0 118.90863779047504 464.02721703004136 0 464.02721703004136 -144.92535896285244 0 0 0 0 247.41835557788727 300.38900102493062 0 300.38900102493062 -220.29031344022223 0 0 0 0 244.44895733789599 322.78822074569689 0 322.78822074569689 -125.83861087056721 0 0 0 0 77.501120473112678 209.53767604840868 0 209.53767604840868 -171.36260382028831 0 0 0 0 61.055632958421484 213.69276045916376 0 213.69276045916376 87.056453058112311 0 0 0 0 -16.185944076161832 24.183501670100668 0 24.183501670100668 -274.93187300724094 0 0 0 0 5.0340910498052835 -9.2593082898092689 0 -9.2593082898092689 -192.605860559348 0 0 0 0 150.80788457641029 158.03303223617422 0 158.03303223617422 -167.2130534179887 0 0 0 0 24.210123045893852 0.7315840407354699 0 0.7315840407354699 -273.23320429985688 0 0 0 0 1.6099552079103887 9.335366923656693 0 9.335366923656693 -264.04124789967318 0 0 0 0 346.54933119943598 204.24295030162011 0 204.24295030162011 -280.86499625711804 0 0 0 0 12.484511783550261 39.587703957462509 0 39.587703957462509 -326.4140309221475 0 0 0 0 10.612040652132009 4.7774513215160681 0 4.7774513215160681 -45.807639472341513 0 0 0 0 -6.5469166850089096 86.078435803161483 0 86.078435803161483 -105.63943567498343 0 0 0 0 84.751977531122975 44.113225676524962 0 44.113225676524962 -191.31860452314322 0 0 0 0 23.777252182225197 79.338865040689058 0 79.338865040689058 -52.080110298956455 0 0 0 0 214.6233202340045 241.65354538780457 0 241.65354538780457 -106.68687787699309 0 0 0 0 154.49958736388726 64.043286712668532 0 64.043286712668532 -324.20288124978106 0 0 0 0 2.9451857721315946 3.1394801989601007 0 3.1394801989601007 0.63048727197324617 0 0 0 0 -13.751895936831716 23.150437728058023 0 23.150437728058023 -183.32715678440218 0 0 0 0 -59.553053615789395 176.08053441585798 0 176.08053441585798 215.21727225795894 0 0 0 0 18.229850012584052 75.677540506131777 0 75.677540506131777 -53.766912297132954 0 0 0 0 -82.86743019669666 266.54386548760158 0 266.54386548760158 230.66589902735723 0 0 0 0 -0.39281590067867 0.41218212153728473 0 0.41218212153728473 4.4642002685890532 0 0 0 0 384.18256751674926 202.71436013798666 0 202.71436013798666 201.4751932609397 0 0 0 0 244.39607637742301 443.46284550804012 0 443.46284550804012 303.92553558176587 0 0 0 0 -217.7638804352755 235.24880020309502 0 235.24880020309502 564.66832115426223 0 0 0 0 15.163295409947409 78.900179694009068 0 78.900179694009068 -49.86478992219638 0 0 0 0 8.9464697593066376 42.111346527537535 0 42.111346527537535 -297.33079944965903 0 0 0 0 11.30493094327079 7.0913594433047074 0 7.0913594433047074 -36.367349722448949 0 0 0 0 -0.62948298582341522 -99.641349863326468 0 -99.641349863326468 201.93480110697601 0 0 0 0 128.63228357105982 153.29032466268836 0 153.29032466268836 219.05416159154902 0 0 0 0 8.1074988709396507 6.2351157497748417 0 6.2351157497748417 4.0991003032385187 0 0 0 0 -26.926649584442202 54.863384336914351 0 54.863384336914351 -215.29921039881083 0 0 0 0 23.632119226764189 10.909109307343897 0 10.909109307343897 -296.88141582595563 0 0 0 0 6.16076140571613 3.0052435787283009 0 3.0052435787283009 1.2263712425621911 0 0 0 0 432.78327174327569 97.531237077724654 0 97.531237077724654 217.42360834913052 0 0 0 0 -117.06700557106524 37.363051690705106 0 37.363051690705106 594.3078535470504 0 0 0 0 99.912937597371638 -150.68911909101735 0 -150.68911909101735 353.66179718903004 0 0 0 0 20.408461826504208 -177.75543916990864 0 -177.75543916990864 358.92302591059706 0 0 0 0 -5.708588551817229 311.54186124372427 0 311.54186124372427 394.24464191443985 0 0 0 0 -103.37835837802413 97.941104699702919 0 97.941104699702919 45.083819244253391 0 0 0 0 -34.946913309540832 125.29799629566332 0 125.29799629566332 38.298950556250929 0 0 0 0 -67.641787980730442 -144.45319128814435 0 -144.45319128814435 111.16762474854113 0 0 0 0 322.25306013672525 268.91005234406475 0 268.91005234406475 -170.35704105564582 0 0 0 0 178.90723258777871 -39.458866791408582 0 -39.458866791408582 -420.53982806952627 0 0 0 0 19.748962715653818 4.0044249244012526 0 4.0044249244012526 1.0036756216253817 0 0 0 0 -55.129198030379484 -56.774271795196 0 -56.774271795196 69.947395547220367 0 0 0 0 251.01281603649113 140.35170265091347 0 140.35170265091347 42.640431957057444 0 0 0 0 -98.897607952952967 155.27397525177366 0 155.27397525177366 743.62359029319532 0 0 0 0 -50.8424824631511 176.76638665193877 0 176.76638665193877 624.06621598882703 0 0 0 0 3.1887268999529113 1.0279148772293638 0 1.0279148772293638 2.6256612119203311 0 0 0 0 14.426706705235119 4.213255197019862 0 4.213255197019862 261.05640749255326 0 0 0 0 39.079725364674232 -28.731589119377531 0 -28.731589119377531 3.4085890580390696 0 0 0 0 64.753257977790781 26.161229507008102 0 26.161229507008102 -84.054117080069773 0 0 0 0 72.383304880466312 -9.6223695307526214 0 -9.6223695307526214 -40.488490555520912 0 0 0 0 49.384906672887155 5.4694484214323893 0 5.4694484214323893 17.450462563789188 0 0 0 0 31.056936372327868 9.3985449527392646 0 9.3985449527392646 1.2532773258508456 0 0 0 0 23.475537688616896 -3.1148027409853967 0 -3.1148027409853967 -24.940394261235269 0 0 0 0 -60.994259276558296 145.1290961083414 0 145.1290961083414 -170.84063639778151 0 0 0 0 -17.242952347240987 5.1109944023730733 0 5.1109944023730733 4.004071311143754 0 0 0 0 -67.479594020274817 248.60624904201268 0 248.60624904201268 -270.90123915818913 0 0 0 0 -4.7768435005970105 -1.3811703103190638 0 -1.3811703103190638 -0.49010145575122799 0 0 0 0 -122.16460788819313 130.35148043544586 0 130.35148043544586 118.76553093072653 0 0 0 0 -9.7736511892435374 -93.546107194804108 0 -93.546107194804108 198.94471435969172 0 0 0 0 -147.12791736885993 143.35861308383755 0 143.35861308383755 9.2855089656259224 0 0 0 0 -164.50707268991391 25.097759932188637 0 25.097759932188637 -40.671001450562471 0 0 0 0 36.65441330797205 25.597488489665835 0 25.597488489665835 20.732285907357145 0 0 0 0 -169.24556959883193 118.33478879013273 0 118.33478879013273 69.562062016273558 0 0 0 0 -65.00969221280684 130.66471880656127 0 130.66471880656127 58.363669665981433 0 0 0 0 -15.028479195971158 194.80639539036019 0 194.80639539036019 -220.98692774204483 0 0 0 0 22.419928344372238 15.684902139858181 0 15.684902139858181 10.326519812231076 0 0 0 0 -65.497874672335456 79.172381236477122 0 79.172381236477122 -39.861906432621254 0 0 0 0 -48.332617536779253 194.51715761923532 0 194.51715761923532 -163.68351187105509 0 0 0 0 37.949488340971584 -32.673587126063012 0 -32.673587126063012 -95.742588283461373 0 0 0 0 19.272847104759421 69.704342146463205 0 69.704342146463205 -77.125611560122707 0 0 0 0 -1.0914150571423846 -1.0632103291440558 0 -1.0632103291440558 2.3095194862654722 0 0 0 0 -267.62491870309168 102.61890596645389 0 102.61890596645389 104.27392301155487 0 0 0 0 128.77622538529977 139.06897907582334 0 139.06897907582334 137.20077803279855 0 0 0 0 -69.487411907673959 244.72634745651976 0 244.72634745651976 203.81840525643929 0 0 0 0 9.7146507083089091 209.81793588165965 0 209.81793588165965 278.44188732743442 0 0 0 0 18.80662748850591 207.95235406551183 0 207.95235406551183 113.55242829267445 0 0 0 0 88.781846865909756 212.60503135406179 0 212.60503135406179 -199.98804679921341 0 0 0 0 49.941622561062616 43.624195978633921 0 43.624195978633921 -1.4292215826662158 0 0 0 0 -15.814863819206948 20.090398879749046 0 20.090398879749046 -253.34704990606679 0 0 0 0 -30.861171858244916 63.581378128232302 0 63.581378128232302 -28.384851974844402 0 0 0 0 -33.199219077345333 155.58401108066346 0 155.58401108066346 -44.376402382928063 0 0 0 0 -37.618109325405385 29.241539248538174 0 29.241539248538174 -226.19066100163582 0 0 0 0 -39.566235950536793 12.757562241753476 0 12.757562241753476 -255.49753061682986 0 0 0 0 333.31531744532549 276.96390238520326 0 276.96390238520326 19.73715182617525 0 0 0 0 -62.316536394660943 111.60612121184931 0 111.60612121184931 211.33785654590611 0 0 0 0 38.762222775600094 -28.593253517040012 0 -28.593253517040012 -57.411483523881543 0 0 0 0 0.017983516488811802 3.7849841079641759 0 3.7849841079641759 -1.6045476110193988 0 0 0 0 -18.530028191336896 16.886596728071709 0 16.886596728071709 -4.0330508464876402 0 0 0 0 -2.4874568719678791 -101.21600865579421 0 -101.21600865579421 -256.57604013338096 0 0 0 0 212.61327563716623 89.538763272135839 0 89.538763272135839 -153.80827358415809 0 0 0 0 336.7787693674909 300.20094478395913 0 300.20094478395913 35.391030230068282 0 0 0 0 441.94276385593457 315.23001774433283 0 315.23001774433283 -40.093107398501161 0 0 0 0 440.82088041750831 232.9811407545094 0 232.9811407545094 -54.611250053925687 0 0 0 0 -3.6739257037843345 -0.22826826660821098 0 -0.22826826660821098 -80.874407136429909 0 0 0 0 2.753864169557346 -9.4545690706454479 0 -9.4545690706454479 -78.653499388943601 0 0 0 0 3.6424053418159019 -0.98607051636099641 0 -0.98607051636099641 -81.438258536592002 0 0 0 0 24.881207903046743 12.567786433723995 0 12.567786433723995 -82.739584245881815 0 0 0 0 -11.971866113628494 9.5515621356526026 0 9.5515621356526026 -78.391446679264845 0 0 0 0 -6.2813660312676802 1.7017168380607472 0 1.7017168380607472 -73.939650010885089 0 0 0 0 -3.6318757352964894 4.4194519544067248 0 4.4194519544067248 -1.8753320047312503 0 0 0 0 -67.866664799643331 36.069496561711276 0 36.069496561711276 -137.4188689976836 0 0 0 0 1.0677710264426423 107.31704469254737 0 107.31704469254737 -27.973033399552151 0 0 0 0 -16.030118207025737 49.948263010154974 0 49.948263010154974 -33.589423152922997 0 0 0 0 17.12313792902205 -56.793526389094495 0 -56.793526389094495 -287.52264141191699 0 0 0 0 -59.374146688162 114.8540454785666 0 114.8540454785666 114.16382201768283 0 0 0 0 -15.713156283090939 67.904598512596067 0 67.904598512596067 88.507580009667436 0 0 0 0 -60.063918938685674 102.96682184675046 0 102.96682184675046 110.66380093083808 0 0 0 0 0.26604430438601412 52.040007530014009 0 52.040007530014009 140.83139473792471 0 0 0 0 -2.3081743248185376 65.835058974463664 0 65.835058974463664 77.405192185497071 0 0 0 0 2.7684346645355618 44.179726344428417 0 44.179726344428417 -28.811677061596352 0 0 0 0 6.9268174589415139 -103.41843992163376 0 -103.41843992163376 -245.22042384957058 0 0 0 0 0.5254769482271513 -8.820404129639428 0 -8.820404129639428 -92.280074790778599 0 0 0 0 -48.211285798635799 27.960432734336791 0 27.960432734336791 -140.02015949384986 0 0 0 0 -5.7426575399857711 5.4641007348394321 0 5.4641007348394321 -0.53632338026488569 0 0 0 0 -12.902247269918007 -14.143274370311246 0 -14.143274370311246 -69.812955780755146 0 0 0 0 -9.2312233410048066 -2.2889003166446855 0 -2.2889003166446855 -77.722650850071659 0 0 0 0 -5.8841958107004757 -7.3497304615493704 0 -7.3497304615493704 -79.061476676899474 0 0 0 0 -0.13468145084334537 -15.455807036668034 0 -15.455807036668034 -66.92399786893202 0 0 0 0 -0.6578521116804037 -8.8586536346702474 0 -8.8586536346702474 -59.89221231901093 0 0 0 0 -0.011660669260891154 -8.106019832751258 0 -8.106019832751258 -71.884958494172679 0 0 0 0 6.4450090055179317 -15.224087952317745 0 -15.224087952317745 -90.495186252730832 0 0 0 0 -2.2483316718776791 -7.7679123917342991 0 -7.7679123917342991 -16.585135089366268 0 0 0 0 6.8916642417807452 -7.9999975810142416 0 -7.9999975810142416 -95.837003486092726 0 0 0 0 -2.8550938419502927 -5.2881172428751597 0 -5.2881172428751597 -70.433993993616241 0 0 0 0 -1.4884390325460117 -16.06976920330635 0 -16.06976920330635 -84.517349750894937 0 0 0 0 -12.848850794700411 -73.72950052895294 0 -73.72950052895294 -160.06924085542778 0 0 0 0 17.681698946247593 33.720772042180293 0 33.720772042180293 -32.904776346413847 0 0 0 0 -8.0077707365305741 1.4377164346279638 0 1.4377164346279638 -13.403861780160891 0 0 0 0 -17.471681138093118 -14.226107916545516 0 -14.226107916545516 -141.17419863032501 0 0 0 0 0.34685475187143311 16.466739994456475 0 16.466739994456475 15.116769429879241 0 0 0 0 11.984273241405049 5.1443157933073564 0 5.1443157933073564 -64.690982391565228 0 0 0 0 -0.81679833261296153 -0.37117019394008821 0 -0.37117019394008821 -69.551897780791251 0 0 0 0 -2.5248448689943643 -4.7828520044888663 0 -4.7828520044888663 -6.3633660424792957 0 0 0 0 19.495166996290209 -7.3151105995252692 0 -7.3151105995252692 -101.19717460714219 0 0 0 0 9.9723647494947727 35.496019033083371 0 35.496019033083371 52.264668710857222 0 0 0 0 1.3878081656614434 9.5066238769023812 0 9.5066238769023812 10.479009292060251 0 0 0 0 29.458245698289829 57.730557343650844 0 57.730557343650844 35.606106186487523 0 0 0 0 -9.4620233146270039 46.543292456266499 0 46.543292456266499 32.535171834421817 0 0 0 0 -43.192282943447935 -104.76484340308707 0 -104.76484340308707 212.72075267032596 0 0 0 0 -48.812485619564541 170.03226215335962 0 170.03226215335962 509.07116764077 0 0 0 0 -0.058530614034680184 267.20093165541948 0 267.20093165541948 634.00442234314323 0 0 0 0 0.071044000581425237 1.5763816286732037 0 1.5763816286732037 3.9121178270279344 0 0 0 0 361.22947574971477 301.43938376732058 0 301.43938376732058 191.14047355678167 0 0 0 0 271.50491533068998 178.77079455335752 0 178.77079455335752 203.91205848376012 0 0 0 0 -61.622879657326848 361.04134011068891 0 361.04134011068891 129.67013416595364 0 0 0 0 0.23844736893079244 402.6137188229186 0 402.6137188229186 -92.833652930683456 0 0 0 0 27.151328403677326 254.00242969046485 0 254.00242969046485 -116.08190799753538 0 0 0 0 -8.2857260026066797 601.92296436521974 0 601.92296436521974 -225.91242012518342 0 0 0 0 56.774899003270548 444.85525821614374 0 444.85525821614374 308.79989609498443 0 0 0 0 72.904723888386798 351.26362157886433 0 351.26362157886433 -45.260756149496956 0 0 0 0 71.582656163576758 208.45825860574223 0 208.45825860574223 181.22105778696914 0 0 0 0 43.858896218909649 194.34722947880618 0 194.34722947880618 -21.853449380082111 0 0 0 0 25.350804322617478 103.49396843128125 0 103.49396843128125 -40.321921153068615 0 0 0 0 110.88965896323498 73.165589544034447 0 73.165589544034447 -261.11236274520161 0 0 0 0 -33.468760648742318 124.15882561899434 0 124.15882561899434 -84.993763555716214 0 0 0 0 241.97918277142162 172.08675875213157 0 172.08675875213157 -186.97917523247634 0 0 0 0 288.41675606221543 370.52207602451927 0 370.52207602451927 -46.700419242114094 0 0 0 0 674.64114318598877 8.5987150733308226 0 8.5987150733308226 -267.72686976316254 0 0 0 0 721.77544586458316 543.84820424306395 0 543.84820424306395 -341.19223508676077 0 0 0 0 8.1001385260479424 4.7694876577785479 0 4.7694876577785479 3.3943936830498771 0 0 0 0 -1.1693505246221321 -117.16948365208737 0 -117.16948365208737 735.66773807386562 0 0 0 0 -80.066307257395238 -270.28893165410409 0 -270.28893165410409 441.15639486654982 0 0 0 0 520.63921968748036 65.526743546304715 0 65.526743546304715 -564.52415412332266 0 0 0 0 1292.1165080123465 -5.0549004919084837 0 -5.0549004919084837 -204.27577597336858 0 0 0 0 748.82065240552765 522.72843194547568 0 522.72843194547568 351.52074347806774 0 0 0 0 259.68130601196026 149.69517676626037 0 149.69517676626037 524.88850443968295 0 0 0 0 -352.71067019466136 266.94010709347094 0 266.94010709347094 -58.032345970382494 0 0 0 0 14.247192650131183 -25.061069391922501 0 -25.061069391922501 -7.7632392336745397 0 0 0 0 -30.159095170529326 354.48864211008004 0 354.48864211008004 -271.05543026756641 0 0 0 0 -31.901366055950348 141.22441463047471 0 141.22441463047471 -413.43073792369978 0 0 0 0 -0.34258728713029996 187.32781386699662 0 187.32781386699662 -487.4286208129779 0 0 0 0 -161.34004523612384 446.18442954182137 0 446.18442954182137 -309.80475801471584 0 0 0 0 86.567631518904818 353.59558427454976 0 353.59558427454976 -340.86262961818284 0 0 0 0 -1.5554737994529404 3.7044356906810094 0 3.7044356906810094 -2.5968293079578189 0 0 0 0 -83.945558914652793 65.677266089143814 0 65.677266089143814 46.057233136263676 0 0 0 0 -80.296878376597306 67.858067824388854 0 67.858067824388854 42.518561078817584 0 0 0 0 -96.321485742679215 54.334871580649633 0 54.334871580649633 39.614882942434633 0 0 0 0 -87.519210335158277 61.159720534138614 0 61.159720534138614 42.306719098472968 0 0 0 0 -80.383640477492008 68.017477319823229 0 68.017477319823229 42.244278579052207 0 0 0 0 -83.939613601545716 60.094963812214701 0 60.094963812214701 36.357107223739149 0 0 0 0 -4.7558458166828359 7.1125105946283131 0 7.1125105946283131 -4.477322800816296 0 0 0 0 -345.18020287281252 41.788292004373943 0 41.788292004373943 49.776398954296383 0 0 0 0 -362.06142758830788 232.65461618974291 0 232.65461618974291 -128.4627043244036 0 0 0 0 -89.062087591548334 51.557802058130619 0 51.557802058130619 41.058656839435571 0 0 0 0 -28.151479277435101 60.259128789258284 0 60.259128789258284 -148.10215401513233 0 0 0 0 -31.425430364227889 26.596080473985147 0 26.596080473985147 25.415734879596265 0 0 0 0 -7.041651082266057 10.159139294123726 0 10.159139294123726 -11.476288234412586 0 0 0 0 -43.234802266546467 56.641774665018602 0 56.641774665018602 29.433699192388303 0 0 0 0 -75.305388194417901 123.29966751860775 0 123.29966751860775 -5.5809705899009714 0 0 0 0 -44.285280491039885 117.27775512199787 0 117.27775512199787 -13.818911330978153 0 0 0 0 -36.361447386867439 84.025157043648505 0 84.025157043648505 7.303015342404251 0 0 0 0 -96.72466242974042 59.340398584121431 0 59.340398584121431 31.776898125535809 0 0 0 0 -131.10315002523566 65.427712152566528 0 65.427712152566528 34.931128796524717 0 0 0 0 -125.82397250660142 92.136962833392317 0 92.136962833392317 19.17593701885562 0 0 0 0 -99.381395385164069 55.972065013222164 0 55.972065013222164 44.143414461002976 0 0 0 0 -108.66559192803106 51.698494551266776 0 51.698494551266776 42.246725485878414 0 0 0 0 -99.693329102869029 62.378184938141203 0 62.378184938141203 28.680988292893744 0 0 0 0 -107.26650284736388 49.493078604002221 0 49.493078604002221 37.932497049565427 0 0 0 0 -110.00019971188158 57.361236690063379 0 57.361236690063379 36.152067906688899 0 0 0 0 -110.5046661378874 55.365820282382629 0 55.365820282382629 33.082753557304386 0 0 0 0 -120.73039803752908 68.514180692043738 0 68.514180692043738 30.838939044406288 0 0 0 0 -118.8107845524064 63.964253096834 0 63.964253096834 32.46993871884024 0 0 0 0 -99.284240725202835 59.3345266776887 0 59.3345266776887 34.570341183716664 0 0 0 0 -107.89283381164933 52.969012079669483 0 52.969012079669483 38.102933200425468 0 0 0 0 -99.99336462339852 57.73490179865621 0 57.73490179865621 40.80960573975608 0 0 0 0 -97.183480903651798 54.937094077875372 0 54.937094077875372 34.501192314171931 0 0 0 0 -1.0756609328095692 65.978575199799593 0 65.978575199799593 -45.897785586254031 0 0 0 0 -166.99387721608946 106.28021983129656 0 106.28021983129656 28.055642396720941 0 0 0 0 -95.214906913461164 59.653570138514624 0 59.653570138514624 30.706138306151843 0 0 0 0 0.11613830198471575 0.60164081187881457 0 0.60164081187881457 0.72147627626911515 0 0 0 0 -113.97111517489247 52.741717810728005 0 52.741717810728005 33.593800670147175 0 0 0 0 -96.623392418370713 52.784827528740607 0 52.784827528740607 26.724759561155224 0 0 0 0 -119.18099204275495 61.401796456913871 0 61.401796456913871 25.514008916070452 0 0 0 0 -135.47212175020104 65.290382490537013 0 65.290382490537013 27.65557316416016 0 0 0 0 -111.67949830118596 3.8511334865652316 0 3.8511334865652316 -12.30242214151076 0 0 0 0 -145.64005099523638 42.59222920803586 0 42.59222920803586 25.18214460521267 0 0 0 0 -58.707227688538296 51.514353238312651 0 51.514353238312651 -42.043503728222277 0 0 0 0 -193.32660898804534 33.665906482874561 0 33.665906482874561 35.740511509997305 0 0 0 0 -125.5765278969011 -37.466044772954774 0 -37.466044772954774 -32.105611037404742 0 0 0 0 -6.6082190665178056 9.9292056236497359 0 9.9292056236497359 0.80396845188607813 0 0 0 0 -27.187167312169578 89.020778701839617 0 89.020778701839617 -17.169199274187122 0 0 0 0 -3.4500306592435521 10.852352959125518 0 10.852352959125518 5.133543308061661 0 0 0 0 -304.81873305395493 177.49129252116654 0 177.49129252116654 -100.26864545044737 0 0 0 0 -24.663053916803619 29.851527639415508 0 29.851527639415508 -27.118004782649223 0 0 0 0 -45.756158375494124 2.0007231829331431 0 2.0007231829331431 -25.551360542394832 0 0 0 0 -56.534496275053243 69.88871442400341 0 69.88871442400341 19.789620233670576 0 0 0 0 -55.062368434759264 41.074305282312707 0 41.074305282312707 0.95860163141333032 0 0 0 0 -351.64799897870398 132.51840689486562 0 132.51840689486562 -89.213931007194333 0 0 0 0 -427.69278602865961 263.52913407930282 0 263.52913407930282 -136.76489712695547 0 0 0 0 -546.82371842613156 312.87727439117361 0 312.87727439117361 -43.962935235991608 0 0 0 0 -566.5500331568619 251.51132432951272 0 251.51132432951272 -65.798963323079079 0 0 0 0 -737.38470588442578 443.35336387497318 0 443.35336387497318 -188.86095800721523 0 0 0 0 -558.07682961090541 287.47129376778503 0 287.47129376778503 -63.413689635601258 0 0 0 0 -562.36710367876185 533.87538293189482 0 533.87538293189482 -375.33615254707911 0 0 0 0 -717.43580996502351 232.39640487819634 0 232.39640487819634 -81.377420884167805 0 0 0 0 -514.1842164712034 205.29767870402065 0 205.29767870402065 5.7725782109500869 0 0 0 0 -492.50441772027625 281.68138370315864 0 281.68138370315864 -116.48242434514941 0 0 0 0 -540.44549279588318 228.5518897666152 0 228.5518897666152 -106.65714118930555 0 0 0 0 -641.10940898220724 394.79259436729444 0 394.79259436729444 -318.87112047230039 0 0 0 0 -540.24021283036473 205.77605910964121 0 205.77605910964121 -250.37441583241161 0 0 0 0 -553.91141235401665 521.66247205253785 0 521.66247205253785 -168.33705703892883 0 0 0 0 -538.92887083903952 446.37924097432824 0 446.37924097432824 183.08083875098237 0 0 0 0 -717.92214817143213 508.25260758034847 0 508.25260758034847 -33.484776960805902 0 0 0 0 -0.63235457418915542 12.912635580018431 0 12.912635580018431 -23.869979611718961 0 0 0 0 -1253.4162862879457 426.30323978066644 0 426.30323978066644 -39.433904993684337 0 0 0 0 -872.35380356751193 270.44407912593397 0 270.44407912593397 -95.777998987772662 0 0 0 0 -539.51629833920197 212.3196385272613 0 212.3196385272613 -87.218269749628234 0 0 0 0 -0.31687958759843537 18.820150556363551 0 18.820150556363551 -41.302442478414434 0 0 0 0 -433.98998893022326 177.88503553576084 0 177.88503553576084 -146.10671115366858 0 0 0 0 -416.8583702495398 185.68093126757321 0 185.68093126757321 -208.70161865755654 0 0 0 0 15.352191344187361 70.978871387987255 0 70.978871387987255 -116.99116660320396 0 0 0 0 -89.702849390383989 226.83649547481457 0 226.83649547481457 -32.675771735024682 0 0 0 0 -110.21150366955226 43.959084552370769 0 43.959084552370769 -7.3775507428434821 0 0 0 0 -105.98516799812478 43.653874433409328 0 43.653874433409328 12.220793715672698 0 0 0 0 82.074518271321722 23.323742080769989 0 23.323742080769989 -6.8542725705897283 0 0 0 0 135.37021470998297 199.46941768933812 0 199.46941768933812 -45.318679264994216 0 0 0 0 -76.703898007002408 198.82645187575008 0 198.82645187575008 285.57492557990372 0 0 0 0 -115.89238206709342 140.16722788374318 0 140.16722788374318 114.9433764643245 0 0 0 0 -152.35213895008383 71.150117540785686 0 71.150117540785686 74.008230059651396 0 0 0 0 -135.96588032289719 64.462106508249235 0 64.462106508249235 5.3689994112919521 0 0 0 0 -211.43109528239955 31.58183827225912 0 31.58183827225912 60.309148654941964 0 0 0 0 -185.96148865733949 87.348353706991475 0 87.348353706991475 52.690740398746129 0 0 0 0 -129.06124699623376 32.232492738534347 0 32.232492738534347 58.962341932601703 0 0 0 0 -151.08352039509464 55.459577746729337 0 55.459577746729337 39.720502992135152 0 0 0 0 -137.40667193172521 80.17103838042749 0 80.17103838042749 46.768994887490408 0 0 0 0 -135.40960889979942 82.493875728772764 0 82.493875728772764 49.051075867330837 0 0 0 0 -41.586014376120147 73.992346901517521 0 73.992346901517521 40.402088336855741 0 0 0 0 -55.35791906391978 63.997273627233426 0 63.997273627233426 -104.21546824286634 0 0 0 0 -115.52483807352867 62.739390917941819 0 62.739390917941819 21.540455581100105 0 0 0 0 -105.81367016442073 90.329405287636291 0 90.329405287636291 45.1723749038714 0 0 0 0 -39.829582586129483 23.68318410136353 0 23.68318410136353 25.038319430588743 0 0 0 0 -120.38289938963135 70.698954663661425 0 70.698954663661425 44.573199319118885 0 0 0 0 202.58167825864803 346.22047061874764 0 346.22047061874764 -157.84760270401966 0 0 0 0 -267.12082134302909 -240.02018660234171 0 -240.02018660234171 -399.77708537826402 0 0 0 0 -1.4903611035756352 -1.0320100046037872 0 -1.0320100046037872 2.9429276824667774 0 0 0 0 -35.406192212406722 23.671885278338731 0 23.671885278338731 26.732404456281998 0 0 0 0 7.0060378839625628 133.42406280836894 0 133.42406280836894 -135.86273183229468 0 0 0 0 18.467596282182967 -10.138932540289716 0 -10.138932540289716 -2.5447041431834805 0 0 0 0 93.248300528476648 87.144479375578157 0 87.144479375578157 -91.748158554019028 0 0 0 0 -104.98855128356627 81.127696241595004 0 81.127696241595004 5.1904832631844329 0 0 0 0 15.854214421276083 151.25197965508869 0 151.25197965508869 -111.29958379964773 0 0 0 0 -43.80010669431249 90.724191553070341 0 90.724191553070341 -44.596241200702934 0 0 0 0 78.075164529489484 168.92141792627262 0 168.92141792627262 5.4542997558382922 0 0 0 0 -102.54624491880668 255.78226506875762 0 255.78226506875762 41.188640401047451 0 0 0 0 -92.190718911384351 114.67237931868794 0 114.67237931868794 41.084347095511475 0 0 0 0 -2.2208771275248838 6.8005895497068281 0 6.8005895497068281 17.339007225817888 0 0 0 0 32.193520254621035 709.93161884907749 0 709.93161884907749 334.45394391479294 0 0 0 0 -136.14588434626785 309.99197616392667 0 309.99197616392667 -537.53303246418363 0 0 0 0 -316.52678987015861 559.93614539994815 0 559.93614539994815 99.207083021523431 0 0 0 0 -171.33326324703307 286.54291419499714 0 286.54291419499714 -189.89469338730123 0 0 0 0 -138.02276639011825 356.26063670919757 0 356.26063670919757 74.055861050550448 0 0 0 0 226.60057762688029 511.73808190676937 0 511.73808190676937 -137.27752584510745 0 0 0 0 217.0509629374111 531.90608637262267 0 531.90608637262267 43.755574363392952 0 0 0 0 -832.25979950186775 -314.86113590952664 0 -314.86113590952664 152.045800847176 0 0 0 0 -276.42160998025793 582.35568659663477 0 582.35568659663477 -221.68357952899532 0 0 0 0 -3.892812897918672 2.6457973462815971 0 2.6457973462815971 3.9690581790010349 0 0 0 0 -1007.0871139548453 -6.1976618401895394 0 -6.1976618401895394 156.91438064276372 0 0 0 0 -1053.8745253302895 405.60827259086 0 405.60827259086 -649.83415092470023 0 0 0 0 -14.015649279645055 9.0540308442426394 0 9.0540308442426394 10.663014630529776 0 0 0 0 -21.041207399371729 10.429726154741729 0 10.429726154741729 -19.768806076140208 0 0 0 0 -84.133807250612534 12.199190515555529 0 12.199190515555529 -16.46026797012928 0 0 0 0 -118.32663079547527 109.41998888012859 0 109.41998888012859 71.693566294015909 0 0 0 0 -10.908420690738478 6.3660691583951703 0 6.3660691583951703 10.669592007121764 0 0 0 0 -42.546152636891037 12.544795939111282 0 12.544795939111282 6.4704554937943612 0 0 0 0 -5.3160106378921812 4.7567472209336792 0 4.7567472209336792 -0.95360152300102641 0 0 0 0 -121.58144447592527 -26.329982879517956 0 -26.329982879517956 38.812306243044077 0 0 0 0 -107.06185430910861 46.180462006034304 0 46.180462006034304 26.883722825768928 0 0 0 0 -5.6330683403009107 13.424282556515195 0 13.424282556515195 -2.5062246267525836 0 0 0 0 -13.364611498436602 14.985633364357454 0 14.985633364357454 -4.1069575614455971 0 0 0 0 -24.519232471411669 31.39235147884574 0 31.39235147884574 -73.649860124682164 0 0 0 0 -3.5941094140056964 17.736175168340779 0 17.736175168340779 -17.629649500728078 0 0 0 0 -71.536346319396671 15.209567251678891 0 15.209567251678891 -1.6152611683692157 0 0 0 0 -31.659812801211594 17.915016011394513 0 17.915016011394513 -2.7835734238881216 0 0 0 0 -0.11313176971130556 11.096393533651433 0 11.096393533651433 0.83882381360571401 0 0 0 0 -15.135922011734237 16.436632816445126 0 16.436632816445126 1.5001492092324042 0 0 0 0 -1082.4093299170572 166.1637972115077 0 166.1637972115077 340.42414160384214 0 0 0 0 -1026.5131730888368 266.67437468701974 0 266.67437468701974 485.34895438569947 0 0 0 0 -581.67346699405425 -144.93989760109253 0 -144.93989760109253 125.6327076931193 0 0 0 0 -592.30752028301458 -70.597902780071308 0 -70.597902780071308 -306.65765245423245 0 0 0 0 -568.20884877518802 129.29362255697561 0 129.29362255697561 -236.90336931897582 0 0 0 0 -25.502218444745267 -281.82273259092108 0 -281.82273259092108 -34.339260701839521 0 0 0 0 -617.86666855893054 128.0591373301686 0 128.0591373301686 -52.114189261112188 0 0 0 0 -510.72539533986492 -219.17104447669408 0 -219.17104447669408 692.72803084335465 0 0 0 0 -419.29790243405409 373.27966798316083 0 373.27966798316083 526.89891679498396 0 0 0 0 -596.18302298402659 32.907634968189086 0 32.907634968189086 53.368840632414503 0 0 0 0 56.868367901001463 -379.77134956415398 0 -379.77134956415398 -301.15286935577387 0 0 0 0 -658.77614858259199 -216.32148269079153 0 -216.32148269079153 92.038944497311604 0 0 0 0 4.1356009362586859 8.6750583690515022 0 8.6750583690515022 -12.65116349756839 0 0 0 0 -303.03927809845868 -98.992633277066489 0 -98.992633277066489 50.628136150255159 0 0 0 0 -559.16878278043077 -270.96720089161681 0 -270.96720089161681 -107.60632726852782 0 0 0 0 -560.48491735415314 -310.77588019723044 0 -310.77588019723044 34.263948930572951 0 0 0 0 -567.38556506621035 -156.22386266842659 0 -156.22386266842659 58.609173512903453 0 0 0 0 1.6449610595165041 22.654878036577429 0 22.654878036577429 -15.574147419058136 0 0 0 0 15.366460903215824 13.676406118712848 0 13.676406118712848 -11.997235070916616 0 0 0 0 24.651076285486852 19.148478693736251 0 19.148478693736251 -8.4166560190496966 0 0 0 0 -179.99021566088777 235.78824811243976 0 235.78824811243976 8.0637587458277267 0 0 0 0 -53.634709441485029 51.894964905979577 0 51.894964905979577 7.3572714437395916 0 0 0 0 39.690932312787936 12.458363361092836 0 12.458363361092836 -22.717449169096653 0 0 0 0 151.17189757993583 58.868023407378132 0 58.868023407378132 -99.646105363310198 0 0 0 0 0.97453391835480219 21.336404316137319 0 21.336404316137319 -7.2648066719712858 0 0 0 0 12.959871998606104 28.606059802588788 0 28.606059802588788 8.1916462003136985 0 0 0 0 -0.98246141786350871 20.214202471836614 0 20.214202471836614 -8.3817566629488454 0 0 0 0 45.150909188216026 12.80548311048247 0 12.80548311048247 -28.643651202612091 0 0 0 0 18.144932375774736 7.5291332909475557 0 7.5291332909475557 -14.025644931639295 0 0 0 0 33.503083014497861 16.815808350025691 0 16.815808350025691 -5.9462505275641888 0 0 0 0 13.021837229313405 20.421471288627799 0 20.421471288627799 -11.957186632891535 0 0 0 0 2.871179068553253 15.395577151843817 0 15.395577151843817 -3.632775248275891 0 0 0 0 -3.8087540635666488 2.2618296511318245 0 2.2618296511318245 -1.0286361241965523 0 0 0 0 -111.64715911673557 28.045002876679064 0 28.045002876679064 -81.44775885278068 0 0 0 0 -152.53010928336516 109.31521697028802 0 109.31521697028802 47.236845829313097 0 0 0 0 -89.620805110796937 150.81653423331227 0 150.81653423331227 27.515702858232544 0 0 0 0 -8.1014977646082116 149.11274336066526 0 149.11274336066526 23.823618271697342 0 0 0 0 -88.462333033183313 143.31822172160537 0 143.31822172160537 75.97212461422896 0 0 0 0 -79.708621292367752 94.796389309012739 0 94.796389309012739 68.438081559728744 0 0 0 0 79.76186931315533 92.298339187065721 0 92.298339187065721 -82.284009945949947 0 0 0 0 43.480514761722588 101.3978656961408 0 101.3978656961408 -12.1007140633983 0 0 0 0 -186.07105000922456 180.22684747919266 0 180.22684747919266 -50.189496422666707 0 0 0 0 -79.312496764099251 97.184230193840449 0 97.184230193840449 17.565060767665273 0 0 0 0 -125.91866806859616 149.66844862465223 0 149.66844862465223 -41.536857186685666 0 0 0 0 67.51742828359238 39.975977130861793 0 39.975977130861793 -238.24456159551983 0 0 0 0 -265.32434949495655 144.53766996020204 0 144.53766996020204 18.871757191533106 0 0 0 0 1.8832795720667406 6.2663831495990578 0 6.2663831495990578 -2.2801983478314511 0 0 0 0 188.62641653787432 -111.63271178269497 0 -111.63271178269497 22.725177655222069 0 0 0 0 -241.42985028639669 55.497325533149706 0 55.497325533149706 59.92032179517264 0 0 0 0 -204.17290129181492 102.62732810456873 0 102.62732810456873 46.807515234104358 0 0 0 0 -197.99499102321715 37.966802501156053 0 37.966802501156053 66.655187905264029 0 0 0 0 -165.07408580232732 114.69462907914567 0 114.69462907914567 49.569210213750921 0 0 0 0 137.87909326305032 -64.383282138002187 0 -64.383282138002187 2.3180157849856187 0 0 0 0 1.5129727588166055 1.358400671329667 0 1.358400671329667 0.9877363162567292 0 0 0 0 -114.34294503799174 32.563286465934652 0 32.563286465934652 61.675721673575936 0 0 0 0 -110.62719225166074 96.570707847780795 0 96.570707847780795 47.167114501165003 0 0 0 0 -66.895976377323677 75.453775438469165 0 75.453775438469165 -38.828645271794812 0 0 0 0 -41.533029791262379 89.918296710322466 0 89.918296710322466 -53.587978327408564 0 0 0 0 -70.072392657457385 82.96643591269094 0 82.96643591269094 -54.481775215903326 0 0 0 0 35.065512811652297 11.227858214642765 0 11.227858214642765 -8.368768925567565 0 0 0 0 3.7039146067851334 3.9092207026976133 0 3.9092207026976133 3.4882834321802676 0 0 0 0 27.908462367773609 25.244695020732252 0 25.244695020732252 -14.023426627818026 0 0 0 0 3.8350039983924233 17.587063123553129 0 17.587063123553129 10.039056821713778 0 0 0 0 16.208750806093121 27.855782032002026 0 27.855782032002026 -6.7984970472753048 0 0 0 0 -1.9703652873567989 23.868248338310877 0 23.868248338310877 -1.7041164365909935 0 0 0 0 7.0279969892635563 15.390482722585148 0 15.390482722585148 -7.9176573813272171 0 0 0 0 17.222654745589352 10.593265475654448 0 10.593265475654448 -7.8966123982427234 0 0 0 0 24.747465398086206 25.846358162658362 0 25.846358162658362 -25.901267039822415 0 0 0 0 27.100066382220739 14.436076536085551 0 14.436076536085551 -5.3715233052930031 0 0 0 0 33.896264980639899 30.357118289287428 0 30.357118289287428 -18.421152320639521 0 0 0 0 9.3611117908512913 14.124051491713463 0 14.124051491713463 -12.504019622422376 0 0 0 0 11.887712772873776 9.9584683674334347 0 9.9584683674334347 -6.0813988076951944 0 0 0 0 30.42835531333958 21.442263840639498 0 21.442263840639498 1.2074473241336818 0 0 0 0 8.756852578759208 33.471224830274878 0 33.471224830274878 -10.915986042809891 0 0 0 0 5.2165699212109757 10.818576385518099 0 10.818576385518099 -4.8249028142308816 0 0 0 0 175.51260494298845 13.568827578514174 0 13.568827578514174 -2.9362299923614046 0 0 0 0 2.6322423777944106 16.013554146604161 0 16.013554146604161 -0.81063062145511822 0 0 0 0 -44.299446471132796 21.490527355359518 0 21.490527355359518 -9.0622173702831788 0 0 0 0 34.394747743358494 17.90043335827977 0 17.90043335827977 -10.586012658241089 0 0 0 0 -8.2970312900424616 42.32325536509812 0 42.32325536509812 -25.725466605294898 0 0 0 0 -10.644979480197073 27.360659228010888 0 27.360659228010888 -16.955395246497758 0 0 0 0 -5.376464314011173 19.043416554772193 0 19.043416554772193 57.749911407085165 0 0 0 0 -112.5522407490098 18.211077555803058 0 18.211077555803058 87.671087113136309 0 0 0 0 151.14446975332976 -61.530683981402035 0 -61.530683981402035 -222.29711693210265 0 0 0 0 -103.54756260856084 146.23383813885994 0 146.23383813885994 29.274626245516629 0 0 0 0 9.0072898432850597 29.059733098449314 0 29.059733098449314 -20.65703346574368 0 0 0 0 -158.21990714183767 -42.740001198609662 0 -42.740001198609662 200.58961861583521 0 0 0 0 8.4905274144231058 29.57352480022719 0 29.57352480022719 -24.682463960912244 0 0 0 0 7.3602784724072379 4.603857903866329 0 4.603857903866329 -3.9484005799023265 0 0 0 0 -38.955735913895865 30.93826571754289 0 30.93826571754289 -42.817948473617435 0 0 0 0 181.32729743980758 -8.2769158364471878 0 -8.2769158364471878 -27.036070065412787 0 0 0 0 7.7173463655671384 33.814813524962908 0 33.814813524962908 -35.806203334037619 0 0 0 0 -0.4117893854762249 4.6087701320517258 0 4.6087701320517258 -1.185708640972635 0 0 0 0 181.7161906365281 19.265761031125521 0 19.265761031125521 42.245276401867159 0 0 0 0 66.316342299484859 99.984563904902416 0 99.984563904902416 -30.535868917111657 0 0 0 0 -182.53931129443325 -0.019147767046320041 0 -0.019147767046320041 54.393184617074439 0 0 0 0 -128.79254771480686 127.23655572615098 0 127.23655572615098 -200.35038052966411 0 0 0 0 25.079070001864238 124.21063871968545 0 124.21063871968545 14.01343564077979 0 0 0 0 -70.678883044009126 81.664391990092554 0 81.664391990092554 3.5465138115214359 0 0 0 0 -53.851807579369051 269.61267127034444 0 269.61267127034444 155.36481618657854 0 0 0 0 7.6152323511402713 16.504417972475743 0 16.504417972475743 10.895699570537865 0 0 0 0 -36.573917126810102 36.344850262165892 0 36.344850262165892 -55.249642898761522 0 0 0 0 -136.74478446200737 336.04211719863815 0 336.04211719863815 850.01985189213883 0 0 0 0 -7.5376024240414896 7.4829775020012903 0 7.4829775020012903 4.9451545074934415 0 0 0 0 69.767515583229397 150.53783021379058 0 150.53783021379058 -97.853140438037371 0 0 0 0 0.99749851540066459 3.5721526856446033 0 3.5721526856446033 -6.7345529187147193 0 0 0 0 -119.12963682465067 -110.46811729318097 0 -110.46811729318097 161.7722219570569 0 0 0 0 74.75881575355379 16.794496846569018 0 16.794496846569018 -60.344155833328841 0 0 0 0 112.4972979313643 -57.913815201674879 0 -57.913815201674879 20.195078256931083 0 0 0 0 -8.8663500523734999 20.52865530322709 0 20.52865530322709 -25.902649150830513 0 0 0 0 221.54278900023928 29.562284116793307 0 29.562284116793307 -225.41898349753319 0 0 0 0 37.155889934800143 132.381089222843 0 132.381089222843 -125.14234484144254 0 0 0 0 69.564359017425886 29.184311306467862 0 29.184311306467862 -18.358828411570357 0 0 0 0 -16.33370427689988 42.765764009465784 0 42.765764009465784 -8.1510961398162181 0 0 0 0 -21.467346383071344 37.981394751304833 0 37.981394751304833 -12.195679215074051 0 0 0 0 -24.124712578460112 12.916086811129716 0 12.916086811129716 13.039186913250479 0 0 0 0 -29.057361158878848 46.778669967112364 0 46.778669967112364 -7.7523703762708465 0 0 0 0 -8.6524525219250705 29.472041315009072 0 29.472041315009072 29.024665166249946 0 0 0 0 -26.695652559501013 57.025800643576986 0 57.025800643576986 26.287312481093977 0 0 0 0 15.918660131439538 10.873117156566877 0 10.873117156566877 93.390799822100234 0 0 0 0 -42.156136749592406 19.439264289019775 0 19.439264289019775 186.71881601181667 0 0 0 0 -4.2249708461080999 -0.65002464803424687 0 -0.65002464803424687 20.711396473257441 0 0 0 0 6.8362339394976317 8.3823036354652913 0 8.3823036354652913 4.5093728118804393 0 0 0 0 -71.961742881310784 135.116014669371 0 135.116014669371 -101.48139530411572 0 0 0 0 -193.41444188598416 160.31283951292176 0 160.31283951292176 -35.716440775926458 0 0 0 0 19.770270074397558 36.342772246371169 0 36.342772246371169 -53.639630804409535 0 0 0 0 -69.188420235371495 39.514200965312057 0 39.514200965312057 -36.634251652383682 0 0 0 0 0.24145481589425444 0.69773212494223635 0 0.69773212494223635 0.53940050653984883 0 0 0 0 6.930693149491276 9.5715604748978489 0 9.5715604748978489 9.1035508122040483 0 0 0 0 -86.266529696575162 146.8239959970997 0 146.8239959970997 -107.59278421252384 0 0 0 0 -79.528243103395653 150.21601082525012 0 150.21601082525012 -117.31093699285702 0 0 0 0 -214.36805339544662 53.225868604433344 0 53.225868604433344 -10.418967049125058 0 0 0 0 -177.34697455626156 82.023594441874593 0 82.023594441874593 3.3600109371509461 0 0 0 0 -8.8053475872948184 14.543383218635427 0 14.543383218635427 1.1329725703617441 0 0 0 0 -8.3613785520010424 28.303997402817913 0 28.303997402817913 9.7018543309850429 0 0 0 0 -26.949894656234392 53.504753542398248 0 53.504753542398248 -75.224434385483619 0 0 0 0 -106.45217455495003 68.054159499399248 0 68.054159499399248 -40.779288570960489 0 0 0 0 5.5950686433519792 6.1856507299606331 0 6.1856507299606331 6.4821701606545332 0 0 0 0 -67.095198035720387 91.662989326679963 0 91.662989326679963 -98.589504845693682 0 0 0 0 -79.456550768560192 110.31351285465462 0 110.31351285465462 -42.143706519927946 0 0 0 0 -139.85733983846876 47.422265642337152 0 47.422265642337152 -96.654222158525954 0 0 0 0 -28.977028801098641 33.191934235866938 0 33.191934235866938 -33.634808565615458 0 0 0 0 -54.86737786363301 46.772252745344304 0 46.772252745344304 -27.612659390470071 0 0 0 0 17.779859288657462 124.89929589422536 0 124.89929589422536 -39.669045990634913 0 0 0 0 7.0396001720637287 41.501262882340143 0 41.501262882340143 -53.501424251910066 0 0 0 0 -228.64356882953871 124.66919193366994 0 124.66919193366994 -34.181463342050847 0 0 0 0 0.57645047289171814 1.3935575156267603 0 1.3935575156267603 1.086955673362354 0 0 0 0 0.15245562705332227 -1.5985885850937116 0 -1.5985885850937116 0.025518946048151747 0 0 0 0 155.59589120299461 38.13739901063127 0 38.13739901063127 -89.744497543331818 0 0 0 0 -262.91644699151624 136.263482870632 0 136.263482870632 -49.362719790413394 0 0 0 0 -197.07927426917013 170.06311940248088 0 170.06311940248088 -103.00222447235137 0 0 0 0 40.339192261240896 -22.073791610104308 0 -22.073791610104308 -30.374137059043278 0 0 0 0 -129.19401111557454 103.78868573773798 0 103.78868573773798 -50.656275639048545 0 0 0 0 -118.52350540353291 59.146314890575013 0 59.146314890575013 -41.419328153200695 0 0 0 0 -69.939230346467411 81.751537746454233 0 81.751537746454233 -45.815011300124752 0 0 0 0 -511.86071538518047 305.68670074484982 0 305.68670074484982 -117.55145428312971 0 0 0 0 -518.39001736850514 369.37595683859399 0 369.37595683859399 -155.07919547241227 0 0 0 0 -78.452165104194137 19.963638197921682 0 19.963638197921682 -3.0411077234202821 0 0 0 0 1.1937280732971018 3.6666099399470138 0 3.6666099399470138 8.178373463610896 0 0 0 0 -82.555525690683453 77.699430495124943 0 77.699430495124943 -34.549504034446727 0 0 0 0 -48.061233359760081 60.143578250686005 0 60.143578250686005 -40.925190229674627 0 0 0 0 -91.356966278046457 67.499447853699166 0 67.499447853699166 -29.33843758277726 0 0 0 0 -35.066319446537818 51.839427364640869 0 51.839427364640869 -56.038778580026701 0 0 0 0 -45.405756985495827 63.100539293545808 0 63.100539293545808 -45.69132144877949 0 0 0 0 2.2988034377267468 64.847154821523873 0 64.847154821523873 -53.276048221843666 0 0 0 0 0.60533939886025223 2.0826969133199587 0 2.0826969133199587 2.1008899061379225 0 0 0 0 -85.639500551072615 42.296176984692465 0 42.296176984692465 80.954089191676758 0 0 0 0 -144.03752260647343 187.78449400410864 0 187.78449400410864 91.911222861312126 0 0 0 0 -65.532718770547945 114.09299841427855 0 114.09299841427855 -145.20227429745137 0 0 0 0 -51.15529814281399 88.406502004299909 0 88.406502004299909 -44.365344549889414 0 0 0 0 23.647201446201507 101.9497255787719 0 101.9497255787719 -49.981477270788673 0 0 0 0 -57.367108847400232 165.22314653472131 0 165.22314653472131 -99.398973322749953 0 0 0 0 -27.694761451573868 146.35184487576771 0 146.35184487576771 -122.31164086513309 0 0 0 0 -92.68425709154144 -54.098900754157512 0 -54.098900754157512 -167.17459702122869 0 0 0 0 -15.497737216493988 306.66549196490087 0 306.66549196490087 -272.91067399687927 0 0 0 0 -92.787811618722117 327.12158856147835 0 327.12158856147835 -99.609031260348274 0 0 0 0 5.235346152596513 6.1292042451256847 0 6.1292042451256847 1.5977825035236073 0 0 0 0 53.571118085048511 190.88350117304799 0 190.88350117304799 -430.24809407757675 0 0 0 0 -30.064877653945132 147.69109812180614 0 147.69109812180614 -679.66087895834062 0 0 0 0 1.9365183670757062 2.3609339851015676 0 2.3609339851015676 0.13826272349557378 0 0 0 0 -320.87661683020997 237.61439961366705 0 237.61439961366705 -127.54902532186861 0 0 0 0 -378.72009256458841 458.99863390104838 0 458.99863390104838 -16.206844497946804 0 0 0 0 -439.67343776202142 397.81274247107831 0 397.81274247107831 -174.62975340547564 0 0 0 0 -382.76946241584665 412.07217683087947 0 412.07217683087947 -239.32835964822925 0 0 0 0 -450.38686326294919 389.21865388281003 0 389.21865388281003 -233.01570371080561 0 0 0 0 -463.83435323416825 287.65322272403023 0 287.65322272403023 -403.66557322671724 0 0 0 0 -136.71921418278725 474.23258172738497 0 474.23258172738497 -968.05271287124742 0 0 0 0 -324.3505935462199 278.91320006078968 0 278.91320006078968 -532.55955851957697 0 0 0 0 -529.33033454805445 543.16599413702352 0 543.16599413702352 -563.35682244304189 0 0 0 0 -322.96765702394805 215.53027919374472 0 215.53027919374472 -424.42333487760334 0 0 0 0 -616.78505245853103 300.71354842159963 0 300.71354842159963 -367.5312051032306 0 0 0 0 -363.81599719159203 281.20404734709155 0 281.20404734709155 -499.97314437446403 0 0 0 0 -360.39843492069849 294.63790958191021 0 294.63790958191021 -449.65366169897607 0 0 0 0 -330.03095611221215 259.62815835945366 0 259.62815835945366 -209.82633418491798 0 0 0 0 172.48502467724461 -39.815857344319966 0 -39.815857344319966 -119.33530691639317 0 0 0 0 -0.73995694592869832 1.5840691799188313 0 1.5840691799188313 -3.1601909710601177 0 0 0 0 -610.4607559670294 419.61267664677689 0 419.61267664677689 -165.42323926297831 0 0 0 0 -367.57590303229881 434.69801879221268 0 434.69801879221268 -276.70149712798229 0 0 0 0 -362.59012924673516 374.3348881566817 0 374.3348881566817 -481.16269954271002 0 0 0 0 -397.57916585554813 222.41634164912398 0 222.41634164912398 -33.372864036085957 0 0 0 0 1.9318875997979852 6.7635817058232739 0 6.7635817058232739 -6.6402258993793453 0 0 0 0 93.762559484664507 71.498700130883435 0 71.498700130883435 18.826801252886071 0 0 0 0 -0.51938155924653984 60.349809850291422 0 60.349809850291422 -167.21574104024876 0 0 0 0 1.3858055252450896 2.0902178420555373 0 2.0902178420555373 2.9141271778693323 0 0 0 0 -157.30445197440713 341.38571860326647 0 341.38571860326647 149.04418261003593 0 0 0 0 -112.22936277894587 378.58065601281487 0 378.58065601281487 -119.49294259553062 0 0 0 0 -406.61525869674006 364.22240253173914 0 364.22240253173914 -4.7861020703039685 0 0 0 0 -412.21403215247847 339.60925008108097 0 339.60925008108097 -109.75880784486799 0 0 0 0 -323.10506048936986 426.04677982107387 0 426.04677982107387 -265.45167291537473 0 0 0 0 -375.15661978402932 549.52571173242541 0 549.52571173242541 -186.48566416318499 0 0 0 0 -330.59131243190291 490.67650721482391 0 490.67650721482391 -129.91152910700475 0 0 0 0 -363.59687760110683 397.21006313869839 0 397.21006313869839 -48.671060063517871 0 0 0 0 67.045057730363624 75.992398693668292 0 75.992398693668292 -19.551888890033297 0 0 0 0 50.058963728841618 83.100872044066108 0 83.100872044066108 -16.684009559168288 0 0 0 0 132.57631798132024 148.49475661033102 0 148.49475661033102 -85.420521542196184 0 0 0 0 32.593542134807933 96.215487756571449 0 96.215487756571449 -26.243852337446981 0 0 0 0 170.51863214864443 126.94107383481241 0 126.94107383481241 -166.78926729012164 0 0 0 0 154.17755695863889 121.53190280755734 0 121.53190280755734 -51.839058861907688 0 0 0 0 240.19061296637483 67.54993126059162 0 67.54993126059162 -90.2141797904751 0 0 0 0 119.7739815759669 41.802855323259791 0 41.802855323259791 -120.28799724502096 0 0 0 0 120.64403087680603 182.20783049714555 0 182.20783049714555 -177.92684213590474 0 0 0 0 55.176618309407786 148.38533920658483 0 148.38533920658483 -169.27864176582625 0 0 0 0 -14.854168473470963 351.3201226328074 0 351.3201226328074 -407.86069724294066 0 0 0 0 165.89008264426593 69.186609473326826 0 69.186609473326826 -344.00339010469906 0 0 0 0 77.057639239282253 90.605075381929964 0 90.605075381929964 -51.793233294381935 0 0 0 0 72.788251305890299 53.874428630258535 0 53.874428630258535 -20.772242980456213 0 0 0 0 53.585653984653618 91.411910264147082 0 91.411910264147082 11.378020420421308 0 0 0 0 61.189921341392619 60.55125248735385 0 60.55125248735385 53.831892409680222 0 0 0 0 64.877989285666445 58.223560384762095 0 58.223560384762095 13.455441299809536 0 0 0 0 158.63664537218392 51.199747302285687 0 51.199747302285687 45.051226998315542 0 0 0 0 202.00860583578469 69.063830884311756 0 69.063830884311756 16.446055989583328 0 0 0 0 173.7857630616345 89.962328764897393 0 89.962328764897393 28.986289560139994 0 0 0 0 101.60130929835941 87.327211777321281 0 87.327211777321281 17.586228273092274 0 0 0 0 166.85881384003551 103.49077557396049 0 103.49077557396049 -42.73481565576003 0 0 0 0 122.40244081986748 44.876087267773073 0 44.876087267773073 5.6143294754656381 0 0 0 0 74.873511250215486 85.959645519604834 0 85.959645519604834 -16.203826911316213 0 0 0 0 269.55803432514585 28.909997754011783 0 28.909997754011783 -20.798073074598506 0 0 0 0 165.63172654688159 48.056004369481286 0 48.056004369481286 6.2954458651329332 0 0 0 0 300.05318289511342 49.39392812123333 0 49.39392812123333 -23.908977355225943 0 0 0 0 263.56039273375063 89.665526915341616 0 89.665526915341616 31.804090770736366 0 0 0 0 179.19764344504301 51.597207467427779 0 51.597207467427779 18.935352403015713 0 0 0 0 202.22235943721466 65.977553105996549 0 65.977553105996549 60.763994252483826 0 0 0 0 47.112687024687006 58.215866515807846 0 58.215866515807846 2.4023601260270766 0 0 0 0 64.105225953906483 70.689946141714245 0 70.689946141714245 -13.057788644209722 0 0 0 0 63.444601512434019 72.577939886567037 0 72.577939886567037 -11.731792014452367 0 0 0 0 66.534009184601018 71.691428702362828 0 71.691428702362828 -12.701342244792613 0 0 0 0 67.273749238018439 30.065855504990836 0 30.065855504990836 -31.044163611915259 0 0 0 0 65.186970007089258 73.332132068224382 0 73.332132068224382 -11.474644628993701 0 0 0 0 31.103021332048229 73.455283528937798 0 73.455283528937798 -8.3906157113779045 0 0 0 0 148.97449837844761 93.433215250170178 0 93.433215250170178 40.760275479615302 0 0 0 0 144.57070293265133 106.55019838980388 0 106.55019838980388 31.357288373335905 0 0 0 0 -1.0215700557018863 75.971876296784103 0 75.971876296784103 57.405127799249385 0 0 0 0 162.77878838629113 84.873479164827586 0 84.873479164827586 -25.593398004104529 0 0 0 0 3.165463471178299 12.997336784337108 0 12.997336784337108 -11.092251693331278 0 0 0 0 311.55750636092853 95.380753616325819 0 95.380753616325819 -27.044369456893037 0 0 0 0 199.27896747227896 46.273138608279623 0 46.273138608279623 47.951117650736705 0 0 0 0 200.86846254777629 169.05455101244115 0 169.05455101244115 13.993252680513251 0 0 0 0 100.2046670162963 159.51994555615329 0 159.51994555615329 19.890306021676224 0 0 0 0 42.930360888827508 117.40084850231899 0 117.40084850231899 38.603640508000275 0 0 0 0 212.41705348528376 89.42299964272388 0 89.42299964272388 36.43909256614279 0 0 0 0 245.22197715718357 48.071651895672403 0 48.071651895672403 31.359357536923198 0 0 0 0 23.596968377831217 163.28192682424105 0 163.28192682424105 51.103791114321211 0 0 0 0 58.651046772744927 108.79326355349482 0 108.79326355349482 28.617072223633798 0 0 0 0 89.756981580008869 89.948467829597575 0 89.948467829597575 81.50826363174383 0 0 0 0 136.28179964030278 130.01975615652736 0 130.01975615652736 42.689740936897579 0 0 0 0 45.182285580591611 27.447267168644075 0 27.447267168644075 -6.8615331223612017 0 0 0 0 46.340684195117618 22.466450983582931 0 22.466450983582931 -18.332204051962009 0 0 0 0 542.94379019849475 -163.1907338164001 0 -163.1907338164001 -327.70192713669712 0 0 0 0 122.99366745118277 108.93778174556974 0 108.93778174556974 35.235651438451896 0 0 0 0 186.69776703072603 67.609707004015036 0 67.609707004015036 26.378525219879521 0 0 0 0 7.1768375900165253 12.722962434846075 0 12.722962434846075 -22.592713846702623 0 0 0 0 -19.903208051135152 93.75900681267467 0 93.75900681267467 15.659432545982781 0 0 0 0 53.388595152671769 320.13673111427761 0 320.13673111427761 86.508723788349016 0 0 0 0 -285.16687839259612 68.585892548278935 0 68.585892548278935 117.57889855080793 0 0 0 0 -119.86827493894725 78.743113778240058 0 78.743113778240058 15.0546929209886 0 0 0 0 -314.68049155656627 262.38326295669322 0 262.38326295669322 200.46506633526951 0 0 0 0 -245.05655873544083 51.87603941809175 0 51.87603941809175 34.55568325616332 0 0 0 0 -609.61650637110142 179.71639821427198 0 179.71639821427198 -260.45437468994351 0 0 0 0 -472.6204973219028 153.24779312348073 0 153.24779312348073 145.73063760365949 0 0 0 0 -441.0569037981461 -48.846602927325648 0 -48.846602927325648 16.747828283190756 0 0 0 0 -287.26063759865792 734.53945721805576 0 734.53945721805576 427.08219952283252 0 0 0 0 12.048502109623922 14.179102791298412 0 14.179102791298412 5.6098363093187587 0 0 0 0 310.90124390739402 10.049713650264493 0 10.049713650264493 -45.489349599280104 0 0 0 0 138.05668868055363 133.30349808585015 0 133.30349808585015 -32.580785564610778 0 0 0 0 197.57009357368224 95.317135535751731 0 95.317135535751731 -154.45510154081785 0 0 0 0 268.73445036519297 115.53638869107112 0 115.53638869107112 -140.30988097230511 0 0 0 0 63.66048275488297 92.428082389116611 0 92.428082389116611 -24.150299232414788 0 0 0 0 560.87914204522531 -339.60292309928082 0 -339.60292309928082 -76.706036256789957 0 0 0 0 0.76253671419606661 2.5293336907964754 0 2.5293336907964754 6.5343645598939801 0 0 0 0 54.133443365877355 81.695072393986834 0 81.695072393986834 -3.44224004593449 0 0 0 0 -6.4088230663946888 623.49510533706598 0 623.49510533706598 407.41598628270003 0 0 0 0 71.57485351919604 4.6237197157242917 0 4.6237197157242917 -12.301973582520986 0 0 0 0 203.61208446080491 47.771575380642389 0 47.771575380642389 -10.345008132004295 0 0 0 0 -57.273785692072124 214.70946717621882 0 214.70946717621882 -54.426550602113821 0 0 0 0 74.373962662430131 265.24476448258611 0 265.24476448258611 -329.92761977908231 0 0 0 0 93.072477132780477 197.55557705099091 0 197.55557705099091 -227.55326024671376 0 0 0 0 128.50120250113832 239.34959698584134 0 239.34959698584134 -223.42629364442894 0 0 0 0 154.58541935891498 235.01986969529978 0 235.01986969529978 155.16121519617445 0 0 0 0 94.456141886854311 114.91345788410035 0 114.91345788410035 -277.14962681857378 0 0 0 0 -2.3718654381527813 -0.35166943741948842 0 -0.35166943741948842 2.5380261342448165 0 0 0 0 -127.4682304700691 277.92105887634352 0 277.92105887634352 -180.403687359998 0 0 0 0 -388.39981146573336 398.87610925322406 0 398.87610925322406 -297.84286418565353 0 0 0 0 -316.65492188712051 245.01637114397363 0 245.01637114397363 -48.169419356980143 0 0 0 0 -163.56345247409399 288.65899735631319 0 288.65899735631319 -104.2497879272305 0 0 0 0 -158.38655614958498 317.69332408232731 0 317.69332408232731 37.121368166743196 0 0 0 0 164.72813348042109 124.95634119458737 0 124.95634119458737 49.613313141395338 0 0 0 0 345.94268967387325 240.10747922214978 0 240.10747922214978 27.450193824908638 0 0 0 0 -1.5350326021943497 5.8774761291247408 0 5.8774761291247408 30.980756480220279 0 0 0 0 351.85647355245601 34.494206433453655 0 34.494206433453655 42.339513217802391 0 0 0 0 0.12725043925456703 0.84975542264101733 0 0.84975542264101733 15.686817466169884 0 0 0 0 712.04161346727778 262.34807407272001 0 262.34807407272001 -39.153234314853762 0 0 0 0 28.936808031154214 107.80040145390558 0 107.80040145390558 -8.4260295001959093 0 0 0 0 190.04115658207502 257.78751707640913 0 257.78751707640913 13.052590911553125 0 0 0 0 -152.37158958386226 -157.15103418988201 0 -157.15103418988201 -72.75069578925104 0 0 0 0 365.18445221995535 150.7471134030784 0 150.7471134030784 -94.503576366882044 0 0 0 0 8.9327797869118513 96.122953410928858 0 96.122953410928858 -95.539582420846273 0 0 0 0 37.283229247695999 25.516816285389723 0 25.516816285389723 80.071864946196001 0 0 0 0 0.32033559127380506 0.085187406155196044 0 0.085187406155196044 4.4445359960141815 0 0 0 0 415.35954888672495 4.8386624264985585 0 4.8386624264985585 195.15537003138343 0 0 0 0 1072.2562067902118 279.50595998139784 0 279.50595998139784 -257.04419349262753 0 0 0 0 -6.2166651198674501 16.776521385845712 0 16.776521385845712 2.1902796437786236 0 0 0 0 319.35070429822554 -129.87007928156163 0 -129.87007928156163 -422.75006189739725 0 0 0 0 -430.47218817477915 67.867228596987843 0 67.867228596987843 715.18852188917663 0 0 0 0 -115.39536496113215 140.45303529677585 0 140.45303529677585 64.659903845940789 0 0 0 0 0.19731466250959784 139.72163159530828 0 139.72163159530828 188.19163073932214 0 0 0 0 -95.106790291589277 284.83955956638056 0 284.83955956638056 421.35164873975373 0 0 0 0 69.169439427645557 371.92494964835714 0 371.92494964835714 301.71809559862686 0 0 0 0 -58.374712970478868 -138.99437657074395 0 -138.99437657074395 -332.55473169458128 0 0 0 0 -8.4302548978810847 5.4472759058406695 0 5.4472759058406695 -4.0670344580944082 0 0 0 0 -77.293569938250585 -8.1160575875346694 0 -8.1160575875346694 -183.54220502068603 0 0 0 0 -91.429011892449125 -6.8204107753499557 0 -6.8204107753499557 -176.65951388375106 0 0 0 0 -110.3187351052311 168.01591676371754 0 168.01591676371754 -837.06895539693869 0 0 0 0 -3.8519462563322762 2.4526776794410807 0 2.4526776794410807 -1.0847754305592723 0 0 0 0 -183.18070552635254 60.14557856301326 0 60.14557856301326 601.42825258178982 0 0 0 0 178.92268202566902 292.59815080677708 0 292.59815080677708 -8.1684584155009361 0 0 0 0 151.90726493883994 3.2452710658290016 0 3.2452710658290016 14.81356709924512 0 0 0 0 -175.31429410893179 83.283239225407669 0 83.283239225407669 5.2221684290880148 0 0 0 0 37.256998694247159 126.09231990212174 0 126.09231990212174 7.7041110632189884 0 0 0 0 153.57152304568302 22.600056868222111 0 22.600056868222111 -171.81326971204908 0 0 0 0 112.30038164590064 148.12557105056044 0 148.12557105056044 -173.46896779763119 0 0 0 0 126.119067882161 19.140507954264081 0 19.140507954264081 13.549056473413657 0 0 0 0 150.28219879273638 -18.88023442083886 0 -18.88023442083886 -14.1810648019582 0 0 0 0 125.06171824558805 54.991695929709749 0 54.991695929709749 -99.482484229727561 0 0 0 0 121.53080990037552 103.85274521434121 0 103.85274521434121 -57.974469547454646 0 0 0 0 98.136047532269799 73.001968070466575 0 73.001968070466575 -1.6386382206655981 0 0 0 0 99.280547036098142 104.79998453008011 0 104.79998453008011 -48.149785094037725 0 0 0 0 122.86868106081965 191.00768743863864 0 191.00768743863864 -12.655304062594951 0 0 0 0 -0.17939091648827699 0.029013408123756079 0 0.029013408123756079 -0.38036487334471758 0 0 0 0 226.31327349008643 84.447697893307122 0 84.447697893307122 38.312128333516739 0 0 0 0 226.04957661751178 103.61686307133914 0 103.61686307133914 293.7722004754346 0 0 0 0 -55.787432514624015 59.107047157012857 0 59.107047157012857 73.323540550820326 0 0 0 0 88.645069047477591 30.508475163842377 0 30.508475163842377 30.283000744513629 0 0 0 0 96.815628864720566 139.49228686426704 0 139.49228686426704 111.27648773726833 0 0 0 0 82.73522324725127 65.83166192381114 0 65.83166192381114 33.855375574169329 0 0 0 0 -18.506158978978419 125.34563846119454 0 125.34563846119454 113.17801703205168 0 0 0 0 70.404363035554638 59.363784648519385 0 59.363784648519385 35.599963352614203 0 0 0 0 60.854988433848121 75.727995060263382 0 75.727995060263382 30.727841284584542 0 0 0 0 58.787716519713285 74.86600564283188 0 74.86600564283188 58.089179158748962 0 0 0 0 96.192439741629642 96.707043135661479 0 96.707043135661479 -1.9358520245164073 0 0 0 0 99.293855105537659 52.43161509913989 0 52.43161509913989 -21.582778505526221 0 0 0 0 12.383074620299318 8.3920520454387848 0 8.3920520454387848 2.377217042411587 0 0 0 0 43.53501815936707 60.798861754548454 0 60.798861754548454 48.097015239637066 0 0 0 0 130.74532136295966 -4.8077821905189921 0 -4.8077821905189921 12.371405050093927 0 0 0 0 -9.9649023879258785 48.171587000387625 0 48.171587000387625 48.708301790332364 0 0 0 0 -83.229813956510952 -19.565157006827121 0 -19.565157006827121 52.852325713358368 0 0 0 0 -9.7087610900679628 3.1519952101645279 0 3.1519952101645279 10.865974583728573 0 0 0 0 71.084229578969826 85.183567385612662 0 85.183567385612662 57.664007416930005 0 0 0 0 59.67086275661859 73.142095402185177 0 73.142095402185177 63.262273625938462 0 0 0 0 -27.732197553961598 39.92047259541819 0 39.92047259541819 51.578336140662508 0 0 0 0 -19.529318724543373 16.151357295289472 0 16.151357295289472 368.71744878692698 0 0 0 0 5.5470099888789264 13.252562817804574 0 13.252562817804574 -8.5600261096769827 0 0 0 0 -100.43457817535636 94.401162764233959 0 94.401162764233959 228.2048338429704 0 0 0 0 2.4618718837984694 1.8742208997160095 0 1.8742208997160095 0.15817897780920731 0 0 0 0 117.51465169974836 -8.7679779517184215 0 -8.7679779517184215 370.1802831728171 0 0 0 0 91.874203923205641 134.40082937234547 0 134.40082937234547 376.30073592295946 0 0 0 0 -30.915275307126649 -1.6712636853499134 0 -1.6712636853499134 97.740205649978179 0 0 0 0 78.408061814786834 75.965191698087665 0 75.965191698087665 124.07936663996406 0 0 0 0 114.5649662371552 4.3206403376175331 0 4.3206403376175331 33.000787295259215 0 0 0 0 359.7515082896407 22.130335660586297 0 22.130335660586297 12.309932163549092 0 0 0 0 115.3024460378565 59.962342333787547 0 59.962342333787547 261.13456641181983 0 0 0 0 30.995631736470386 161.85420565234563 0 161.85420565234563 246.072172119686 0 0 0 0 25.426419137054125 74.797916014870083 0 74.797916014870083 -54.469588150858897 0 0 0 0 145.13698074492277 112.79541437985881 0 112.79541437985881 -426.79195450770567 0 0 0 0 0.36135733736404063 3.7352953420299428 0 3.7352953420299428 -2.7342765771840121 0 0 0 0 9.4783404588670237 253.83906750430106 0 253.83906750430106 386.72821431389275 0 0 0 0 41.007091337430722 93.908160391251442 0 93.908160391251442 -47.846946513465447 0 0 0 0 24.024349875551707 282.58154231809021 0 282.58154231809021 39.297698729558761 0 0 0 0 75.337747400371882 147.11603002573793 0 147.11603002573793 150.46776979986316 0 0 0 0 71.909234720340464 142.21107377362932 0 142.21107377362932 164.80441579957187 0 0 0 0 130.21014745098364 72.286826897951869 0 72.286826897951869 164.78447657511424 0 0 0 0 66.835661591932876 158.89776352121044 0 158.89776352121044 191.30348852578754 0 0 0 0 44.543800385593904 87.695734885517439 0 87.695734885517439 72.147661389870734 0 0 0 0 81.500781780434835 42.284233890706084 0 42.284233890706084 -3.9969319704986557 0 0 0 0 71.76116523372184 90.093989509410903 0 90.093989509410903 14.430083904961521 0 0 0 0 210.45465721452274 60.88365328954751 0 60.88365328954751 3.6672689046954474 0 0 0 0 47.955238640886819 79.565739166839563 0 79.565739166839563 60.247033467827578 0 0 0 0 32.785429244384432 100.06619346748647 0 100.06619346748647 40.745065280033799 0 0 0 0 43.768463903852535 72.536787050518114 0 72.536787050518114 67.17291136410131 0 0 0 0 20.671768357336987 -3.805777744383704 0 -3.805777744383704 -20.658257355888054 0 0 0 0 38.736741727861911 72.443743619537003 0 72.443743619537003 66.852819889360731 0 0 0 0 483.27921618316032 220.39543952361055 0 220.39543952361055 -126.36746291979944 0 0 0 0 -0.36176334947192856 0.8029762368790756 0 0.8029762368790756 -2.1474214247624701 0 0 0 0 -419.39460237225285 -51.264850317259061 0 -51.264850317259061 125.23266541646808 0 0 0 0 379.22820820685592 246.5472643571884 0 246.5472643571884 1.8400799651644775 0 0 0 0 -186.31327262760169 352.02564940430966 0 352.02564940430966 -90.708802702472894 0 0 0 0 155.2047476258158 234.4728711786247 0 234.4728711786247 108.81396692327871 0 0 0 0 -139.47660131900921 25.447608859358297 0 25.447608859358297 198.1858238249406 0 0 0 0 20.236428864525806 235.25662283586917 0 235.25662283586917 113.67127010264085 0 0 0 0 84.60168784148118 132.97492487429008 0 132.97492487429008 74.644120426506561 0 0 0 0 91.469146499119233 166.48320171956948 0 166.48320171956948 147.17163133251597 0 0 0 0 73.508230467967223 131.4873044329961 0 131.4873044329961 155.95540961037113 0 0 0 0 203.72872976053623 151.23948032190674 0 151.23948032190674 58.241837417152055 0 0 0 0 172.75466418043652 94.221268979657907 0 94.221268979657907 -66.135649274623574 0 0 0 0 138.87251123321766 141.7829958026432 0 141.7829958026432 -27.76061513162972 0 0 0 0 131.45992269046837 71.483985940917592 0 71.483985940917592 -21.890162375217187 0 0 0 0 29.655331982334246 5.1539528132784653 0 5.1539528132784653 -191.27148180589938 0 0 0 0 45.294978201272897 165.85522136484906 0 165.85522136484906 -112.34076497850947 0 0 0 0 16.586070064382511 74.16801786767428 0 74.16801786767428 104.37535684174509 0 0 0 0 29.59586406321614 160.02248402318219 0 160.02248402318219 110.02150870992409 0 0 0 0 235.47273673354357 182.95674472323117 0 182.95674472323117 98.982656413269069 0 0 0 0 -90.895204401138471 273.0319119062824 0 273.0319119062824 972.88232474256438 0 0 0 0 -58.65970233855478 -65.658535873113578 0 -65.658535873113578 608.17892798129105 0 0 0 0 1.19689296147817 3.9077093186955878 0 3.9077093186955878 -1.1405233171013656 0 0 0 0 191.23127927703172 -7.8624637849352439 0 -7.8624637849352439 -726.81488873753551 0 0 0 0 -126.19890368413144 -62.713628432595186 0 -62.713628432595186 -250.35968107749068 0 0 0 0 -56.480248054795084 -18.861411523900642 0 -18.861411523900642 -268.89454136677159 0 0 0 0 205.2969312271598 331.77525059899745 0 331.77525059899745 -393.21480041122231 0 0 0 0 59.430828016455052 244.91650978465714 0 244.91650978465714 128.10622896678251 0 0 0 0 432.1600434029242 50.219136215648177 0 50.219136215648177 -188.18910110268189 0 0 0 0 -0.73846635010545469 4.5162732247779189 0 4.5162732247779189 -3.8545196543504545 0 0 0 0 -102.94951974522701 37.566261477021726 0 37.566261477021726 -1.6658772263035644 0 0 0 0 256.54171577718807 136.33521142835343 0 136.33521142835343 165.97896980287078 0 0 0 0 187.78149449947523 403.60439380575554 0 403.60439380575554 545.69632354495479 0 0 0 0 -64.449713108580909 25.903513509736513 0 25.903513509736513 -17.497184711392038 0 0 0 0 -29.938113967058598 79.766321698483807 0 79.766321698483807 -14.039161955875954 0 0 0 0 -91.317180849640863 70.528112149520894 0 70.528112149520894 -13.791394812924409 0 0 0 0 -90.147655498702079 69.745987626519309 0 69.745987626519309 -13.99451808926824 0 0 0 0 -91.256240140937734 69.488906759557722 0 69.488906759557722 -13.350296592619998 0 0 0 0 -191.57922315766336 -51.43991051588273 0 -51.43991051588273 -48.854887159566715 0 0 0 0 -92.593506224104203 70.305561409570146 0 70.305561409570146 -13.216391714966448 0 0 0 0 -44.944940580244293 170.16925749787151 0 170.16925749787151 43.019470171135254 0 0 0 0 -193.37700626330241 76.194003112795798 0 76.194003112795798 130.58660618007707 0 0 0 0 22.765862022359215 211.55777842851239 0 211.55777842851239 97.993788284456969 0 0 0 0 34.488722176549345 117.6209411155337 0 117.6209411155337 -1.6998757712353836 0 0 0 0 -11.541045412348467 115.46266787889454 0 115.46266787889454 -156.44718679420112 0 0 0 0 -136.57592884948826 111.71901750249526 0 111.71901750249526 183.01278094088048 0 0 0 0 -13.974529292114312 248.29941434817465 0 248.29941434817465 235.18318270280724 0 0 0 0 160.42676141680568 -15.131230442601918 0 -15.131230442601918 54.833188238528237 0 0 0 0 46.319874281252851 108.12474705321256 0 108.12474705321256 -84.8249808138753 0 0 0 0 7.972316786264372 23.017108368662072 0 23.017108368662072 3.7722011544893661 0 0 0 0 86.036259527609218 141.10797975352943 0 141.10797975352943 -62.087960116199611 0 0 0 0 -81.567931210302049 -74.11855000194555 0 -74.11855000194555 79.84707122857435 0 0 0 0 -2.6246343480636369 2.0359086440853673 0 2.0359086440853673 -0.93273916258781497 0 0 0 0 -161.0384880284073 344.42782116881699 0 344.42782116881699 -173.24927083939474 0 0 0 0 94.42714057964622 71.232465591796426 0 71.232465591796426 -560.53553735071546 0 0 0 0 -305.17403080862277 199.47978245750801 0 199.47978245750801 177.10089522242197 0 0 0 0 2.6755189034156501 162.54746349799461 0 162.54746349799461 171.91880591912195 0 0 0 0 -94.03255336197617 -57.555868692817967 0 -57.555868692817967 676.78946244647886 0 0 0 0 1.2499879660224451 1.4291654899164357 0 1.4291654899164357 0.46188551827933999 0 0 0 0 247.52500324172433 181.39193989298747 0 181.39193989298747 -68.796761042125581 0 0 0 0 1.4724128831738028 0.4449974640640022 0 0.4449974640640022 -1.1216626948268384 0 0 0 0 -301.21277234917216 177.07441242015193 0 177.07441242015193 -97.466002981287602 0 0 0 0 4.7428071629440183 4.6996044486402226 0 4.6996044486402226 -0.52966544298598706 0 0 0 0 -74.050338705070317 116.30921135562676 0 116.30921135562676 405.52360143366423 0 0 0 0 66.569698023966339 418.96700578922173 0 418.96700578922173 -309.85956703579177 0 0 0 0 -66.357032956962939 87.755895760650674 0 87.755895760650674 -345.44493871607301 0 0 0 0 -0.089464027725625783 247.70794013136947 0 247.70794013136947 -227.55824516060966 0 0 0 0 -202.64418613235466 258.98259599392622 0 258.98259599392622 -179.05960177934503 0 0 0 0 -181.02934072501375 150.45574221137394 0 150.45574221137394 -114.8817675627979 0 0 0 0 -24.461470485810423 198.70212747996811 0 198.70212747996811 -180.38594518593891 0 0 0 0 1.3163432913019051 6.3630630440348597 0 6.3630630440348597 0.49576657084508557 0 0 0 0 153.63167602935391 126.92811739033186 0 126.92811739033186 56.334183481288619 0 0 0 0 -81.302734311968379 176.47067625052659 0 176.47067625052659 239.4293969164919 0 0 0 0 50.578972826163181 100.06613228600696 0 100.06613228600696 254.30864020862282 0 0 0 0 38.204935250879601 42.89399444664226 0 42.89399444664226 -52.543410834254409 0 0 0 0 39.139623842953569 77.79450430194251 0 77.79450430194251 80.602441821273914 0 0 0 0 27.391862978802919 125.44087445417654 0 125.44087445417654 112.98397670570102 0 0 0 0 214.46250574387159 -51.979164910946565 0 -51.979164910946565 155.87269125655803 0 0 0 0 45.701984076265944 166.52661400004217 0 166.52661400004217 190.26507989278616 0 0 0 0 -27.58740705073069 -0.70245368872340208 0 -0.70245368872340208 27.936688640436216 0 0 0 0 0.34951532752666026 62.987878181799601 0 62.987878181799601 356.23554560864068 0 0 0 0 -40.163783739386162 33.779580718168674 0 33.779580718168674 3.3312792446544588 0 0 0 0 -6.4574457649650867 89.380183943505926 0 89.380183943505926 292.7546449169713 0 0 0 0 201.7854478432273 167.14340965317024 0 167.14340965317024 67.041473971283267 0 0 0 0 339.56084854233995 63.751054654049767 0 63.751054654049767 144.62488964635304 0 0 0 0 229.08718666371897 283.16164732459765 0 283.16164732459765 202.75051133610577 0 0 0 0 40.578635603516886 123.88270903303783 0 123.88270903303783 99.991821641153365 0 0 0 0 109.49122138081657 193.09946655937529 0 193.09946655937529 99.95994792689298 0 0 0 0 70.489859390108904 68.797144718870868 0 68.797144718870868 58.492240409481838 0 0 0 0 43.23810629154832 62.291525468034706 0 62.291525468034706 59.338160827915999 0 0 0 0 20.897083936039529 71.435038615064599 0 71.435038615064599 58.215655151893507 0 0 0 0 9.0866836947728391 56.389319073254264 0 56.389319073254264 62.083316734442725 0 0 0 0 93.230616979751176 180.02379442528354 0 180.02379442528354 129.8158276061331 0 0 0 0 201.74899339919648 143.76488101937139 0 143.76488101937139 118.44885550529943 0 0 0 0 119.80204536191559 204.65831512182649 0 204.65831512182649 136.991192845147 0 0 0 0 43.725885530808 66.235139749574827 0 66.235139749574827 -46.843135131713133 0 0 0 0 101.83966031159071 173.92959697196056 0 173.92959697196056 127.67783915120344 0 0 0 0 105.7377698010514 295.66204319783901 0 295.66204319783901 5.2434551348815148 0 0 0 0 94.482056492459378 90.040857798032448 0 90.040857798032448 -30.496242571347011 0 0 0 0 41.025956885742616 66.88818293603768 0 66.88818293603768 25.04823698923628 0 0 0 0 93.595048136492551 68.004712285684946 0 68.004712285684946 -12.769798445035121 0 0 0 0 -4.8229841561689568 110.50296642929118 0 110.50296642929118 76.135697356826725 0 0 0 0 158.93495630901165 72.334970603051616 0 72.334970603051616 -14.75753311627647 0 0 0 0 23.529946817825589 9.7317527518377887 0 9.7317527518377887 3.4550154718456838 0 0 0 0 255.15902769417153 56.677941776881198 0 56.677941776881198 -15.230208275024779 0 0 0 0 190.3887743724772 137.44574494073777 0 137.44574494073777 -65.401338846913859 0 0 0 0 63.827006928817525 91.499280793145317 0 91.499280793145317 -24.978438520511332 0 0 0 0 152.57185613345064 118.29466502431751 0 118.29466502431751 -72.431820037203579 0 0 0 0 150.36695303153829 89.643922226594441 0 89.643922226594441 -68.013523715409974 0 0 0 0 29.334338950650832 32.834970440662815 0 32.834970440662815 0.25465319677363141 0 0 0 0 1.0446302752752672 35.916536510801961 0 35.916536510801961 92.770521940456092 0 0 0 0 -201.07034557589759 298.37773937976681 0 298.37773937976681 -48.503633950589574 0 0 0 0 -158.16832701312524 158.41035388506862 0 158.41035388506862 164.46717327310944 0 0 0 0 -9.2596472845718836 -1.4266756438034296 0 -1.4266756438034296 6.478169137329715 0 0 0 0 -245.10863333682209 319.23961535071612 0 319.23961535071612 -84.13413023341127 0 0 0 0 111.86417838672014 43.015613838677154 0 43.015613838677154 -486.32464300513675 0 0 0 0 -92.601952150484067 -85.74631279678124 0 -85.74631279678124 -150.34269312396646 0 0 0 0 68.952443641045647 65.610712472909427 0 65.610712472909427 66.874035798366094 0 0 0 0 21.657807388539283 19.829562298082543 0 19.829562298082543 18.929633327809015 0 0 0 0 192.48019349152855 -35.943451678544079 0 -35.943451678544079 -154.76633450769805 0 0 0 0 67.711776009920868 95.819995514553739 0 95.819995514553739 54.761416922410717 0 0 0 0 37.825168804768964 58.487707287772196 0 58.487707287772196 20.819277667971619 0 0 0 0 -64.189681086820201 183.23328975143158 0 183.23328975143158 -60.700481565392693 0 0 0 0 31.377269409189466 168.67962016513411 0 168.67962016513411 -407.85232819891462 0 0 0 0 -69.102801856206497 185.30416759086074 0 185.30416759086074 -54.087467352415842 0 0 0 0 -68.886232332937652 150.42251744582245 0 150.42251744582245 49.972112760426171 0 0 0 0 341.97511140683491 154.56637622786729 0 154.56637622786729 -199.10375649131402 0 0 0 0 -63.430195908827955 181.19383653175828 0 181.19383653175828 -55.242895743031113 0 0 0 0 5.7550946047335998 11.004399947440987 0 11.004399947440987 11.07043482485247 0 0 0 0 453.41065777487165 -63.878413471220483 0 -63.878413471220483 -142.23731491291255 0 0 0 0 -11.420106171892257 -58.65431611306667 0 -58.65431611306667 159.40452460905726 0 0 0 0 85.980656980049389 290.00928159095747 0 290.00928159095747 -127.98623675696672 0 0 0 0 -39.960354348245119 73.965003519546599 0 73.965003519546599 36.994112552292336 0 0 0 0 -16.723356286688784 8.3817608400701147 0 8.3817608400701147 165.59443020158096 0 0 0 0 87.732207651219795 71.085673401417182 0 71.085673401417182 54.036737254197448 0 0 0 0 22.733837401236542 85.70022118114025 0 85.70022118114025 38.633632245870103 0 0 0 0 6.1929470112108334 56.109062761748191 0 56.109062761748191 -12.130473050176079 0 0 0 0 61.008620103945759 95.967118732086419 0 95.967118732086419 43.022306046400445 0 0 0 0 160.88659594398632 83.075509302939281 0 83.075509302939281 -56.571844582846097 0 0 0 0 61.921190695532914 89.35971510490026 0 89.35971510490026 1.5518327774825593 0 0 0 0 61.578884077477262 59.868942631641644 0 59.868942631641644 56.421339859949086 0 0 0 0 -500.33233188238478 242.04566937533787 0 242.04566937533787 41.694011493428661 0 0 0 0 -304.12753721314948 45.865274252922063 0 45.865274252922063 20.604282987119404 0 0 0 0 -300.07497971793225 92.017365094297475 0 92.017365094297475 149.76134621908841 0 0 0 0 -420.13328946939464 282.36738933264041 0 282.36738933264041 -39.265731885314949 0 0 0 0 -21.232585538046578 300.15281476439168 0 300.15281476439168 90.312861480204219 0 0 0 0 -301.42954986539513 75.435384683071106 0 75.435384683071106 235.27422416484205 0 0 0 0 162.43175432462942 20.289666259015576 0 20.289666259015576 -30.249942135244055 0 0 0 0 -48.56922888564884 130.41948032722257 0 130.41948032722257 -47.897489484056678 0 0 0 0 -67.746897936578307 110.17952935532412 0 110.17952935532412 -61.357601884722953 0 0 0 0 -213.28177808481553 293.37358209625404 0 293.37358209625404 -125.87416429181758 0 0 0 0 -559.52375733078895 391.9167345166187 0 391.9167345166187 -239.16095599688015 0 0 0 0 -484.82850048846194 219.10651389317627 0 219.10651389317627 -3.5969483092403607 0 0 0 0 -253.03460994702641 109.93054256413325 0 109.93054256413325 -42.650964763827687 0 0 0 0 -606.10027515499678 98.768674240320479 0 98.768674240320479 -101.97662494701581 0 0 0 0 -281.45865810835494 196.59129423140712 0 196.59129423140712 -56.182827610251479 0 0 0 0 -440.20563156595927 309.58652654423349 0 309.58652654423349 -7.819819643333858 0 0 0 0 -90.961046898884021 137.61488697896766 0 137.61488697896766 -37.163441794972641 0 0 0 0 -354.13534919235235 163.66095842920822 0 163.66095842920822 95.083757204070025 0 0 0 0 -275.52887403309001 216.76317727685182 0 216.76317727685182 -34.014008902811383 0 0 0 0 -179.0300657458169 130.88380481165177 0 130.88380481165177 94.646134320748388 0 0 0 0 -387.16887242034636 153.60904717145877 0 153.60904717145877 170.15649832573035 0 0 0 0 -660.63012249122994 235.71509384146475 0 235.71509384146475 209.20752484548211 0 0 0 0 -676.22236935754518 258.81474730030232 0 258.81474730030232 195.36320464421988 0 0 0 0 -494.05787180832385 34.438392088780802 0 34.438392088780802 282.00615413337073 0 0 0 0 80.467735544623338 133.17296338590859 0 133.17296338590859 46.25768892639735 0 0 0 0 64.864855486246142 102.01319793490688 0 102.01319793490688 29.705256045308488 0 0 0 0 29.462856518341141 109.07398169752878 0 109.07398169752878 35.138224307777818 0 0 0 0 -90.760710868576666 131.95315299106193 0 131.95315299106193 35.294314852118987 0 0 0 0 27.471368898206038 124.73665807874841 0 124.73665807874841 -43.456787201465886 0 0 0 0 18.0127364942432 161.463019961589 0 161.463019961589 90.380048201093359 0 0 0 0 -57.397830543966961 186.41766746727899 0 186.41766746727899 304.3887186620359 0 0 0 0 -170.77206404609188 107.0123327114145 0 107.0123327114145 146.54321388121025 0 0 0 0 36.151547373550102 128.01780469872119 0 128.01780469872119 7.7671323385338837 0 0 0 0 61.191744552733098 168.94749198302452 0 168.94749198302452 110.46324768890281 0 0 0 0 118.67121537772573 92.424169366177921 0 92.424169366177921 134.88313931994708 0 0 0 0 58.933849854396612 186.68701463258367 0 186.68701463258367 136.43699029636264 0 0 0 0 62.338813433112591 164.23430451703871 0 164.23430451703871 259.92790763671292 0 0 0 0 -28.123325180640677 25.293623502278933 0 25.293623502278933 339.20229808010436 0 0 0 0 21.014634769523582 109.80192663663479 0 109.80192663663479 -308.0475252028973 0 0 0 0 -99.899179088550227 352.23285641795337 0 352.23285641795337 -653.98299740015682 0 0 0 0 -116.11069913157917 -118.90181268852757 0 -118.90181268852757 217.55856571514209 0 0 0 0 178.251590001566 -456.61282606674285 0 -456.61282606674285 339.17714292313394 0 0 0 0 -41.990935063378174 17.687817916231776 0 17.687817916231776 -8.3067412760704542 0 0 0 0 22.744977930622838 336.40372974885395 0 336.40372974885395 286.93273192546019 0 0 0 0 -233.27306888810381 254.1878026595632 0 254.1878026595632 1022.6924098351919 0 0 0 0 -317.90363245933941 -159.0028416785226 0 -159.0028416785226 145.54226601343726 0 0 0 0 -228.6880194946275 50.582182969610585 0 50.582182969610585 127.01908539655415 0 0 0 0 251.77247169028124 108.78959442053383 0 108.78959442053383 61.85470101753981 0 0 0 0 -854.47960409986899 313.42127713242826 0 313.42127713242826 354.1251986478419 0 0 0 0 -982.22968939838665 30.663485201652293 0 30.663485201652293 311.40494576530091 0 0 0 0 -855.25905624193092 259.71896998289003 0 259.71896998289003 459.82664878772448 0 0 0 0 -982.87079050293687 -278.44602830755139 0 -278.44602830755139 130.15650222318231 0 0 0 0 -1515.7163914270973 156.48242771558125 0 156.48242771558125 459.33375254152088 0 0 0 0 -16.746433620193894 9.2060854198253601 0 9.2060854198253601 -4.2731180338771502 0 0 0 0 -614.36178072728217 1286.7116736391836 0 1286.7116736391836 -544.98434774178895 0 0 0 0 618.3324078572241 1154.5777058930016 0 1154.5777058930016 -1345.4330076223669 0 0 0 0 -2761.4774104471853 1577.2669524506341 0 1577.2669524506341 -109.9949288195121 0 0 0 0 -1636.0195762548319 365.14603615719579 0 365.14603615719579 -153.28400533446984 0 0 0 0 -1.0057128030768734 5.1448400816786535 0 5.1448400816786535 -7.442017659997191 0 0 0 0 1393.3995116767019 1343.7991532632818 0 1343.7991532632818 -765.86721895310302 0 0 0 0 -384.57600358987293 179.80406945283266 0 179.80406945283266 460.88641664768511 0 0 0 0 56.214907635259806 75.20231550472181 0 75.20231550472181 395.84464118535743 0 0 0 0 218.84204206794493 186.4804223777046 0 186.4804223777046 186.1820194363163 0 0 0 0 -812.41331861810431 461.05715687547035 0 461.05715687547035 -343.92031472079907 0 0 0 0 -634.72103520486598 208.22924145946399 0 208.22924145946399 -10.617928271776691 0 0 0 0 -265.10467417020755 291.69015061643859 0 291.69015061643859 -232.9267736360307 0 0 0 0 -642.87876586395214 279.48633978311409 0 279.48633978311409 -107.81393942735122 0 0 0 0 -648.90685987727556 144.44703024381033 0 144.44703024381033 -350.30307153217461 0 0 0 0 -641.2666592144443 -160.17562671713222 0 -160.17562671713222 417.04489361847482 0 0 0 0 84.296487275154689 161.30604055827098 0 161.30604055827098 61.878839497652734 0 0 0 0 59.924246026550165 78.316024218240273 0 78.316024218240273 597.60902652079312 0 0 0 0 711.87695176214322 621.93640545788685 0 621.93640545788685 286.55697754769062 0 0 0 0 -135.29482983264654 -86.716111945248485 0 -86.716111945248485 469.21264842286473 0 0 0 0 1.1164219917491973 2.5409519703557724 0 2.5409519703557724 6.4637499460399539 0 0 0 0 1139.9173042898615 308.77600513298694 0 308.77600513298694 -25.485358817426459 0 0 0 0 264.21845730433188 179.31004369829407 0 179.31004369829407 -38.745143137406558 0 0 0 0 106.66817511624502 47.996490882365833 0 47.996490882365833 -117.2668168081691 0 0 0 0 0.25530726689696343 -2.1191969649737352 0 -2.1191969649737352 3.2544031660302792 0 0 0 0 94.890573841938462 -77.273919866780233 0 -77.273919866780233 2.7035096382860502 0 0 0 0 154.17415337699688 -48.803827598133026 0 -48.803827598133026 -94.01023548397643 0 0 0 0 -5.6990664041561558 -151.16003712920337 0 -151.16003712920337 98.905775378865656 0 0 0 0 -87.228790576361007 1.6039259584904357 0 1.6039259584904357 43.324334832801924 0 0 0 0 -310.08183528847985 193.17245589889873 0 193.17245589889873 -57.911813067332332 0 0 0 0 -689.63116814699276 358.11888653412734 0 358.11888653412734 138.22099677638835 0 0 0 0 -319.70965736676658 -98.528345957787678 0 -98.528345957787678 110.32472212671928 0 0 0 0 151.75526781560893 256.79292057495968 0 256.79292057495968 293.54756773096051 0 0 0 0 1124.2050224839336 -58.119176341368075 0 -58.119176341368075 46.831273530106046 0 0 0 0 -0.17433626095459448 2.098383452227027 0 2.098383452227027 -0.81727685074402245 0 0 0 0 -6.8568042263812004 -446.7950723422623 0 -446.7950723422623 165.05798038500325 0 0 0 0 -1472.0140331484231 -157.84533013556958 0 -157.84533013556958 299.19318963161277 0 0 0 0 -364.84354263477348 231.76197740748285 0 231.76197740748285 -183.27801172775435 0 0 0 0 -1071.78761197177 219.39412753836075 0 219.39412753836075 190.55271291696954 0 0 0 0 -395.70423711575131 1199.8307113031387 0 1199.8307113031387 -1056.2988909095675 0 0 0 0 736.90309797184921 94.38756971549796 0 94.38756971549796 -289.69073672350896 0 0 0 0 -0.028750310942233681 9.5676753170328155 0 9.5676753170328155 0.036394208597563704 0 0 0 0 -849.59279964422922 647.68978378999691 0 647.68978378999691 20.911780117003218 0 0 0 0 -82.816815079947162 91.174545717977253 0 91.174545717977253 -123.91074134607697 0 0 0 0 96.401519253594316 381.61346951220366 0 381.61346951220366 -24.608501308832956 0 0 0 0 -351.80733336063042 322.03145160299277 0 322.03145160299277 341.7871573977427 0 0 0 0 312.3170448356932 167.70430638756488 0 167.70430638756488 -80.765596189956341 0 0 0 0 627.56808684153634 -119.10814897528053 0 -119.10814897528053 338.19049468386811 0 0 0 0 742.61497280468211 505.60355168614387 0 505.60355168614387 160.57415321738063 0 0 0 0 442.8652783669649 164.01655460383017 0 164.01655460383017 -26.654313082478438 0 0 0 0 485.47710374119413 339.22513259460129 0 339.22513259460129 -58.480755575871854 0 0 0 0 403.53684883747758 468.74590205604864 0 468.74590205604864 152.92070865147241 0 0 0 0 112.92794843212675 236.58407750716651 0 236.58407750716651 222.87567991497326 0 0 0 0 -0.38891046337132651 13.242754468048547 0 13.242754468048547 4.8598755009116843 0 0 0 0 -403.99926178021678 414.49413242424771 0 414.49413242424771 82.214483777603164 0 0 0 0 146.20730055891346 139.87500076244964 0 139.87500076244964 -88.758392247896154 0 0 0 0 -506.27989540509122 202.002670125034 0 202.002670125034 61.384681095220913 0 0 0 0 82.110713003659441 356.9519162820111 0 356.9519162820111 74.271156597626486 0 0 0 0 -0.92666819328326988 12.438421105714315 0 12.438421105714315 8.1547430515744814 0 0 0 0 -652.62110511461537 248.07197961047405 0 248.07197961047405 -27.109421859078793 0 0 0 0 -968.77946596523907 167.33307100126694 0 167.33307100126694 87.338294280089485 0 0 0 0 -1168.9103240903823 390.53247876956289 0 390.53247876956289 -57.951678051394993 0 0 0 0 -1203.5116619215228 -116.56687396434859 0 -116.56687396434859 -340.2973908946359 0 0 0 0 -236.31267783501826 178.51972679732626 0 178.51972679732626 181.16176441545576 0 0 0 0 229.86023955774988 250.12816769649635 0 250.12816769649635 78.334410822842528 0 0 0 0 173.03095444779831 1184.9721479688699 0 1184.9721479688699 64.296509162461916 0 0 0 0 -0.93153223081637626 5.9078498055330373 0 5.9078498055330373 4.179200043613573 0 0 0 0 1051.195095773119 515.10877631401786 0 515.10877631401786 -60.93790609837356 0 0 0 0 -2506.7515943547432 526.64813739566432 0 526.64813739566432 570.23291280429157 0 0 0 0 -1318.1266725707558 1295.973156670721 0 1295.973156670721 223.31846866990145 0 0 0 0 -488.46149225980616 211.585628362634 0 211.585628362634 -125.34537629637339 0 0 0 0 -1350.8588354272554 341.24201233100484 0 341.24201233100484 258.96063700387731 0 0 0 0 -954.64942298205324 400.51796683114935 0 400.51796683114935 -25.231019266309431 0 0 0 0 -5.5053232541895341 31.401269878219409 0 31.401269878219409 13.152322046977133 0 0 0 0 -35.444892161599483 28.538295625369205 0 28.538295625369205 4.626158659769537 0 0 0 0 13.525407655710296 33.685548977301551 0 33.685548977301551 9.1972173150861636 0 0 0 0 248.27623469635955 181.37316852861682 0 181.37316852861682 97.705913376977151 0 0 0 0 171.76476745818769 328.84763458381167 0 328.84763458381167 280.30178621521918 0 0 0 0 -27.134416129760211 43.939161785569013 0 43.939161785569013 50.369970482982353 0 0 0 0 -48.557768712493527 22.310445980987971 0 22.310445980987971 15.578531189569269 0 0 0 0 -25.462337392874929 300.20279684636421 0 300.20279684636421 356.90064069248183 0 0 0 0 369.82829110693274 171.22963837224299 0 171.22963837224299 -120.50217254908455 0 0 0 0 -18.709783111143423 19.671074602238534 0 19.671074602238534 -11.011262985518051 0 0 0 0 322.08099621646033 879.17722519399206 0 879.17722519399206 793.29537276284418 0 0 0 0 -26.180556108070959 372.71137171117823 0 372.71137171117823 332.52580323759457 0 0 0 0 203.54711129554198 560.88457728690992 0 560.88457728690992 317.2154730100915 0 0 0 0 -22.174356778941728 726.83064220721553 0 726.83064220721553 382.37158697406994 0 0 0 0 392.72072963923165 926.16645332688017 0 926.16645332688017 830.13756906287927 0 0 0 0 119.11343993503397 253.59211875203903 0 253.59211875203903 -55.807217207071176 0 0 0 0 1096.6080303389972 664.00367488109896 0 664.00367488109896 -477.30098468385313 0 0 0 0 333.69524976902903 843.3317860205575 0 843.3317860205575 -491.18865309393914 0 0 0 0 -520.79194867470869 1173.1415988096041 0 1173.1415988096041 798.90505974815005 0 0 0 0 -78.549204868395464 36.319912899116389 0 36.319912899116389 564.06236920873016 0 0 0 0 192.61074478929004 591.43898528332647 0 591.43898528332647 -937.69116758475866 0 0 0 0 15.586457807119558 4.4487137224959667 0 4.4487137224959667 1.3144818761393626 0 0 0 0 -4.0002979282471642 161.08305990893405 0 161.08305990893405 1129.4225037861554 0 0 0 0 69.684262983346343 -30.505288818030294 0 -30.505288818030294 177.32692965215119 0 0 0 0 295.62652298827061 513.35024680829792 0 513.35024680829792 279.7922652380712 0 0 0 0 16.977566901863103 13.846530754979826 0 13.846530754979826 -13.990507149474011 0 0 0 0 858.72403353330446 569.11917681965997 0 569.11917681965997 161.49989480202476 0 0 0 0 -367.05787896351694 698.76758884456785 0 698.76758884456785 375.23872820645056 0 0 0 0 -2310.3166455461719 1060.6124902770378 0 1060.6124902770378 205.2444653362154 0 0 0 0 -17.502309368155352 9.2573477912261435 0 9.2573477912261435 -1.0269612085260231 0 0 0 0 -87.860802617182287 37.040750516543909 0 37.040750516543909 4.0945985176945037 0 0 0 0 -1593.6887371540215 697.5239372817714 0 697.5239372817714 -575.69254637372796 0 0 0 0 -657.50566960421247 178.17255632310935 0 178.17255632310935 465.43136665791008 0 0 0 0 -1226.9961982550012 -90.142185928346407 0 -90.142185928346407 -395.74061743209199 0 0 0 0 -25.46239272779458 5.7945818669925728 0 5.7945818669925728 11.099310753755635 0 0 0 0 -231.14609209899936 -405.55729197362939 0 -405.55729197362939 -1267.3055793302738 0 0 0 0 -914.49358870436845 1041.0524580886813 0 1041.0524580886813 -521.16337713013672 0 0 0 0 -575.84085298653736 689.54789094088119 0 689.54789094088119 212.13230120802837 0 0 0 0 -977.35658209464054 319.44242721331238 0 319.44242721331238 -73.409401425038595 0 0 0 0 -1771.4016266293766 195.71341868446507 0 195.71341868446507 432.90719909495965 0 0 0 0 -978.56350595939875 275.3019548674074 0 275.3019548674074 112.41718786243837 0 0 0 0 93.629194634076612 48.112617246363058 0 48.112617246363058 -81.804247721166291 0 0 0 0 2.6165745495341333 65.667640640064491 0 65.667640640064491 -27.651482867740434 0 0 0 0 63.508177679495589 2.9403729306036439 0 2.9403729306036439 -140.09619881830838 0 0 0 0 124.66850923629181 1.2971421284956932 0 1.2971421284956932 -15.603857241449987 0 0 0 0 31.093569709750028 73.934908947173341 0 73.934908947173341 -54.95032439485373 0 0 0 0 9.3278707343785712 56.212503695268801 0 56.212503695268801 62.750380777540805 0 0 0 0 -79.155731959599507 167.35894957574055 0 167.35894957574055 47.621213489754155 0 0 0 0 -73.384802036352909 230.23597654103597 0 230.23597654103597 -162.04478700306436 0 0 0 0 -204.28396893483205 345.95334664588336 0 345.95334664588336 -223.04773920017396 0 0 0 0 -478.98948978371845 465.27571845321108 0 465.27571845321108 -40.041206385003079 0 0 0 0 -235.68338201869483 277.13537010024629 0 277.13537010024629 -226.09440931488029 0 0 0 0 -14.406971073353553 29.24462538726868 0 29.24462538726868 4.9660673236011519 0 0 0 0 84.507434117334938 124.87897049808112 0 124.87897049808112 -12.537855560141921 0 0 0 0 -170.51982733823479 -0.16375682811985826 0 -0.16375682811985826 57.729163707961561 0 0 0 0 19.415824326301845 76.16216683213645 0 76.16216683213645 38.450891138678358 0 0 0 0 39.882333261546592 118.67447437183 0 118.67447437183 2.7871876078825153 0 0 0 0 -37.569832553694823 101.22780129939429 0 101.22780129939429 14.620913144462975 0 0 0 0 -22.669233118158445 251.47743361563607 0 251.47743361563607 -785.4086836345341 0 0 0 0 49.537990004086168 381.51569220685815 0 381.51569220685815 -592.47163129126784 0 0 0 0 -193.37433975386739 399.01507128958519 0 399.01507128958519 -404.19978093990358 0 0 0 0 5.3712776127795223 441.92531615367079 0 441.92531615367079 -503.66583152550993 0 0 0 0 -47.309059066818008 250.44890463562933 0 250.44890463562933 -337.20740556706733 0 0 0 0 -51.331187477517233 254.19779390807525 0 254.19779390807525 -286.72675313527725 0 0 0 0 -234.86490365602367 230.53062602208593 0 230.53062602208593 -220.05590636543275 0 0 0 0 106.73476263816701 198.25571578082236 0 198.25571578082236 -319.52328861012938 0 0 0 0 42.305586244012375 391.05130912031746 0 391.05130912031746 -186.30513476883425 0 0 0 0 54.888011545182962 231.52498913449381 0 231.52498913449381 -581.22013651900147 0 0 0 0 -83.030145283213642 204.71977582356521 0 204.71977582356521 -290.56012464586092 0 0 0 0 14.912801727145052 390.33952058774776 0 390.33952058774776 -428.92475513383397 0 0 0 0 146.82583132768559 623.12756825693941 0 623.12756825693941 286.73974959372026 0 0 0 0 34.322584685172046 313.4897800585768 0 313.4897800585768 -85.822631447706954 0 0 0 0 -19.077027556109186 56.830316795925725 0 56.830316795925725 -81.570235353832445 0 0 0 0 -16.536144098804016 747.24113998871553 0 747.24113998871553 184.36994892616349 0 0 0 0 573.3254983802326 -123.71029928058124 0 -123.71029928058124 886.47892988032254 0 0 0 0 -374.6692838302497 820.69428694139788 0 820.69428694139788 1031.3580438261633 0 0 0 0 -29.22877687428263 -294.05567423324101 0 -294.05567423324101 1021.6756677775412 0 0 0 0 -91.845179827501852 147.88422253930912 0 147.88422253930912 -200.43162745658628 0 0 0 0 209.33951775643345 289.44870045791322 0 289.44870045791322 -209.94807916290665 0 0 0 0 12.908376782743524 3.0375829007551367 0 3.0375829007551367 -2.0280428773734798 0 0 0 0 1.6098047056664839 92.632291415415381 0 92.632291415415381 123.14616625575695 0 0 0 0 -458.79047588560206 84.856671802488563 0 84.856671802488563 235.68860005548049 0 0 0 0 34.773303900049541 -46.720166863108716 0 -46.720166863108716 -7.5202753201228916 0 0 0 0 28.96291980933529 160.66391285208738 0 160.66391285208738 48.241765314181976 0 0 0 0 -62.481119938274787 173.16050670883124 0 173.16050670883124 98.024612732326204 0 0 0 0 -230.57030606156877 210.20185665483586 0 210.20185665483586 73.931414641170704 0 0 0 0 -32.422094239701437 137.53437248143018 0 137.53437248143018 72.697700220785919 0 0 0 0 -186.94133558208705 412.83285981290101 0 412.83285981290101 293.20447850424171 0 0 0 0 19.885033688135803 104.50643076608915 0 104.50643076608915 91.975367149740322 0 0 0 0 -36.938565891057806 210.54123208536475 0 210.54123208536475 -64.756927012007509 0 0 0 0 6.2738994590293871 76.834610918520497 0 76.834610918520497 -74.304693191065951 0 0 0 0 -99.904592618524475 116.59500775665947 0 116.59500775665947 -67.767547501687659 0 0 0 0 18.954631851011072 241.41933038327261 0 241.41933038327261 17.151116160712263 0 0 0 0 16.110172071907758 96.908756821390313 0 96.908756821390313 43.758550057916125 0 0 0 0 -181.1453881458292 361.01583728840342 0 361.01583728840342 245.98685129311343 0 0 0 0 498.67866460703954 196.53033667791169 0 196.53033667791169 -111.22095240743511 0 0 0 0 223.5217338217717 67.873576552749 0 67.873576552749 69.472442864251207 0 0 0 0 470.54868126595466 138.30976804754391 0 138.30976804754391 315.49911456322297 0 0 0 0 725.52536068964037 2.2256777107686503 0 2.2256777107686503 -68.841151128188358 0 0 0 0 593.83284461970834 253.81148377479258 0 253.81148377479258 -461.15456679214549 0 0 0 0 -390.84141969443954 786.01821267421474 0 786.01821267421474 180.74205791675558 0 0 0 0 -74.866031493587798 337.00238347374398 0 337.00238347374398 -24.979860611350887 0 0 0 0 324.13988661407802 196.33785488015656 0 196.33785488015656 -101.62655227260257 0 0 0 0 323.00500689362161 197.55836130692478 0 197.55836130692478 -66.545624683698406 0 0 0 0 8.5707492747505682 79.137983111896062 0 79.137983111896062 -72.13863149661212 0 0 0 0 -6.7365034813010425 172.07814282425534 0 172.07814282425534 -232.22547494784885 0 0 0 0 71.141172185411051 71.049861250668982 0 71.049861250668982 -56.009412494677235 0 0 0 0 74.96066633630835 80.301144931836461 0 80.301144931836461 -284.91368606801552 0 0 0 0 81.28476789632623 52.867218535920983 0 52.867218535920983 -74.980235792485473 0 0 0 0 -23.858160607282116 -38.758125085729262 0 -38.758125085729262 -33.829433472186793 0 0 0 0 1.6813916198503307 0.65100073991749241 0 0.65100073991749241 -2.2454994649224318 0 0 0 0 34.286634038926422 -85.653032347854605 0 -85.653032347854605 -347.87012136414523 0 0 0 0 138.00542111925461 409.60160077245746 0 409.60160077245746 428.7338346290926 0 0 0 0 184.17090398313485 270.459710952975 0 270.459710952975 -36.387506420673162 0 0 0 0 57.120952412105908 194.35826810252547 0 194.35826810252547 -29.489192477638426 0 0 0 0 5.3040817279397743 231.31592184863257 0 231.31592184863257 -48.822743544085824 0 0 0 0 0.47051775037652988 138.97140381907957 0 138.97140381907957 58.412633256943082 0 0 0 0 73.252063424515654 230.24143286638355 0 230.24143286638355 -28.733627260645903 0 0 0 0 1.6092822711216286 228.33335217145213 0 228.33335217145213 44.169316142964817 0 0 0 0 -285.84054286796572 155.05208847039239 0 155.05208847039239 28.548066096947878 0 0 0 0 11.656073073857897 273.02080718469097 0 273.02080718469097 111.25466722162673 0 0 0 0 -1.0917565993265548 -4.5278620419215514 0 -4.5278620419215514 2.349718710750949 0 0 0 0 18.652868634231709 120.31965479707287 0 120.31965479707287 5.5825025494486908 0 0 0 0 405.67862213748958 168.86381347441784 0 168.86381347441784 5.6719843145328923 0 0 0 0 -47.819791799614904 108.96086806198946 0 108.96086806198946 -35.990295384614001 0 0 0 0 -48.009315904880623 105.78903707036943 0 105.78903707036943 19.677845995567623 0 0 0 0 -5.1778056024559191 107.11906432643809 0 107.11906432643809 -12.791047552673263 0 0 0 0 51.820282787272163 169.12754967856245 0 169.12754967856245 49.06425121385837 0 0 0 0 52.845683996021762 131.24779070192017 0 131.24779070192017 -42.343969542111154 0 0 0 0 -15.284190753285969 33.337967134240699 0 33.337967134240699 -63.13787617733756 0 0 0 0 73.449108067025008 43.868785797658347 0 43.868785797658347 -126.32773518391332 0 0 0 0 -24.899358221748088 50.127537655447206 0 50.127537655447206 -68.672406866115864 0 0 0 0 -14.63637069928518 164.04663475290727 0 164.04663475290727 14.242433348229497 0 0 0 0 -95.641663018381223 71.972151846472116 0 71.972151846472116 -30.574001335451612 0 0 0 0 -231.9078374424862 -244.44423928851757 0 -244.44423928851757 -334.60510714138945 0 0 0 0 -17.324236533452989 5.9621420879516513 0 5.9621420879516513 21.360109214216806 0 0 0 0 -151.74116197400144 158.0047913189992 0 158.0047913189992 185.63873807289565 0 0 0 0 200.19203604712675 251.80443748089965 0 251.80443748089965 82.647575773087738 0 0 0 0 1.8936560167363012 2.3254309756390228 0 2.3254309756390228 -15.203678697658525 0 0 0 0 458.23343073805518 346.00373102359845 0 346.00373102359845 41.480588634196465 0 0 0 0 100.35727561278327 126.2258166056854 0 126.2258166056854 -67.032103477722558 0 0 0 0 31.387164095346073 76.650383433944953 0 76.650383433944953 32.739989525353074 0 0 0 0 -48.991052741268504 75.748854945479252 0 75.748854945479252 125.97894686431937 0 0 0 0 -52.162104349299625 114.81048122334687 0 114.81048122334687 3.5122610032412922 0 0 0 0 -1.9530440204953781 23.739549939212807 0 23.739549939212807 -2.3949766501312411 0 0 0 0 -130.42783911707011 145.80516732089745 0 145.80516732089745 4.1847538977053773 0 0 0 0 -51.073726998404098 53.935191378403147 0 53.935191378403147 21.197585165874813 0 0 0 0 90.599714019742351 100.99460453555184 0 100.99460453555184 34.955561027985823 0 0 0 0 10.002726473370068 71.65453077360425 0 71.65453077360425 27.267837285408277 0 0 0 0 -160.75017073096387 4.0390409912652103 0 4.0390409912652103 -82.505368042500777 0 0 0 0 -136.437494225509 -93.212729140272131 0 -93.212729140272131 46.753274729398981 0 0 0 0 4.6084919864115363 32.222253358915623 0 32.222253358915623 -17.984632382034761 0 0 0 0 18.420655204795985 44.201811389908293 0 44.201811389908293 68.224893132437742 0 0 0 0 -193.27111487531573 387.87853477383533 0 387.87853477383533 60.953149492415832 0 0 0 0 232.85224289561398 358.99525193133121 0 358.99525193133121 113.18831195171651 0 0 0 0 -266.19325048671567 154.6061056486061 0 154.6061056486061 30.972161419434542 0 0 0 0 -325.40388180083482 212.17781436517816 0 212.17781436517816 238.68197373872681 0 0 0 0 36.666758362412402 67.458720693911317 0 67.458720693911317 19.857034847062749 0 0 0 0 -20.941989983311032 144.3532069409066 0 144.3532069409066 -14.701917382118438 0 0 0 0 220.40301410392419 264.79214524889312 0 264.79214524889312 22.541386463321913 0 0 0 0 -270.53507878227322 16.767968856926473 0 16.767968856926473 150.27851851111745 0 0 0 0 20.514057005343901 20.190125606872783 0 20.190125606872783 -2.3446115745375131 0 0 0 0 78.818794539876649 85.513074939066286 0 85.513074939066286 69.098168957346431 0 0 0 0 -261.49990405268363 22.192697745459327 0 22.192697745459327 68.491965376458211 0 0 0 0 -228.12965153039841 35.74203885904717 0 35.74203885904717 25.272639627571266 0 0 0 0 -124.97513826504041 265.78106056020329 0 265.78106056020329 -34.75383825798599 0 0 0 0 -259.19106168858116 40.990092695585645 0 40.990092695585645 136.84802549036726 0 0 0 0 -225.84627017381973 62.658390938213046 0 62.658390938213046 72.384630052230932 0 0 0 0 -158.75264677681253 66.096186055575799 0 66.096186055575799 111.07761163291138 0 0 0 0 -240.06770054521922 193.71846079730432 0 193.71846079730432 322.44069284552825 0 0 0 0 -144.07194423912574 288.19373144323185 0 288.19373144323185 287.70156835501507 0 0 0 0 154.19346494775482 187.3970441017218 0 187.3970441017218 179.23189124769897 0 0 0 0 4.4594483406777314 6.3377423993709812 0 6.3377423993709812 1.5078904688137698 0 0 0 0 -330.4758449271194 187.42710963917034 0 187.42710963917034 187.37173374798294 0 0 0 0 26.375073763279943 383.53437546788882 0 383.53437546788882 284.86578383226515 0 0 0 0 141.88693564754431 -71.045870418396589 0 -71.045870418396589 352.8737440939949 0 0 0 0 -1.1368166227839538 80.352407312599098 0 80.352407312599098 43.180708733249048 0 0 0 0 225.63505385653116 500.9103046647906 0 500.9103046647906 479.9051490267866 0 0 0 0 -24.326554390361707 486.20010823908706 0 486.20010823908706 13.887706460231129 0 0 0 0 98.955324216635745 -32.818695222032375 0 -32.818695222032375 91.329014884689968 0 0 0 0 999.07869371392553 4.1917286672769478 0 4.1917286672769478 -64.620036914013326 0 0 0 0 -69.664618202805286 65.289039492494339 0 65.289039492494339 -73.166234368514779 0 0 0 0 -67.593298475840129 182.48112571029924 0 182.48112571029924 -49.979113954388595 0 0 0 0 -58.739625359259662 119.49324523941686 0 119.49324523941686 77.870918698754394 0 0 0 0 50.255056139460066 114.22356572336867 0 114.22356572336867 76.001523398921563 0 0 0 0 -17.66942349567762 92.121582062252855 0 92.121582062252855 60.534255964907061 0 0 0 0 -18.573762305939454 114.68660608557184 0 114.68660608557184 56.443208899788715 0 0 0 0 -78.164238963738171 127.25631734712442 0 127.25631734712442 18.394631969062175 0 0 0 0 -25.985166432469669 76.21113696570319 0 76.21113696570319 32.302921680264262 0 0 0 0 45.245729876546292 109.30522957090602 0 109.30522957090602 68.573532230890436 0 0 0 0 73.235800392566489 130.481147755454 0 130.481147755454 42.970334577257745 0 0 0 0 -36.260117815741978 112.45785408732263 0 112.45785408732263 42.061458517371648 0 0 0 0 121.37568797328277 129.58791567973094 0 129.58791567973094 89.668665087861882 0 0 0 0 59.601046593590581 203.75446411903977 0 203.75446411903977 140.634121313793 0 0 0 0 13.358371880912046 76.132321127472181 0 76.132321127472181 -70.289837657871175 0 0 0 0 -61.931592908829771 180.60712289995445 0 180.60712289995445 136.2374945291449 0 0 0 0 -5.1044295292158495 81.508989248239232 0 81.508989248239232 74.924120557203423 0 0 0 0 50.793174626318731 93.647324061604024 0 93.647324061604024 56.507541006936492 0 0 0 0 50.459451379218081 96.455945413790687 0 96.455945413790687 25.903673837517999 0 0 0 0 -90.643546622809481 121.66707719881742 0 121.66707719881742 101.89133937659062 0 0 0 0 -20.080015756189823 153.68926753800406 0 153.68926753800406 166.71521854356206 0 0 0 0 49.185898671743416 138.56484988047669 0 138.56484988047669 61.903633092500968 0 0 0 0 -54.821854888272355 60.500836804127175 0 60.500836804127175 105.94179164918023 0 0 0 0 8.2028865583961306 159.37627784403958 0 159.37627784403958 25.609621263567533 0 0 0 0 30.062124977652275 151.28895470718635 0 151.28895470718635 15.265075757299201 0 0 0 0 49.459638647314996 89.671431249166773 0 89.671431249166773 37.829180286133891 0 0 0 0 192.78670133149353 187.16142573223806 0 187.16142573223806 -43.452377020488711 0 0 0 0 72.060351111898854 232.4135770458397 0 232.4135770458397 139.94858659734746 0 0 0 0 -17.465480038932583 104.77612461144599 0 104.77612461144599 143.34855649139354 0 0 0 0 -42.461898394947639 97.431809755360518 0 97.431809755360518 112.61271173198111 0 0 0 0 -69.062753048834566 106.77217893544412 0 106.77217893544412 110.66745201425147 0 0 0 0 -83.328075687604723 91.98043425526339 0 91.98043425526339 118.53744118494615 0 0 0 0 -68.147176542741363 112.46145872981288 0 112.46145872981288 -24.219823658062523 0 0 0 0 -31.945023409834903 169.03666482500375 0 169.03666482500375 57.019920268488931 0 0 0 0 -89.439221242955682 179.7525585628 0 179.7525585628 -46.52820751382751 0 0 0 0 -84.224022257636534 66.881945378243472 0 66.881945378243472 48.523218456912218 0 0 0 0 -138.74853210223228 167.27569378743146 0 167.27569378743146 112.56716918054371 0 0 0 0 60.50008790269203 169.85878182809302 0 169.85878182809302 92.874835326641914 0 0 0 0 -53.908460462043877 97.517776863202926 0 97.517776863202926 128.87085796769043 0 0 0 0 -67.409674507245654 116.6598157892895 0 116.6598157892895 139.71324473682034 0 0 0 0 -79.244865804311303 127.6354238804571 0 127.6354238804571 102.66428573672601 0 0 0 0 -17.908758897451577 64.253402045332322 0 64.253402045332322 -79.431187114460585 0 0 0 0 -33.764408358605579 449.97471886771382 0 449.97471886771382 53.149107841563819 0 0 0 0 -22.896133734357136 341.99048722459884 0 341.99048722459884 231.74478362527407 0 0 0 0 -54.979490306592197 148.49227498869732 0 148.49227498869732 -20.026248425150698 0 0 0 0 -131.33883436734686 218.86124553346644 0 218.86124553346644 227.18982542898266 0 0 0 0 -246.75686454035167 134.20204058895979 0 134.20204058895979 -13.183512566003628 0 0 0 0 71.044013876322424 114.01849848265738 0 114.01849848265738 0.061371875010991062 0 0 0 0 176.92690603290976 290.94384462749895 0 290.94384462749895 -53.6246566225783 0 0 0 0 171.4676293817829 323.28479595619501 0 323.28479595619501 -447.71569825214101 0 0 0 0 -0.45339711903872626 2.6147891731400961 0 2.6147891731400961 3.2317772448106794 0 0 0 0 190.16470263164956 7.6577718404078041 0 7.6577718404078041 -802.85101243333338 0 0 0 0 -241.61537505999149 191.03301963224476 0 191.03301963224476 997.9490863564497 0 0 0 0 105.96979918532452 249.78414697726657 0 249.78414697726657 158.42182378175494 0 0 0 0 -120.70883383062028 7.0948491248273058 0 7.0948491248273058 280.16861015848917 0 0 0 0 125.02505918286624 -8.5919597358151805 0 -8.5919597358151805 273.31480459914928 0 0 0 0 -299.30577668972546 260.46824192585336 0 260.46824192585336 301.17411833656115 0 0 0 0 173.00467550786743 261.71127230014008 0 261.71127230014008 295.54296184731356 0 0 0 0 -230.23555290406512 -148.90004089173453 0 -148.90004089173453 39.837565745291045 0 0 0 0 -65.02147850728943 129.12835861642998 0 129.12835861642998 135.60582954056372 0 0 0 0 12.344795175595209 338.92616945492045 0 338.92616945492045 554.1508671557458 0 0 0 0 -0.57135159095139443 9.7091868330841322 0 9.7091868330841322 -26.431823740406589 0 0 0 0 138.75481061593018 182.42589417615818 0 182.42589417615818 -395.36093386291759 0 0 0 0 -19.229659728357376 70.759467609953276 0 70.759467609953276 -74.119756703550209 0 0 0 0 -69.197985371989489 385.84074162331672 0 385.84074162331672 532.20094136714033 0 0 0 0 -123.6114942557615 491.02860976016382 0 491.02860976016382 34.161112433928793 0 0 0 0 227.07845107572939 427.66482820782767 0 427.66482820782767 237.04844525690714 0 0 0 0 11.062418787711067 156.89740706068551 0 156.89740706068551 340.43398136969336 0 0 0 0 -0.23107687667453547 7.8011386664152269 0 7.8011386664152269 -40.702737831229769 0 0 0 0 -27.359790875183535 310.73762971297401 0 310.73762971297401 748.91491655535356 0 0 0 0 153.45048107352341 205.39796603272407 0 205.39796603272407 51.073889857514587 0 0 0 0 89.567128322170902 425.38994057472792 0 425.38994057472792 104.63227325007028 0 0 0 0 89.091870697389822 214.91675445973669 0 214.91675445973669 299.84902419834543 0 0 0 0 -9.3571221762549044 38.433167350029869 0 38.433167350029869 -45.730911527150987 0 0 0 0 3.3493448462445485 -8.9487734073887921 0 -8.9487734073887921 -59.531984260216198 0 0 0 0 -5.2674526603659615 9.1639216359690181 0 9.1639216359690181 -160.07869425373792 0 0 0 0 -16.074128380350885 77.174503642069794 0 77.174503642069794 -75.897993849304839 0 0 0 0 -7.57201659059956 43.440811877029901 0 43.440811877029901 -53.495510508921868 0 0 0 0 128.7121347397333 -111.89064743058407 0 -111.89064743058407 -76.145375867141411 0 0 0 0 -59.421937957129558 125.11299907892408 0 125.11299907892408 112.17451409282512 0 0 0 0 78.659539829110145 -31.573372689370444 0 -31.573372689370444 -999.07003248621186 0 0 0 0 -57.212700331656379 35.848442590584455 0 35.848442590584455 -376.26977054415329 0 0 0 0 74.082920205240953 249.03086943797098 0 249.03086943797098 -398.62171600761212 0 0 0 0 3.9195541318040341 327.19314901388498 0 327.19314901388498 -83.908329257275909 0 0 0 0 32.596501715539489 264.20999932930135 0 264.20999932930135 -29.448709227595828 0 0 0 0 56.65395083445037 141.73701080713818 0 141.73701080713818 -374.33553582883906 0 0 0 0 -120.81709540339216 75.368747285100653 0 75.368747285100653 -384.57210637300886 0 0 0 0 61.899976694214274 325.71679217104975 0 325.71679217104975 -22.784797389795131 0 0 0 0 92.018972358096107 152.79162986124129 0 152.79162986124129 -453.80968508613296 0 0 0 0 -29.853048099335865 243.76128952808358 0 243.76128952808358 -460.75434388077701 0 0 0 0 137.31858309199379 0.97738875304457906 0 0.97738875304457906 -1759.3071788769521 0 0 0 0 -4.6236020282725292 5.8823912253816459 0 5.8823912253816459 -3.4713782189989786 0 0 0 0 -239.19061621853325 445.88615729079902 0 445.88615729079902 1201.2135442829531 0 0 0 0 -297.21496708207269 467.71388027318244 0 467.71388027318244 -199.5160542020385 0 0 0 0 -191.20313847474517 -64.311554029789932 0 -64.311554029789932 -79.149995790503453 0 0 0 0 -86.643281989316165 147.1544538410526 0 147.1544538410526 345.08922468137462 0 0 0 0 -243.9492520952208 545.62075741850185 0 545.62075741850185 467.78285638344096 0 0 0 0 32.117365740334208 153.01803108158492 0 153.01803108158492 277.26655408716033 0 0 0 0 -103.93585640742094 -0.78927933532759198 0 -0.78927933532759198 389.67836435825666 0 0 0 0 -51.879694473012933 222.54837363525439 0 222.54837363525439 481.03336644834053 0 0 0 0 -14.851229883875931 63.154533832830566 0 63.154533832830566 760.85191627901077 0 0 0 0 194.51260880463815 315.21511650525827 0 315.21511650525827 603.36188585209311 0 0 0 0 -89.911716723625432 216.21129129215478 0 216.21129129215478 326.78113240676612 0 0 0 0 -193.91904662779416 125.18879387601191 0 125.18879387601191 604.15473708527747 0 0 0 0 -161.89203077467391 434.81462748470949 0 434.81462748470949 571.87702070075466 0 0 0 0 56.072321639971051 364.97136468322788 0 364.97136468322788 316.98314961201686 0 0 0 0 256.81055883735826 345.7362885264447 0 345.7362885264447 585.0116381587286 0 0 0 0 -62.512148834131949 479.91801309329458 0 479.91801309329458 1136.2750691206529 0 0 0 0 -13.41967522587035 16.69474585379416 0 16.69474585379416 -9.0109155931902478 0 0 0 0 -14.546550011080399 180.75287836116149 0 180.75287836116149 52.848100467563199 0 0 0 0 132.12201400582853 111.55287446788498 0 111.55287446788498 -5.5302659639801277 0 0 0 0 44.033199699065818 90.344496749155596 0 90.344496749155596 16.746581356514127 0 0 0 0 24.333969022053431 32.631287657271287 0 32.631287657271287 -50.277185050685659 0 0 0 0 142.24909719330753 139.3187455682928 0 139.3187455682928 -39.085233652585885 0 0 0 0 131.73470379657374 89.638263757042296 0 89.638263757042296 -100.00584023645933 0 0 0 0 117.00813810221007 112.08774184003778 0 112.08774184003778 -76.490135586756878 0 0 0 0 109.12324862490004 113.2155035257756 0 113.2155035257756 -1.9476365020600497 0 0 0 0 34.806641245879291 325.15085033116156 0 325.15085033116156 -468.77294917160725 0 0 0 0 36.467131057732331 277.42487227446691 0 277.42487227446691 47.830288159457268 0 0 0 0 57.009163878716208 56.193084064975665 0 56.193084064975665 -73.476272643252742 0 0 0 0 -9.3531606227552402 208.13635255586269 0 208.13635255586269 -56.945703017957385 0 0 0 0 -160.01971884466911 56.458688797437844 0 56.458688797437844 -5.603410628362326 0 0 0 0 -134.02087541627407 173.51696981469649 0 173.51696981469649 233.46517106702231 0 0 0 0 -310.42883742460617 -80.398835745456381 0 -80.398835745456381 5.9260845814860659 0 0 0 0 46.407439366965264 331.44557890897158 0 331.44557890897158 -162.39656485579326 0 0 0 0 1.371322554198855 -0.57368565514795478 0 -0.57368565514795478 2.7558501564220705 0 0 0 0 -858.41168115478649 -180.60120534689122 0 -180.60120534689122 72.201926346046093 0 0 0 0 78.582717657482135 52.871602088678628 0 52.871602088678628 -8.8831783541752429 0 0 0 0 112.58969485722628 60.625892946034583 0 60.625892946034583 -9.1792792622145498 0 0 0 0 29.736706184359768 61.087739517297322 0 61.087739517297322 -14.368134457785999 0 0 0 0 11.750349434579363 30.373976138103949 0 30.373976138103949 -23.929320235732945 0 0 0 0 97.560478765808512 86.43931539622281 0 86.43931539622281 -37.656598061271552 0 0 0 0 111.58641999790416 56.015972250694176 0 56.015972250694176 -94.291998395565315 0 0 0 0 100.35254432242436 84.620251442902372 0 84.620251442902372 -80.948065472504823 0 0 0 0 68.558555169547617 8.2610825086230761 0 8.2610825086230761 6.7313232033047825 0 0 0 0 12.562228133464764 0.43289231241207915 0 0.43289231241207915 -4.059863777705857 0 0 0 0 77.421169202032615 -13.829510210303852 0 -13.829510210303852 -110.19350186027714 0 0 0 0 77.713575751266035 63.456722274930144 0 63.456722274930144 -44.050670986209298 0 0 0 0 14.071718581404511 52.705346340236218 0 52.705346340236218 -21.878698618265304 0 0 0 0 30.406967799339327 6.1723458792548627 0 6.1723458792548627 7.6101286020711996 0 0 0 0 -14.675966608079634 44.784860135343308 0 44.784860135343308 -27.809038023917651 0 0 0 0 50.437929054012784 33.805903097752889 0 33.805903097752889 -4.1760892018210143 0 0 0 0 127.47361542227736 116.23770678923756 0 116.23770678923756 -51.98114556055225 0 0 0 0 -24.892211015350405 31.714512121015005 0 31.714512121015005 -6.9318245157408569 0 0 0 0 13.558637744526791 29.087298461214772 0 29.087298461214772 -27.938291335047808 0 0 0 0 -5.1524149592394473 2.5889731442732398 0 2.5889731442732398 1.9847786250174408 0 0 0 0 787.86214606361864 314.86633534556677 0 314.86633534556677 137.87658970955817 0 0 0 0 -79.45841032068347 79.129709550405096 0 79.129709550405096 -33.503096395827015 0 0 0 0 169.74310980670998 452.50031093680445 0 452.50031093680445 377.38049353974202 0 0 0 0 118.18963687966971 32.584104092900816 0 32.584104092900816 292.54383657807193 0 0 0 0 453.16038778893562 509.17405509895798 0 509.17405509895798 -16.923957951221382 0 0 0 0 119.68084980930871 247.58551425043697 0 247.58551425043697 20.573823721206281 0 0 0 0 117.82674349071613 96.501435456930722 0 96.501435456930722 57.817612881692185 0 0 0 0 -31.493100539615561 28.207015814610777 0 28.207015814610777 -18.71275825603405 0 0 0 0 -4.7361367809935473 53.728831072832691 0 53.728831072832691 12.741717371856794 0 0 0 0 -20.455717037101493 34.21571610723143 0 34.21571610723143 -26.106183447328533 0 0 0 0 93.472595410246868 34.640086647556018 0 34.640086647556018 -46.258280423673568 0 0 0 0 99.653923136007506 51.734770121154725 0 51.734770121154725 -94.720221812036471 0 0 0 0 121.92753653859836 98.403076029295335 0 98.403076029295335 -107.62128116573149 0 0 0 0 106.52582613442792 71.289185510468087 0 71.289185510468087 -44.406879512001979 0 0 0 0 -8.4427256760059493 5.0877046810561986 0 5.0877046810561986 -7.9254718619850735 0 0 0 0 43.594037957376713 57.19248655109368 0 57.19248655109368 -354.27926712603949 0 0 0 0 75.420704664502409 -25.536437059156015 0 -25.536437059156015 -243.76254332835379 0 0 0 0 -121.60041796720179 354.63955089911906 0 354.63955089911906 -448.97357375218598 0 0 0 0 -71.871138533999329 204.85989361943211 0 204.85989361943211 -82.677074107774388 0 0 0 0 -808.61371946410191 769.07729649526846 0 769.07729649526846 159.89491767245636 0 0 0 0 -352.23222409628215 -899.79356764119439 0 -899.79356764119439 -367.78477131915315 0 0 0 0 -186.10139681375949 29.896595964924927 0 29.896595964924927 263.77812400960829 0 0 0 0 397.32028461680602 -232.08869432654501 0 -232.08869432654501 -202.6678256104351 0 0 0 0 -1032.6742450903839 166.58599110203795 0 166.58599110203795 113.03895058389753 0 0 0 0 -143.69364596143714 45.345934905966715 0 45.345934905966715 129.19806799116486 0 0 0 0 116.96534277341289 146.25286017821509 0 146.25286017821509 -80.175544896919746 0 0 0 0 -215.86084486469917 45.544552666106028 0 45.544552666106028 207.7458582764084 0 0 0 0 -188.68644053093158 249.32540539077308 0 249.32540539077308 229.82865496147133 0 0 0 0 -6.0877324183384189 58.50027503057936 0 58.50027503057936 11.160000861200388 0 0 0 0 -41.533370860821378 27.512741825674162 0 27.512741825674162 -12.383531419384383 0 0 0 0 -26.70664135584957 258.38652168261615 0 258.38652168261615 228.85060978377805 0 0 0 0 8.8353496317140525 71.964210923862993 0 71.964210923862993 210.84431453238722 0 0 0 0 -19.400099704726614 34.497320069423694 0 34.497320069423694 -11.20317180277879 0 0 0 0 -20.927634073199442 34.947542129557405 0 34.947542129557405 -0.9055514158681035 0 0 0 0 -142.60604074258299 -8.7097078691022034 0 -8.7097078691022034 294.36180695136136 0 0 0 0 -34.643172272262746 16.509368390718009 0 16.509368390718009 10.466370174322947 0 0 0 0 -41.934416861789998 17.891238768075823 0 17.891238768075823 3.8361837948803945 0 0 0 0 -32.985359376529232 17.942583053794806 0 17.942583053794806 9.6983457204878505 0 0 0 0 -29.13693595483241 9.5006364209311798 0 9.5006364209311798 2.2660830550024968 0 0 0 0 -33.86945498669229 16.437988452697027 0 16.437988452697027 7.1595946604211349 0 0 0 0 -31.93121538015231 18.393068906190038 0 18.393068906190038 2.0854868317535846 0 0 0 0 -80.06617307983106 11.685274607734755 0 11.685274607734755 43.484534742106916 0 0 0 0 -5.5179678243287356 -1.2921213562460636 0 -1.2921213562460636 5.167073437491382 0 0 0 0 -18.734431284596212 71.290102447193931 0 71.290102447193931 206.38545923639322 0 0 0 0 -27.067589123944344 12.648696401143752 0 12.648696401143752 97.065753519709688 0 0 0 0 39.784037304838421 155.50715907875565 0 155.50715907875565 51.041688774319482 0 0 0 0 1.0343388235778548 14.346672218314779 0 14.346672218314779 14.353140734725457 0 0 0 0 -17.252105568615661 53.838640734840737 0 53.838640734840737 50.022567445790628 0 0 0 0 4.4469370723818429 101.85182202560827 0 101.85182202560827 230.9952359876479 0 0 0 0 -23.731196223478179 17.930217849886759 0 17.930217849886759 4.3773253506505156 0 0 0 0 -34.044918005063664 22.031445830903976 0 22.031445830903976 15.167764687874296 0 0 0 0 -16.949696106388231 18.041806682686222 0 18.041806682686222 -10.189098063632656 0 0 0 0 136.63716927237692 182.94910640014859 0 182.94910640014859 162.40850420048082 0 0 0 0 84.039768835122231 110.64511218525149 0 110.64511218525149 70.219763566594338 0 0 0 0 43.081880806828849 115.63522299006581 0 115.63522299006581 76.745963286797632 0 0 0 0 59.040978719320265 288.48449474855443 0 288.48449474855443 204.70939885634289 0 0 0 0 202.32280918863034 -58.610502715328039 0 -58.610502715328039 382.85245567874517 0 0 0 0 264.69569508988934 18.120532161381561 0 18.120532161381561 165.93293940176954 0 0 0 0 99.354155198758235 167.82559872711136 0 167.82559872711136 393.26994537131714 0 0 0 0 -508.29548646292096 441.1997118384752 0 441.1997118384752 777.49106627214132 0 0 0 0 -437.16328280964808 57.054936133492447 0 57.054936133492447 1012.0588723523688 0 0 0 0 330.65223265912209 22.135359143270762 0 22.135359143270762 -40.325021898072009 0 0 0 0 2.3004004579340034 11.241634017867554 0 11.241634017867554 0.35970274267312163 0 0 0 0 -221.69331149572099 -93.000313978584018 0 -93.000313978584018 87.277618729589449 0 0 0 0 880.41985163986828 278.41616385041561 0 278.41616385041561 -116.34180127481523 0 0 0 0 725.45887202141603 -570.95996397440467 0 -570.95996397440467 33.868251964158844 0 0 0 0 6.9066055487178062 57.125568310791145 0 57.125568310791145 -93.869547868276314 0 0 0 0 890.76753693191131 280.51230184062297 0 280.51230184062297 -543.55891485848406 0 0 0 0 -235.98209288662065 565.35881061378905 0 565.35881061378905 90.771212393738097 0 0 0 0 459.09707063206588 463.13151880276564 0 463.13151880276564 -38.718281183522777 0 0 0 0 598.5626626172234 134.60364957263664 0 134.60364957263664 -137.22006139034056 0 0 0 0 328.20018843384241 258.18361722139161 0 258.18361722139161 72.843388856315869 0 0 0 0 -0.43200827531909169 13.556327283080705 0 13.556327283080705 -2.9701406293336348 0 0 0 0 -581.41349326897762 930.90659442659307 0 930.90659442659307 -801.90953041097964 0 0 0 0 99.753125670984446 359.10210511832702 0 359.10210511832702 -839.74695299201994 0 0 0 0 -406.65574415777519 581.86211569170518 0 581.86211569170518 -107.16272476933955 0 0 0 0 -490.87408464303007 443.45201555984386 0 443.45201555984386 308.76832553173335 0 0 0 0 20.068769888493989 469.41241965638983 0 469.41241965638983 -79.3553650892718 0 0 0 0 -223.35775727808868 26.399858398062861 0 26.399858398062861 226.11440068762749 0 0 0 0 -287.70455393493467 131.80234785456196 0 131.80234785456196 124.35349306377611 0 0 0 0 -257.91365623213642 -233.62955804378726 0 -233.62955804378726 -193.83715413972823 0 0 0 0 -1152.5461269183725 18.197601021674927 0 18.197601021674927 141.4762826764636 0 0 0 0 3.3391937996493652 11.138815374681144 0 11.138815374681144 -99.97437878074561 0 0 0 0 -13.519112992173177 34.353609010497166 0 34.353609010497166 5.9494089263607748 0 0 0 0 -12.27653379563526 -34.334097093270429 0 -34.334097093270429 -43.587268420087639 0 0 0 0 -18.527501850856424 -75.290391814679424 0 -75.290391814679424 -152.93044806814578 0 0 0 0 -205.95650625416602 -165.53655697621434 0 -165.53655697621434 -11.180353848292725 0 0 0 0 -32.889950269920519 98.845127921573294 0 98.845127921573294 188.58381103285501 0 0 0 0 -127.07046942732995 -54.759213289766194 0 -54.759213289766194 144.29398359580955 0 0 0 0 -17.755365540710045 -42.824490218783467 0 -42.824490218783467 -51.342737890910939 0 0 0 0 -10.77035874860303 21.237972440972953 0 21.237972440972953 16.139132810523733 0 0 0 0 -24.344240601974889 -50.755473783239722 0 -50.755473783239722 5.2061180061837149 0 0 0 0 -32.537917309105978 -5.9806348676866037 0 -5.9806348676866037 16.547718102432555 0 0 0 0 -5.7240182926712393 -4.2185710906349669 0 -4.2185710906349669 17.304965705424763 0 0 0 0 -51.70585121451586 -30.676295055061928 0 -30.676295055061928 -6.1661516163585475 0 0 0 0 -18.395740914478665 -7.0063699478050694 0 -7.0063699478050694 -59.640204188137432 0 0 0 0 -28.850348458814551 -1.9481489915560815 0 -1.9481489915560815 16.030893389695848 0 0 0 0 -23.791995324957696 -1.0534010071467179 0 -1.0534010071467179 5.1960661283315162 0 0 0 0 -46.514201663172571 10.937667784906807 0 10.937667784906807 46.739376073892345 0 0 0 0 -19.251481145794969 5.5001766513159964 0 5.5001766513159964 -11.497037016102695 0 0 0 0 -29.149691434835105 7.2422525210848221 0 7.2422525210848221 3.0273778684450576 0 0 0 0 -31.915298191015609 11.057828832155792 0 11.057828832155792 5.9057330815994646 0 0 0 0 -36.098682571653626 14.858302369728335 0 14.858302369728335 8.7668878386321012 0 0 0 0 -1175.6262866755787 659.25870866154219 0 659.25870866154219 -389.87151558620099 0 0 0 0 -61.773095973774616 -40.118606056259523 0 -40.118606056259523 -84.406603153875039 0 0 0 0 -4.5623208387282617 -1.8040461742943421 0 -1.8040461742943421 -12.123532607227418 0 0 0 0 -19.092829910490707 6.1595019941204612 0 6.1595019941204612 -1.6414040741016578 0 0 0 0 -552.92271455461741 251.5236149503362 0 251.5236149503362 -138.27391986974544 0 0 0 0 -346.71199865671224 757.94068303255335 0 757.94068303255335 -911.45574131352623 0 0 0 0 -828.66962269927899 953.92798000973562 0 953.92798000973562 -584.2036995761373 0 0 0 0 -696.71192889675149 1333.8863751671233 0 1333.8863751671233 -1626.7129412188806 0 0 0 0 -7.654081207998388 3.931163482706836 0 3.931163482706836 0.45945994067373164 0 0 0 0 -3.1724064282534528 9.7230675437585887 0 9.7230675437585887 -21.496347410531598 0 0 0 0 -14.604014134412864 -8.4806950424972456 0 -8.4806950424972456 1.8202415967098204 0 0 0 0 -1293.0605621330906 850.91028187890333 0 850.91028187890333 -567.31068791182406 0 0 0 0 -9.1063435183619106 0.61158993915309168 0 0.61158993915309168 -0.44722291968096783 0 0 0 0 -1185.4909676114694 833.48382698198839 0 833.48382698198839 -850.76143391931691 0 0 0 0 -1543.9580382365675 1022.8126396756852 0 1022.8126396756852 -503.30970094489749 0 0 0 0 -458.01401863664523 586.19157593339423 0 586.19157593339423 -262.84993661910994 0 0 0 0 -640.82118740284932 456.61787834211282 0 456.61787834211282 -341.18034391514448 0 0 0 0 -514.99144339289342 -38.658756994467694 0 -38.658756994467694 32.490301788850047 0 0 0 0 -773.17133468134853 113.95547571196948 0 113.95547571196948 -643.05269494128879 0 0 0 0 -250.96924863330787 564.17886822108267 0 564.17886822108267 -285.43133554513042 0 0 0 0 157.70261857951118 -140.45949397883669 0 -140.45949397883669 -487.78416317618394 0 0 0 0 95.30079631596891 51.373607915913453 0 51.373607915913453 34.212687906590872 0 0 0 0 40.736633720167447 -130.09681112277758 0 -130.09681112277758 -67.204149815544952 0 0 0 0 222.42630476775958 176.01937413297492 0 176.01937413297492 -798.27207458714838 0 0 0 0 -326.63673473654489 119.6663374605705 0 119.6663374605705 -1042.1163407834174 0 0 0 0 -218.17348022737133 375.39811459935299 0 375.39811459935299 -525.18577368406113 0 0 0 0 1.1147070980155434 3.4123628476110284 0 3.4123628476110284 -10.25674450653915 0 0 0 0 -9.0736838387601892 32.130684723801096 0 32.130684723801096 11.520551655492454 0 0 0 0 10.114189819472813 31.91544585228894 0 31.91544585228894 9.5512632657773793 0 0 0 0 75.001055507855199 39.310066188510973 0 39.310066188510973 12.238629491924939 0 0 0 0 0.59156150612896852 0.66276826049869442 0 0.66276826049869442 2.0660022080980127 0 0 0 0 117.53282479006157 47.24150184255268 0 47.24150184255268 12.1243804062251 0 0 0 0 323.62595293393679 76.271720121043472 0 76.271720121043472 -156.41938234276313 0 0 0 0 0.53913438584794449 1.5066717868885462 0 1.5066717868885462 21.995862825941231 0 0 0 0 169.33226112398552 -278.39887145605462 0 -278.39887145605462 -9.7727913110884401 0 0 0 0 1.2263933202775661 254.73623613832751 0 254.73623613832751 -238.37614045928058 0 0 0 0 -406.14609263406601 197.24401722195034 0 197.24401722195034 -50.400475228583673 0 0 0 0 -337.11813157598954 313.25730678981927 0 313.25730678981927 -49.089907180612499 0 0 0 0 -10.326540936192032 -118.4740770595381 0 -118.4740770595381 13.450521991235519 0 0 0 0 -247.22294129911461 286.64551169158949 0 286.64551169158949 -65.849428767003701 0 0 0 0 -435.89155122005468 512.86675468225803 0 512.86675468225803 -886.58276148103323 0 0 0 0 -302.24761368245527 209.20988030055014 0 209.20988030055014 -295.34406158279307 0 0 0 0 -503.59631448761866 600.36322576401744 0 600.36322576401744 -493.5705080061889 0 0 0 0 -603.06234868876345 665.16397474749829 0 665.16397474749829 -398.66954302602244 0 0 0 0 -700.51599994020944 883.20730941361217 0 883.20730941361217 -698.17444045990123 0 0 0 0 -845.49914441843475 740.25015077825515 0 740.25015077825515 -52.41692792539834 0 0 0 0 -637.76910250529181 -19.898331652329944 0 -19.898331652329944 -279.23344434256433 0 0 0 0 -75.409180635666416 150.55372234690731 0 150.55372234690731 -146.8531451307208 0 0 0 0 -17.294748352402422 1.9482614233532729 0 1.9482614233532729 31.298137421531663 0 0 0 0 53.443684444588143 145.81459721103602 0 145.81459721103602 -259.39126358806971 0 0 0 0 59.340376331691004 52.174956932798523 0 52.174956932798523 -91.460362404905027 0 0 0 0 44.018717561732046 105.79284901372739 0 105.79284901372739 -124.84521447216684 0 0 0 0 -21.128805279819062 121.169759896904 0 121.169759896904 -101.86504350262112 0 0 0 0 -23.132121901959181 124.88243671967211 0 124.88243671967211 -84.107104855007492 0 0 0 0 -20.656581017014105 119.36594492333825 0 119.36594492333825 -77.299185262090759 0 0 0 0 -58.013561180385295 132.84427278494695 0 132.84427278494695 -79.674963496509008 0 0 0 0 -61.946952369638893 89.763501608809747 0 89.763501608809747 -123.49254538540845 0 0 0 0 -94.271553636906901 111.84456927425344 0 111.84456927425344 -85.177249044063501 0 0 0 0 10.210706940104828 21.441699451986835 0 21.441699451986835 -20.138205622885778 0 0 0 0 12.154135602480872 12.02382161931591 0 12.02382161931591 -26.084587371932571 0 0 0 0 -62.178702151213656 118.56132097938098 0 118.56132097938098 -148.79270651224942 0 0 0 0 -75.457051572342607 77.973811009293058 0 77.973811009293058 -65.743643786088796 0 0 0 0 -32.926156916102627 79.321053104366001 0 79.321053104366001 -77.223078636168793 0 0 0 0 -65.824220242910087 116.69648468446394 0 116.69648468446394 -105.62438008798927 0 0 0 0 -39.54969435291423 111.70731500266993 0 111.70731500266993 -69.396266181574902 0 0 0 0 -62.793363141920054 96.621008597678156 0 96.621008597678156 -77.676129759900505 0 0 0 0 -176.89434263508883 140.73806108890858 0 140.73806108890858 -83.041466727132502 0 0 0 0 291.01873798064298 -129.14470893171529 0 -129.14470893171529 -323.710414852947 0 0 0 0 29.221651966085133 60.738363354993368 0 60.738363354993368 -81.52924303388798 0 0 0 0 19.209992382045709 -16.959764863127489 0 -16.959764863127489 -1.2797932080794112 0 0 0 0 -126.04421787470346 42.554466187895741 0 42.554466187895741 -105.76949131648871 0 0 0 0 -459.7565111183012 225.60084855852028 0 225.60084855852028 183.14589423007055 0 0 0 0 -32.477621408279816 92.051705879131674 0 92.051705879131674 -34.38531869810717 0 0 0 0 4.4573592993401689 33.716363558647572 0 33.716363558647572 -30.285023794651352 0 0 0 0 18.761907404991803 32.725012279545496 0 32.725012279545496 -3.3765847451547017 0 0 0 0 -20.894977876982011 47.100188751943278 0 47.100188751943278 -6.4396992648835294 0 0 0 0 -0.26655712251994146 24.635707049684186 0 24.635707049684186 29.741006651144147 0 0 0 0 35.16697660346108 39.980420391766529 0 39.980420391766529 -38.993176354918432 0 0 0 0 98.920711562946963 19.949941119164578 0 19.949941119164578 -37.106410548090935 0 0 0 0 38.37423078379652 53.792301854737161 0 53.792301854737161 -45.542282142028853 0 0 0 0 -43.237090464244829 34.387268530415895 0 34.387268530415895 -23.626159041930805 0 0 0 0 12.761793878860772 64.030235099606216 0 64.030235099606216 -37.848946442994929 0 0 0 0 16.148946840316057 15.123759198633707 0 15.123759198633707 -3.4174699038194376 0 0 0 0 440.48299231480269 274.86519325175323 0 274.86519325175323 -296.70364047394469 0 0 0 0 88.456978469563182 308.82200927010126 0 308.82200927010126 -107.85540485990896 0 0 0 0 239.5092213254502 616.47861160635512 0 616.47861160635512 617.08826093788957 0 0 0 0 17.838714157343929 168.14482153077188 0 168.14482153077188 424.82923733643838 0 0 0 0 -167.17203274019994 590.11446434243044 0 590.11446434243044 -117.21836730143696 0 0 0 0 6.9442115263690596 64.300241441360569 0 64.300241441360569 -106.76875187409935 0 0 0 0 140.942381013454 304.55336176881974 0 304.55336176881974 -262.19050675394465 0 0 0 0 88.898124815474148 341.79525981989354 0 341.79525981989354 -196.69691351938127 0 0 0 0 154.97145178046048 287.20857538850032 0 287.20857538850032 -216.59116786978848 0 0 0 0 93.516465723027068 421.49432685688589 0 421.49432685688589 -445.29767672181879 0 0 0 0 180.30751619146758 389.79788987205029 0 389.79788987205029 -813.89299433537417 0 0 0 0 21.895247109627235 17.959167203116522 0 17.959167203116522 -491.52522443227645 0 0 0 0 49.892211074831721 29.12448724485148 0 29.12448724485148 -227.36507370842446 0 0 0 0 -164.97977496174462 753.40578500586889 0 753.40578500586889 -58.23121189136873 0 0 0 0 -906.63683169899741 69.085844890287262 0 69.085844890287262 221.60687379318188 0 0 0 0 133.12113055548889 1065.5218062350623 0 1065.5218062350623 668.11351656219631 0 0 0 0 4.488920504148922 68.100772036249253 0 68.100772036249253 -93.389435198298614 0 0 0 0 -75.922273216187023 186.97123959413148 0 186.97123959413148 103.73432093333031 0 0 0 0 -14.064023963639215 9.9635482217469189 0 9.9635482217469189 -20.931678383372784 0 0 0 0 533.97939967025741 947.93373548486124 0 947.93373548486124 -1643.3184198632152 0 0 0 0 33.150163033576973 50.83788597239618 0 50.83788597239618 -45.846500659157755 0 0 0 0 72.968502487346996 96.893756454752292 0 96.893756454752292 -66.811212935761432 0 0 0 0 29.932599782092439 178.60004561589449 0 178.60004561589449 -182.74246073927497 0 0 0 0 311.71108252230624 28.375419566815253 0 28.375419566815253 -144.09260597539833 0 0 0 0 237.74670632241759 77.546453751216177 0 77.546453751216177 -175.71502635313664 0 0 0 0 73.639597209228668 60.546714746073121 0 60.546714746073121 -77.529456016316544 0 0 0 0 62.578953005518997 26.102046681655338 0 26.102046681655338 -47.097990760259563 0 0 0 0 6.2900858265493298 75.7912920844974 0 75.7912920844974 -88.989723231847165 0 0 0 0 15.160429492854746 95.140277745813364 0 95.140277745813364 -83.385446934727952 0 0 0 0 28.61731307458831 63.310559157485841 0 63.310559157485841 -90.829065549827646 0 0 0 0 -185.26351707831327 850.28811566645527 0 850.28811566645527 -840.28132974951586 0 0 0 0 -291.14158246487932 389.97348822126514 0 389.97348822126514 -84.803189544807537 0 0 0 0 182.72702349769679 245.63279863601201 0 245.63279863601201 -286.41240481837303 0 0 0 0 233.61075747046561 178.80918178141292 0 178.80918178141292 -263.470432894228 0 0 0 0 81.83869745607808 231.52515008534101 0 231.52515008534101 -619.12929257622454 0 0 0 0 119.55345123657025 426.42173448788526 0 426.42173448788526 -477.9504313356083 0 0 0 0 113.39588759187745 485.54107266391748 0 485.54107266391748 -912.25453792483313 0 0 0 0 293.88285908379476 386.47743471160356 0 386.47743471160356 -1388.2476068921897 0 0 0 0 149.57803713143221 426.13299181240291 0 426.13299181240291 -312.92050578658746 0 0 0 0 150.90141299849347 577.79070932168906 0 577.79070932168906 -901.96436066905153 0 0 0 0 -164.51907681115154 325.21644720623226 0 325.21644720623226 -99.028033497204888 0 0 0 0 103.11058302579841 520.74170180901274 0 520.74170180901274 -1485.4378012201632 0 0 0 0 74.652274461805064 479.16213543657068 0 479.16213543657068 -870.6495484618772 0 0 0 0 564.79628149504242 422.60018277191193 0 422.60018277191193 -1454.9339934770869 0 0 0 0 -1.4307871309282376 6.6037215458540999 0 6.6037215458540999 -13.195725350868372 0 0 0 0 -427.45487224285534 761.67693645829422 0 761.67693645829422 -757.03847782166849 0 0 0 0 -515.76543767389194 147.14258251765568 0 147.14258251765568 15.987467785482295 0 0 0 0 -135.26448856972638 124.31047271133866 0 124.31047271133866 293.80457002861658 0 0 0 0 66.890052624765303 18.958337057014433 0 18.958337057014433 -37.754821246671781 0 0 0 0 152.65809060155152 209.8645130393852 0 209.8645130393852 220.94422647235479 0 0 0 0 -105.39639420899039 295.82008110763854 0 295.82008110763854 265.75470904687973 0 0 0 0 -17.654508901207361 20.883612418150193 0 20.883612418150193 -23.879739615415104 0 0 0 0 104.14453959241655 202.99311377887352 0 202.99311377887352 132.87948033986322 0 0 0 0 -10.624257670586303 122.0611521022729 0 122.0611521022729 137.855419350788 0 0 0 0 -11.705540891571331 17.190099075149689 0 17.190099075149689 -22.183968007120882 0 0 0 0 56.025797234078709 17.582883817949551 0 17.582883817949551 67.93279456323944 0 0 0 0 55.320531034852138 790.27967321090182 0 790.27967321090182 105.1044462586724 0 0 0 0 -552.53698028961571 82.544353732992022 0 82.544353732992022 519.90559293018305 0 0 0 0 -242.08904768530448 45.365878231739771 0 45.365878231739771 235.15146879808162 0 0 0 0 31.646456467262396 127.62667319639877 0 127.62667319639877 -213.57441768910212 0 0 0 0 593.87569982399521 177.22472118215092 0 177.22472118215092 -1300.6286423934362 0 0 0 0 -201.96524588590651 773.85556841625839 0 773.85556841625839 -1895.7870521565055 0 0 0 0 -1802.7265584665934 -1054.8629506539946 0 -1054.8629506539946 -184.8914009282671 0 0 0 0 -118.15549817565784 847.59607174144912 0 847.59607174144912 -3256.5905027880435 0 0 0 0 -417.17348973237438 -934.37561565326814 0 -934.37561565326814 316.55618475457595 0 0 0 0 -513.55418428188159 -80.715561223663826 0 -80.715561223663826 249.98121269639523 0 0 0 0 -1634.4810527420527 747.43579700764531 0 747.43579700764531 -118.75159058897407 0 0 0 0 606.69343754899273 11.606353349787241 0 11.606353349787241 -193.5818536796578 0 0 0 0 1419.5590543068138 324.18970877953689 0 324.18970877953689 -326.21605200359772 0 0 0 0 1940.7987326506009 -53.437662733693287 0 -53.437662733693287 -1149.2689062405771 0 0 0 0 6.8235070036524483 9.3640860540299578 0 9.3640860540299578 -104.55083444286021 0 0 0 0 418.65478445312692 191.01647336979659 0 191.01647336979659 -24.424250203308475 0 0 0 0 884.36408407580916 -613.53967388712044 0 -613.53967388712044 -48.262677757738857 0 0 0 0 128.69722762489801 -50.423936295272142 0 -50.423936295272142 -209.77148329315241 0 0 0 0 245.50951174279726 580.38359912425221 0 580.38359912425221 -173.79524758092884 0 0 0 0 8.5194239753291114 3.1625350197579678 0 3.1625350197579678 1.5033864875254039 0 0 0 0 1942.9227124067238 -1306.0630758005864 0 -1306.0630758005864 744.73600067707594 0 0 0 0 1061.3700611008717 -791.69416231177456 0 -791.69416231177456 335.90535598083807 0 0 0 0 689.141832498859 -417.62979953843023 0 -417.62979953843023 533.65890682939789 0 0 0 0 2.0865515017594145 3.8358980683673902 0 3.8358980683673902 -98.794681439410397 0 0 0 0 15.291281143931883 25.423704685912526 0 25.423704685912526 -211.02793445622956 0 0 0 0 7.6955460428452653 26.414922164482789 0 26.414922164482789 -9.6689246297775071 0 0 0 0 1503.9753436731007 -579.14550891963881 0 -579.14550891963881 -534.31511843731278 0 0 0 0 17.764065554550157 58.784841253755879 0 58.784841253755879 -33.275304614022104 0 0 0 0 676.98157275808626 -280.05170421559887 0 -280.05170421559887 229.83848784777183 0 0 0 0 909.37646671398579 -146.22563500302567 0 -146.22563500302567 -534.98584701275104 0 0 0 0 -708.99284728655402 -299.17447548308701 0 -299.17447548308701 -422.77179865135986 0 0 0 0 -695.40448729576497 -177.57761536780163 0 -177.57761536780163 345.4766578661438 0 0 0 0 23.248703562129577 -148.31926209733501 0 -148.31926209733501 208.08586585943704 0 0 0 0 -198.13389667869299 -389.81535207100387 0 -389.81535207100387 195.95296043969938 0 0 0 0 -186.52305895359694 -287.23600428832287 0 -287.23600428832287 203.3645624068813 0 0 0 0 -176.93633684196175 94.354310406102741 0 94.354310406102741 133.17516401220928 0 0 0 0 -42.725707454062132 -16.260179889066876 0 -16.260179889066876 -34.577035644487978 0 0 0 0 -237.66151827396067 -88.813910099601344 0 -88.813910099601344 247.46453047703835 0 0 0 0 -764.33330365086476 233.84135332820733 0 233.84135332820733 219.8475896404525 0 0 0 0 1255.9752137077594 -2196.646095022792 0 -2196.646095022792 -1448.2469817071687 0 0 0 0 77.08324979050667 112.53875203448115 0 112.53875203448115 73.028391978223226 0 0 0 0 -696.21746926217747 -616.5694752582931 0 -616.5694752582931 -183.94327982849791 0 0 0 0 -4962.6159059192687 -214.80823504694854 0 -214.80823504694854 371.60079602691985 0 0 0 0 -192.35088082024413 -424.86552026911522 0 -424.86552026911522 -128.21790840220638 0 0 0 0 -9.8054193072548212 -10.160761658430943 0 -10.160761658430943 -7.9938087445039798 0 0 0 0 20.416209327029719 -124.30771971237846 0 -124.30771971237846 -133.64000533829676 0 0 0 0 -93.989233418086769 115.16529584143063 0 115.16529584143063 31.205650849558879 0 0 0 0 -396.2476842683019 -23.633674872425502 0 -23.633674872425502 -29.789713827369269 0 0 0 0 -397.83170044083818 -222.81371522565314 0 -222.81371522565314 -76.796521530399332 0 0 0 0 -279.38046473563736 -256.26612751395442 0 -256.26612751395442 -101.63553208019584 0 0 0 0 -329.33630535372868 -212.56982808196335 0 -212.56982808196335 -93.386220639367821 0 0 0 0 -372.16083746386721 -207.13544644779176 0 -207.13544644779176 -82.621881571860285 0 0 0 0 -325.91705375992751 -252.08037527740817 0 -252.08037527740817 -90.735984948696569 0 0 0 0 158.8682289044682 402.38915762631586 0 402.38915762631586 -195.87246142698859 0 0 0 0 -1662.4104487390323 -190.65175115996681 0 -190.65175115996681 469.71168117810157 0 0 0 0 -366.78522796760444 -243.98580041024252 0 -243.98580041024252 -92.289508677982667 0 0 0 0 20.875349009946952 69.680897855150235 0 69.680897855150235 -26.909675878197675 0 0 0 0 -1465.4629946372315 1553.4882116300432 0 1553.4882116300432 1017.113698046538 0 0 0 0 -11.952010642039038 10.812150240395312 0 10.812150240395312 -10.600768703925155 0 0 0 0 48.01146265062448 143.12470191059219 0 143.12470191059219 -47.544831228762632 0 0 0 0 -1259.2836045562399 -495.31776095480745 0 -495.31776095480745 166.75948569195316 0 0 0 0 99.479292165862717 197.61810433442588 0 197.61810433442588 25.256874468061142 0 0 0 0 90.638527587463614 107.02334573295957 0 107.02334573295957 36.106878955644788 0 0 0 0 57.953580495363894 101.07565820949458 0 101.07565820949458 88.247205369698349 0 0 0 0 -823.94293107996054 479.14046506599698 0 479.14046506599698 -118.84109647461446 0 0 0 0 1.234838269266799 9.5652201687507699 0 9.5652201687507699 -4.0449990714896558 0 0 0 0 579.6194783361716 494.36849653096579 0 494.36849653096579 -1893.4546840989788 0 0 0 0 743.11606251993362 722.21255007904256 0 722.21255007904256 -611.34409199981383 0 0 0 0 745.68334978188432 -41.144327184552822 0 -41.144327184552822 -423.41237688131514 0 0 0 0 813.86565188838722 181.56869294666831 0 181.56869294666831 198.60692025031312 0 0 0 0 1319.1082722391875 519.90457869686361 0 519.90457869686361 -349.02263892542396 0 0 0 0 1564.1050612495801 153.97530932463269 0 153.97530932463269 -364.40727013081778 0 0 0 0 1029.3893407746218 -26.558201483625453 0 -26.558201483625453 20.85058172699064 0 0 0 0 668.20939847875707 313.6118891639635 0 313.6118891639635 -7.8916922212374629 0 0 0 0 1108.2990188211752 189.12966973847506 0 189.12966973847506 -43.203193837834988 0 0 0 0 572.16577483592482 355.07211327129335 0 355.07211327129335 58.045674751658225 0 0 0 0 819.49964751866719 464.97385644333554 0 464.97385644333554 -197.20074860262685 0 0 0 0 1002.5879318523403 312.42194644804113 0 312.42194644804113 -200.15689031878719 0 0 0 0 415.84764909566547 254.76149006673222 0 254.76149006673222 116.46525131011731 0 0 0 0 94.036904478271026 549.5776440405316 0 549.5776440405316 11.241858996654628 0 0 0 0 507.51877412410977 440.19784261121822 0 440.19784261121822 32.215098685450357 0 0 0 0 383.95185698440764 357.41862567058706 0 357.41862567058706 101.66094906706712 0 0 0 0 416.42992798498381 263.42616508639185 0 263.42616508639185 163.49626177804021 0 0 0 0 208.26817567689704 293.06167355127764 0 293.06167355127764 -204.46616299040033 0 0 0 0 -0.44202307740829383 0.7438037910189621 0 0.7438037910189621 -0.48733734461677614 0 0 0 0 586.9136739526075 341.95418928575964 0 341.95418928575964 68.967406720934378 0 0 0 0 566.74311677512014 216.39317449215014 0 216.39317449215014 61.213384718372254 0 0 0 0 529.39113045791964 329.23273927228001 0 329.23273927228001 73.31694324464479 0 0 0 0 508.27053723873541 151.6797638941498 0 151.6797638941498 95.161684057566163 0 0 0 0 551.21225828168099 359.68261239157437 0 359.68261239157437 86.717788693204056 0 0 0 0 393.00094916138914 269.41172917323274 0 269.41172917323274 70.379466885249713 0 0 0 0 510.44507569096459 330.90696264224243 0 330.90696264224243 72.757853825649363 0 0 0 0 576.16830308365024 397.12182852967817 0 397.12182852967817 45.056180442275945 0 0 0 0 645.25477999934446 309.83392283922876 0 309.83392283922876 66.188061832333915 0 0 0 0 805.21977220472763 54.526794534394867 0 54.526794534394867 122.14885502554534 0 0 0 0 508.42929989362892 219.81898620734137 0 219.81898620734137 -44.558210458417307 0 0 0 0 434.03768442397813 227.81138635866955 0 227.81138635866955 118.071503690604 0 0 0 0 679.17287752759057 452.76477139511189 0 452.76477139511189 217.90685504260182 0 0 0 0 -9.1619532264758163 324.91456403945267 0 324.91456403945267 -192.10761678878043 0 0 0 0 -21.519991446029962 294.40166548226989 0 294.40166548226989 83.562454616592731 0 0 0 0 70.917791625422979 348.32994736021647 0 348.32994736021647 -12.024035918235313 0 0 0 0 55.655843588714561 189.48646333430952 0 189.48646333430952 66.946573392749997 0 0 0 0 19.931075654402711 68.799132275011061 0 68.799132275011061 5.5354508183563667 0 0 0 0 -459.87653397183021 517.11846470931778 0 517.11846470931778 -28.449308483643108 0 0 0 0 -186.28791449463461 -83.920883472135756 0 -83.920883472135756 -192.65886517931358 0 0 0 0 -2398.2471597122276 -1373.9206485688919 0 -1373.9206485688919 -700.01533613473293 0 0 0 0 -612.45803192902349 290.93076915346319 0 290.93076915346319 185.28637986814283 0 0 0 0 -25.261160431938606 203.50981456914633 0 203.50981456914633 141.11800788766413 0 0 0 0 153.85642846446126 545.91010602669849 0 545.91010602669849 242.1729846438684 0 0 0 0 -11.564465018391488 55.585081315119467 0 55.585081315119467 -87.02711489071973 0 0 0 0 -41.215922122621123 63.12090938255642 0 63.12090938255642 -97.98728678072257 0 0 0 0 194.36535633530002 224.06885587957368 0 224.06885587957368 161.91181629067614 0 0 0 0 81.616754827243312 274.46061954004472 0 274.46061954004472 254.12541322920879 0 0 0 0 349.24513763786126 418.6449686316264 0 418.6449686316264 276.02996625591913 0 0 0 0 -38.138782515985326 199.05405359181225 0 199.05405359181225 181.55490022072627 0 0 0 0 255.23886803723144 153.82268557703355 0 153.82268557703355 40.938467697706074 0 0 0 0 8.9888677020931453 3.3001155303495153 0 3.3001155303495153 -5.8989086891631359 0 0 0 0 361.53995085087809 331.97686763946695 0 331.97686763946695 182.53541361901443 0 0 0 0 309.80078209657586 392.79333686961763 0 392.79333686961763 187.89805577733205 0 0 0 0 29.291655834009362 314.23565242514815 0 314.23565242514815 83.972154563103686 0 0 0 0 344.93885015990963 481.75766632168961 0 481.75766632168961 347.46833434002474 0 0 0 0 167.93327074564877 192.30912827303837 0 192.30912827303837 170.65596524209286 0 0 0 0 -2.1730446540877892 -51.022914033121197 0 -51.022914033121197 -134.8631654610399 0 0 0 0 -115.35906935389357 159.80408149844516 0 159.80408149844516 222.74269712724345 0 0 0 0 -1.0861617113737054 55.709657756159416 0 55.709657756159416 -86.404012872077175 0 0 0 0 168.68201078956918 365.53208960118354 0 365.53208960118354 449.02405468292272 0 0 0 0 160.3988765945673 174.65276553884178 0 174.65276553884178 146.58667618065374 0 0 0 0 -178.4897242197801 -245.23539046879648 0 -245.23539046879648 -178.16554279540287 0 0 0 0 4.5166998280290471 53.668595450225169 0 53.668595450225169 -88.135413139029993 0 0 0 0 252.26661363503445 122.11646976065094 0 122.11646976065094 -237.61887826041493 0 0 0 0 154.25858231659731 153.70920285220927 0 153.70920285220927 122.49805642024148 0 0 0 0 34.225040205277764 40.68264837472816 0 40.68264837472816 94.482048421865329 0 0 0 0 99.052936472256988 84.930314169396297 0 84.930314169396297 74.415055505756754 0 0 0 0 100.4932796919893 92.600057775271125 0 92.600057775271125 56.442076235907734 0 0 0 0 84.485499133234953 117.63827009942179 0 117.63827009942179 141.07109698175918 0 0 0 0 210.40946859261021 207.98892883980443 0 207.98892883980443 137.91488595382543 0 0 0 0 83.074513504361676 93.612486632278888 0 93.612486632278888 115.0725061641715 0 0 0 0 103.9481015341953 146.13315463799518 0 146.13315463799518 118.6311747187774 0 0 0 0 100.08232402915382 184.19793935664347 0 184.19793935664347 172.46729659297125 0 0 0 0 142.22429370542886 132.02510682913271 0 132.02510682913271 104.10399938674527 0 0 0 0 117.18546832911125 180.34121097387833 0 180.34121097387833 245.41707893255807 0 0 0 0 141.12238767991948 275.14299254319485 0 275.14299254319485 322.63295614266463 0 0 0 0 -64.790312544297194 237.7398998059889 0 237.7398998059889 108.60389047388071 0 0 0 0 -0.073701360051927622 271.3855638736577 0 271.3855638736577 65.728248625902779 0 0 0 0 -6.4033953730540816 177.69811093336284 0 177.69811093336284 211.47823775256256 0 0 0 0 53.777928553776292 283.02457003642303 0 283.02457003642303 115.20094249856629 0 0 0 0 25.217998940745019 258.01989610807141 0 258.01989610807141 251.22949667054672 0 0 0 0 77.53086010235711 232.36722335226477 0 232.36722335226477 261.20489724618164 0 0 0 0 39.659055043332046 319.41410203897067 0 319.41410203897067 238.87003159176675 0 0 0 0 173.95352165179793 360.14515611482057 0 360.14515611482057 245.99786631676488 0 0 0 0 61.723915912909433 357.44738870089714 0 357.44738870089714 159.60089326606249 0 0 0 0 191.23970002046553 391.46455611344936 0 391.46455611344936 223.4249530255729 0 0 0 0 178.25983114627888 367.123950993986 0 367.123950993986 172.09810108543388 0 0 0 0 101.50728114441154 434.41986954784988 0 434.41986954784988 204.00860632975673 0 0 0 0 108.78802533526323 390.9531350651996 0 390.9531350651996 119.32380751304299 0 0 0 0 5.2831986478704493 358.59232803985651 0 358.59232803985651 171.72276215600186 0 0 0 0 3.6429566410733969 391.93047252486394 0 391.93047252486394 56.232961857203918 0 0 0 0 71.610926798704895 429.33383998174395 0 429.33383998174395 87.853433104683063 0 0 0 0 -9.1197931888164021 368.10643718754727 0 368.10643718754727 121.18874911995772 0 0 0 0 -56.665355053875828 283.65112398285601 0 283.65112398285601 109.60314922787529 0 0 0 0 79.444296382673201 299.61515733644137 0 299.61515733644137 98.15001586235303 0 0 0 0 -131.54844849353685 194.7172117303403 0 194.7172117303403 -49.376131392356911 0 0 0 0 40.572150796200731 294.68667099375489 0 294.68667099375489 -36.383841117085467 0 0 0 0 -12.838925568721606 283.32413013250698 0 283.32413013250698 -166.94792204916484 0 0 0 0 -65.176788313619909 396.76188237406768 0 396.76188237406768 104.24475710264596 0 0 0 0 21.790768659731839 334.68757973114953 0 334.68757973114953 7.8186096501322027 0 0 0 0 -135.02220308510005 284.81144916162339 0 284.81144916162339 43.194896740601507 0 0 0 0 -171.48306606683764 170.32313391143271 0 170.32313391143271 -176.87511065613398 0 0 0 0 -111.6782972109213 266.18269998673713 0 266.18269998673713 -107.27737313901889 0 0 0 0 -44.038679739285726 214.20981543669404 0 214.20981543669404 -351.60906947150579 0 0 0 0 -109.75749954515777 102.79597742079841 0 102.79597742079841 -345.20616202155634 0 0 0 0 -94.037924853881123 255.09817579938408 0 255.09817579938408 -368.96936445723077 0 0 0 0 -0.81235008183284663 265.37678519129986 0 265.37678519129986 -276.71932185686001 0 0 0 0 36.251325127028394 206.16614190591872 0 206.16614190591872 -127.97916254732263 0 0 0 0 -67.757275139254489 151.60184472131937 0 151.60184472131937 -136.14552035273846 0 0 0 0 0.010663504181138705 258.88266064414756 0 258.88266064414756 -367.37692635509211 0 0 0 0 -86.276187327865046 190.59257507272741 0 190.59257507272741 -588.10952444251052 0 0 0 0 17.848689483027556 121.58368512215657 0 121.58368512215657 -561.25459856562156 0 0 0 0 -13.493248160026269 124.73127341957206 0 124.73127341957206 -618.6729574242172 0 0 0 0 -6.6739486093192681 230.16698895672334 0 230.16698895672334 -547.96802024436329 0 0 0 0 33.409257972089108 196.65637425383466 0 196.65637425383466 -737.80430218104812 0 0 0 0 37.876397013649694 219.63665811045803 0 219.63665811045803 -745.0137666639057 0 0 0 0 43.559422250262287 203.04736777630706 0 203.04736777630706 -707.55600865508313 0 0 0 0 13.665200430259574 134.03405760936039 0 134.03405760936039 -815.82329643405774 0 0 0 0 -11.446593050699448 260.54180496187109 0 260.54180496187109 -756.84715548659187 0 0 0 0 58.39775441258098 217.85547801264602 0 217.85547801264602 -761.93640524653802 0 0 0 0 -36.215001100681548 102.63026423570943 0 102.63026423570943 -1018.2072303103832 0 0 0 0 -0.051775075087789446 236.66059123909281 0 236.66059123909281 -750.56872560831471 0 0 0 0 -8.4894017545884708 256.15568822395289 0 256.15568822395289 -769.82778141566814 0 0 0 0 26.438347712857649 -40.624625088817993 0 -40.624625088817993 -1546.4481450345993 0 0 0 0 0.99204180823397792 -5.359429252671692 0 -5.359429252671692 -11.16976501128007 0 0 0 0 0.010867746168514714 -9.4907115302622174 0 -9.4907115302622174 -43.984283298151695 0 0 0 0 8.4545590816269396 -9.9541120459481363 0 -9.9541120459481363 -47.330939240907355 0 0 0 0 4.4177383276692126 -13.033511433318381 0 -13.033511433318381 -43.468912543097758 0 0 0 0 -0.83183728496935672 -9.059071674344267 0 -9.059071674344267 -41.384152275568027 0 0 0 0 -94.091127032181248 261.24511775008796 0 261.24511775008796 -915.70425528373926 0 0 0 0 -1.8881806734914059 -3.8954197238468851 0 -3.8954197238468851 -0.36124857344240979 0 0 0 0 -12.605324186111886 -15.271089197534863 0 -15.271089197534863 -6.0556991355777914 0 0 0 0 -14.903462876027334 -14.587788172683759 0 -14.587788172683759 -42.110577341651151 0 0 0 0 -10.865209451323608 -18.350258034537546 0 -18.350258034537546 -38.970472126069581 0 0 0 0 -7.5131183681078255 -15.54424284122797 0 -15.54424284122797 -52.263337606120331 0 0 0 0 -9.3986089367681416 -14.14399271802813 0 -14.14399271802813 -52.059038418608907 0 0 0 0 -3.2608991824236 -15.455668108184284 0 -15.455668108184284 -51.452805855345787 0 0 0 0 4.2291022532735951 -6.382329601180686 0 -6.382329601180686 -47.807965936796336 0 0 0 0 1.9889867718302412 -13.755213182023908 0 -13.755213182023908 -70.69733014715257 0 0 0 0 0.31177268092142185 -4.3718346660062934 0 -4.3718346660062934 -68.829647191181721 0 0 0 0 -8.315682053565979 -12.181419036101033 0 -12.181419036101033 -55.435969089707214 0 0 0 0 1.5090619443508331 -12.626054901653333 0 -12.626054901653333 -55.586793097651025 0 0 0 0 -3.6295316050818656 -11.894689131266205 0 -11.894689131266205 -69.286959822810786 0 0 0 0 1.3301861451473087 -14.227546273014013 0 -14.227546273014013 -43.352497492955536 0 0 0 0 -9.7644256293860963 -17.62035279081374 0 -17.62035279081374 -42.828662437445018 0 0 0 0 -4.9916020265663974 -8.5829738458705833 0 -8.5829738458705833 -32.090786960064179 0 0 0 0 6.5614417311007855 -22.599768076674536 0 -22.599768076674536 -21.166177714596415 0 0 0 0 2.7581972817424685 -23.175781956295396 0 -23.175781956295396 -40.142099819666328 0 0 0 0 5.9890236386709148 -7.4328959401404973 0 -7.4328959401404973 -54.136780829641793 0 0 0 0 5.6360882703156676 -9.1174800873723143 0 -9.1174800873723143 -57.804568554987782 0 0 0 0 3.2746900831989478 -10.665455657581333 0 -10.665455657581333 -52.299773388696849 0 0 0 0 7.2585748650599271 -14.26673249117448 0 -14.26673249117448 8.9829827148132608 0 0 0 0 0.52480924809714224 -0.72257587732966044 0 -0.72257587732966044 1.0357688964626206 0 0 0 0 -235.96528365567792 195.08240638494226 0 195.08240638494226 -177.43641154887359 0 0 0 0 5.339359032141715 -11.830349575856012 0 -11.830349575856012 -3.1148571974292567 0 0 0 0 -1.6979662951854948 1.3001748606940851 0 1.3001748606940851 -4.2843312490545067 0 0 0 0 23.53552988766387 -122.58551444261184 0 -122.58551444261184 -1022.3598308953824 0 0 0 0 5.4949102735772613 -116.26732539526711 0 -116.26732539526711 -627.66025054824786 0 0 0 0 80.345867505602655 183.91675773422412 0 183.91675773422412 -822.69731358916943 0 0 0 0 -51.780323171551572 34.494662239862009 0 34.494662239862009 -829.18558634132091 0 0 0 0 -374.2245559876028 208.97511119851151 0 208.97511119851151 -556.98426830997414 0 0 0 0 -21.618085470370715 142.27032014645283 0 142.27032014645283 -626.41218831467631 0 0 0 0 -29.023693715716945 250.75319121995199 0 250.75319121995199 -988.58255311906305 0 0 0 0 -107.91670880495803 108.52655579421116 0 108.52655579421116 -527.46780274582306 0 0 0 0 -7.5703971895272844 161.23409935787458 0 161.23409935787458 -634.47447806156197 0 0 0 0 -191.65297184591327 236.0496208833365 0 236.0496208833365 -354.13384594706076 0 0 0 0 -16.888020914921071 129.34636713689906 0 129.34636713689906 -392.7284359260575 0 0 0 0 -30.961097019229783 33.628421568033446 0 33.628421568033446 -404.22229707083898 0 0 0 0 -96.346639469033107 -20.933966721844627 0 -20.933966721844627 -388.73494899369598 0 0 0 0 18.751440016101697 33.657297230136464 0 33.657297230136464 -652.76230270103406 0 0 0 0 81.254167474427959 90.186951810757819 0 90.186951810757819 -672.49795775289476 0 0 0 0 102.45377599835047 -171.86320332509422 0 -171.86320332509422 -1103.1276981828651 0 0 0 0 -406.92418010131223 -650.24567513841976 0 -650.24567513841976 -488.87894776879693 0 0 0 0 -0.48098548525939577 1.4983277620213045 0 1.4983277620213045 -1.5568567987190072 0 0 0 0 16.198160414013273 1.4564362436120319 0 1.4564362436120319 -4.0648992787646208 0 0 0 0 -24.065785145881819 18.904074136251438 0 18.904074136251438 -1.1760614356630867 0 0 0 0 16.541420821786232 280.205867914078 0 280.205867914078 -1062.2357207495897 0 0 0 0 150.69294048668235 -67.366091261548718 0 -67.366091261548718 58.122025743978156 0 0 0 0 76.22228081515641 113.67987301724497 0 113.67987301724497 -755.87387894240237 0 0 0 0 -25.547264693188481 132.57212735402481 0 132.57212735402481 -560.42404751331924 0 0 0 0 3.9093275542469996 -5.0211681139822986 0 -5.0211681139822986 -1.984389443040623 0 0 0 0 7.7099927263556651 -2.9146731573259501 0 -2.9146731573259501 -5.7325266995281972 0 0 0 0 5.0652952187228948 -0.92999744274493423 0 -0.92999744274493423 -14.021433341667034 0 0 0 0 -65.863585715589579 -29.794293973175627 0 -29.794293973175627 -266.85120653240483 0 0 0 0 8.7905189676153555 -4.5297512082539413 0 -4.5297512082539413 -7.7901118695004286 0 0 0 0 -36.169367581984261 -22.872815633959362 0 -22.872815633959362 -16.881089192303989 0 0 0 0 2.7070511440542759 -6.3100229958072305 0 -6.3100229958072305 -54.750317469619404 0 0 0 0 5.2929557813932888 -0.94546868810347462 0 -0.94546868810347462 -2.6329905003872085 0 0 0 0 3.6378255473973695 -10.499294333516445 0 -10.499294333516445 -53.285610202518001 0 0 0 0 172.86526796687394 37.730915828552497 0 37.730915828552497 -41.904564602802566 0 0 0 0 -32.001826300984249 -48.104745641448972 0 -48.104745641448972 72.636563679628125 0 0 0 0 4.8559103350140731 -0.34450735756129802 0 -0.34450735756129802 -1.7795668005764504 0 0 0 0 4.7614152936430401 -19.510631477725724 0 -19.510631477725724 -118.70969940135001 0 0 0 0 0.19833201452274807 -6.7905146108114423 0 -6.7905146108114423 -54.833790223641699 0 0 0 0 5.7904878126882977 -10.890371478854604 0 -10.890371478854604 -69.482332882918854 0 0 0 0 -0.34920458780834451 -12.630974448737106 0 -12.630974448737106 -59.457998061632679 0 0 0 0 569.35137950209173 234.74150684824781 0 234.74150684824781 -178.15203884026778 0 0 0 0 552.4592545070991 402.0231188604792 0 402.0231188604792 130.85437261415427 0 0 0 0 444.92421549110441 248.03584546521961 0 248.03584546521961 -134.76663375921635 0 0 0 0 2.6606526164833895 0.213226458486659 0 0.213226458486659 -1.2718748151523229 0 0 0 0 293.52122376732586 145.16480110018529 0 145.16480110018529 -39.956251449046249 0 0 0 0 417.32080077276623 -23.982305887540861 0 -23.982305887540861 -41.863889875363384 0 0 0 0 232.97737482137745 9.7304353326935598 0 9.7304353326935598 -57.482788739103853 0 0 0 0 562.25577501080988 96.830215969345772 0 96.830215969345772 -127.78587222076931 0 0 0 0 579.66471875855495 142.2292280337906 0 142.2292280337906 -233.17042836914334 0 0 0 0 719.33341755782021 -76.333539136392574 0 -76.333539136392574 -126.4460650903693 0 0 0 0 980.84526953782188 7.0820665372812073 0 7.0820665372812073 -102.27209348971701 0 0 0 0 852.87968296817417 272.48238913344267 0 272.48238913344267 -173.4629097236284 0 0 0 0 421.88453175207542 34.035981663098937 0 34.035981663098937 -154.98208781290123 0 0 0 0 1381.7388308531372 2187.3624811337086 0 2187.3624811337086 48.021503665058844 0 0 0 0 1114.5581709051621 -465.94308540729799 0 -465.94308540729799 245.07603116390942 0 0 0 0 8.0991104259414897 4.0709258876398025 0 4.0709258876398025 0.765011928993232 0 0 0 0 390.19185367437603 -392.67285524760064 0 -392.67285524760064 243.8458809792719 0 0 0 0 -1010.1667492649431 -123.87275564682295 0 -123.87275564682295 1107.9736297979143 0 0 0 0 1598.0506600577646 -161.7104401284123 0 -161.7104401284123 -59.662182294661761 0 0 0 0 1392.7005341654731 802.23136168846713 0 802.23136168846713 327.40987292481805 0 0 0 0 15.806482035981503 10.407927706131559 0 10.407927706131559 6.3236469713857879 0 0 0 0 452.70636165577162 573.55910652540115 0 573.55910652540115 282.26310540700797 0 0 0 0 1234.1283706230897 -1.829674868078655 0 -1.829674868078655 -252.54719032460252 0 0 0 0 -51.635417288387544 -124.76029332147118 0 -124.76029332147118 -104.52636701126266 0 0 0 0 661.87663618057559 146.89207414493285 0 146.89207414493285 -179.45555350962604 0 0 0 0 651.41059834137559 452.2801123418285 0 452.2801123418285 -112.38777697149999 0 0 0 0 454.85612491628854 603.14253575827024 0 603.14253575827024 -43.16172608477882 0 0 0 0 597.77071446500486 400.70722111682335 0 400.70722111682335 -154.10591545234638 0 0 0 0 730.26850293300231 522.63987269774043 0 522.63987269774043 -257.16247700552049 0 0 0 0 909.06361826682405 824.40167665916579 0 824.40167665916579 2.0005972192229819 0 0 0 0 1896.1717802116182 1027.6438851308521 0 1027.6438851308521 -41.632537017747381 0 0 0 0 304.34022401775292 1479.3123346089715 0 1479.3123346089715 1576.1482755607285 0 0 0 0 -59.771465823141625 422.88847467869164 0 422.88847467869164 272.17420338397915 0 0 0 0 -337.12254300000495 -0.97283333132327243 0 -0.97283333132327243 423.6156659082626 0 0 0 0 -177.58955240053183 384.5217777180178 0 384.5217777180178 330.08927395427236 0 0 0 0 -263.2268812040129 503.04335899648686 0 503.04335899648686 468.16586395570994 0 0 0 0 -112.72923215912306 224.61979029567556 0 224.61979029567556 -62.364261770404482 0 0 0 0 -68.825315145717468 141.3644904151497 0 141.3644904151497 -395.49788188824732 0 0 0 0 -118.45641263370635 123.39399436799067 0 123.39399436799067 -8.1381590942182811 0 0 0 0 -50.250500986323459 300.47786246565374 0 300.47786246565374 -65.274178833085898 0 0 0 0 -51.381057840000722 407.893662492972 0 407.893662492972 54.173581670031126 0 0 0 0 31.025264996802434 398.50431781024963 0 398.50431781024963 47.875367891885617 0 0 0 0 -35.245162544088089 445.51967466274255 0 445.51967466274255 148.60898915197322 0 0 0 0 163.14657258571242 869.76785230431415 0 869.76785230431415 608.44453633906141 0 0 0 0 31.451658012229018 514.80511583505722 0 514.80511583505722 164.84429942544739 0 0 0 0 85.457233551060199 597.85767990287331 0 597.85767990287331 220.78992850369832 0 0 0 0 330.48023935875972 627.34456339848293 0 627.34456339848293 97.076098319819721 0 0 0 0 349.31552490670583 550.52545736666252 0 550.52545736666252 -5.8499834208196262 0 0 0 0 460.08962399643497 505.5277460521429 0 505.5277460521429 12.131060650492145 0 0 0 0 185.56655551915173 544.24516451967429 0 544.24516451967429 84.078612204095407 0 0 0 0 301.96114990391652 479.66259723698204 0 479.66259723698204 90.076568221255002 0 0 0 0 217.37731625128072 530.89398583203001 0 530.89398583203001 86.881161478202557 0 0 0 0 296.60703721195023 456.9372028624266 0 456.9372028624266 0.58878436086524744 0 0 0 0 42.975718607514864 432.67033316870038 0 432.67033316870038 129.54368318704655 0 0 0 0 95.063738448923687 539.39512122499218 0 539.39512122499218 153.94822353227187 0 0 0 0 186.00377431631205 513.48543772445191 0 513.48543772445191 111.18254661516403 0 0 0 0 213.90965840722674 469.71971176318891 0 469.71971176318891 130.13195156589063 0 0 0 0 137.66923363943351 511.28901354343907 0 511.28901354343907 111.54803861422806 0 0 0 0 83.201059573017119 450.98689569121143 0 450.98689569121143 157.01035702202353 0 0 0 0 144.08195858061663 452.22956589954629 0 452.22956589954629 124.40372373669561 0 0 0 0 184.17421557073249 417.99273701995844 0 417.99273701995844 167.59788271802245 0 0 0 0 211.66197231315891 445.02391896323752 0 445.02391896323752 167.20119943582176 0 0 0 0 151.88490509535768 486.33651573376119 0 486.33651573376119 138.81627675872915 0 0 0 0 203.04256641489337 440.95609813589545 0 440.95609813589545 165.84535582610988 0 0 0 0 156.71451491623884 429.92810195731727 0 429.92810195731727 251.80858704431012 0 0 0 0 246.16507850291964 400.65035868885388 0 400.65035868885388 72.757191386139311 0 0 0 0 221.19568310157047 464.30543364372352 0 464.30543364372352 87.547658599256465 0 0 0 0 249.20666541552055 421.49722528771599 0 421.49722528771599 139.98467079045076 0 0 0 0 203.13770380056667 417.49358748305258 0 417.49358748305258 224.6496916064134 0 0 0 0 207.65530332736671 416.2276471311161 0 416.2276471311161 140.72263926374944 0 0 0 0 236.36756833913751 311.6026621397159 0 311.6026621397159 104.83646817925182 0 0 0 0 227.53604705320322 352.71218084904467 0 352.71218084904467 137.81036966139618 0 0 0 0 323.57759534876095 403.91037165245143 0 403.91037165245143 61.388113885543135 0 0 0 0 319.29482448645285 336.92359374276384 0 336.92359374276384 -10.603790931854746 0 0 0 0 272.36346397375019 216.67561479656615 0 216.67561479656615 6.2246764403389534 0 0 0 0 249.41980873592547 290.14366055537539 0 290.14366055537539 55.919118548983533 0 0 0 0 163.38345030229539 204.33805032145028 0 204.33805032145028 103.86609716524345 0 0 0 0 28.051009953487664 135.55162844674487 0 135.55162844674487 109.825406999189 0 0 0 0 107.16813451675262 160.19856410391958 0 160.19856410391958 62.126864981481049 0 0 0 0 111.95923227727326 147.372384356574 0 147.372384356574 47.911168167876895 0 0 0 0 213.41924719203962 156.61428774910019 0 156.61428774910019 -50.758497111175359 0 0 0 0 387.22948810449452 212.23101596452034 0 212.23101596452034 -49.877581593422462 0 0 0 0 162.59162164398731 47.089694294790206 0 47.089694294790206 -138.47515417526301 0 0 0 0 406.96238128942787 384.24231350389528 0 384.24231350389528 -129.93491118247948 0 0 0 0 376.73127672378359 325.45852038697387 0 325.45852038697387 -44.098745936673367 0 0 0 0 -117.83064177518827 265.3564450943777 0 265.3564450943777 -90.932463179523893 0 0 0 0 -145.02399296843214 178.00705912155172 0 178.00705912155172 -35.064041329726479 0 0 0 0 50.691111637320489 49.845446127724486 0 49.845446127724486 4.0982571711659581 0 0 0 0 17.689817004662473 98.922062270219612 0 98.922062270219612 -181.64183189072719 0 0 0 0 68.00864329689648 193.85094093418638 0 193.85094093418638 -25.62886920580786 0 0 0 0 25.034668865246203 162.89354006696635 0 162.89354006696635 119.72496045236767 0 0 0 0 -32.667839839778026 128.43496387470077 0 128.43496387470077 111.6279100734173 0 0 0 0 63.147611308959313 104.84873638228964 0 104.84873638228964 -3.4599896130557681 0 0 0 0 132.47430793161038 173.73830123927837 0 173.73830123927837 -188.60292312116889 0 0 0 0 -54.452609756488471 55.993780563640279 0 55.993780563640279 -35.692979832230492 0 0 0 0 -56.897213937350898 -37.97870340413283 0 -37.97870340413283 -187.03787942992855 0 0 0 0 -59.697431464417605 211.63675272869841 0 211.63675272869841 -85.975625162758661 0 0 0 0 -3.0763194698374718 102.24988001657766 0 102.24988001657766 -17.314374982116533 0 0 0 0 -119.00685076310765 -125.17195655320393 0 -125.17195655320393 79.193595188942709 0 0 0 0 -17.983191317733144 220.39861836852288 0 220.39861836852288 -463.07580927885647 0 0 0 0 -163.44838918844471 115.71577112519299 0 115.71577112519299 -101.32074955611461 0 0 0 0 -8.5440179967849872 13.505673042646379 0 13.505673042646379 -26.516493299441372 0 0 0 0 -19.387876789465736 231.12275937151526 0 231.12275937151526 -82.885797689108585 0 0 0 0 158.7789055283065 -119.57817212137525 0 -119.57817212137525 -288.27680549930665 0 0 0 0 -8.1636617828044109 18.723216266567761 0 18.723216266567761 -129.92852690765358 0 0 0 0 20.679775928054568 117.4319357324059 0 117.4319357324059 -23.626909236243591 0 0 0 0 -0.52113883706198294 66.715882320862548 0 66.715882320862548 -75.171875206034429 0 0 0 0 148.12136930249108 59.063367033944814 0 59.063367033944814 -130.49520162359477 0 0 0 0 20.649710843668984 103.37089249537618 0 103.37089249537618 -18.464724820571064 0 0 0 0 100.64654205503757 196.15097277680889 0 196.15097277680889 17.496548859265204 0 0 0 0 -2.976398064463865 116.22123678759726 0 116.22123678759726 25.879363073761624 0 0 0 0 130.6430794161497 313.35686497393476 0 313.35686497393476 122.98662016469461 0 0 0 0 281.91085390376247 81.168180740140087 0 81.168180740140087 30.163335246897987 0 0 0 0 -147.12489890703455 86.861090780118616 0 86.861090780118616 178.59306187700167 0 0 0 0 -130.28768678665801 206.24004127803164 0 206.24004127803164 88.545753500993669 0 0 0 0 -123.49436080742453 56.349925175196404 0 56.349925175196404 203.36910118986816 0 0 0 0 -134.75432568178803 55.579904467806955 0 55.579904467806955 470.94910436618829 0 0 0 0 48.814484920410905 -170.74236222696072 0 -170.74236222696072 180.02704735447787 0 0 0 0 -24.041186956834281 22.421295327938878 0 22.421295327938878 59.540070302749427 0 0 0 0 -21.748432353277167 23.29795159994319 0 23.29795159994319 11.646235192933091 0 0 0 0 -97.551576110558926 370.11942554237891 0 370.11942554237891 -248.69163217364803 0 0 0 0 41.088759821972246 25.729622501401593 0 25.729622501401593 18.967866799394265 0 0 0 0 65.244822851236677 94.259117155115746 0 94.259117155115746 -157.76539964913172 0 0 0 0 370.68993478335324 666.27078402470033 0 666.27078402470033 1143.4739089556119 0 0 0 0 -287.17449192784989 -335.52115931419303 0 -335.52115931419303 875.11497711825177 0 0 0 0 127.60265108200838 -102.28079189000891 0 -102.28079189000891 -153.18275706399234 0 0 0 0 -136.29511711201485 39.606622277156021 0 39.606622277156021 508.16976623646951 0 0 0 0 282.35663341156032 487.29903241790544 0 487.29903241790544 459.55943881516032 0 0 0 0 736.66117957806273 271.02594782020333 0 271.02594782020333 35.813236251276976 0 0 0 0 -79.442877709952882 210.09318330509359 0 210.09318330509359 251.90402153667674 0 0 0 0 -83.988380346929262 263.5049387976938 0 263.5049387976938 89.883967547983048 0 0 0 0 93.012998441394302 314.32537363146912 0 314.32537363146912 -381.0773859930996 0 0 0 0 82.450957619614201 238.10153806351445 0 238.10153806351445 -142.63713123086018 0 0 0 0 -358.58947727095801 115.57617692877466 0 115.57617692877466 22.090612104348111 0 0 0 0 -166.66590117251326 352.10092754880316 0 352.10092754880316 -21.796035868675972 0 0 0 0 379.39015061492682 354.72804666679804 0 354.72804666679804 -122.69682929775672 0 0 0 0 454.88101955121965 217.6970136758664 0 217.6970136758664 -113.32999245787869 0 0 0 0 473.31559738810756 286.90738562928527 0 286.90738562928527 40.419426177765672 0 0 0 0 591.83189807130839 138.50868524437465 0 138.50868524437465 -225.18641831649074 0 0 0 0 430.35827008140041 217.22044014979656 0 217.22044014979656 -227.55743823394226 0 0 0 0 171.29715707298601 305.36150154389907 0 305.36150154389907 -207.02789651063358 0 0 0 0 443.88571566034807 229.55409603098269 0 229.55409603098269 -278.12383740352016 0 0 0 0 -384.56212890829192 197.3537743324905 0 197.3537743324905 -85.170509060433687 0 0 0 0 -1.1337514587503392 178.69619543475437 0 178.69619543475437 -231.05439398930321 0 0 0 0 7.7804234873110545 156.22777682939886 0 156.22777682939886 -177.19069000835225 0 0 0 0 -29.201981477242953 223.74255929720402 0 223.74255929720402 -128.16417667184578 0 0 0 0 0.57531505857775755 4.5824494081280136 0 4.5824494081280136 7.5520476907911487 0 0 0 0 -2.6813142707978841 61.524050555820395 0 61.524050555820395 -4.9798139548324798 0 0 0 0 -180.03977621128797 287.94944961191027 0 287.94944961191027 -81.961673189001885 0 0 0 0 -19.285556239905418 230.7222217456906 0 230.7222217456906 -227.83144062539213 0 0 0 0 299.03685330963344 268.74432228481965 0 268.74432228481965 -142.12972986631394 0 0 0 0 270.99982537652249 160.25364620788969 0 160.25364620788969 -166.94449544595045 0 0 0 0 443.84903429466067 222.400193528214 0 222.400193528214 -155.42789934161192 0 0 0 0 426.86254869766708 197.42491999205004 0 197.42491999205004 -232.99174861805659 0 0 0 0 -68.610126559287892 96.27774328536907 0 96.27774328536907 -14.793742665939135 0 0 0 0 -12.079759277588892 148.80602268314965 0 148.80602268314965 -168.92989611399025 0 0 0 0 -36.3291598379692 63.886688697719364 0 63.886688697719364 -97.28601377787345 0 0 0 0 -91.538652237752103 23.423757987104182 0 23.423757987104182 -12.681732296246992 0 0 0 0 3.6075262121934628 4.2556708099083664 0 4.2556708099083664 -2.7975566171605308 0 0 0 0 -105.20183154533152 45.861583927437096 0 45.861583927437096 -46.574642461499025 0 0 0 0 2.7790356780758998 7.4553142173864444 0 7.4553142173864444 8.7341727762652113 0 0 0 0 2.2449564172253389 0.82332549761667906 0 0.82332549761667906 -2.0441589886792642 0 0 0 0 -308.66276145609299 376.48256855806676 0 376.48256855806676 -355.80006571645208 0 0 0 0 -48.959371148652281 70.599736353049593 0 70.599736353049593 19.745860375441225 0 0 0 0 -643.671020288617 556.67868825361165 0 556.67868825361165 -257.75360630640716 0 0 0 0 -50.027796244670753 72.26079157300137 0 72.26079157300137 92.445390131650129 0 0 0 0 -27.936358768209175 134.69205335463039 0 134.69205335463039 171.22604858851264 0 0 0 0 9.6484598318929784 70.565222222159719 0 70.565222222159719 -9.3467307592272846 0 0 0 0 333.80799828880117 232.90875310988486 0 232.90875310988486 0.061479098936615628 0 0 0 0 110.49744243573514 86.914289096936045 0 86.914289096936045 -69.137887022112409 0 0 0 0 -341.98443811244215 157.35841459850781 0 157.35841459850781 -235.83012008007336 0 0 0 0 -584.79331887967419 367.81784864449855 0 367.81784864449855 -150.7033329612641 0 0 0 0 -302.89408225030638 217.0872803536331 0 217.0872803536331 -163.87785060354406 0 0 0 0 -406.06237813587359 60.521950935587483 0 60.521950935587483 305.4345142325983 0 0 0 0 -285.01765883628104 378.3504239339909 0 378.3504239339909 114.40099284545477 0 0 0 0 -729.74968623750465 309.28326263212784 0 309.28326263212784 191.78540686920132 0 0 0 0 556.6808972169747 86.523093022292869 0 86.523093022292869 -69.211787702361107 0 0 0 0 0.74963060022329842 2.1404512158285343 0 2.1404512158285343 4.5883891012831484 0 0 0 0 288.86981497262605 649.10086729901377 0 649.10086729901377 -456.63369321584651 0 0 0 0 -3.594981154834386 347.28917040067972 0 347.28917040067972 141.71513957908428 0 0 0 0 -58.74014199472731 12.645942435805409 0 12.645942435805409 -634.6193772907518 0 0 0 0 0.84140240556007484 273.23898291409341 0 273.23898291409341 -564.72053113395305 0 0 0 0 -175.85716389658046 196.75882249333335 0 196.75882249333335 -85.935283574853202 0 0 0 0 -158.81693209797959 98.304031290531384 0 98.304031290531384 -483.86050782444727 0 0 0 0 -195.46822870627511 115.51049027604313 0 115.51049027604313 -491.68281422695509 0 0 0 0 -240.98067422045278 143.40247155582347 0 143.40247155582347 1114.9652269223516 0 0 0 0 125.62049200311594 -26.865987302135181 0 -26.865987302135181 592.43449384948326 0 0 0 0 -164.54718193487497 349.04817685484704 0 349.04817685484704 1019.7258184598577 0 0 0 0 0.35201501170405436 5.1793581888464431 0 5.1793581888464431 2.3428626780260711 0 0 0 0 327.5099203295249 346.60131225890109 0 346.60131225890109 -1053.1768013839546 0 0 0 0 221.2576128194778 581.04427627834662 0 581.04427627834662 440.14329399077542 0 0 0 0 129.53480657052569 183.56709522663732 0 183.56709522663732 -49.400667952590084 0 0 0 0 -172.96502269682242 141.17316711290368 0 141.17316711290368 346.12313981371926 0 0 0 0 -4.4844005148479482 495.1334982127164 0 495.1334982127164 29.817855611001505 0 0 0 0 103.50705617087078 216.76513366345534 0 216.76513366345534 257.04873539418986 0 0 0 0 -16.975568603797001 391.62679948461573 0 391.62679948461573 347.53539404495314 0 0 0 0 -750.96377417480107 478.03305117982154 0 478.03305117982154 58.406141892444793 0 0 0 0 0.22267408555617862 0.65506637117556465 0 0.65506637117556465 0.90827753195398486 0 0 0 0 -141.53846283303574 184.03338100422479 0 184.03338100422479 -49.366925222426289 0 0 0 0 -82.3005539533915 205.64941326531516 0 205.64941326531516 -228.38049015861691 0 0 0 0 151.85205658667837 222.74247579312214 0 222.74247579312214 -39.956406552133558 0 0 0 0 -20.352566948160529 108.68898990884009 0 108.68898990884009 120.87586014392218 0 0 0 0 830.68228836321214 -164.50847630631415 0 -164.50847630631415 -10.16980453437634 0 0 0 0 620.32369357153948 270.57067807146905 0 270.57067807146905 0.57832223190234799 0 0 0 0 152.8909304238332 282.58468456136143 0 282.58468456136143 212.04072894901947 0 0 0 0 68.766203607956413 185.59415070507566 0 185.59415070507566 166.06178567568077 0 0 0 0 96.536534836097417 237.18590495104718 0 237.18590495104718 258.60377815528045 0 0 0 0 67.73981312601245 183.3673351836519 0 183.3673351836519 174.8492785064991 0 0 0 0 138.47738469026808 144.94375975680668 0 144.94375975680668 85.739155864814165 0 0 0 0 -39.499232323459182 124.03107257773524 0 124.03107257773524 147.92092472727381 0 0 0 0 36.378564679005649 118.72798539986798 0 118.72798539986798 105.41502286824107 0 0 0 0 -39.217651003025821 46.089587120074611 0 46.089587120074611 129.63246983794852 0 0 0 0 -15.514687497510749 99.836374379646259 0 99.836374379646259 173.13720934192679 0 0 0 0 -1.250382553104771 3.2277574430704039 0 3.2277574430704039 -6.7313423860794002 0 0 0 0 -181.34001009899657 225.77958010291331 0 225.77958010291331 -297.76300304020333 0 0 0 0 50.980058725835988 126.04667850360966 0 126.04667850360966 163.63715554120154 0 0 0 0 1.4986227097915616 10.358568183290004 0 10.358568183290004 -5.6225494822105926 0 0 0 0 90.645872521614365 92.010140157732621 0 92.010140157732621 189.5316345276733 0 0 0 0 -296.56055190645566 143.35874033913205 0 143.35874033913205 -13.928837319204376 0 0 0 0 111.55888279709325 171.9130231186432 0 171.9130231186432 -591.94507944570978 0 0 0 0 16.710001934101456 351.92491083668756 0 351.92491083668756 129.40811009440222 0 0 0 0 -16.038530256343506 70.042589291140516 0 70.042589291140516 -83.948727195350315 0 0 0 0 -59.02698787546251 156.51512272799846 0 156.51512272799846 -170.88426880689121 0 0 0 0 -2.3134712454193505 222.55430533165782 0 222.55430533165782 28.804853246994753 0 0 0 0 -29.412042155559902 370.95863021721652 0 370.95863021721652 124.10775732364709 0 0 0 0 27.97453972735093 148.18753642860247 0 148.18753642860247 -250.74365618141019 0 0 0 0 -2.4492795746737102 156.94328590043278 0 156.94328590043278 -251.42251693403523 0 0 0 0 57.211446968125529 4.3164945837124833 0 4.3164945837124833 -195.27888429218729 0 0 0 0 -177.3775361472799 317.7700280197032 0 317.7700280197032 23.504099044109807 0 0 0 0 -16.659660062869307 69.961923613386574 0 69.961923613386574 -82.715864370343041 0 0 0 0 12.043359816862903 229.5817239269943 0 229.5817239269943 6.289086464785214 0 0 0 0 -43.623360864250571 149.98437385543912 0 149.98437385543912 -73.345402383688452 0 0 0 0 -86.737923572254658 139.574884669722 0 139.574884669722 56.716207003895761 0 0 0 0 30.176829772506608 19.41664982119346 0 19.41664982119346 178.31826424126223 0 0 0 0 -303.16386802686611 369.00569512682705 0 369.00569512682705 -5.1922971453168429 0 0 0 0 41.215755073091714 41.319422790974386 0 41.319422790974386 33.459334602674176 0 0 0 0 -12.382800637093226 66.71478748688375 0 66.71478748688375 -82.114005959618396 0 0 0 0 108.46836480386992 35.519888297279977 0 35.519888297279977 -286.43401560136408 0 0 0 0 64.912996275073965 95.662221284732368 0 95.662221284732368 -307.0108589195188 0 0 0 0 -136.42594069914821 161.19231846906825 0 161.19231846906825 -160.24662510410417 0 0 0 0 -7.8290523413802475 6.4108690914943907 0 6.4108690914943907 -3.0511526799688511 0 0 0 0 -110.00491557022906 -93.925947027550137 0 -93.925947027550137 -102.7696617396432 0 0 0 0 94.355820935234078 -150.76540533073421 0 -150.76540533073421 -193.88486563908009 0 0 0 0 -99.058138290187344 56.036724940815475 0 56.036724940815475 55.52613226773974 0 0 0 0 65.672427799916477 -20.734813744318672 0 -20.734813744318672 -111.01110760276788 0 0 0 0 -28.732886345429677 39.683435196680364 0 39.683435196680364 -23.837123307200507 0 0 0 0 -29.185559932086534 30.887970097321556 0 30.887970097321556 -14.60562728617947 0 0 0 0 176.06264938454115 323.11210879217469 0 323.11210879217469 207.49256057272214 0 0 0 0 178.27669181567035 349.92371634129086 0 349.92371634129086 492.41759502996501 0 0 0 0 -21.724032593436419 24.613135040298289 0 24.613135040298289 -13.319937222746326 0 0 0 0 59.027042420813814 18.316899868139444 0 18.316899868139444 -491.91894644035347 0 0 0 0 19.752006457536481 540.46549211744241 0 540.46549211744241 727.31770479752595 0 0 0 0 17.526425555406604 63.412315635196137 0 63.412315635196137 -235.23756150047484 0 0 0 0 323.5269550286248 425.11476162586587 0 425.11476162586587 -49.929756663565058 0 0 0 0 103.42143811617461 419.70730999610623 0 419.70730999610623 -164.34215933055384 0 0 0 0 313.93236227455782 383.77140234428589 0 383.77140234428589 -221.53675233424656 0 0 0 0 -46.42045920867713 537.34861299492695 0 537.34861299492695 133.7237615992417 0 0 0 0 222.90853676934785 478.93137003123775 0 478.93137003123775 142.92747262110061 0 0 0 0 381.29789437742875 310.37969095380322 0 310.37969095380322 103.93683963685544 0 0 0 0 -95.140222841873765 65.955104789300094 0 65.955104789300094 23.666935683388147 0 0 0 0 -6.2763730665862667 8.5589239118363309 0 8.5589239118363309 4.4110198398971363 0 0 0 0 -73.378071103754337 63.659914677438792 0 63.659914677438792 -39.164066051016562 0 0 0 0 -136.89410091972968 54.521687097654649 0 54.521687097654649 -39.371217273466755 0 0 0 0 394.28484966453107 313.81903184301336 0 313.81903184301336 98.121437684836565 0 0 0 0 568.78654978974373 124.84546734650939 0 124.84546734650939 -12.393962137988638 0 0 0 0 1046.5022977639892 399.62939281274521 0 399.62939281274521 -134.29673465763335 0 0 0 0 1.5520051833536819 -0.99215408971463148 0 -0.99215408971463148 0.5902253590416251 0 0 0 0 -466.51846658511658 140.23858886984954 0 140.23858886984954 7.1970907102077035 0 0 0 0 307.28846357361908 292.87309920652751 0 292.87309920652751 -108.22701634759142 0 0 0 0 336.21593940712046 278.77167091051888 0 278.77167091051888 -37.971257959728973 0 0 0 0 290.62633586197626 74.060344512537995 0 74.060344512537995 -167.39435816238984 0 0 0 0 389.01944872283639 179.38656431265736 0 179.38656431265736 -105.43110807077028 0 0 0 0 557.53904300626436 236.16177259289111 0 236.16177259289111 -254.56851960181666 0 0 0 0 303.43397502775042 232.75172940914308 0 232.75172940914308 -74.364465073842439 0 0 0 0 235.16747533192392 63.415731243560003 0 63.415731243560003 -480.46540057591119 0 0 0 0 136.05237160708202 148.54834649605255 0 148.54834649605255 -350.00892040517647 0 0 0 0 63.996313897914661 64.201394378727855 0 64.201394378727855 17.863014394255515 0 0 0 0 111.85426235328487 32.849187729024379 0 32.849187729024379 -48.00770590967295 0 0 0 0 101.76431220880477 55.371790212539054 0 55.371790212539054 19.877408610511338 0 0 0 0 167.90243173179624 75.746450262988219 0 75.746450262988219 -18.784274189471034 0 0 0 0 210.36047094166133 139.20283385714174 0 139.20283385714174 -19.184639425562636 0 0 0 0 124.5901903645572 123.2440765961619 0 123.2440765961619 55.183543341710902 0 0 0 0 156.1190945598064 152.09338048348582 0 152.09338048348582 -4.9101038196240552 0 0 0 0 77.764224861348339 94.756282445370744 0 94.756282445370744 39.959941296947363 0 0 0 0 32.181891810236266 30.253642547230811 0 30.253642547230811 -14.628245471772971 0 0 0 0 -2.4967674418065826 11.533876619760932 0 11.533876619760932 -14.182783969758674 0 0 0 0 46.885216232352832 67.135089189538121 0 67.135089189538121 47.877184777155435 0 0 0 0 -325.38527502385477 15.862946727354029 0 15.862946727354029 13.38795259645849 0 0 0 0 -26.758636696496978 772.36979183183576 0 772.36979183183576 3.9707892930327944 0 0 0 0 5.5346741272997235 33.68900859753964 0 33.68900859753964 -54.898063876303581 0 0 0 0 3.12586476300811 2.2945072091067686 0 2.2945072091067686 1.4001572824782897 0 0 0 0 -45.205419236241141 48.342080317568616 0 48.342080317568616 -81.755596201774097 0 0 0 0 550.91220241222618 -128.16031365816707 0 -128.16031365816707 -114.37203990119451 0 0 0 0 535.05485110660084 7.5512945025693625 0 7.5512945025693625 -81.822768661950249 0 0 0 0 16.928960211239996 23.426115971176642 0 23.426115971176642 -16.589623060057214 0 0 0 0 2.6120056887859278 2.7625558889091337 0 2.7625558889091337 0.97867779555595291 0 0 0 0 99.987176150913001 322.38129156442301 0 322.38129156442301 633.18700510836425 0 0 0 0 76.717212473624386 -15.189991598417691 0 -15.189991598417691 -167.88022150153211 0 0 0 0 -26.079287423264759 0.5893372644441115 0 0.5893372644441115 -95.870604037882003 0 0 0 0 6.6195642208167556 5.3476041300394996 0 5.3476041300394996 -10.29891936396151 0 0 0 0 34.336054500512546 21.629788734320755 0 21.629788734320755 -111.38597325167757 0 0 0 0 79.549044716215576 114.65405410953099 0 114.65405410953099 99.861717991421756 0 0 0 0 95.811196903454402 154.25578971262075 0 154.25578971262075 143.41729814640712 0 0 0 0 54.941188980563311 160.01983470966661 0 160.01983470966661 310.76289202344196 0 0 0 0 222.09480384811468 308.54944244394574 0 308.54944244394574 170.50797294475706 0 0 0 0 234.16184010930738 274.38025896758154 0 274.38025896758154 208.97546226005215 0 0 0 0 155.87828191007429 217.2014680374341 0 217.2014680374341 44.496864537675719 0 0 0 0 238.54789481077751 237.09640087899243 0 237.09640087899243 49.010392782616691 0 0 0 0 320.66419732381473 262.53563976777332 0 262.53563976777332 -50.305635859178437 0 0 0 0 273.20363492191245 282.12027040512839 0 282.12027040512839 -42.900254194508307 0 0 0 0 272.21205242276847 288.31257457164429 0 288.31257457164429 5.8449733078377903 0 0 0 0 191.26929472577467 213.40372801433477 0 213.40372801433477 -94.179145141722984 0 0 0 0 239.65442277547845 340.49516070063328 0 340.49516070063328 -48.009423679246538 0 0 0 0 162.61540169356158 122.9625289623109 0 122.9625289623109 -138.83718471874886 0 0 0 0 307.30520907858772 202.96302482477722 0 202.96302482477722 -143.46204109460814 0 0 0 0 294.54224384814734 320.98554574334048 0 320.98554574334048 -6.8541306341248855 0 0 0 0 268.1509458032815 276.22036314156867 0 276.22036314156867 63.173051254791062 0 0 0 0 285.60637272214808 352.41822012547345 0 352.41822012547345 47.343798806836276 0 0 0 0 313.35871431112173 301.38061961534913 0 301.38061961534913 308.1492914633709 0 0 0 0 273.27054566251172 408.03851785081861 0 408.03851785081861 324.85496781972324 0 0 0 0 289.62090876890579 409.99611016516246 0 409.99611016516246 386.34428063096129 0 0 0 0 293.97872168013419 382.80224427861322 0 382.80224427861322 179.1039158785934 0 0 0 0 157.83951838163193 202.0478247639403 0 202.0478247639403 433.1978316792738 0 0 0 0 70.744186113181058 346.99316758921123 0 346.99316758921123 386.82952720054584 0 0 0 0 248.65011314752337 307.61808200363885 0 307.61808200363885 224.97562385612764 0 0 0 0 557.2297006553199 107.40185784365531 0 107.40185784365531 222.1735933703967 0 0 0 0 718.61886701692129 758.7184143389095 0 758.7184143389095 231.35244692324068 0 0 0 0 110.0673150499133 560.62890896534554 0 560.62890896534554 1338.7657257555438 0 0 0 0 416.0126966034295 333.54325035741931 0 333.54325035741931 -50.171679216779012 0 0 0 0 274.30237692905939 297.52990818010221 0 297.52990818010221 184.84024181285668 0 0 0 0 169.07756774932932 83.090731927726665 0 83.090731927726665 -153.73019550441677 0 0 0 0 396.58007508514129 354.53172682505101 0 354.53172682505101 -191.4479871699732 0 0 0 0 199.87060865137028 72.96244222754467 0 72.96244222754467 -224.20799662520858 0 0 0 0 164.88175581538235 122.17540053348057 0 122.17540053348057 -291.51641410587763 0 0 0 0 321.18266679261797 139.51327247599511 0 139.51327247599511 -284.8882306345331 0 0 0 0 268.09159924912092 230.43230587257131 0 230.43230587257131 -26.740236929930688 0 0 0 0 150.14958122299868 56.973497434275487 0 56.973497434275487 -177.906481939488 0 0 0 0 171.76658706425223 32.133801548570773 0 32.133801548570773 -297.82162999266438 0 0 0 0 82.695982717326842 -48.820265010970616 0 -48.820265010970616 -333.61502865162038 0 0 0 0 41.758802974130958 -46.189454274508535 0 -46.189454274508535 -276.76415711292066 0 0 0 0 84.34969107809593 -31.175248565526999 0 -31.175248565526999 -234.35803417635907 0 0 0 0 39.863452014083123 -27.163281161938585 0 -27.163281161938585 -214.48695651008165 0 0 0 0 1.2237825365264143 -20.160508095725163 0 -20.160508095725163 -170.82102692441549 0 0 0 0 -8.3197041594103212 -41.135443599916471 0 -41.135443599916471 -183.80649135711428 0 0 0 0 -6.9420039140386507 -24.344408536693663 0 -24.344408536693663 -170.93780256260288 0 0 0 0 32.311514479064499 0.54827459034277126 0 0.54827459034277126 -158.75159420217096 0 0 0 0 -38.810101715323981 -20.544353525081533 0 -20.544353525081533 -135.57626621477539 0 0 0 0 110.5966234018415 40.013894227711717 0 40.013894227711717 -192.02306491013042 0 0 0 0 25.622869235507096 25.142264145593799 0 25.142264145593799 -173.47506729496672 0 0 0 0 89.925925570013533 31.794422677201737 0 31.794422677201737 -191.78565418422659 0 0 0 0 216.72594078213297 84.4541650191386 0 84.4541650191386 -232.1047429733735 0 0 0 0 95.274850984671502 106.30209325710166 0 106.30209325710166 -159.83000188719234 0 0 0 0 234.18891220232763 202.33022275986696 0 202.33022275986696 -108.69583801760018 0 0 0 0 129.10435628166306 333.37578640723586 0 333.37578640723586 -106.48096615985196 0 0 0 0 63.254494970795349 151.36639187898618 0 151.36639187898618 -154.86068307411188 0 0 0 0 -206.23293994172127 286.35983186671001 0 286.35983186671001 -106.18151976296213 0 0 0 0 42.657302168256138 105.86090760968364 0 105.86090760968364 -172.04406545843813 0 0 0 0 115.33182958089219 113.67933484297248 0 113.67933484297248 -178.37431622207077 0 0 0 0 45.204722230846528 87.026029852258944 0 87.026029852258944 -145.08824840866873 0 0 0 0 -0.79783204553677933 102.91554526689288 0 102.91554526689288 -125.48599709979317 0 0 0 0 -90.301783405418973 168.19930698912503 0 168.19930698912503 -125.72786204787917 0 0 0 0 -6.1710764423332876 98.903342442932626 0 98.903342442932626 -69.294310717676126 0 0 0 0 -6.6935854886105517 96.098039020955184 0 96.098039020955184 -70.141117219667649 0 0 0 0 -62.638531836084439 31.024949367587396 0 31.024949367587396 26.142029652859492 0 0 0 0 -13.523312900055316 59.113408668752527 0 59.113408668752527 -63.494646929953888 0 0 0 0 -139.82572080721729 152.68353168202157 0 152.68353168202157 219.34986951949395 0 0 0 0 -39.5490826881354 42.191245745586734 0 42.191245745586734 -22.88050518569807 0 0 0 0 -23.459888383738871 97.228679070365615 0 97.228679070365615 -32.426556896869442 0 0 0 0 -28.295425089265336 28.183479906925641 0 28.183479906925641 -120.62555089367379 0 0 0 0 -20.704433200531639 18.553123794510611 0 18.553123794510611 -128.19355092942715 0 0 0 0 -25.794036896142643 17.940796921036963 0 17.940796921036963 -122.856473372849 0 0 0 0 -41.589132036777755 37.084193770079125 0 37.084193770079125 -32.673852056896344 0 0 0 0 -197.22305246096948 1.7832165914687721 0 1.7832165914687721 181.71571540539298 0 0 0 0 36.587693776091328 161.4667944833709 0 161.4667944833709 119.7289745473081 0 0 0 0 -45.583391344688835 41.900253705246513 0 41.900253705246513 -21.111708352917887 0 0 0 0 40.376154112367658 24.71126791912684 0 24.71126791912684 -152.67866813486762 0 0 0 0 -45.071636861743173 15.51635260648618 0 15.51635260648618 -122.66791904639103 0 0 0 0 -34.462835931219161 13.659889257731265 0 13.659889257731265 -122.44096351772168 0 0 0 0 -26.564220133033814 -12.516586236015428 0 -12.516586236015428 -132.70317465093103 0 0 0 0 -54.867640718061011 -9.33026630920358 0 -9.33026630920358 -116.56533783388295 0 0 0 0 -47.836899468777119 2.5565533643457456 0 2.5565533643457456 -112.14675103455374 0 0 0 0 -17.347644476685673 9.0657943509613688 0 9.0657943509613688 -136.36755161112524 0 0 0 0 -20.178733857552288 3.1485865870745329 0 3.1485865870745329 -137.90700312182889 0 0 0 0 39.148779648487107 47.569576548303303 0 47.569576548303303 -150.95992484565795 0 0 0 0 -3.8482398853666382 23.274701500900846 0 23.274701500900846 -128.47463983664056 0 0 0 0 -14.638216487132013 33.978443642568891 0 33.978443642568891 -118.66466300333559 0 0 0 0 -101.64698133594356 -9.578601182132843 0 -9.578601182132843 -83.229052810442226 0 0 0 0 -110.76174637890654 -19.605468748610292 0 -19.605468748610292 134.60412577090756 0 0 0 0 -92.589478158915881 -1.451329071445798 0 -1.451329071445798 -78.114049026189605 0 0 0 0 -29.641086911702928 25.436795224246964 0 25.436795224246964 -13.603671263096729 0 0 0 0 -73.738690631522331 15.364000109635526 0 15.364000109635526 -76.849463305233257 0 0 0 0 -44.191371798489968 44.823012118582994 0 44.823012118582994 -34.236654657108012 0 0 0 0 -54.163024122739444 -6.1541391291902983 0 -6.1541391291902983 -104.05422810619348 0 0 0 0 -60.824470818362897 6.3191144582815468 0 6.3191144582815468 -112.99315324228519 0 0 0 0 89.962589220347581 195.5810992259976 0 195.5810992259976 192.88743638378583 0 0 0 0 66.481645196967293 139.05591468798229 0 139.05591468798229 110.07408561590955 0 0 0 0 130.41648687815177 196.94689437219859 0 196.94689437219859 102.6012819723328 0 0 0 0 83.390593464522681 176.08318316954592 0 176.08318316954592 186.27550511236768 0 0 0 0 80.529947298761726 255.2501839607296 0 255.2501839607296 252.29317726840236 0 0 0 0 148.90767318478902 245.18827739278458 0 245.18827739278458 198.00616998827172 0 0 0 0 77.014180119920638 206.50408061717826 0 206.50408061717826 195.76176795736683 0 0 0 0 170.05873325756693 330.84073292294852 0 330.84073292294852 242.90809150358837 0 0 0 0 152.75429941137554 272.67627732230176 0 272.67627732230176 117.67822204415825 0 0 0 0 197.28656141582724 375.67248628842231 0 375.67248628842231 207.40372097057843 0 0 0 0 106.19221887193271 312.61224417820449 0 312.61224417820449 366.97310228941933 0 0 0 0 198.11404110727017 361.70563280241549 0 361.70563280241549 147.37039836200165 0 0 0 0 182.81847604719223 390.58555817485831 0 390.58555817485831 250.06068799042259 0 0 0 0 152.99064845612156 372.51973167836695 0 372.51973167836695 380.32165377872298 0 0 0 0 135.79715035876143 314.00505046284525 0 314.00505046284525 261.85817158449936 0 0 0 0 211.0886525217793 407.98982273744696 0 407.98982273744696 251.15318369922022 0 0 0 0 173.10211039068236 403.74376296881383 0 403.74376296881383 314.91126151195931 0 0 0 0 189.20849370418 391.30976257676048 0 391.30976257676048 221.76634216275852 0 0 0 0 183.53300553947338 353.18237244668126 0 353.18237244668126 320.2099837941746 0 0 0 0 177.63267272835765 358.10145059744332 0 358.10145059744332 472.95709465607797 0 0 0 0 181.55869147852536 401.96593178786316 0 401.96593178786316 411.84897560768877 0 0 0 0 218.5301096225885 357.77730692725527 0 357.77730692725527 472.91475279614679 0 0 0 0 179.90381916583283 385.96775936983977 0 385.96775936983977 582.75702809241193 0 0 0 0 172.43471585289808 317.88464301607382 0 317.88464301607382 444.57407701628108 0 0 0 0 140.92011381924385 353.72698332405889 0 353.72698332405889 490.59303929323505 0 0 0 0 98.28082891998929 253.82364730554218 0 253.82364730554218 720.11805054216529 0 0 0 0 122.25394616584526 217.04422057509146 0 217.04422057509146 505.1406343895942 0 0 0 0 172.45496362086851 216.16301301190833 0 216.16301301190833 -206.09398903241163 0 0 0 0 -48.429786858947352 47.2912490759701 0 47.2912490759701 -33.636093522270983 0 0 0 0 117.92988973250613 250.48382766537179 0 250.48382766537179 366.16094300574696 0 0 0 0 105.26044135633856 319.54936849564911 0 319.54936849564911 374.63335215853294 0 0 0 0 -4.9271681076932055 13.764340192089016 0 13.764340192089016 -18.525170553394346 0 0 0 0 123.78419480501907 300.07907167626399 0 300.07907167626399 387.71183316447105 0 0 0 0 -123.64219029022206 107.33371148246079 0 107.33371148246079 66.068735170374566 0 0 0 0 -136.54980449625873 -46.993913089529087 0 -46.993913089529087 33.260733536189946 0 0 0 0 51.9316440767725 -89.166386863027583 0 -89.166386863027583 -123.92169656828628 0 0 0 0 -28.362682420643978 -5.5674054924747907 0 -5.5674054924747907 -148.72826436209652 0 0 0 0 -78.2206747510063 67.061448433832993 0 67.061448433832993 -245.04257074030465 0 0 0 0 -146.5317304545315 50.706395965789852 0 50.706395965789852 -58.721497470149188 0 0 0 0 -100.52436346025206 -8.0288863603054779 0 -8.0288863603054779 -166.46179491873772 0 0 0 0 -3.0507206761392354 4.7067098348360084 0 4.7067098348360084 -1.0086683692902234 0 0 0 0 -49.075350251809141 -298.54769152838617 0 -298.54769152838617 -179.10906641055044 0 0 0 0 327.2784080116835 422.55634467671189 0 422.55634467671189 -233.70394070459952 0 0 0 0 136.44750004354864 432.33026038944445 0 432.33026038944445 830.04686772469722 0 0 0 0 -0.036138369308901019 123.32739773283902 0 123.32739773283902 -302.72465015503985 0 0 0 0 -32.911284784872009 40.2789182947133 0 40.2789182947133 -38.89589918498708 0 0 0 0 92.116759630938759 21.014670382130134 0 21.014670382130134 -237.61682398305857 0 0 0 0 2.9532720124698244 117.41479403988342 0 117.41479403988342 -303.25069969557808 0 0 0 0 -50.117536265825038 160.39869124955476 0 160.39869124955476 -320.50040186746628 0 0 0 0 -46.638147746853065 94.139923000126146 0 94.139923000126146 -327.9149981635419 0 0 0 0 -48.009154089319054 149.80266419248801 0 149.80266419248801 -367.65403849254653 0 0 0 0 -0.21157048242457677 87.348498573999677 0 87.348498573999677 -325.10919725328858 0 0 0 0 -6.3398703513084911 90.493039514687553 0 90.493039514687553 -512.95998436697118 0 0 0 0 8.6605530131200794 218.7810729577468 0 218.7810729577468 -605.63247915165266 0 0 0 0 2.9507765718153678 224.50898321341083 0 224.50898321341083 -511.50388709452818 0 0 0 0 -141.05854488251498 48.853310711972881 0 48.853310711972881 -254.76411590917269 0 0 0 0 -167.0217219231472 73.951675426732436 0 73.951675426732436 -204.61638182972092 0 0 0 0 -21.896430160501041 125.83755231333635 0 125.83755231333635 -393.01496362869511 0 0 0 0 -76.68055390752852 63.139533029752783 0 63.139533029752783 -246.36448316335736 0 0 0 0 -122.71167998955934 132.93793634861504 0 132.93793634861504 -345.62488109795959 0 0 0 0 -98.351804812363298 144.88930540017839 0 144.88930540017839 -341.86609428469092 0 0 0 0 -97.884597044961993 212.23635531735636 0 212.23635531735636 -433.43584266141261 0 0 0 0 -171.03323927975725 210.96782553805679 0 210.96782553805679 -398.28508965919991 0 0 0 0 -217.67698553503578 95.001724565934637 0 95.001724565934637 -316.53500980220269 0 0 0 0 -217.29626563232159 119.05860401013342 0 119.05860401013342 -283.17991288446137 0 0 0 0 -217.3111554691568 48.684110255097039 0 48.684110255097039 -224.62302630311751 0 0 0 0 -246.56533286676859 11.934009174388848 0 11.934009174388848 -264.09376973137842 0 0 0 0 -302.57789490156574 -17.965182426181855 0 -17.965182426181855 -245.70194884220473 0 0 0 0 -237.02863860179787 -55.741210161926574 0 -55.741210161926574 -240.38697392981703 0 0 0 0 -164.61129557120148 -54.552138936087431 0 -54.552138936087431 -174.9006480089156 0 0 0 0 -195.9083820360247 -13.181957520355354 0 -13.181957520355354 -197.85366170888301 0 0 0 0 -187.88838935468812 27.463677989071584 0 27.463677989071584 -145.27098574906995 0 0 0 0 -176.38327055217269 -7.4069999495545744 0 -7.4069999495545744 -212.2638218695356 0 0 0 0 -150.5677738469094 22.320467565623403 0 22.320467565623403 -53.604511299403384 0 0 0 0 -142.75033145106863 -17.001112005146524 0 -17.001112005146524 -120.20421556402289 0 0 0 0 -133.02842804376269 -12.923292485778802 0 -12.923292485778802 -134.82250571676559 0 0 0 0 -135.98219003715712 -36.783166816683661 0 -36.783166816683661 -115.89424621993385 0 0 0 0 -80.88987092908792 -0.14405197304404282 0 -0.14405197304404282 -87.8465800442209 0 0 0 0 -115.72532757368754 -1.8801923868450103 0 -1.8801923868450103 -79.564821820582438 0 0 0 0 -59.297560559949488 55.274719765897316 0 55.274719765897316 -72.520808747183764 0 0 0 0 -88.347326435570722 -25.630371742234274 0 -25.630371742234274 -112.49321791165858 0 0 0 0 -43.626439434505301 -28.313806848440436 0 -28.313806848440436 -135.70596297202428 0 0 0 0 -123.55983426759485 -38.673862905139686 0 -38.673862905139686 -111.11578773740621 0 0 0 0 -79.581399460177636 -8.0634311910616816 0 -8.0634311910616816 -93.299441587267211 0 0 0 0 -135.05325093481224 -63.737331482952868 0 -63.737331482952868 -148.35576843144372 0 0 0 0 -75.831615834293189 -30.838730777970341 0 -30.838730777970341 -132.86138973845664 0 0 0 0 -87.111359883274417 -52.489830862730742 0 -52.489830862730742 -148.2541352398548 0 0 0 0 -32.949739977484569 -46.772624878358329 0 -46.772624878358329 -207.75584346027608 0 0 0 0 -62.167384859436424 -76.600306993292179 0 -76.600306993292179 -206.61224017871427 0 0 0 0 -140.08991476480151 -67.200727022631327 0 -67.200727022631327 -196.20822740134463 0 0 0 0 -69.005726329829486 -44.300758193516231 0 -44.300758193516231 -189.29441713841516 0 0 0 0 -145.54016867250903 -83.648389365735056 0 -83.648389365735056 -233.85744151621475 0 0 0 0 -103.53065002668882 -94.749254207708873 0 -94.749254207708873 -294.01803541151457 0 0 0 0 -150.8552854222944 -45.047355124435853 0 -45.047355124435853 -255.71259413476218 0 0 0 0 -83.788796833105152 -63.893224443992949 0 -63.893224443992949 -248.01792622971516 0 0 0 0 -57.882417289249133 -79.972825144919625 0 -79.972825144919625 -251.89158916256565 0 0 0 0 17.278014587995131 -7.2085707891819766 0 -7.2085707891819766 -294.02146196828835 0 0 0 0 -2.6610902417014586 -83.716929004367557 0 -83.716929004367557 -303.06512355049199 0 0 0 0 -187.46291159981047 -35.345572084523155 0 -35.345572084523155 -316.48597688045993 0 0 0 0 -152.41155778267421 -98.322219156631036 0 -98.322219156631036 -288.64229229316697 0 0 0 0 -49.717900249059312 -103.08584840513868 0 -103.08584840513868 -388.64068284425593 0 0 0 0 -110.65881840675138 1.3099887804492027 0 1.3099887804492027 -360.82130482838147 0 0 0 0 -467.91344787448179 58.724865427677287 0 58.724865427677287 -317.96991026418618 0 0 0 0 -340.36489491633256 55.078266239579534 0 55.078266239579534 -272.77614761523364 0 0 0 0 -286.61542533611646 39.504886268252449 0 39.504886268252449 -316.3590730370197 0 0 0 0 -372.4636154929176 -24.215986033370427 0 -24.215986033370427 -314.12121110238013 0 0 0 0 -232.29610639225575 -63.07003477984108 0 -63.07003477984108 -255.07829753904662 0 0 0 0 -218.83341972818016 -44.806686173171329 0 -44.806686173171329 -314.05070335255004 0 0 0 0 -362.71892373517039 -8.4078757911775028 0 -8.4078757911775028 -408.06541654195235 0 0 0 0 -367.09920039158897 -43.551366115512792 0 -43.551366115512792 -554.06634826710797 0 0 0 0 -205.9198839575547 -78.529369400534051 0 -78.529369400534051 -413.2254191529355 0 0 0 0 -348.98058999123896 19.85944787130029 0 19.85944787130029 -386.15992419338727 0 0 0 0 -643.1835369480541 33.289662149181822 0 33.289662149181822 -385.1544453512347 0 0 0 0 -540.24133769133186 227.18142005446862 0 227.18142005446862 -449.48257220516098 0 0 0 0 -686.36796692683129 51.321729087379936 0 51.321729087379936 -511.78851202845544 0 0 0 0 -625.55095655711921 157.8082937414074 0 157.8082937414074 -769.72652168336208 0 0 0 0 -304.77562888621469 -69.666294942362583 0 -69.666294942362583 -740.79186302145536 0 0 0 0 -347.18540169508196 332.11848912428104 0 332.11848912428104 -664.18469465083581 0 0 0 0 -761.75791320301505 471.32809446476858 0 471.32809446476858 -1377.4371535764367 0 0 0 0 101.7813887232769 -14.499653179020243 0 -14.499653179020243 -464.05965517733421 0 0 0 0 -168.92944993908168 114.77890304861648 0 114.77890304861648 -514.02017002993102 0 0 0 0 -176.93970633095887 -102.87089161080803 0 -102.87089161080803 -516.90829905570718 0 0 0 0 -91.243952552147675 -2.199500503942545 0 -2.199500503942545 -366.12001133199374 0 0 0 0 8.9222238152578939 288.38812367081118 0 288.38812367081118 -413.42498445399997 0 0 0 0 31.87858265369141 469.52976226766987 0 469.52976226766987 23.116618720052429 0 0 0 0 -458.23627199788461 494.60363949312887 0 494.60363949312887 -194.37583967562023 0 0 0 0 -168.50871775702399 111.78794921098961 0 111.78794921098961 -412.62172943007317 0 0 0 0 -612.98395853984402 107.83140780058602 0 107.83140780058602 -623.06956108809391 0 0 0 0 -1159.7412400144094 580.89911404949089 0 580.89911404949089 -335.52294246850579 0 0 0 0 -527.73269278249973 210.59699491247375 0 210.59699491247375 -123.19504062202759 0 0 0 0 -550.39951641469088 354.9310042932666 0 354.9310042932666 380.11574789673614 0 0 0 0 -573.92649872759648 449.1091582077679 0 449.1091582077679 70.718376251559675 0 0 0 0 -48.687365744204726 225.19448757253485 0 225.19448757253485 -21.474813687455026 0 0 0 0 -129.79353781781538 -110.87015141227312 0 -110.87015141227312 19.130870158296602 0 0 0 0 -821.15711188682326 19.555465795614509 0 19.555465795614509 72.970485096768243 0 0 0 0 -3.6747445678158961 2.0146305017946418 0 2.0146305017946418 27.451417279246073 0 0 0 0 -851.99745744354732 72.290981518643093 0 72.290981518643093 -15.836674820748158 0 0 0 0 -1851.3722069501528 -333.9592307376588 0 -333.9592307376588 197.80739620677195 0 0 0 0 -1285.5068088685075 787.65850082805264 0 787.65850082805264 -644.28807446555584 0 0 0 0 -26.792843465967508 -2.3107304353861764 0 -2.3107304353861764 124.85460775990214 0 0 0 0 -10.324442762082867 24.455838121516315 0 24.455838121516315 -18.454121177289665 0 0 0 0 653.25931509189832 638.03437229408883 0 638.03437229408883 -308.03312313390052 0 0 0 0 205.13665011082776 690.15563288134581 0 690.15563288134581 431.8929277190764 0 0 0 0 342.33302544218168 412.85117274190998 0 412.85117274190998 -331.56062602598104 0 0 0 0 478.9507598157943 497.54296347193667 0 497.54296347193667 -889.94997357475222 0 0 0 0 62.894782636547461 684.82566103787394 0 684.82566103787394 -858.45487833794505 0 0 0 0 587.80079365364509 557.09237795339141 0 557.09237795339141 -832.76979770818798 0 0 0 0 -1468.2664757462917 -156.21242677417467 0 -156.21242677417467 -867.42143859705538 0 0 0 0 -3.7140738029994509 3.7142555978734393 0 3.7142555978734393 4.1143731852621528 0 0 0 0 -1735.4781018604408 1199.2817752784249 0 1199.2817752784249 -1075.7610977534496 0 0 0 0 733.41042950173141 -139.02502176923008 0 -139.02502176923008 -459.51234531599039 0 0 0 0 70.122795157862129 869.57811125959415 0 869.57811125959415 -961.82656742543259 0 0 0 0 -723.91648282526876 1103.8365108385187 0 1103.8365108385187 -1633.2705359086758 0 0 0 0 -2.0713854466067438 6.924306553031073 0 6.924306553031073 -0.76192582431781375 0 0 0 0 -288.71640792270773 730.8475464428775 0 730.8475464428775 -702.40628424421811 0 0 0 0 -545.51330927334493 649.18626676262647 0 649.18626676262647 -683.65831869232352 0 0 0 0 -1019.2392120419536 101.62985025243688 0 101.62985025243688 -470.00716872792691 0 0 0 0 -816.91706042576698 679.64969846980239 0 679.64969846980239 -615.49702826470457 0 0 0 0 -519.97263199158624 599.10168095652261 0 599.10168095652261 -779.77641787164612 0 0 0 0 -552.19668948827893 179.02071703864203 0 179.02071703864203 -397.91752134879061 0 0 0 0 -402.35010743213934 477.13369958505064 0 477.13369958505064 -514.51581707856167 0 0 0 0 -294.61988418787951 412.04259861225 0 412.04259861225 -530.63115616970754 0 0 0 0 -517.29513544499059 456.08413614645542 0 456.08413614645542 -518.35905599752732 0 0 0 0 -75.464700786251342 553.7054082233808 0 553.7054082233808 -695.58808065322228 0 0 0 0 -19.5752736768045 545.13784953563299 0 545.13784953563299 -694.35905760146852 0 0 0 0 -114.84404771990376 324.87371209472258 0 324.87371209472258 -523.81216393400973 0 0 0 0 -91.621488680000766 300.40851908434342 0 300.40851908434342 -539.63309786294121 0 0 0 0 -314.19485672094743 261.77980773276067 0 261.77980773276067 -394.08430684809537 0 0 0 0 -426.19794159920275 220.70492521262804 0 220.70492521262804 -389.66205776229617 0 0 0 0 -295.61093164104386 157.91107136267237 0 157.91107136267237 -365.55870797157695 0 0 0 0 -314.05753237253521 165.3325347702048 0 165.3325347702048 -344.60881516279915 0 0 0 0 326.67116669707138 346.59152123888589 0 346.59152123888589 -945.69943153893109 0 0 0 0 355.02099298252142 543.81207570469269 0 543.81207570469269 -854.0641711622593 0 0 0 0 55.59223506381386 462.73838264442384 0 462.73838264442384 -774.83120189177862 0 0 0 0 208.07115174207138 233.2292701966071 0 233.2292701966071 -662.57231328466878 0 0 0 0 72.254349927155999 355.39638492881932 0 355.39638492881932 -750.5563081864093 0 0 0 0 193.56990601115103 157.64379914790061 0 157.64379914790061 -999.00075550714973 0 0 0 0 235.33430628066708 -32.413733490573577 0 -32.413733490573577 -1240.2794781062767 0 0 0 0 439.21663434308721 300.45961516752868 0 300.45961516752868 -941.2739789038169 0 0 0 0 168.44953966289177 -6.3091113740010769 0 -6.3091113740010769 -1224.3561655156291 0 0 0 0 -540.47638976750022 -579.46931886300445 0 -579.46931886300445 -1503.3732250580797 0 0 0 0 -294.09205329562246 222.74148975594653 0 222.74148975594653 -870.46233814034349 0 0 0 0 545.18146788864397 238.52994096603652 0 238.52994096603652 -1906.9922001549203 0 0 0 0 265.28275361041597 242.34515149503568 0 242.34515149503568 -870.12256323090696 0 0 0 0 732.72108936379664 398.8192237928597 0 398.8192237928597 -962.55397319523581 0 0 0 0 504.67860173790541 257.8827709973375 0 257.8827709973375 -774.42134048059961 0 0 0 0 618.44243487573112 422.27733961693593 0 422.27733961693593 -1211.3122066262108 0 0 0 0 607.59668736957246 770.31651600169789 0 770.31651600169789 -456.08713335124412 0 0 0 0 443.96964421895973 1261.8935205998241 0 1261.8935205998241 1370.8353547027764 0 0 0 0 580.85744672182591 260.61618487081523 0 260.61618487081523 268.72272646190686 0 0 0 0 1035.439615181589 730.40052510404712 0 730.40052510404712 134.4839836906358 0 0 0 0 463.40191349382076 122.33757208141651 0 122.33757208141651 680.63520825593878 0 0 0 0 419.96529254187772 341.50817951885892 0 341.50817951885892 -940.35955352229939 0 0 0 0 277.86144126858562 814.18881166987194 0 814.18881166987194 215.80234025316895 0 0 0 0 -6.5970848665950257 9.9439321916368613 0 9.9439321916368613 -6.6067329791567744 0 0 0 0 -13.213460527735833 22.414761887867858 0 22.414761887867858 -16.937579909711602 0 0 0 0 -208.06784722887096 301.47063270246872 0 301.47063270246872 114.62519767415506 0 0 0 0 -0.78260824147582753 753.99674414464607 0 753.99674414464607 -56.608528404001845 0 0 0 0 -36.145329465172836 703.84626124863826 0 703.84626124863826 -123.5096346282844 0 0 0 0 281.69395629997598 1955.8860377466117 0 1955.8860377466117 1760.2587226734599 0 0 0 0 301.71955165991676 1296.006989396883 0 1296.006989396883 49.707629243373958 0 0 0 0 1823.7379672020033 541.10836034218664 0 541.10836034218664 -2605.5393540871009 0 0 0 0 -289.701564926625 914.22843301468674 0 914.22843301468674 1779.233228217829 0 0 0 0 -6.9064244278124534 419.50574746196071 0 419.50574746196071 448.20596560768172 0 0 0 0 -394.68379631797143 -38.12527019718982 0 -38.12527019718982 -205.92389287865581 0 0 0 0 -253.11988662787189 896.3642967625965 0 896.3642967625965 415.06011706119352 0 0 0 0 -737.25862524790864 492.25167062970104 0 492.25167062970104 -690.09611683942785 0 0 0 0 0.2155307788416394 153.61887438052872 0 153.61887438052872 -1870.4375452225213 0 0 0 0 223.24177635641536 600.54118665266651 0 600.54118665266651 -2954.349885741548 0 0 0 0 58.700548757886281 734.13823214849617 0 734.13823214849617 656.62260190776215 0 0 0 0 1.3958125824901799 -1284.7489947736376 0 -1284.7489947736376 -3376.0848620549805 0 0 0 0 -6.8538332885346449 8.3113692112628286 0 8.3113692112628286 -10.279347440819649 0 0 0 0 66.472653217686457 776.64132897453783 0 776.64132897453783 -565.41905868336471 0 0 0 0 -0.083524235196819063 339.93711235093542 0 339.93711235093542 -372.9121633808827 0 0 0 0 237.28208314412041 657.17784124578611 0 657.17784124578611 -1717.9230092647649 0 0 0 0 90.351774346738239 302.50818454827822 0 302.50818454827822 260.60484480798914 0 0 0 0 -209.89851657682448 265.19580557800873 0 265.19580557800873 336.01644673567353 0 0 0 0 -0.12196896037494298 228.88517275924642 0 228.88517275924642 386.82081015879885 0 0 0 0 90.377260152761153 206.54839010138235 0 206.54839010138235 204.42498701332079 0 0 0 0 282.32053145318059 370.21281481166079 0 370.21281481166079 333.59018478304279 0 0 0 0 196.04738150545745 146.51896503415264 0 146.51896503415264 228.98957329500445 0 0 0 0 -19.916515484588274 26.399577463309754 0 26.399577463309754 -26.87045129214988 0 0 0 0 379.59331094269874 546.07535996157094 0 546.07535996157094 -44.773673700761719 0 0 0 0 44.340582837859984 -342.10922465696785 0 -342.10922465696785 -1289.1016425825337 0 0 0 0 3.8797145084099611 -90.575791084858793 0 -90.575791084858793 -627.80944793277013 0 0 0 0 -30.890003156520834 -437.86589464850158 0 -437.86589464850158 -454.02228963961534 0 0 0 0 350.28672649493092 721.32446540846649 0 721.32446540846649 1023.416529135613 0 0 0 0 -0.70969751577865736 0.81369553533941641 0 0.81369553533941641 0.048276101409221894 0 0 0 0 151.05534730743966 263.46977422329292 0 263.46977422329292 763.34196453646655 0 0 0 0 292.6317017361871 423.29234353443462 0 423.29234353443462 553.01302478167599 0 0 0 0 142.35973487832962 247.34140209695079 0 247.34140209695079 470.13995220257857 0 0 0 0 299.33609997743042 417.65971360261028 0 417.65971360261028 631.65000693329785 0 0 0 0 295.02280845178757 294.00181464704292 0 294.00181464704292 605.29734024326899 0 0 0 0 242.78810601720761 366.74527549031154 0 366.74527549031154 465.90765861776163 0 0 0 0 182.05365312306094 323.0006044323527 0 323.0006044323527 607.324739420588 0 0 0 0 184.05132160562789 350.24143928616832 0 350.24143928616832 605.06544367005154 0 0 0 0 141.52037820194164 318.86159025419056 0 318.86159025419056 327.19623892490199 0 0 0 0 239.3603398201376 339.55409588856128 0 339.55409588856128 329.23147401012102 0 0 0 0 214.68606862303568 392.5678693386235 0 392.5678693386235 350.98643906429788 0 0 0 0 171.98980136142927 351.97497445979752 0 351.97497445979752 462.93293965742578 0 0 0 0 173.73810556926765 379.23861469891381 0 379.23861469891381 347.73514713665645 0 0 0 0 175.76885384123307 427.25063422431776 0 427.25063422431776 265.65878704831266 0 0 0 0 194.73506689870555 386.39445974216324 0 386.39445974216324 449.94081371782522 0 0 0 0 94.406392267599585 338.79835222575093 0 338.79835222575093 354.33231516649357 0 0 0 0 41.00569327417179 189.23229234459541 0 189.23229234459541 420.76956098412847 0 0 0 0 0.063140547892544419 275.16098633507136 0 275.16098633507136 287.55087970197474 0 0 0 0 47.611118979781168 272.38014950267643 0 272.38014950267643 425.38954458063017 0 0 0 0 84.473666697798762 208.78915815149412 0 208.78915815149412 508.98893356819462 0 0 0 0 -1.8381957954989048 7.3071967014475376 0 7.3071967014475376 11.152009256802558 0 0 0 0 2.0691917723597726 37.46258309755649 0 37.46258309755649 9.5556339690123195 0 0 0 0 -38.732899897455354 18.301256177990581 0 18.301256177990581 13.343608404509723 0 0 0 0 -15.332032261052518 35.275165259448841 0 35.275165259448841 51.532832198754477 0 0 0 0 -0.090671666999696754 21.520084543200937 0 21.520084543200937 7.1319030123995617 0 0 0 0 -2.4609172705531819 34.876038546146447 0 34.876038546146447 -23.31134680332616 0 0 0 0 -17.665523428702727 18.687283203689731 0 18.687283203689731 9.3804799469771183 0 0 0 0 -14.280805502348812 21.211900376314588 0 21.211900376314588 -13.195271169810439 0 0 0 0 -42.461944393100566 25.337914643583645 0 25.337914643583645 8.7518966336283484 0 0 0 0 -16.345941689300844 22.85283204739585 0 22.85283204739585 4.2484460156330783 0 0 0 0 -4.9554479409120518 20.435902894510978 0 20.435902894510978 -10.161269314549827 0 0 0 0 -0.65177382333786227 29.070124713576661 0 29.070124713576661 12.010045175738924 0 0 0 0 0.44756756049901014 64.440868523168319 0 64.440868523168319 21.124326388322515 0 0 0 0 -2.5774332531150606 23.606718605229133 0 23.606718605229133 15.497679500766139 0 0 0 0 4.9190048942356555 17.00910439193342 0 17.00910439193342 17.659825421181637 0 0 0 0 -6.5762751072963113 19.93584915785722 0 19.93584915785722 8.8247420980398488 0 0 0 0 -38.99140268805786 18.781677151266194 0 18.781677151266194 17.124305667326553 0 0 0 0 -80.169861426809803 40.51148582152382 0 40.51148582152382 17.517561080785867 0 0 0 0 -124.6022466827053 70.70424690445725 0 70.70424690445725 11.207828474463895 0 0 0 0 -7.1145439388346858 12.737757381641131 0 12.737757381641131 18.054107254240989 0 0 0 0 -45.600071754292003 3.7616513881985156 0 3.7616513881985156 36.235051485957229 0 0 0 0 0.69922314323684986 4.4981924461509095 0 4.4981924461509095 11.148106834269925 0 0 0 0 10.026518494596672 10.486266563298045 0 10.486266563298045 7.7155803592375207 0 0 0 0 -5.5364328068535542 28.653437861335988 0 28.653437861335988 16.111896453556255 0 0 0 0 1.1089218269416676 -10.315206786207455 0 -10.315206786207455 32.458339971215139 0 0 0 0 67.147296173221548 131.41370121855834 0 131.41370121855834 495.49411996410345 0 0 0 0 -84.813499426047201 -24.330484874311878 0 -24.330484874311878 576.23513256654405 0 0 0 0 -319.13323605868936 274.3503871378507 0 274.3503871378507 758.04575759651198 0 0 0 0 -163.32759902482212 289.36315887750243 0 289.36315887750243 547.45195425037673 0 0 0 0 -111.00986424335861 -164.559866134201 0 -164.559866134201 660.42904246307444 0 0 0 0 -480.67008948142757 -31.692011280822044 0 -31.692011280822044 851.01514936211606 0 0 0 0 147.62517219792062 -645.69074587451905 0 -645.69074587451905 1550.4902546232188 0 0 0 0 151.81001626016223 246.9090431944278 0 246.9090431944278 -94.311203821498566 0 0 0 0 5.6814708165566117 3.0288663199078485 0 3.0288663199078485 3.0261126835082166 0 0 0 0 76.254241827744409 -351.73358147951876 0 -351.73358147951876 1929.6701856558066 0 0 0 0 4.1691693552048434 2.2961758242753092 0 2.2961758242753092 -3.3616992670251307 0 0 0 0 -30.945493009807251 -24.96421885534437 0 -24.96421885534437 37.444026578843477 0 0 0 0 0.26172351770946989 97.001962315840501 0 97.001962315840501 266.76681266361993 0 0 0 0 157.7396939118189 99.16404889873229 0 99.16404889873229 27.314389944358481 0 0 0 0 196.92897514849938 609.69375477659514 0 609.69375477659514 978.94042630551849 0 0 0 0 367.53872987718205 -54.859703169116983 0 -54.859703169116983 1276.2739749043321 0 0 0 0 0.041480741769191809 389.40882766753202 0 389.40882766753202 740.29523056031758 0 0 0 0 305.55083543436194 -40.316229554526217 0 -40.316229554526217 747.80907008636859 0 0 0 0 354.77315209379572 625.23526099498895 0 625.23526099498895 980.59919145240565 0 0 0 0 52.81040771183325 90.994848809212272 0 90.994848809212272 2098.0147815616838 0 0 0 0 425.63811531967076 216.14254928410082 0 216.14254928410082 444.64813641906221 0 0 0 0 245.28033076795691 535.47063042777336 0 535.47063042777336 620.77406845752557 0 0 0 0 257.56762231704488 443.01755288712593 0 443.01755288712593 -58.220610586577095 0 0 0 0 294.87547047765111 564.59105650233687 0 564.59105650233687 110.59233517851681 0 0 0 0 413.18925525452869 248.71603628133744 0 248.71603628133744 133.65454380169103 0 0 0 0 159.45950663465192 493.41798161856423 0 493.41798161856423 68.520094259329198 0 0 0 0 0.63898275087558432 701.0378144261631 0 701.0378144261631 -202.89082552056061 0 0 0 0 267.12141757316931 713.50654874877 0 713.50654874877 -514.09499428360141 0 0 0 0 251.51848098656046 865.28256069612689 0 865.28256069612689 -407.83779655101534 0 0 0 0 811.81784300955769 1361.5494652365996 0 1361.5494652365996 -532.71257685734599 0 0 0 0 61.142849514901172 727.15420033272676 0 727.15420033272676 -797.71896691873553 0 0 0 0 -617.56873196785091 552.63749848457246 0 552.63749848457246 -401.34245995902165 0 0 0 0 -971.14378763313289 2056.6265672242662 0 2056.6265672242662 -176.112157622425 0 0 0 0 64.674350043819686 869.58439224500103 0 869.58439224500103 -431.99697635875782 0 0 0 0 34.543625988084386 631.00536052190887 0 631.00536052190887 -356.98926270022639 0 0 0 0 45.119003102110582 904.88595409793197 0 904.88595409793197 -230.83089966590342 0 0 0 0 -781.31226175499614 503.32634729470374 0 503.32634729470374 -387.25166378347012 0 0 0 0 -232.85786760188057 4.3097037198967882 0 4.3097037198967882 -350.81137613064493 0 0 0 0 -137.25569476821693 598.16719372127409 0 598.16719372127409 -966.05840265751613 0 0 0 0 8.0565371611293415 9.1665061385438094 0 9.1665061385438094 6.0767805141860549 0 0 0 0 -742.45827841036953 1072.497633085728 0 1072.497633085728 -865.25654639711593 0 0 0 0 -465.52970085731067 257.54041875749317 0 257.54041875749317 -503.84814269225353 0 0 0 0 812.15015438312412 672.38762553102481 0 672.38762553102481 -681.71881827634934 0 0 0 0 -842.1446489495429 937.9109409954799 0 937.9109409954799 -665.80699017503991 0 0 0 0 -405.91107428036048 442.77336474866388 0 442.77336474866388 -654.15317080874956 0 0 0 0 19.916452078129112 22.232595738761944 0 22.232595738761944 17.495027079326832 0 0 0 0 -419.35987466243387 1074.9870360152854 0 1074.9870360152854 -952.98059946718422 0 0 0 0 -593.44727506319759 -133.94165510277526 0 -133.94165510277526 -560.66795062552774 0 0 0 0 182.42294033212238 155.62470492540888 0 155.62470492540888 -221.95367083660301 0 0 0 0 195.88657300056002 735.52264726399653 0 735.52264726399653 -222.05435428694182 0 0 0 0 -468.71330097135797 171.18201212073836 0 171.18201212073836 564.12963567719999 0 0 0 0 -51.795392995729344 162.33346136753607 0 162.33346136753607 521.27156681042106 0 0 0 0 -76.674901207559742 246.2350268348091 0 246.2350268348091 1042.2982412497513 0 0 0 0 -380.48111734066697 1052.2789239826516 0 1052.2789239826516 497.47603464702843 0 0 0 0 -371.4046789801796 300.86223156924825 0 300.86223156924825 -75.300565835910675 0 0 0 0 -852.40839356477954 112.75087076995987 0 112.75087076995987 711.74729120417032 0 0 0 0 -457.1799883738131 1043.5888147118858 0 1043.5888147118858 -438.79723457377986 0 0 0 0 621.80835149856284 2182.3521402953193 0 2182.3521402953193 648.18858491966967 0 0 0 0 862.24909221910639 971.66384669393301 0 971.66384669393301 369.72336321516923 0 0 0 0 20.776765501388155 24.268156507363898 0 24.268156507363898 22.264111599297905 0 0 0 0 -1544.848910096589 767.55837037152196 0 767.55837037152196 428.42975207410927 0 0 0 0 99.106234107195633 -1049.9884206168281 0 -1049.9884206168281 -3685.526105963625 0 0 0 0 611.37509881576989 653.79145059725852 0 653.79145059725852 -982.24479898804566 0 0 0 0 125.71299609699054 412.39833120958065 0 412.39833120958065 -362.59371009517781 0 0 0 0 50.072163423450547 777.49759412014828 0 777.49759412014828 -408.4168426583492 0 0 0 0 -183.19357322057476 579.05485295823019 0 579.05485295823019 -452.45036698309559 0 0 0 0 -69.948400852881605 1001.4623906586567 0 1001.4623906586567 -741.09619396978815 0 0 0 0 -0.099131167184918212 1.8799674825027921 0 1.8799674825027921 2.4087909096770659 0 0 0 0 818.02808033388283 675.7192841493395 0 675.7192841493395 -349.79238014820294 0 0 0 0 -187.56077196932165 909.04083066660678 0 909.04083066660678 -343.5126416997482 0 0 0 0 -742.39173928314995 712.64677930575999 0 712.64677930575999 -612.69045720857685 0 0 0 0 -787.3299335253505 498.11144980972995 0 498.11144980972995 -172.87781088019256 0 0 0 0 -461.18899193114794 26.174712288599267 0 26.174712288599267 -99.961016047062003 0 0 0 0 -7.0268187448527897 301.65747935752734 0 301.65747935752734 197.43003636086883 0 0 0 0 -345.99662312161809 301.81625892138345 0 301.81625892138345 209.25299020472448 0 0 0 0 -0.18434298883670408 1.8610286285727113 0 1.8610286285727113 12.225196184805327 0 0 0 0 18.364332328099408 111.05520241239356 0 111.05520241239356 -227.47922033145369 0 0 0 0 -200.55484189237177 422.62278853370753 0 422.62278853370753 792.47329327833722 0 0 0 0 -199.41582770249443 498.59897766081576 0 498.59897766081576 234.32069873256114 0 0 0 0 -361.17568018988823 314.99880322241006 0 314.99880322241006 198.72973858866317 0 0 0 0 -332.26203164763865 524.86959472794115 0 524.86959472794115 338.35468958280035 0 0 0 0 -147.77043022161524 576.53215437468316 0 576.53215437468316 179.93999752406671 0 0 0 0 -147.15033178868416 405.63696926347887 0 405.63696926347887 -38.396186006189964 0 0 0 0 -169.18054377764201 249.59565434462093 0 249.59565434462093 -359.5759919996417 0 0 0 0 -580.36910571233602 511.35264121998262 0 511.35264121998262 2.2923596755626932 0 0 0 0 -107.62644966033986 490.86066163476789 0 490.86066163476789 -16.376130451353674 0 0 0 0 46.018274040339747 696.4816842733162 0 696.4816842733162 -422.04101221307064 0 0 0 0 -665.47190631992999 260.95582998937971 0 260.95582998937971 -666.44572397498996 0 0 0 0 -413.2981115047005 718.1705478497679 0 718.1705478497679 -394.47177899303279 0 0 0 0 -1265.6664564014645 1132.8400390444222 0 1132.8400390444222 -594.21277574290434 0 0 0 0 -101.84521180880256 1376.9175523766244 0 1376.9175523766244 -1690.2793493636418 0 0 0 0 -680.47106244233873 384.67649187294228 0 384.67649187294228 -331.29474361391476 0 0 0 0 -1170.6820364524028 717.65439271083414 0 717.65439271083414 -537.39791495595273 0 0 0 0 -532.22806675943866 108.34424284207125 0 108.34424284207125 -1028.0125365735294 0 0 0 0 -1105.3169670488278 856.94976119861894 0 856.94976119861894 -262.04387566874721 0 0 0 0 -1270.6432290106313 -132.05475231689707 0 -132.05475231689707 90.374613737709296 0 0 0 0 -2.1803969819728763 3.8045007574806711 0 3.8045007574806711 -5.5101355239461896 0 0 0 0 162.14005079492927 -114.5166683354928 0 -114.5166683354928 2013.1982877973351 0 0 0 0 -0.37932500943244207 5.5436833671523118 0 5.5436833671523118 -16.677931067386254 0 0 0 0 -1032.2400279704452 785.54938860607581 0 785.54938860607581 -606.70960160909817 0 0 0 0 1517.6124085039919 237.59096494627738 0 237.59096494627738 -2338.0967326766586 0 0 0 0 1040.7653147671226 -499.43369958948097 0 -499.43369958948097 -935.64848313790208 0 0 0 0 -1150.4328595278748 301.10053860553489 0 301.10053860553489 698.69829016268341 0 0 0 0 6.4408713241315922 10.456283115681117 0 10.456283115681117 14.328281385165496 0 0 0 0 -264.91643655436928 1012.8526113931584 0 1012.8526113931584 982.29581308309935 0 0 0 0 298.51576861677677 213.46203976431661 0 213.46203976431661 -828.57497842109296 0 0 0 0 4.821662565902102 -5.8188035630734305 0 -5.8188035630734305 6.7718574308362349 0 0 0 0 -1109.3794416408491 -199.05095722933766 0 -199.05095722933766 525.89075129113917 0 0 0 0 -1400.8469371261453 -554.39319777536366 0 -554.39319777536366 94.381106165383244 0 0 0 0 -448.25836398469983 2.9259159765933873 0 2.9259159765933873 569.34856873612443 0 0 0 0 -10.374672636085165 32.742853126993055 0 32.742853126993055 30.24860751926407 0 0 0 0 -170.57318872206088 175.97181263173115 0 175.97181263173115 -3.4268695709361054 0 0 0 0 -197.07774225392495 -7.0967522709433979 0 -7.0967522709433979 86.021085225846036 0 0 0 0 21.117933919624193 382.45468031993732 0 382.45468031993732 102.85120139093124 0 0 0 0 790.00719428239245 962.16790534842039 0 962.16790534842039 -391.60433246438333 0 0 0 0 -700.65045516347163 379.44685772724006 0 379.44685772724006 127.79464882925095 0 0 0 0 178.01683102481184 59.238374167951406 0 59.238374167951406 -1071.1467427597709 0 0 0 0 0.038618501348537393 33.590036059831618 0 33.590036059831618 3.7809842775968718 0 0 0 0 2.0541454240010353 45.125244220645982 0 45.125244220645982 36.834392373188166 0 0 0 0 1.8825025736033467 32.161637847750903 0 32.161637847750903 -21.496968190503694 0 0 0 0 8.8151422646757851 33.565527664891988 0 33.565527664891988 2.2472570339675428 0 0 0 0 -13.991146058397135 32.703757303920611 0 32.703757303920611 25.898596614410053 0 0 0 0 -17.803113671366305 20.067339903008047 0 20.067339903008047 8.5840408989705281 0 0 0 0 -7.3001955133731826 40.972094802100401 0 40.972094802100401 24.584698043792741 0 0 0 0 16.319077328687001 30.370916238247702 0 30.370916238247702 31.601128072702693 0 0 0 0 -19.005281826903229 52.034061297250446 0 52.034061297250446 32.675509559194325 0 0 0 0 1.700945549790049 46.590077458153246 0 46.590077458153246 31.925679842133832 0 0 0 0 -11.078216633277371 34.059585528351747 0 34.059585528351747 27.367600235285977 0 0 0 0 21.236121161535266 44.510432882863824 0 44.510432882863824 24.844218338992505 0 0 0 0 -33.120428353009629 -20.048703421347454 0 -20.048703421347454 50.137750517969835 0 0 0 0 -80.96725085064827 -10.24713329943188 0 -10.24713329943188 67.334347811891348 0 0 0 0 -6.8841261722479317 0.76172142646271368 0 0.76172142646271368 0.90590408539583223 0 0 0 0 -40.429593813663814 25.007436524374498 0 25.007436524374498 47.510827996378794 0 0 0 0 24.790202409640187 28.42046881980059 0 28.42046881980059 40.511331547386362 0 0 0 0 -642.24475954951777 450.31313295818836 0 450.31313295818836 209.87672946141538 0 0 0 0 223.6560482064815 134.37457307051227 0 134.37457307051227 -193.63117954063637 0 0 0 0 -724.19468761407916 145.93088610535369 0 145.93088610535369 49.208622194681084 0 0 0 0 -322.72219970400329 381.3078621925124 0 381.3078621925124 -39.192475234238373 0 0 0 0 -684.05752566484807 471.31543178588572 0 471.31543178588572 186.08723376736452 0 0 0 0 -306.38692687320872 28.61864862695802 0 28.61864862695802 81.909896018005384 0 0 0 0 -397.3040590538003 292.02723698880436 0 292.02723698880436 -181.68162146607938 0 0 0 0 -7.011879516459139 23.991262660554909 0 23.991262660554909 -0.21716677474103108 0 0 0 0 -76.317732938055997 127.35583217214298 0 127.35583217214298 -111.68900842595031 0 0 0 0 273.15402845939388 614.45782831930774 0 614.45782831930774 -257.03552975086495 0 0 0 0 -53.787901130773747 53.381944385532783 0 53.381944385532783 -44.768465018377299 0 0 0 0 -317.75483742328731 716.1141302219246 0 716.1141302219246 280.51909563589288 0 0 0 0 301.81990517454688 980.91106551385747 0 980.91106551385747 33.333122278865631 0 0 0 0 -604.57865483097703 312.10670515605307 0 312.10670515605307 62.77387119748164 0 0 0 0 -550.83354261413479 42.905632511625299 0 42.905632511625299 386.48655429037171 0 0 0 0 -216.73319531742891 208.35800155885227 0 208.35800155885227 360.31522970486913 0 0 0 0 -222.89075100580521 116.21605449166236 0 116.21605449166236 162.62992734623185 0 0 0 0 -138.40960743263349 108.37552651415717 0 108.37552651415717 128.85685542456486 0 0 0 0 -464.14050321853574 214.46963168714865 0 214.46963168714865 263.34310623480997 0 0 0 0 -8.009972968443563 10.261348777246639 0 10.261348777246639 -6.9189651939533405 0 0 0 0 22.845759850133618 392.55948071305465 0 392.55948071305465 236.22868157447374 0 0 0 0 382.92411382776481 373.95265348381145 0 373.95265348381145 -474.25868622402777 0 0 0 0 -37.322903820699139 -408.51058412850034 0 -408.51058412850034 -110.99683784632998 0 0 0 0 -4.5329296517950297 5.0930662342714825 0 5.0930662342714825 -2.9722024138016252 0 0 0 0 -948.58093531422855 206.46338781966915 0 206.46338781966915 122.91391881235904 0 0 0 0 -481.4233076122473 428.89357991378347 0 428.89357991378347 -477.47228665266312 0 0 0 0 159.14627915175515 181.27219641242118 0 181.27219641242118 -232.75236271694121 0 0 0 0 449.94501998359192 721.33715239646881 0 721.33715239646881 -138.53318937373842 0 0 0 0 -48.80022380599155 51.370501675172179 0 51.370501675172179 -50.386717022609076 0 0 0 0 214.3379841051792 263.2970222986296 0 263.2970222986296 -443.94312499658918 0 0 0 0 -273.45697224859032 543.92012195039933 0 543.92012195039933 -416.25510100548854 0 0 0 0 -47.611578263124102 83.473439380722994 0 83.473439380722994 -619.81118831695676 0 0 0 0 104.8468482733515 279.61224466867679 0 279.61224466867679 -409.99584714100638 0 0 0 0 44.749519824705203 63.886974891920545 0 63.886974891920545 -375.70963949405996 0 0 0 0 126.13050566162929 162.38657496163614 0 162.38657496163614 -249.34248389478307 0 0 0 0 131.36240993043612 151.38493209376247 0 151.38493209376247 -287.34621502039226 0 0 0 0 -207.57330370045383 281.6078140690588 0 281.6078140690588 -175.81572256975778 0 0 0 0 87.394396696035983 122.94537004551603 0 122.94537004551603 -257.54889837594601 0 0 0 0 156.3907945487008 385.9503471406133 0 385.9503471406133 -146.71020821128332 0 0 0 0 112.23632092983178 135.94039267455352 0 135.94039267455352 -247.00020158552798 0 0 0 0 112.32868018309819 149.36506733804345 0 149.36506733804345 -236.34157498843342 0 0 0 0 11.042183200889269 3.4937460732384551 0 3.4937460732384551 0.22345401671033671 0 0 0 0 293.68076200124051 39.808683046390797 0 39.808683046390797 -671.56727184231931 0 0 0 0 348.2683028899919 842.05161934899661 0 842.05161934899661 322.34771722556616 0 0 0 0 599.98390479455702 314.8220313925267 0 314.8220313925267 -429.0632014816365 0 0 0 0 30.063687269197601 6.2831367568338976 0 6.2831367568338976 1.9508156789797666 0 0 0 0 73.892286165733822 102.50887329195029 0 102.50887329195029 -423.84174772320694 0 0 0 0 -73.652047409283114 46.437393827844062 0 46.437393827844062 -290.0567663172842 0 0 0 0 -7.0675877472531283 173.15211938693756 0 173.15211938693756 -296.55199752911722 0 0 0 0 -40.251271566892683 104.92833344779501 0 104.92833344779501 -85.736881323657144 0 0 0 0 10.460438005455217 281.09679085824064 0 281.09679085824064 -72.356389129417948 0 0 0 0 103.94204827152134 148.44382868298635 0 148.44382868298635 -255.58517772790583 0 0 0 0 25.513875440203265 262.15273906797574 0 262.15273906797574 -221.24603743915941 0 0 0 0 279.87201562688278 224.50419496730137 0 224.50419496730137 -332.29886545379122 0 0 0 0 -45.348662321538285 50.675918021806226 0 50.675918021806226 -54.162476409978979 0 0 0 0 276.44176759048446 398.86451297378585 0 398.86451297378585 -166.52557874292688 0 0 0 0 -460.41730131606482 -92.309621752073554 0 -92.309621752073554 -71.340707041163114 0 0 0 0 117.48283360725327 -313.61874128252566 0 -313.61874128252566 -140.01907901419327 0 0 0 0 -75.126448376162443 30.36306509136557 0 30.36306509136557 -283.18703099571576 0 0 0 0 1.1749052289009398 1.1699535048846883 0 1.1699535048846883 -3.9886503376605162 0 0 0 0 -165.30604467015655 271.09688941715285 0 271.09688941715285 -320.422755996864 0 0 0 0 -140.57681007054634 203.3358903194312 0 203.3358903194312 -220.74547009505477 0 0 0 0 6.0607578085978275 42.883184140960793 0 42.883184140960793 -54.181918725473224 0 0 0 0 37.855665862560272 59.200611482381646 0 59.200611482381646 -315.32654482014186 0 0 0 0 -7.4511064192884078 171.77283954182167 0 171.77283954182167 -523.63272246257111 0 0 0 0 -44.844963550007208 49.991293522817209 0 49.991293522817209 -55.541332457401722 0 0 0 0 -117.876035853551 111.073123613387 0 111.073123613387 -370.80748786104959 0 0 0 0 -55.763830098803737 -182.39723332316498 0 -182.39723332316498 -312.76982126999428 0 0 0 0 -63.907770475458165 38.791858640411874 0 38.791858640411874 -73.199334611854283 0 0 0 0 -30.496067821964971 81.333350371736742 0 81.333350371736742 -67.133704021158337 0 0 0 0 -63.012425798340701 62.375072941984399 0 62.375072941984399 -45.046248882979853 0 0 0 0 -39.403904266267432 50.235739922590291 0 50.235739922590291 -53.279378877535493 0 0 0 0 -19.779681881300348 62.277333107496816 0 62.277333107496816 -86.340913851512596 0 0 0 0 101.94181371990999 127.72519563776405 0 127.72519563776405 -150.24412260293684 0 0 0 0 45.223382865280769 12.13356833528654 0 12.13356833528654 -15.960448421749371 0 0 0 0 34.416423754184507 20.814188251606538 0 20.814188251606538 -234.1468374423348 0 0 0 0 49.766917953325901 -58.914771510811988 0 -58.914771510811988 51.987102349303314 0 0 0 0 112.11421837446687 20.15405318476769 0 20.15405318476769 -38.621682349948969 0 0 0 0 2.2373108059691731 40.678774047948536 0 40.678774047948536 27.953798313072184 0 0 0 0 122.81554013762798 -4.8635298757872079 0 -4.8635298757872079 -138.11314376594964 0 0 0 0 -88.41846994595835 126.34773927510832 0 126.34773927510832 -150.84357813201495 0 0 0 0 -0.57223105198846724 11.828695793282932 0 11.828695793282932 -21.247621946504104 0 0 0 0 -46.775200702890288 33.494208251140662 0 33.494208251140662 -6.8935105607550895 0 0 0 0 -62.553396180010168 74.150900926426402 0 74.150900926426402 -65.161951922884327 0 0 0 0 25.896337265876355 111.00109035003334 0 111.00109035003334 -86.040770019739284 0 0 0 0 -13.10877641159459 36.172314961888333 0 36.172314961888333 -218.55285837961128 0 0 0 0 12.636471358448034 98.086987463269907 0 98.086987463269907 -80.877544878643675 0 0 0 0 -28.397378848181688 66.592081068494736 0 66.592081068494736 -14.167981153252185 0 0 0 0 42.788525694661075 73.248014518016134 0 73.248014518016134 -151.74461165755929 0 0 0 0 32.830957573925843 143.1434792292348 0 143.1434792292348 -163.19120245965314 0 0 0 0 9.6479097695773817 201.25896465386177 0 201.25896465386177 -307.75513762254559 0 0 0 0 56.128294356778497 111.00569517689291 0 111.00569517689291 -274.13128716609936 0 0 0 0 58.216531098500127 100.03475968097337 0 100.03475968097337 -234.57805765181183 0 0 0 0 82.117389417413506 101.3507406621502 0 101.3507406621502 -270.86763235434773 0 0 0 0 3.7737362111365655 117.97868521903001 0 117.97868521903001 -199.17080773802445 0 0 0 0 54.78734817734221 128.14003894249618 0 128.14003894249618 -238.76673077547457 0 0 0 0 33.332427561290388 83.40287801381055 0 83.40287801381055 -325.80280425868114 0 0 0 0 102.23034755489607 95.764581100340365 0 95.764581100340365 -244.32502627855865 0 0 0 0 48.045913716880023 50.303788168923347 0 50.303788168923347 -92.941652396941208 0 0 0 0 149.42489571835904 81.441893357630761 0 81.441893357630761 -90.937199432126363 0 0 0 0 114.49705214003916 130.55668893273105 0 130.55668893273105 51.912011616397649 0 0 0 0 65.928432937769685 70.068798186111962 0 70.068798186111962 80.765729323236883 0 0 0 0 144.4869486355019 155.59010617604508 0 155.59010617604508 113.05989129090449 0 0 0 0 105.33375584449095 80.531918228596624 0 80.531918228596624 133.40826407520217 0 0 0 0 25.510712526076532 40.956519416198716 0 40.956519416198716 -40.754494079632423 0 0 0 0 119.57969352789451 -14.366027643264829 0 -14.366027643264829 -8.246240373737237 0 0 0 0 81.738511389406995 9.2855514683633373 0 9.2855514683633373 -77.903819988991017 0 0 0 0 44.760940987755021 23.339120020158589 0 23.339120020158589 -75.259155147054116 0 0 0 0 177.46783468853391 162.06904742441111 0 162.06904742441111 -353.49864415619231 0 0 0 0 2.0156634608248538 2.0658118233922096 0 2.0658118233922096 -5.9891109911344529 0 0 0 0 -149.11328529626189 223.10201918006351 0 223.10201918006351 58.204622457713413 0 0 0 0 -164.70083024577616 71.21317701501539 0 71.21317701501539 -728.75591554061248 0 0 0 0 -254.59677832879242 265.63939626248612 0 265.63939626248612 -28.67011531983735 0 0 0 0 -441.3532236146566 613.32686862491391 0 613.32686862491391 -372.78040716082978 0 0 0 0 -356.89408208897657 239.51602995540088 0 239.51602995540088 87.562595643030363 0 0 0 0 1.5793926561781859 2.2087439694520299 0 2.2087439694520299 -2.9500639743145598 0 0 0 0 -464.55246952912421 232.78339773024345 0 232.78339773024345 124.58204567686334 0 0 0 0 -308.22825590892535 219.01242747437936 0 219.01242747437936 -7.7894175336768967 0 0 0 0 -278.08881578428554 88.620010104095854 0 88.620010104095854 235.73898337017454 0 0 0 0 191.87517777350149 195.91740180533088 0 195.91740180533088 115.12055779662478 0 0 0 0 -285.68639755844424 293.61396196728288 0 293.61396196728288 122.89649525641289 0 0 0 0 40.603623129980406 451.02753887789004 0 451.02753887789004 465.47212891665185 0 0 0 0 303.44469233207928 232.41765546466922 0 232.41765546466922 155.95104082069156 0 0 0 0 -25.434059787861116 28.834860477312823 0 28.834860477312823 -26.523690046618526 0 0 0 0 234.6866668420771 358.06922227444193 0 358.06922227444193 332.19169385431451 0 0 0 0 121.0190218242351 200.45006424744497 0 200.45006424744497 359.39082553845947 0 0 0 0 114.48972461627272 215.00487698605866 0 215.00487698605866 344.18306486593792 0 0 0 0 137.65365805770125 104.8951385838227 0 104.8951385838227 154.08217036904534 0 0 0 0 189.866546735866 188.39125508044162 0 188.39125508044162 178.87987848930061 0 0 0 0 200.63861331218504 176.53562361402146 0 176.53562361402146 209.15072038458311 0 0 0 0 254.05325002039899 92.202787874062778 0 92.202787874062778 22.340289147843578 0 0 0 0 273.24943327923393 132.38014853692584 0 132.38014853692584 77.17385546353762 0 0 0 0 -85.553604268447089 -219.8039738309235 0 -219.8039738309235 -857.40654263630859 0 0 0 0 50.449025298461493 -21.746519728641942 0 -21.746519728641942 -572.77323243574938 0 0 0 0 40.325403640905279 -1.228194860588701 0 -1.228194860588701 -525.53184689681075 0 0 0 0 -41.323015253308768 -80.514890092023961 0 -80.514890092023961 -309.76530634178198 0 0 0 0 138.40060619301948 85.2965720918437 0 85.2965720918437 -449.36321526437678 0 0 0 0 -0.70633972539326351 -152.33159081108897 0 -152.33159081108897 -601.11198448117648 0 0 0 0 -19.068709807154335 18.878908727718652 0 18.878908727718652 -16.990180232044224 0 0 0 0 -259.74423079482222 6.0858409254615253 0 6.0858409254615253 334.91900845049531 0 0 0 0 -551.36194639428868 167.99487509484607 0 167.99487509484607 299.50913827410113 0 0 0 0 -636.15170528717863 391.50000404534512 0 391.50000404534512 388.14934767984414 0 0 0 0 -60.881466796170571 -342.24820958577038 0 -342.24820958577038 -1827.2230249667846 0 0 0 0 -7.900770864425624 6.4321091138592266 0 6.4321091138592266 -6.2236585618832692 0 0 0 0 -231.39107680269808 245.26024433051498 0 245.26024433051498 -532.24044291418977 0 0 0 0 -297.09376490267459 543.44437061736971 0 543.44437061736971 -1398.2530459633599 0 0 0 0 -28.341733649664093 290.17562434435968 0 290.17562434435968 -548.94813245229307 0 0 0 0 -945.28465069034428 410.29130908318984 0 410.29130908318984 -413.47931788931601 0 0 0 0 -464.94893790500646 249.73001630291037 0 249.73001630291037 49.348448032425949 0 0 0 0 -335.08354784655967 107.26656900608941 0 107.26656900608941 -305.57428465154226 0 0 0 0 -95.702386753910105 200.70376954303356 0 200.70376954303356 -5.4516648122225888 0 0 0 0 -440.32156828769803 387.44369871736853 0 387.44369871736853 -105.05272463499568 0 0 0 0 -79.808134729522862 422.06179887006874 0 422.06179887006874 53.144481038092636 0 0 0 0 198.81786631658542 271.82910861792516 0 271.82910861792516 -238.80602696884307 0 0 0 0 -52.989926253780141 387.95464148145402 0 387.95464148145402 -292.35869797172927 0 0 0 0 185.25796052280566 181.36931624782846 0 181.36931624782846 -603.7401606188796 0 0 0 0 65.946983749090577 375.07489077966602 0 375.07489077966602 -907.34871953294714 0 0 0 0 372.12365851639697 387.03316017973339 0 387.03316017973339 -429.66511134435132 0 0 0 0 221.13163244737007 319.99111743795038 0 319.99111743795038 -445.89206460255082 0 0 0 0 281.12493108685885 199.9525762027406 0 199.9525762027406 -694.33546507226856 0 0 0 0 207.94562117465466 260.49346577543838 0 260.49346577543838 -357.66734310264292 0 0 0 0 572.3490828894428 288.18849109869188 0 288.18849109869188 -68.98604101127421 0 0 0 0 283.9119773269631 245.86864185151353 0 245.86864185151353 -360.39537401765119 0 0 0 0 377.67845280765323 452.60192068757897 0 452.60192068757897 -207.83999085149844 0 0 0 0 177.74915233866341 335.7801849673815 0 335.7801849673815 -53.27618636036641 0 0 0 0 381.84289575231378 303.64300829573767 0 303.64300829573767 -51.252445118807373 0 0 0 0 279.50170921130484 613.83963976730593 0 613.83963976730593 419.42477928227231 0 0 0 0 404.74766178839491 224.06279950686076 0 224.06279950686076 223.40450443723239 0 0 0 0 249.5707334651961 317.04745360548259 0 317.04745360548259 411.97215973613493 0 0 0 0 316.60012083401671 513.98248102653451 0 513.98248102653451 198.54620049815094 0 0 0 0 198.62417503193137 440.62714461302676 0 440.62714461302676 184.7771342046326 0 0 0 0 136.55950264590501 278.24067552799534 0 278.24067552799534 147.3770807809924 0 0 0 0 77.773857235875766 223.8203835428194 0 223.8203835428194 277.95525730217923 0 0 0 0 -16.037695557330153 42.247054360301263 0 42.247054360301263 -62.188909801989212 0 0 0 0 -43.794214889581781 77.115780241059838 0 77.115780241059838 -52.42492587887682 0 0 0 0 -37.855734173638439 44.724536629377795 0 44.724536629377795 -42.772198063299015 0 0 0 0 12.532798898173553 7.7827015239537189 0 7.7827015239537189 -15.016570786229153 0 0 0 0 -63.671542073629098 30.793271383881802 0 30.793271383881802 22.857584603814757 0 0 0 0 -75.160513179413101 74.192663117510165 0 74.192663117510165 -20.411804605450016 0 0 0 0 -42.622012135652767 46.898018448016956 0 46.898018448016956 -8.0156322751863627 0 0 0 0 -37.378909661070793 43.733111173205543 0 43.733111173205543 -7.1422774083766853 0 0 0 0 -51.733928517969616 40.154851015540771 0 40.154851015540771 -8.0331613729067612 0 0 0 0 2.1760926454153378 55.826651352675981 0 55.826651352675981 -24.215369265817571 0 0 0 0 -43.768842556499152 31.769321851495448 0 31.769321851495448 -21.109529957539621 0 0 0 0 -11.748892140705721 18.380817338256747 0 18.380817338256747 -0.0012585437652887776 0 0 0 0 -118.74453693686519 94.993294108578993 0 94.993294108578993 37.030842695559841 0 0 0 0 -10.52981949577719 0.18613952427750746 0 0.18613952427750746 5.6764254035557542 0 0 0 0 -37.06598769777338 67.12400808694656 0 67.12400808694656 -26.641627329885523 0 0 0 0 -46.461160557882977 35.458049578039208 0 35.458049578039208 12.680926299464772 0 0 0 0 -113.99594304734637 58.321029052516678 0 58.321029052516678 9.8529823345743353 0 0 0 0 -42.220968431203801 44.993801205411728 0 44.993801205411728 -7.1686039433188853 0 0 0 0 -55.793076697977085 46.787254325088725 0 46.787254325088725 -0.0013246460730442777 0 0 0 0 2.9062566634529503 49.581979560840409 0 49.581979560840409 22.997188313317793 0 0 0 0 -7.7687471294775605 31.783149980226881 0 31.783149980226881 22.861534217661188 0 0 0 0 5.2998683312689536 26.059756839596957 0 26.059756839596957 -1.1532335743540898 0 0 0 0 -33.29057678533718 36.892578414437594 0 36.892578414437594 0.0087910848596948199 0 0 0 0 18.658129030780401 45.174966135789873 0 45.174966135789873 -0.66927344298846947 0 0 0 0 -30.078339050829527 -10.153169330173114 0 -10.153169330173114 17.80927367444383 0 0 0 0 -90.475243319233414 413.73740374629415 0 413.73740374629415 684.21686079203937 0 0 0 0 -31.159785801479558 19.350856844924522 0 19.350856844924522 -10.656614832237551 0 0 0 0 -392.65941283794382 214.25069453784818 0 214.25069453784818 316.76150357317238 0 0 0 0 2.5396502900111955 67.897089408128522 0 67.897089408128522 267.00509866288485 0 0 0 0 117.66688690635056 473.01844530168455 0 473.01844530168455 475.23470219225419 0 0 0 0 -203.32548871667677 400.79714962408616 0 400.79714962408616 193.225328767061 0 0 0 0 -262.32748321782401 93.545484542464237 0 93.545484542464237 159.83609262516256 0 0 0 0 -245.86053184727643 178.70953118173566 0 178.70953118173566 318.80527526350852 0 0 0 0 -291.38465747239388 -29.346740589906403 0 -29.346740589906403 155.34055610074574 0 0 0 0 -42.124952624744765 80.332489451880974 0 80.332489451880974 43.056581497949082 0 0 0 0 -192.16950524376443 85.412616983077896 0 85.412616983077896 188.96080360018823 0 0 0 0 114.14078933658311 279.87726901578571 0 279.87726901578571 134.47629683884588 0 0 0 0 -731.17834013238462 -284.16401638331263 0 -284.16401638331263 296.28007462515961 0 0 0 0 -2.4546189771916858 2.1532750721593317 0 2.1532750721593317 3.1510905663228641 0 0 0 0 77.531364921620479 81.235486671117542 0 81.235486671117542 52.966728450424853 0 0 0 0 -346.31353782297083 51.017350084584905 0 51.017350084584905 42.392449687082262 0 0 0 0 -878.8183600223274 206.28591780844727 0 206.28591780844727 178.32311716844561 0 0 0 0 -2.8092144046013203 2.8085510804452838 0 2.8085510804452838 3.6625791103115262 0 0 0 0 -7.5705535097440588 136.6049004462493 0 136.6049004462493 -129.42368172122224 0 0 0 0 -1818.2385762144841 3139.6614590056124 0 3139.6614590056124 65.200407609343529 0 0 0 0 239.38504540443319 2756.9229572634358 0 2756.9229572634358 -14.110740610980429 0 0 0 0 -10.794373375184335 7.0022461338685957 0 7.0022461338685957 -3.7573923323991494 0 0 0 0 -8.2379497969523072 23.918665583463735 0 23.918665583463735 0.032922791782766581 0 0 0 0 -222.21456751819642 107.36859390436075 0 107.36859390436075 530.44522854402749 0 0 0 0 2.9642432463369914 24.165074453394482 0 24.165074453394482 -5.6146674753545085 0 0 0 0 7.292553067100414 7.2389366331429414 0 7.2389366331429414 6.5201789975381814 0 0 0 0 -10.922983373646275 36.371837185251934 0 36.371837185251934 -0.042473030225618172 0 0 0 0 -148.46739340976637 187.76620435653604 0 187.76620435653604 -120.05154687590039 0 0 0 0 -96.990114804550103 102.37240136492619 0 102.37240136492619 15.717589738065726 0 0 0 0 22.555854215758558 20.862055587449362 0 20.862055587449362 19.754493358277898 0 0 0 0 14.009338754185592 52.559102695187903 0 52.559102695187903 -11.21498422739387 0 0 0 0 -24.217318000686646 34.208632380694326 0 34.208632380694326 42.224027835447487 0 0 0 0 -167.63642791430539 98.556167681832449 0 98.556167681832449 15.61264555787784 0 0 0 0 -180.67441412939297 -47.545973755453815 0 -47.545973755453815 22.384271046612412 0 0 0 0 -5.7754347154914285 -13.124029096637969 0 -13.124029096637969 11.264988586641266 0 0 0 0 -127.40012283193937 24.58091297143983 0 24.58091297143983 41.872165074384611 0 0 0 0 15.368692048932644 75.451837675396746 0 75.451837675396746 17.415978965829709 0 0 0 0 -8.2822894509114633 4.6026126470664366 0 4.6026126470664366 -2.840928585913332 0 0 0 0 86.834417815647612 -103.07805936592194 0 -103.07805936592194 -330.95332034619059 0 0 0 0 17.648142188962083 -15.986846505362337 0 -15.986846505362337 103.54891698776919 0 0 0 0 -68.514185527896188 349.24198428959971 0 349.24198428959971 -530.91159300283471 0 0 0 0 -371.86703869611665 118.6203939826446 0 118.6203939826446 -19.349720616882223 0 0 0 0 -4.0775234968777454 2.3235473940322109 0 2.3235473940322109 -0.43632311709154692 0 0 0 0 -77.94860741418961 -140.24820822599577 0 -140.24820822599577 8.5533694220948746 0 0 0 0 -355.35853593796492 74.198619363742182 0 74.198619363742182 -2.9682960336213 0 0 0 0 -359.3158132906492 -136.4389119391044 0 -136.4389119391044 -85.483987083338434 0 0 0 0 -539.70522922573764 -208.18195424510122 0 -208.18195424510122 -927.88532811166078 0 0 0 0 -285.55454851292598 187.89944962586014 0 187.89944962586014 -338.18267608176757 0 0 0 0 -428.73336979096348 511.2343579715598 0 511.2343579715598 -807.99673715901736 0 0 0 0 -226.43423986650305 62.16580457364762 0 62.16580457364762 -268.04583313137118 0 0 0 0 -47.783724651948432 276.87798186943837 0 276.87798186943837 -870.89701139586396 0 0 0 0 -345.11030237233899 741.83579883525272 0 741.83579883525272 -1095.5554706226831 0 0 0 0 -153.27258071422693 210.19067792681017 0 210.19067792681017 -233.80507922422839 0 0 0 0 -513.73075869693548 386.19772038699284 0 386.19772038699284 -65.174119525501737 0 0 0 0 -160.13532277959621 383.60284556142938 0 383.60284556142938 -456.62717315660848 0 0 0 0 171.77335858208244 -3.1162080641879584 0 -3.1162080641879584 -84.35289061578078 0 0 0 0 -5.222471723605949 5.9422354294629329 0 5.9422354294629329 -2.5765583284014042 0 0 0 0 -1034.1897946698155 341.92710361971695 0 341.92710361971695 212.45700029766158 0 0 0 0 495.4659183951153 673.14763987678998 0 673.14763987678998 -491.3560544608481 0 0 0 0 -871.67031252139532 921.51421938948988 0 921.51421938948988 -323.06600070456625 0 0 0 0 -54.478732259332901 337.78836001952004 0 337.78836001952004 35.669853966261144 0 0 0 0 -17.28008301765658 316.80677540024772 0 316.80677540024772 -740.48535337535577 0 0 0 0 -434.27269043397973 204.61173484536994 0 204.61173484536994 -284.72673855263565 0 0 0 0 -454.68588931157137 795.47943393478636 0 795.47943393478636 -505.27423773857845 0 0 0 0 -563.38925399554137 699.90682255605589 0 699.90682255605589 -588.65115997257817 0 0 0 0 127.44193348867702 177.87044994148891 0 177.87044994148891 45.774077752634184 0 0 0 0 -122.59186403642525 218.59862396093376 0 218.59862396093376 187.27739186196413 0 0 0 0 -32.875877501176689 48.678521690732509 0 48.678521690732509 -21.105929574809323 0 0 0 0 231.01416629573214 -48.55010729348578 0 -48.55010729348578 -103.18083759378715 0 0 0 0 -12.503857199376398 248.95238450855231 0 248.95238450855231 191.98142850353906 0 0 0 0 139.52889268627041 771.69273993474235 0 771.69273993474235 -185.24305156226183 0 0 0 0 174.56772333379195 427.51557891216362 0 427.51557891216362 116.57825577309995 0 0 0 0 -55.244034515295056 49.485344175617122 0 49.485344175617122 -39.685489547165048 0 0 0 0 64.958306722066482 -36.971918542483763 0 -36.971918542483763 124.98490762988695 0 0 0 0 -51.211295311615686 75.637623348822672 0 75.637623348822672 41.215571155058569 0 0 0 0 -3.9426298910693731 52.547671879478003 0 52.547671879478003 13.268107123476511 0 0 0 0 0.3944106823601885 40.739265409530773 0 40.739265409530773 22.368858850597434 0 0 0 0 -37.834401533997152 102.55680436683906 0 102.55680436683906 92.918306691441103 0 0 0 0 -1.2360603196575539 31.022180682753969 0 31.022180682753969 26.128699636385136 0 0 0 0 -2.3638196035753936 54.455220005904266 0 54.455220005904266 8.6151872187765548 0 0 0 0 1.4234837153344415 64.136362227487552 0 64.136362227487552 10.500893033007742 0 0 0 0 -29.893229515029816 63.403759211027136 0 63.403759211027136 18.763499827007763 0 0 0 0 -28.729841044503701 60.079644626011032 0 60.079644626011032 13.72089065349428 0 0 0 0 121.06489846859768 75.364975152013358 0 75.364975152013358 -5.8915319317602552 0 0 0 0 10.31700042568454 22.576743233804507 0 22.576743233804507 32.118803017061225 0 0 0 0 8.510024574463074 12.020819820273616 0 12.020819820273616 4.739600013114142 0 0 0 0 -63.358407944964711 61.557947949680965 0 61.557947949680965 21.718129832697741 0 0 0 0 20.012256574579794 58.795862298164366 0 58.795862298164366 40.096354830148982 0 0 0 0 -35.072445584676942 53.071208627461587 0 53.071208627461587 50.139487756794779 0 0 0 0 -9.7489889842108823 195.42899191132165 0 195.42899191132165 57.221042916266015 0 0 0 0 191.09942133404547 122.75536450419895 0 122.75536450419895 3.4469537778350059 0 0 0 0 -99.663110762805445 68.686699712015979 0 68.686699712015979 46.629084120038897 0 0 0 0 13.1922458736327 12.61129775309999 0 12.61129775309999 4.3487387818869365 0 0 0 0 -77.159488128614612 86.804279478106764 0 86.804279478106764 51.201453598740045 0 0 0 0 -9.855677982666748 70.450541360281932 0 70.450541360281932 16.785710582073079 0 0 0 0 -12.970640749685117 86.119817078761116 0 86.119817078761116 28.533467279135948 0 0 0 0 -30.575244465959258 70.429604802920949 0 70.429604802920949 22.972917994498857 0 0 0 0 -43.264816693088505 97.079289910849184 0 97.079289910849184 54.156414995450177 0 0 0 0 1.3240321723824309 80.479839104835264 0 80.479839104835264 26.845144896826241 0 0 0 0 16.853132855554577 109.19860340446758 0 109.19860340446758 35.17553548298747 0 0 0 0 -16.94076010729782 43.591964699608155 0 43.591964699608155 -26.708691161823538 0 0 0 0 43.066994072098169 80.440250466112047 0 80.440250466112047 44.416725798577318 0 0 0 0 7.4036437580653001 268.32708356546209 0 268.32708356546209 186.61055352521362 0 0 0 0 -34.105005715581342 41.082240164222696 0 41.082240164222696 54.485094150157522 0 0 0 0 182.2121776130225 124.92903684258999 0 124.92903684258999 41.309293265469023 0 0 0 0 137.47229594808596 92.083905524617876 0 92.083905524617876 88.682636903613457 0 0 0 0 133.7003976691085 107.47656087019095 0 107.47656087019095 44.084440180653473 0 0 0 0 109.01526121723145 91.1741999299702 0 91.1741999299702 47.980010246326856 0 0 0 0 127.15229118955904 84.996486317497329 0 84.996486317497329 30.775235594017431 0 0 0 0 330.4609146450457 188.35285717289298 0 188.35285717289298 41.275917315055267 0 0 0 0 146.16940549635183 92.00557597291845 0 92.00557597291845 23.530337450079969 0 0 0 0 29.334616248001112 18.609985100702033 0 18.609985100702033 101.1819881006727 0 0 0 0 118.12970782185221 74.599363608158455 0 74.599363608158455 3.9213100851047784 0 0 0 0 37.375517928589034 56.246207161209895 0 56.246207161209895 14.684727182320785 0 0 0 0 76.34286178201728 34.543484992696904 0 34.543484992696904 27.974456469608413 0 0 0 0 -1.10060209747013 12.033060927805508 0 12.033060927805508 0.57537978729354222 0 0 0 0 102.82930490813487 93.131326153691589 0 93.131326153691589 61.863732916797744 0 0 0 0 99.885915331309661 66.67425033726613 0 66.67425033726613 37.610879023050074 0 0 0 0 38.298576355802652 85.003084791293077 0 85.003084791293077 68.901610098138917 0 0 0 0 14.887188370255529 -1.8369478622704491 0 -1.8369478622704491 -16.36582052993964 0 0 0 0 158.33294799018768 71.372313966130605 0 71.372313966130605 21.119353171772673 0 0 0 0 110.92265577916987 97.7176356746495 0 97.7176356746495 7.274111053076922 0 0 0 0 48.552846168176103 0.71682083391807794 0 0.71682083391807794 -34.401864248091442 0 0 0 0 147.13385497359559 46.321958024593187 0 46.321958024593187 15.416263765160693 0 0 0 0 71.872023994731535 68.101859433025311 0 68.101859433025311 41.781357667219709 0 0 0 0 40.702581031083753 36.241931429087771 0 36.241931429087771 23.967540188813018 0 0 0 0 -25.860780387141858 43.266634316758427 0 43.266634316758427 16.737929185601388 0 0 0 0 69.379296658233216 48.177152880074573 0 48.177152880074573 -4.9412663671610062 0 0 0 0 15.008935290388763 40.224914798127429 0 40.224914798127429 20.600934118017904 0 0 0 0 85.793818199490488 23.585254157122108 0 23.585254157122108 19.53390510015015 0 0 0 0 58.147636882718416 32.906869377449766 0 32.906869377449766 22.355439905863022 0 0 0 0 25.112901905871695 40.043746462455601 0 40.043746462455601 0.032557120785923724 0 0 0 0 57.766463125298287 27.345513284032222 0 27.345513284032222 -3.8048855703673325 0 0 0 0 165.72256975296477 77.962705420657585 0 77.962705420657585 -29.465309438601253 0 0 0 0 60.637387751152346 143.95081340608613 0 143.95081340608613 -56.00505758766667 0 0 0 0 -475.19178259017644 80.674963719633524 0 80.674963719633524 -0.13006344275345327 0 0 0 0 15.302501722745831 11.646687484598814 0 11.646687484598814 1.128554158768452 0 0 0 0 79.776318430886022 30.481100289835013 0 30.481100289835013 -0.052933172954915182 0 0 0 0 63.745239411015064 26.92681606709084 0 26.92681606709084 19.759112436207943 0 0 0 0 87.77269372354931 111.37283863735865 0 111.37283863735865 92.487713485490531 0 0 0 0 178.32314804105408 101.12088088910241 0 101.12088088910241 13.309360945146182 0 0 0 0 120.01370242687699 50.781913092600007 0 50.781913092600007 18.484904550363808 0 0 0 0 62.430751211036693 -11.129459991162499 0 -11.129459991162499 -29.364957027220584 0 0 0 0 -17.553669907513331 40.371865891773908 0 40.371865891773908 36.284243227342984 0 0 0 0 -454.05649717470806 -80.124264549132931 0 -80.124264549132931 225.85842624325596 0 0 0 0 -635.05251666162803 -252.66371521961992 0 -252.66371521961992 -87.372868455800926 0 0 0 0 -186.70370973836543 140.29623611094576 0 140.29623611094576 88.668397217174061 0 0 0 0 -122.59511528922303 -150.45608032361633 0 -150.45608032361633 122.63623488439771 0 0 0 0 145.02975297754892 42.021625647763358 0 42.021625647763358 40.512319498200668 0 0 0 0 134.26804386765434 73.698709776326723 0 73.698709776326723 107.58006104486412 0 0 0 0 206.10783282280318 86.818711989377334 0 86.818711989377334 15.515278250226402 0 0 0 0 -166.37638243428955 -120.03563811568165 0 -120.03563811568165 130.25470587465679 0 0 0 0 -21.203747751657147 37.314791060973306 0 37.314791060973306 45.087826091998579 0 0 0 0 163.46478372227284 88.493396364341606 0 88.493396364341606 33.419951885620321 0 0 0 0 195.33085483996911 59.714507173215679 0 59.714507173215679 40.352925723796943 0 0 0 0 66.719011439545284 375.3366357886589 0 375.3366357886589 199.18488339868782 0 0 0 0 -28.860991485085037 26.789648039394265 0 26.789648039394265 -26.649804127425 0 0 0 0 -38.066734822365106 92.843077290392102 0 92.843077290392102 42.505476228659973 0 0 0 0 -38.833024759558612 58.372671051980433 0 58.372671051980433 17.161958328011679 0 0 0 0 54.823128121184709 99.409376692423393 0 99.409376692423393 9.7124215780931991 0 0 0 0 -0.20526975690154359 123.60007361363387 0 123.60007361363387 59.161305463669123 0 0 0 0 -176.82405404507881 -15.879418590237037 0 -15.879418590237037 37.709915096833356 0 0 0 0 -16.936257542551829 18.880720547632812 0 18.880720547632812 -17.868300000057218 0 0 0 0 207.19629132868431 -22.138973440276459 0 -22.138973440276459 -2.512039096938679 0 0 0 0 329.70163878080166 637.79081681132357 0 637.79081681132357 231.68837877255282 0 0 0 0 -122.99754280628986 179.42789691660437 0 179.42789691660437 299.04322287088871 0 0 0 0 219.47017425201284 297.98303836106606 0 297.98303836106606 0.15156753329210915 0 0 0 0 689.81443328873138 266.47029690581621 0 266.47029690581621 -79.060546657878149 0 0 0 0 -5.147565260051806 6.4072552130918581 0 6.4072552130918581 -7.194629586828114 0 0 0 0 169.62641910575621 40.922667172795627 0 40.922667172795627 -303.93975976920046 0 0 0 0 -296.81762300902483 386.15936103153217 0 386.15936103153217 53.240090081351809 0 0 0 0 -3.1500111650166218 892.22402119545586 0 892.22402119545586 -1075.2827270004054 0 0 0 0 -2938.0339151870867 3183.981794236046 0 3183.981794236046 3.9473986589402621 0 0 0 0 -0.14841721717618839 7.7534963108342083 0 7.7534963108342083 -5.0026580772104126 0 0 0 0 1899.4430423594458 2226.6745090090262 0 2226.6745090090262 -15.2750391401519 0 0 0 0 -246.66273244770127 -258.1675511925605 0 -258.1675511925605 87.269567533774534 0 0 0 0 11.139664009482658 259.23071255093964 0 259.23071255093964 193.43132837244775 0 0 0 0 -851.09788912330987 689.72727981388016 0 689.72727981388016 -515.5965839241253 0 0 0 0 -14.423675825761165 62.030489495013171 0 62.030489495013171 -61.716998141018848 0 0 0 0 3.3870615848628916 14.893826180925686 0 14.893826180925686 -13.948724562025234 0 0 0 0 421.10011149427737 117.05803443635159 0 117.05803443635159 -14.174154145977809 0 0 0 0 62.316885123815155 112.63843791580439 0 112.63843791580439 -5.2945322194573237 0 0 0 0 4.7474102819144974 15.565332997489435 0 15.565332997489435 -21.066373443982854 0 0 0 0 0.11386260733343079 25.949526255537421 0 25.949526255537421 -38.172274975833716 0 0 0 0 140.1648868016764 60.330139853635046 0 60.330139853635046 -23.965844629259664 0 0 0 0 -3.849210245985887 21.128182880398526 0 21.128182880398526 -32.351989409886301 0 0 0 0 15.986742422857787 48.657468410321599 0 48.657468410321599 -17.864199648422073 0 0 0 0 2.2404215600810318 16.323841370751524 0 16.323841370751524 -27.082838581965177 0 0 0 0 33.551581305204309 66.643894548080425 0 66.643894548080425 -9.2480834468442481 0 0 0 0 6.9597935159108602 52.132026601961115 0 52.132026601961115 -16.620422004023567 0 0 0 0 22.986235345531895 44.52843874285827 0 44.52843874285827 -25.990080042058253 0 0 0 0 15.470895740619881 97.023517804476114 0 97.023517804476114 21.602945849110256 0 0 0 0 15.102756454885821 84.471311626970419 0 84.471311626970419 5.0870818696566857 0 0 0 0 -6.9277683058171533 83.990759713480657 0 83.990759713480657 14.159192717110272 0 0 0 0 -7.2212788149627158 81.947450050727639 0 81.947450050727639 30.409674450187595 0 0 0 0 5.3870447624358349 79.667169723543338 0 79.667169723543338 13.923023934854427 0 0 0 0 6.7679596252128249 72.414350284147076 0 72.414350284147076 1.1990557884855662 0 0 0 0 19.575302425146219 81.544912386620126 0 81.544912386620126 6.8401416930864798 0 0 0 0 10.865323199890554 68.912063144191052 0 68.912063144191052 4.1862590779783204 0 0 0 0 5.2201925520639634 82.480597928559291 0 82.480597928559291 -9.2338864886260126 0 0 0 0 -24.473238716309424 65.539475293218857 0 65.539475293218857 3.9174179205438122 0 0 0 0 -1.1344430664757965 69.843349615039187 0 69.843349615039187 1.7434952613257337 0 0 0 0 -1.489320674809278 70.876604911623872 0 70.876604911623872 13.788476614536194 0 0 0 0 12.773554585670354 64.099540196795715 0 64.099540196795715 3.3465524106723024 0 0 0 0 16.346209009396262 50.825449448886502 0 50.825449448886502 18.065286617798847 0 0 0 0 -1.8048726964188972 65.049488903481915 0 65.049488903481915 7.0280802795896307 0 0 0 0 -29.639160227320644 24.162007742597062 0 24.162007742597062 -16.54487267572722 0 0 0 0 -48.634139033631072 72.973253176583967 0 72.973253176583967 10.734088946366683 0 0 0 0 -21.434171672488446 30.882896355076809 0 30.882896355076809 -25.333110753788787 0 0 0 0 -10.802796607415644 7.2608246507079599 0 7.2608246507079599 8.1402009084360998 0 0 0 0 47.338676880346611 69.098510889831232 0 69.098510889831232 -6.8542708576824225 0 0 0 0 -18.290013637990342 25.13954828124406 0 25.13954828124406 -15.561688667457929 0 0 0 0 -16.686739017692162 27.181232923798234 0 27.181232923798234 -25.840711218319484 0 0 0 0 -38.783353407605318 29.185717988300894 0 29.185717988300894 -7.141411317170423 0 0 0 0 -0.0070060007856227458 6.0476787493462325 0 6.0476787493462325 -2.480302246985957 0 0 0 0 -35.702291327441344 49.459165119864338 0 49.459165119864338 -25.338719611147098 0 0 0 0 -87.310502596777951 41.594896266971773 0 41.594896266971773 -7.5394083152204985 0 0 0 0 0.45646526424093281 3.1028652172706472 0 3.1028652172706472 -0.92430447519933523 0 0 0 0 -30.309659915492375 31.465570323854081 0 31.465570323854081 -6.7207119344529929 0 0 0 0 -0.0034784765607111072 12.503099981696934 0 12.503099981696934 -16.850309736502822 0 0 0 0 -26.099013521292136 20.548390990012244 0 20.548390990012244 -16.495881678404999 0 0 0 0 8.5451284673908958 34.043341819713532 0 34.043341819713532 -22.861713397764106 0 0 0 0 -3.1256133832212072 8.8878383320625289 0 8.8878383320625289 -4.9311395882468787 0 0 0 0 -4.452958209917881 7.6500615021476506 0 7.6500615021476506 -2.2440608081860205 0 0 0 0 7.3255549507070441 0.1938196908052916 0 0.1938196908052916 -14.325334484563285 0 0 0 0 4.3410967614763649 41.573196414909035 0 41.573196414909035 -4.4771793139152578 0 0 0 0 -6.6084941469671321 44.245215608949366 0 44.245215608949366 15.347631625845679 0 0 0 0 39.776391524541395 102.9515660642719 0 102.9515660642719 -37.562583079248725 0 0 0 0 49.606050643392336 89.841817485830688 0 89.841817485830688 -34.967351703671739 0 0 0 0 26.321489304806164 102.94792894753846 0 102.94792894753846 -27.286479032947682 0 0 0 0 29.024511147535392 50.182388611101402 0 50.182388611101402 4.8851042619823879 0 0 0 0 40.526852084089114 100.04238578910008 0 100.04238578910008 -44.426420964824501 0 0 0 0 43.677945709367123 111.23815705013112 0 111.23815705013112 -246.58154226728948 0 0 0 0 -4.3870869517068058 0.19440317955741193 0 0.19440317955741193 -62.411342611943837 0 0 0 0 45.692067951082151 16.189442801383478 0 16.189442801383478 -7.0573509826874385 0 0 0 0 26.138078270634651 54.902512677588675 0 54.902512677588675 -45.555189733378938 0 0 0 0 21.667553780158414 60.441661577257037 0 60.441661577257037 -52.388684663863387 0 0 0 0 22.661302983558926 55.585101316704822 0 55.585101316704822 -10.763611894993119 0 0 0 0 -6.8825149415503759 36.507209779078494 0 36.507209779078494 -30.373021485118272 0 0 0 0 20.702777914981816 45.89984048536266 0 45.89984048536266 -21.959156917671248 0 0 0 0 8.5582952355725865 78.779110881398083 0 78.779110881398083 -130.20546553741406 0 0 0 0 -1.4871037019010913 62.462610483895702 0 62.462610483895702 -2.6003637631014485 0 0 0 0 2.0186413591509336 63.019044956658036 0 63.019044956658036 -174.98014715244062 0 0 0 0 0.83985295047205 67.376087216685846 0 67.376087216685846 -20.7703425064974 0 0 0 0 8.8054415304941358 -34.20875469611201 0 -34.20875469611201 -174.25838192320953 0 0 0 0 16.868913435857394 54.477158666719333 0 54.477158666719333 -215.72482213791227 0 0 0 0 7.2228806477396574 50.640853070442972 0 50.640853070442972 -194.17766081483569 0 0 0 0 11.092172358163225 72.392035436118022 0 72.392035436118022 -203.95861658497597 0 0 0 0 44.432868769883953 73.491873276626393 0 73.491873276626393 -139.65151276010147 0 0 0 0 67.731937471777201 161.13314472933416 0 161.13314472933416 -76.12087009329116 0 0 0 0 52.376607470152521 150.72070122831065 0 150.72070122831065 -34.639190166722983 0 0 0 0 71.601387405553396 133.63009123953816 0 133.63009123953816 -62.90099751278467 0 0 0 0 67.046541046741368 116.21700492430136 0 116.21700492430136 -22.237535784719512 0 0 0 0 91.045668255603232 116.50599020752998 0 116.50599020752998 -36.129039658902911 0 0 0 0 77.02159616019344 117.82713040122326 0 117.82713040122326 3.754259911715053 0 0 0 0 6.0788566455143282 -0.30554669737762197 0 -0.30554669737762197 -10.438953396227873 0 0 0 0 99.59366567361576 64.378443184730713 0 64.378443184730713 41.678944026614772 0 0 0 0 83.007669673594137 95.064216358790873 0 95.064216358790873 -10.331909376138356 0 0 0 0 135.29588065069402 54.806652777770068 0 54.806652777770068 -71.937278722936753 0 0 0 0 -1.7870316574345466 5.262743356125128 0 5.262743356125128 -6.9463613468450376 0 0 0 0 168.14890934831783 -1.3270163150300505 0 -1.3270163150300505 13.928077701828443 0 0 0 0 222.7720674859811 149.9742332076712 0 149.9742332076712 -53.928995669586584 0 0 0 0 75.936520250132162 121.99518313493172 0 121.99518313493172 -27.608000605920097 0 0 0 0 120.49023716601369 115.02911239572859 0 115.02911239572859 -77.940375994277929 0 0 0 0 105.29180093221294 152.96314477785563 0 152.96314477785563 -25.569275834131986 0 0 0 0 88.297528857652651 124.58314152496314 0 124.58314152496314 1.6500048871675972 0 0 0 0 121.05810222386935 123.10775442075101 0 123.10775442075101 -37.509500881245913 0 0 0 0 21.124654777956493 199.77408039615693 0 199.77408039615693 -4.8528303903003689 0 0 0 0 29.600655025000378 150.21848673550267 0 150.21848673550267 8.1256001951696817 0 0 0 0 28.171920148221034 143.19213241888065 0 143.19213241888065 -23.510389278962975 0 0 0 0 30.948367429182326 112.80895732354838 0 112.80895732354838 -44.492538437720214 0 0 0 0 21.61041413129351 91.957051713063265 0 91.957051713063265 16.152441035632364 0 0 0 0 -2.686738615962895 110.47364661745087 0 110.47364661745087 18.740806730376789 0 0 0 0 -45.987496601230305 162.12358901347761 0 162.12358901347761 14.288779178816185 0 0 0 0 -41.982737622372952 110.6399922046985 0 110.6399922046985 75.745433653049986 0 0 0 0 -2.7021520703638089 110.21198030805681 0 110.21198030805681 74.075727612987976 0 0 0 0 -7.2955926869681207 80.704399250113056 0 80.704399250113056 103.74523768194558 0 0 0 0 -27.417133657429076 77.427154755379888 0 77.427154755379888 144.61578268829908 0 0 0 0 21.287033625323602 89.16080912349571 0 89.16080912349571 -48.707105520552432 0 0 0 0 -12.8228384784843 52.497949701915786 0 52.497949701915786 101.69538746883336 0 0 0 0 9.4026897642206677 68.254355928896985 0 68.254355928896985 1.1933656137844082 0 0 0 0 -0.15073563335863582 73.113029077561805 0 73.113029077561805 4.1594807330257026 0 0 0 0 17.351005807287947 80.79678757522197 0 80.79678757522197 -5.9126618097507162 0 0 0 0 2.2694696850248874 69.075557521253359 0 69.075557521253359 42.161724221979966 0 0 0 0 -75.428425687614308 -584.55025464279242 0 -584.55025464279242 307.33040963893291 0 0 0 0 -163.48174112691777 -125.22598966921214 0 -125.22598966921214 862.21342339238618 0 0 0 0 -97.228704689060464 -53.836996598984115 0 -53.836996598984115 674.5568055062904 0 0 0 0 -166.76201186578385 -161.02914193065226 0 -161.02914193065226 619.58058121125214 0 0 0 0 -82.96723089109264 144.26289429195458 0 144.26289429195458 607.86014027359579 0 0 0 0 -18.365559573302562 32.666300615979708 0 32.666300615979708 287.68089666045853 0 0 0 0 172.09802744133015 -238.94231976615265 0 -238.94231976615265 -235.72159032467607 0 0 0 0 -72.178967820420439 102.46513466179749 0 102.46513466179749 386.22160299993993 0 0 0 0 -7.3983244989941568 -20.147616282438321 0 -20.147616282438321 117.42185712981154 0 0 0 0 4.5606753564588871 2.789649204001762 0 2.789649204001762 -27.453554995954619 0 0 0 0 -88.781300606386139 70.276382183117676 0 70.276382183117676 112.07850670865719 0 0 0 0 1866.0595716284536 -178.94010675368918 0 -178.94010675368918 -915.59244928418775 0 0 0 0 68.935212194887754 109.08760106225964 0 109.08760106225964 -172.7399504271707 0 0 0 0 0.35578279400366264 5.299814895142422 0 5.299814895142422 -14.728573906052077 0 0 0 0 -2236.5130935110938 613.32362006662879 0 613.32362006662879 -2203.0940187176457 0 0 0 0 -3360.5395114173607 1895.0036507234181 0 1895.0036507234181 -538.19981307670969 0 0 0 0 12.552927244609226 21.980347257515234 0 21.980347257515234 18.801419914183668 0 0 0 0 -144.3990919267344 1685.8558049916028 0 1685.8558049916028 -2073.0886574125907 0 0 0 0 -728.68462002787396 404.27213254659 0 404.27213254659 -596.71994957639254 0 0 0 0 -1379.6708159790446 778.23052681516128 0 778.23052681516128 -340.46598571139111 0 0 0 0 -870.83330237748976 377.33560287538603 0 377.33560287538603 -186.14256390694936 0 0 0 0 1345.6758791470222 -20.14237209804196 0 -20.14237209804196 -48.408717691563652 0 0 0 0 4.0556132834658829 13.413085755289506 0 13.413085755289506 -43.134745116989848 0 0 0 0 16.044389172555384 64.779933215904748 0 64.779933215904748 -27.621915974639705 0 0 0 0 43.697437570167267 77.927063447717956 0 77.927063447717956 -36.464354748924961 0 0 0 0 25.643150804372254 32.022046866286757 0 32.022046866286757 29.283015174174693 0 0 0 0 -707.92582024232536 476.15406749706926 0 476.15406749706926 -383.62287076865323 0 0 0 0 -707.7163566858635 618.98785764719651 0 618.98785764719651 -320.17152758747397 0 0 0 0 -192.46514419834602 503.60516354629362 0 503.60516354629362 -506.85032391123968 0 0 0 0 0.075892233313179958 8.353465651856169 0 8.353465651856169 10.01874060634696 0 0 0 0 -157.4061601050762 338.20322775066597 0 338.20322775066597 -502.73738269798378 0 0 0 0 -198.43007492863489 158.08965695316874 0 158.08965695316874 73.72248041027342 0 0 0 0 48.768457810212425 47.5588723881595 0 47.5588723881595 29.395557250039843 0 0 0 0 -455.57689344941082 425.51269885250076 0 425.51269885250076 -191.61421611755213 0 0 0 0 -382.03133261823314 281.80498649262609 0 281.80498649262609 -68.933599659998436 0 0 0 0 -377.67922783105837 346.45762897810255 0 346.45762897810255 -118.8245677179948 0 0 0 0 -585.4786411279365 427.43533064579242 0 427.43533064579242 15.592037526890635 0 0 0 0 -612.0705353679823 506.62785533915667 0 506.62785533915667 -53.374732368596597 0 0 0 0 -664.08962519698071 549.06544410669449 0 549.06544410669449 -79.130812372357468 0 0 0 0 -446.10902665740014 474.57009794532496 0 474.57009794532496 -243.16672938459669 0 0 0 0 -581.2762376114224 439.58759828082839 0 439.58759828082839 48.076279184606392 0 0 0 0 -590.87874309125891 620.74025344426627 0 620.74025344426627 30.499314135595341 0 0 0 0 -723.98021731540939 583.40005854213086 0 583.40005854213086 126.06149371451465 0 0 0 0 -726.57359735247155 419.16089857745101 0 419.16089857745101 189.74293999062502 0 0 0 0 -770.87770827828945 473.37877277351799 0 473.37877277351799 127.37574469763786 0 0 0 0 -511.77861724779723 64.923464433872141 0 64.923464433872141 168.04192547814455 0 0 0 0 -808.89456984967728 285.01726426863752 0 285.01726426863752 140.71625685334772 0 0 0 0 -464.02364215436046 206.94989613618964 0 206.94989613618964 140.98924884473672 0 0 0 0 -609.75948033898567 411.04969186983362 0 411.04969186983362 84.802462358304183 0 0 0 0 -617.30113706635893 391.78811431577196 0 391.78811431577196 39.119329960783944 0 0 0 0 -632.11666364033636 417.25854412472836 0 417.25854412472836 -216.60278324647516 0 0 0 0 -411.0537287363635 486.01212526309973 0 486.01212526309973 -210.29046700888284 0 0 0 0 -588.10104980329663 628.66596722488612 0 628.66596722488612 -317.35889358012355 0 0 0 0 846.85557196040554 -51.22026216557424 0 -51.22026216557424 -59.519175080255081 0 0 0 0 1051.4533005303078 -44.454650850272628 0 -44.454650850272628 -100.97925007996673 0 0 0 0 6.1425617812564388 15.706564521063122 0 15.706564521063122 -69.402096575177723 0 0 0 0 875.01850739594852 37.569677358928857 0 37.569677358928857 -204.68428143628989 0 0 0 0 7.1503740362031696 14.39223829469945 0 14.39223829469945 -92.76347004318626 0 0 0 0 702.48462320490171 164.37780992418993 0 164.37780992418993 -189.82076872718972 0 0 0 0 11.991606735704408 1030.1348344790058 0 1030.1348344790058 -467.70802936219843 0 0 0 0 939.95442503508457 14.932705356397491 0 14.932705356397491 -255.26323872062494 0 0 0 0 -1020.7568486385135 638.52849884390162 0 638.52849884390162 -90.411665076833742 0 0 0 0 -1262.4365673728544 -360.6458043861785 0 -360.6458043861785 39.857158584170975 0 0 0 0 -1729.091288397839 517.41781157493824 0 517.41781157493824 155.27827837580116 0 0 0 0 -905.02830081429238 342.95337974057475 0 342.95337974057475 190.19978086781339 0 0 0 0 -1217.6724126805711 61.521623190958053 0 61.521623190958053 192.07105148708797 0 0 0 0 -1061.2393954940894 454.95110432300862 0 454.95110432300862 194.03371095447801 0 0 0 0 -787.11239229278908 676.06802486304514 0 676.06802486304514 -30.156321307236794 0 0 0 0 -612.03024552675515 508.50256089234608 0 508.50256089234608 89.428678804633819 0 0 0 0 -1043.7025691772606 634.87548957548279 0 634.87548957548279 -18.101645118529632 0 0 0 0 -580.76238462721653 1300.5799861820924 0 1300.5799861820924 -529.53070905910863 0 0 0 0 242.64066994930135 -377.69965073216008 0 -377.69965073216008 -197.50392584569636 0 0 0 0 -2007.6767579714556 -300.49245718043312 0 -300.49245718043312 -61.100250463437987 0 0 0 0 -11.494879493982461 23.100785590316804 0 23.100785590316804 -23.172056129758005 0 0 0 0 -2758.3078180644375 1231.4615478555897 0 1231.4615478555897 -256.64824905144633 0 0 0 0 -63.549834014231237 -323.98746279087936 0 -323.98746279087936 -1898.7782410322341 0 0 0 0 123.14444534088216 165.14324668468907 0 165.14324668468907 -1298.2346329798343 0 0 0 0 -1.6010009920637458 -26.439517788294324 0 -26.439517788294324 -569.72870649784454 0 0 0 0 -5.6895437646617211 76.509706524688227 0 76.509706524688227 -1.9321208028959518 0 0 0 0 -22.067258407094414 62.987531429011142 0 62.987531429011142 8.6016736781166401 0 0 0 0 -1.9165721564991927 42.750214160659496 0 42.750214160659496 5.7058273361097136 0 0 0 0 -46.777079033757204 33.441223507413952 0 33.441223507413952 -2.8248288271549882 0 0 0 0 86.652974086944596 -198.86432994558709 0 -198.86432994558709 -547.97290111798793 0 0 0 0 -4.5061570796272328 13.112997697338955 0 13.112997697338955 0.28178320984204674 0 0 0 0 -356.13381141898208 -267.4438246753416 0 -267.4438246753416 39.407355347968405 0 0 0 0 15.452762327493474 -44.021548246004386 0 -44.021548246004386 -78.866504221397918 0 0 0 0 150.16605578581584 193.30406196860713 0 193.30406196860713 276.50622369549819 0 0 0 0 52.655379250988176 253.24986530762635 0 253.24986530762635 40.468238186935196 0 0 0 0 -447.72350498402739 162.97466537618311 0 162.97466537618311 87.015832101926208 0 0 0 0 -386.97366915564635 241.34300612297739 0 241.34300612297739 -12.658018016139977 0 0 0 0 -148.21935198932624 104.58873041901097 0 104.58873041901097 13.680078572724597 0 0 0 0 -145.85307797897985 82.862776846886845 0 82.862776846886845 93.054593104607193 0 0 0 0 -18.613943563448629 63.594405768388242 0 63.594405768388242 8.6815564158314373 0 0 0 0 -36.028212278430502 51.180135527781033 0 51.180135527781033 -26.843968305624003 0 0 0 0 116.85265940959277 96.840161523442475 0 96.840161523442475 -90.142675817711279 0 0 0 0 122.05094000096767 153.84834455847931 0 153.84834455847931 -53.164289942680625 0 0 0 0 46.2013659901762 44.823548342672836 0 44.823548342672836 -1.4886335861286284 0 0 0 0 57.525234053063286 113.7974892430102 0 113.7974892430102 -30.146221045171842 0 0 0 0 -41.827510060758868 122.84869566471025 0 122.84869566471025 -102.87082827720587 0 0 0 0 -162.45785915019223 274.85854569415096 0 274.85854569415096 -247.81302327464323 0 0 0 0 -24.675228194733791 158.93087284529611 0 158.93087284529611 -168.2634024748113 0 0 0 0 -247.41306783728032 176.37187841886771 0 176.37187841886771 -1.4267321937368251 0 0 0 0 41.389605491363 53.558500533497863 0 53.558500533497863 -72.503004909580341 0 0 0 0 4.7742639483003586 71.354579344879312 0 71.354579344879312 -44.971059362502274 0 0 0 0 12.78347518242208 60.92298249391024 0 60.92298249391024 -83.64689552866912 0 0 0 0 6.9626043406096869 65.619727927354688 0 65.619727927354688 -42.89591635067336 0 0 0 0 8.3640115936957216 19.302164847607088 0 19.302164847607088 0.97371354177997205 0 0 0 0 -29.989737809762119 48.14194046546254 0 48.14194046546254 17.765376678245957 0 0 0 0 -73.716261420640876 -50.477759709319798 0 -50.477759709319798 130.35441643933882 0 0 0 0 24.923098908537213 37.979014675533108 0 37.979014675533108 11.070160519353522 0 0 0 0 4.1967957420110906 80.587158243994054 0 80.587158243994054 -206.05097026949807 0 0 0 0 -66.165809231912135 91.101363429341291 0 91.101363429341291 49.153010032936436 0 0 0 0 -13.313568238479093 83.118638606661989 0 83.118638606661989 -84.161726899968926 0 0 0 0 -13.960512105372963 33.916424451160879 0 33.916424451160879 13.738187542797014 0 0 0 0 102.57054071908806 234.2964937493216 0 234.2964937493216 -482.07156427229347 0 0 0 0 -247.29629033725359 -262.97294117476122 0 -262.97294117476122 -1022.9758250056802 0 0 0 0 -198.53641450937357 737.97639626643286 0 737.97639626643286 -1137.1777644768154 0 0 0 0 -26.281836296956868 36.752902079394261 0 36.752902079394261 7.8217981130299492 0 0 0 0 -203.58057207296952 239.25510880321235 0 239.25510880321235 -228.7908431183605 0 0 0 0 -1.5733875376231268 6.5203647707396648 0 6.5203647707396648 1.7154568576472684 0 0 0 0 43.055604576635233 -172.74809405011911 0 -172.74809405011911 -901.29716058871929 0 0 0 0 -10.240486577334224 41.20288291300043 0 41.20288291300043 -49.200333169715918 0 0 0 0 -48.007016196555924 188.06584910351376 0 188.06584910351376 102.3388533310499 0 0 0 0 -106.76321619845476 -594.41486171000088 0 -594.41486171000088 309.17286359833088 0 0 0 0 53.400020043225595 48.259538340676954 0 48.259538340676954 -60.814608487315127 0 0 0 0 -3.7128775732708164 46.423348041527788 0 46.423348041527788 -27.261092782820924 0 0 0 0 50.80649221958447 57.524099809386826 0 57.524099809386826 -71.931192476520664 0 0 0 0 25.038720688644389 15.364173431572624 0 15.364173431572624 -8.951840654454216 0 0 0 0 13.057221113602282 82.349368095579848 0 82.349368095579848 -261.20490074018016 0 0 0 0 48.558193372482492 155.29720435202034 0 155.29720435202034 -199.50090884995006 0 0 0 0 -86.59174752920444 195.14430237864872 0 195.14430237864872 -36.423772160327644 0 0 0 0 -627.54526443296345 -543.18734242703067 0 -543.18734242703067 -263.93501870581895 0 0 0 0 8.8684175093746944 2.4300680451627841 0 2.4300680451627841 0.76187079433797322 0 0 0 0 44.15094637311995 226.39032817299449 0 226.39032817299449 -54.749033191794297 0 0 0 0 62.478062136126027 91.813767314575671 0 91.813767314575671 -88.070658483542502 0 0 0 0 -55.453491367137758 51.295183091599029 0 51.295183091599029 -183.77943186601624 0 0 0 0 -41.879891413991572 104.85504045205016 0 104.85504045205016 -71.7010169022833 0 0 0 0 -7.9651184361719061 136.59475993097294 0 136.59475993097294 -145.88691412794287 0 0 0 0 -34.998838167004578 130.46732086057455 0 130.46732086057455 -16.268092945159879 0 0 0 0 39.018091080499289 24.323021733398491 0 24.323021733398491 127.9996336431941 0 0 0 0 1693.4686187116895 1312.460887338093 0 1312.460887338093 -617.32232588357147 0 0 0 0 230.17230319876398 -40.116598998138215 0 -40.116598998138215 -12.944723661144963 0 0 0 0 76.749987997245626 178.57160687941359 0 178.57160687941359 -125.39041778221144 0 0 0 0 -6.4447774698780051 2.7637052336428951 0 2.7637052336428951 -1.317802087039297 0 0 0 0 -114.79022376063222 9.9528961875912501 0 9.9528961875912501 -129.71830672502983 0 0 0 0 288.94148757976654 -159.72314315487165 0 -159.72314315487165 -806.25896665091386 0 0 0 0 -102.76969289437693 122.17548765334504 0 122.17548765334504 54.42014573794404 0 0 0 0 3.578980358215631 226.23066272370488 0 226.23066272370488 90.066496375911811 0 0 0 0 262.80000466044658 311.23657991482651 0 311.23657991482651 -83.327425226583728 0 0 0 0 -23.540080870086967 109.67175783745915 0 109.67175783745915 -35.99342476943275 0 0 0 0 -42.665257334490889 145.84090765296423 0 145.84090765296423 -26.462712671476766 0 0 0 0 -11.27440210844361 76.858733454042522 0 76.858733454042522 -13.120847112615593 0 0 0 0 -89.200292161704056 34.955458565997105 0 34.955458565997105 -22.893900498645962 0 0 0 0 5.012707639103283 2.4239873418300135 0 2.4239873418300135 3.0356973314226252 0 0 0 0 251.31969491915515 -36.854290396084252 0 -36.854290396084252 -70.939329324690334 0 0 0 0 39.667112776227441 55.174781254994741 0 55.174781254994741 -22.566483049813542 0 0 0 0 54.094360571176367 55.73955005615062 0 55.73955005615062 -33.404351583150856 0 0 0 0 38.709204767910705 50.389846628182568 0 50.389846628182568 -32.361043632641668 0 0 0 0 0.46796318508967261 15.067069430472145 0 15.067069430472145 4.2626793800573921 0 0 0 0 -48.879148732303292 93.500428574814578 0 93.500428574814578 -49.419290038147665 0 0 0 0 15.986354284892514 74.189603712071403 0 74.189603712071403 -27.122704278008314 0 0 0 0 -6.8600395819146023 40.116309499472699 0 40.116309499472699 -36.750053641866145 0 0 0 0 13.844297585323147 78.864708529330528 0 78.864708529330528 -44.225587665045168 0 0 0 0 16.48476467033106 66.412480466235138 0 66.412480466235138 -55.483617071608023 0 0 0 0 191.74147893132977 -43.130425699564512 0 -43.130425699564512 -76.015261319393176 0 0 0 0 4.9960109631523011 3.3214377628858927 0 3.3214377628858927 4.423987794087509 0 0 0 0 327.73682077888952 582.5364994654301 0 582.5364994654301 -469.33204413510975 0 0 0 0 41.98363869791865 68.253465669116849 0 68.253465669116849 -57.186574911145726 0 0 0 0 -273.73548261837277 154.53367964091376 0 154.53367964091376 -28.38866097148275 0 0 0 0 2.5811227228768985 33.398810189391952 0 33.398810189391952 -73.0318237555839 0 0 0 0 -14.813951511303156 36.088091034553955 0 36.088091034553955 -42.152162402618501 0 0 0 0 35.812106236597174 -24.98125952018745 0 -24.98125952018745 -5.53197862955858 0 0 0 0 14.372788280903478 96.941015655036608 0 96.941015655036608 -81.96699862931564 0 0 0 0 -23.286479720649368 64.012172735066997 0 64.012172735066997 -33.432861100860464 0 0 0 0 7.4815712987103495 6.938334856863122 0 6.938334856863122 6.3029906379705949 0 0 0 0 83.061318078012846 29.639460753351159 0 29.639460753351159 -48.985991564608412 0 0 0 0 14.098347184004524 40.614656323530653 0 40.614656323530653 -9.1701082350336947 0 0 0 0 5.1804250601562671 22.217384316407333 0 22.217384316407333 -30.5200477570761 0 0 0 0 11.976299748403079 13.567525791696283 0 13.567525791696283 9.0398945871357625 0 0 0 0 49.353827828679641 34.108119153122971 0 34.108119153122971 -37.355592340478324 0 0 0 0 10.748170868042507 50.378094557963777 0 50.378094557963777 -26.615281764189604 0 0 0 0 7.0459670767013449 22.293506232599611 0 22.293506232599611 -8.257820847662515 0 0 0 0 55.052757004887098 26.358894136745221 0 26.358894136745221 -29.593711795576382 0 0 0 0 52.982315249224825 9.6029525239956683 0 9.6029525239956683 -20.546217566653425 0 0 0 0 5.4979502073122273 19.640709030798931 0 19.640709030798931 -20.04656103464913 0 0 0 0 19.56350119097624 22.431539296125266 0 22.431539296125266 -12.699484447366558 0 0 0 0 59.676565561390817 16.012937457408952 0 16.012937457408952 -18.572425192483934 0 0 0 0 24.168234483382435 23.284544040087582 0 23.284544040087582 -13.051822332167461 0 0 0 0 58.796422907689703 32.141141790671099 0 32.141141790671099 -72.08382305363557 0 0 0 0 -50.975830696930643 116.84874301811942 0 116.84874301811942 -61.653841935854871 0 0 0 0 -26.046581827249611 86.82485479945899 0 86.82485479945899 -40.74100712199288 0 0 0 0 -17.280049500404857 111.22837173113658 0 111.22837173113658 -102.71465846299543 0 0 0 0 -37.084491220506607 128.71713627516874 0 128.71713627516874 -84.884974033673643 0 0 0 0 -31.222831581973878 115.60436920757638 0 115.60436920757638 -98.033095507096732 0 0 0 0 -0.31097829044301761 93.909630943417142 0 93.909630943417142 -76.455076213576831 0 0 0 0 -97.566146192537417 59.646918803267909 0 59.646918803267909 -81.19988520766492 0 0 0 0 -12.172182488335238 253.91280446701421 0 253.91280446701421 57.721837100160428 0 0 0 0 0.20755002828614977 26.026873535386315 0 26.026873535386315 -11.130998535873516 0 0 0 0 -1.9299244296107645 -299.9197129013337 0 -299.9197129013337 107.50753989639634 0 0 0 0 53.104213769280896 59.841839410369857 0 59.841839410369857 -12.869939654675647 0 0 0 0 118.61931850673136 41.105861171527067 0 41.105861171527067 -56.878388737124624 0 0 0 0 150.72622015725938 -8.4034045372463879 0 -8.4034045372463879 -62.990912466251757 0 0 0 0 156.88775217840157 20.864299231237965 0 20.864299231237965 5.4356243597358116 0 0 0 0 17.649977597146062 178.54660044318734 0 178.54660044318734 40.616118178644683 0 0 0 0 50.862185970861688 53.419025642628696 0 53.419025642628696 -18.68405438974807 0 0 0 0 379.48170610817033 255.69478410138981 0 255.69478410138981 -1.8780468900804408 0 0 0 0 200.32637980129221 -57.402629340031126 0 -57.402629340031126 91.263133552303771 0 0 0 0 159.90230615693145 -32.502190300394432 0 -32.502190300394432 -9.06957536880509 0 0 0 0 -84.406268849132175 -118.94789399078218 0 -118.94789399078218 -187.81396621881868 0 0 0 0 2.973167203539445 0.58689854577380629 0 0.58689854577380629 -10.580591272542961 0 0 0 0 5.332189145590803 6.7721487689379387 0 6.7721487689379387 1.6317814342887118 0 0 0 0 75.358255771527183 8.1928722565426142 0 8.1928722565426142 -28.58475618572993 0 0 0 0 123.66134291258641 27.378379641841093 0 27.378379641841093 -28.410942259346484 0 0 0 0 11.497303221344239 7.5265015469525309 0 7.5265015469525309 -15.955649897566843 0 0 0 0 -24.534470899860025 72.89876916639696 0 72.89876916639696 -332.42237525363453 0 0 0 0 0.18018216630161987 3.1808929949894917 0 3.1808929949894917 2.3358032334993197 0 0 0 0 11.291733852623963 13.410752820118695 0 13.410752820118695 -10.318589376512392 0 0 0 0 18.610675728750721 13.407977769140189 0 13.407977769140189 -8.9757207054062746 0 0 0 0 39.839942951744888 -58.087722958684026 0 -58.087722958684026 -85.233313942633686 0 0 0 0 11.196887992210577 9.9996806476220002 0 9.9996806476220002 -10.548873789711109 0 0 0 0 -334.11909799762361 375.28068224661911 0 375.28068224661911 -300.46795267688867 0 0 0 0 -84.852041080826893 176.55488718761626 0 176.55488718761626 -148.55974198770127 0 0 0 0 -123.4474962510867 256.89178831884055 0 256.89178831884055 -315.66657629075598 0 0 0 0 -117.68852765081465 265.38641960636232 0 265.38641960636232 -303.24715780881525 0 0 0 0 -88.168614621667075 54.908710825482558 0 54.908710825482558 30.956206076778471 0 0 0 0 -137.51152915363491 178.1098338572192 0 178.1098338572192 -42.746680342403124 0 0 0 0 93.715598903087084 137.45196579594631 0 137.45196579594631 226.48607319021539 0 0 0 0 152.86065840627998 235.61534941231366 0 235.61534941231366 245.14519742000266 0 0 0 0 1.8542628479190171 87.239502287149662 0 87.239502287149662 173.85700576802628 0 0 0 0 44.482391767196532 196.5853291282001 0 196.5853291282001 225.72450415074127 0 0 0 0 97.196312839412712 139.56517585535767 0 139.56517585535767 31.812510234827641 0 0 0 0 57.009587646098225 50.63196220966347 0 50.63196220966347 -45.019809344041278 0 0 0 0 76.190843915072037 114.81048774745432 0 114.81048774745432 -303.22727600324561 0 0 0 0 63.023772797792844 165.84501703057595 0 165.84501703057595 -203.55237307926291 0 0 0 0 60.844848860099319 123.64671695996822 0 123.64671695996822 -213.35836246033432 0 0 0 0 43.406931383433403 211.40199182819561 0 211.40199182819561 -657.33400383280241 0 0 0 0 0.59860700552235357 135.16616879655339 0 135.16616879655339 -189.97206454735715 0 0 0 0 -208.88149670665734 -232.90142604962602 0 -232.90142604962602 -264.20210763851355 0 0 0 0 54.536312935277238 619.53242608276923 0 619.53242608276923 599.65018058066846 0 0 0 0 -87.009394796332344 134.76833396637812 0 134.76833396637812 305.97492774712737 0 0 0 0 -80.120454348856583 -17.571032422521967 0 -17.571032422521967 98.34664539260848 0 0 0 0 -53.13127451868786 126.10858996697789 0 126.10858996697789 412.11485166546481 0 0 0 0 47.75569704825466 140.73913127120613 0 140.73913127120613 278.63533034899592 0 0 0 0 -6.2291172025197739 176.91769368764562 0 176.91769368764562 5.4303367575776065 0 0 0 0 -59.085794976535794 48.296167003603948 0 48.296167003603948 -33.285114012868178 0 0 0 0 433.69964294487727 504.78361637248599 0 504.78361637248599 345.82581016297991 0 0 0 0 4.5418788869160949 13.50791860043681 0 13.50791860043681 -13.179983768613475 0 0 0 0 41.248080157674849 756.35734152288933 0 756.35734152288933 1102.9181298989442 0 0 0 0 -630.54474411500269 90.63064459830639 0 90.63064459830639 589.9242385875034 0 0 0 0 435.07131704929634 818.17544095734047 0 818.17544095734047 -379.87523164961021 0 0 0 0 143.86211141121748 86.305104755076172 0 86.305104755076172 -747.27392824813433 0 0 0 0 67.297436567489058 498.64674262765402 0 498.64674262765402 -181.80740423550014 0 0 0 0 638.32150173382252 92.760884035640629 0 92.760884035640629 50.040327092341613 0 0 0 0 -8.5922211300699303 1.7170399026387884 0 1.7170399026387884 8.6864610227712831 0 0 0 0 -240.4708376833587 63.04447387583059 0 63.04447387583059 90.25250218086876 0 0 0 0 1.0391663446850146 1.389267415771883 0 1.389267415771883 2.2165692846016043 0 0 0 0 106.67900302867838 493.50771372294685 0 493.50771372294685 -181.59768037556205 0 0 0 0 951.51243796868948 -256.8177481295279 0 -256.8177481295279 -85.4748640453181 0 0 0 0 -310.99754141180892 263.53341275008279 0 263.53341275008279 44.942952719000459 0 0 0 0 778.07113444562856 589.1109132005131 0 589.1109132005131 -329.99834754408221 0 0 0 0 -245.1293486092618 108.40180892709031 0 108.40180892709031 181.09054495927921 0 0 0 0 -30.245837003787528 80.975331515161997 0 80.975331515161997 29.255137458138051 0 0 0 0 -62.952965017544841 49.151840319289107 0 49.151840319289107 -13.295663109983082 0 0 0 0 -269.80531693824742 324.45330103825836 0 324.45330103825836 -178.32100440500653 0 0 0 0 17.382650297517102 -13.104671320492344 0 -13.104671320492344 -353.50804381053604 0 0 0 0 9.7504558307045954 21.543398152251029 0 21.543398152251029 -58.888790356781101 0 0 0 0 0.11503805488564467 1.704453768770243 0 1.704453768770243 -5.2855425606182962 0 0 0 0 -22.01572237671644 22.741225281046354 0 22.741225281046354 -53.561226031750266 0 0 0 0 -15.692947897929116 38.288477329821035 0 38.288477329821035 -55.214118546267855 0 0 0 0 3.556262171765411 35.332653846333415 0 35.332653846333415 -85.137705446359178 0 0 0 0 1.4754069973487276 74.161186520911997 0 74.161186520911997 -43.241988110021339 0 0 0 0 -34.5919013954408 269.55952334850735 0 269.55952334850735 494.78483952576062 0 0 0 0 -45.619821347832755 41.217012023241516 0 41.217012023241516 -32.148663455034864 0 0 0 0 4.5197275291284313 43.092893006403756 0 43.092893006403756 -64.336016695975559 0 0 0 0 6.7793988646082539 12.301844655091912 0 12.301844655091912 -5.8084634403034272 0 0 0 0 238.40047574631171 354.57314999215305 0 354.57314999215305 335.45980352535844 0 0 0 0 -20.23927327041747 45.669648003669863 0 45.669648003669863 -132.15530655867769 0 0 0 0 -19.291078068759816 41.526536569406744 0 41.526536569406744 -206.61156132549513 0 0 0 0 125.6915191517619 358.92335017125879 0 358.92335017125879 612.05970031837933 0 0 0 0 185.76010551452055 195.97875972064503 0 195.97875972064503 310.284275888087 0 0 0 0 130.02504511433654 373.33507773152087 0 373.33507773152087 450.49379764242622 0 0 0 0 -4.6263556340850869 5.3156249935528876 0 5.3156249935528876 -5.1592092759435673 0 0 0 0 145.65339810840669 235.31538696441567 0 235.31538696441567 279.75857801231905 0 0 0 0 -4.9184511148270253 28.06425498455776 0 28.06425498455776 -37.18607045036174 0 0 0 0 38.529774422313494 61.353535105758056 0 61.353535105758056 -65.969781982217683 0 0 0 0 16.723254324959271 36.42146173043875 0 36.42146173043875 -44.5880343883764 0 0 0 0 2.2128009564694366 70.884275050091674 0 70.884275050091674 -62.906689351500972 0 0 0 0 -4.8095763684323174 23.59127177746268 0 23.59127177746268 -71.404045782950561 0 0 0 0 29.234548619837369 37.503284234451712 0 37.503284234451712 -163.22463426116155 0 0 0 0 -2.2468566504212504 43.266841163611389 0 43.266841163611389 -86.677893762521904 0 0 0 0 17.804818711998756 7.0821539146411681 0 7.0821539146411681 -53.266963022517984 0 0 0 0 11.701290197757771 75.188362911139848 0 75.188362911139848 -1.7104580606392119 0 0 0 0 8.6270950733814971 60.889732792373252 0 60.889732792373252 -30.613250885668094 0 0 0 0 9.1153068765986944 67.083179820334834 0 67.083179820334834 -12.682282613776099 0 0 0 0 38.339447270915116 60.621916860814963 0 60.621916860814963 -19.963804027764127 0 0 0 0 3.4710065352927302 62.942740820371625 0 62.942740820371625 -20.345391077703653 0 0 0 0 2.7320105293378276 42.81598693247912 0 42.81598693247912 -38.115941299246657 0 0 0 0 -25.915623679433338 43.078636513702804 0 43.078636513702804 -31.531071771911229 0 0 0 0 -3.7252455828420352 56.686445346524124 0 56.686445346524124 -37.09816547189439 0 0 0 0 3.3038131993764708 50.022680888329106 0 50.022680888329106 -33.608475199561326 0 0 0 0 35.830077504484507 53.859734301906428 0 53.859734301906428 -37.206834034295753 0 0 0 0 43.805670928542646 57.26799607487618 0 57.26799607487618 -34.198003691464237 0 0 0 0 -148.71926911223636 -67.731890092598405 0 -67.731890092598405 -226.8260076186416 0 0 0 0 59.44164754072699 45.510637929211953 0 45.510637929211953 -37.39582623118622 0 0 0 0 7.5385809422341055 23.189708942724224 0 23.189708942724224 -14.48937978115066 0 0 0 0 160.38434287944983 -118.67195123279089 0 -118.67195123279089 39.866378396560322 0 0 0 0 -15.346481277818384 49.166630943087512 0 49.166630943087512 -39.228252664850515 0 0 0 0 16.913414127215219 26.703180236763728 0 26.703180236763728 -32.234036415495211 0 0 0 0 10.68777334996804 31.025472792407953 0 31.025472792407953 -18.65266638831951 0 0 0 0 346.62577165390758 -65.560755199836422 0 -65.560755199836422 -234.70766648037534 0 0 0 0 1.7694451406036649 16.488476627299804 0 16.488476627299804 -13.453578466340105 0 0 0 0 -10.439516490911046 38.857802077447559 0 38.857802077447559 -33.802956679195631 0 0 0 0 -1.912958961688588 16.728794813982844 0 16.728794813982844 -30.413400963632341 0 0 0 0 -457.75482914084569 -165.37987632367003 0 -165.37987632367003 59.089625335480378 0 0 0 0 205.58346296555828 174.57536287949188 0 174.57536287949188 -406.57832152940682 0 0 0 0 -99.892869946022984 48.898351633251878 0 48.898351633251878 29.347895433827944 0 0 0 0 -529.25330095121171 4.7074268246833526 0 4.7074268246833526 25.480650260738912 0 0 0 0 -196.70681302431331 348.31415092973475 0 348.31415092973475 -184.56265934561816 0 0 0 0 45.382089341088431 164.35266544312617 0 164.35266544312617 -38.402136459448229 0 0 0 0 -16.714839713935362 91.149052600208961 0 91.149052600208961 12.288162815370015 0 0 0 0 -13.952485058841368 8.8470943651840059 0 8.8470943651840059 -4.9648757942483144 0 0 0 0 95.645902253592794 22.04922547548631 0 22.04922547548631 -49.475686366728041 0 0 0 0 -21.495007593697665 21.798926983239653 0 21.798926983239653 -24.572117276198696 0 0 0 0 20.401138891204027 57.265642378450138 0 57.265642378450138 -34.445074740484415 0 0 0 0 75.988718620901636 47.792557831242448 0 47.792557831242448 -57.564607917025569 0 0 0 0 43.611077923793346 11.160959597276815 0 11.160959597276815 -45.019172418993548 0 0 0 0 4.4182281471657916 48.059878983083763 0 48.059878983083763 -7.2780153407657053 0 0 0 0 -44.925806170111173 53.928989125874068 0 53.928989125874068 -52.000747395170038 0 0 0 0 -18.136403672970118 13.606738976690394 0 13.606738976690394 -51.542917940372718 0 0 0 0 8.9858451882514245 0.53289321334341366 0 0.53289321334341366 -35.593791520367688 0 0 0 0 13.4948300587821 -56.283035390937584 0 -56.283035390937584 -86.907238372756296 0 0 0 0 122.84201755641016 -19.590699044079884 0 -19.590699044079884 -105.28049707160972 0 0 0 0 -22.724002933842712 -1.3181312113592867 0 -1.3181312113592867 -89.915406686428469 0 0 0 0 -18.717704997108328 27.821517726826883 0 27.821517726826883 -34.423584941933598 0 0 0 0 -26.231335231941088 39.437218053078723 0 39.437218053078723 51.606570654388634 0 0 0 0 210.54495037567904 25.577416656160494 0 25.577416656160494 -97.217004439818993 0 0 0 0 253.59945719894131 48.163503878080519 0 48.163503878080519 -39.752064375803457 0 0 0 0 24.664629491526284 25.248629977635574 0 25.248629977635574 -36.171626838768134 0 0 0 0 -26.350350873112514 -13.472727886973566 0 -13.472727886973566 -77.458927158775623 0 0 0 0 -11.949591607420572 29.304125157759145 0 29.304125157759145 -38.391802990101951 0 0 0 0 -19.418767753941211 52.702124714331148 0 52.702124714331148 -23.968242347647902 0 0 0 0 -20.756317523710422 39.317387431527621 0 39.317387431527621 -30.501324192773097 0 0 0 0 -67.796795447233308 86.557937207748182 0 86.557937207748182 10.727339041764935 0 0 0 0 -140.87787020434189 83.641977976294584 0 83.641977976294584 12.341007565657492 0 0 0 0 -39.59357511736934 39.077811037626105 0 39.077811037626105 -25.804698712866696 0 0 0 0 -28.234922216589354 20.015314736700702 0 20.015314736700702 -1.9043815368406456 0 0 0 0 -18.676390101645666 26.373609976958914 0 26.373609976958914 -19.50673669455756 0 0 0 0 -102.71850484269089 43.376267787360121 0 43.376267787360121 15.679132125515025 0 0 0 0 -18.129011232529592 27.386198033069377 0 27.386198033069377 -3.7583438362780726 0 0 0 0 4.1679445051858721 9.5079998106031667 0 9.5079998106031667 6.0876935840639135 0 0 0 0 -275.3333703211174 129.41155914710544 0 129.41155914710544 -97.110093178409443 0 0 0 0 -87.082872021113872 -66.555475228822615 0 -66.555475228822615 76.515929738539853 0 0 0 0 -113.37676356035399 159.17941481828166 0 159.17941481828166 85.021410616289359 0 0 0 0 0.57504109517065061 -0.52341457872261543 0 -0.52341457872261543 -3.9324309163590669 0 0 0 0 -129.80673573962486 270.5767821453519 0 270.5767821453519 -561.82038822394679 0 0 0 0 -69.089561822867836 311.64072317772661 0 311.64072317772661 -534.04831890653077 0 0 0 0 -32.586595927132294 214.26143077209417 0 214.26143077209417 -361.60707955372345 0 0 0 0 -12.79757032013913 -42.489422467873737 0 -42.489422467873737 -187.14051438205934 0 0 0 0 1.4209999579041295 3.1049596031637066 0 3.1049596031637066 4.217157182797763 0 0 0 0 23.755912320302741 182.1860071079609 0 182.1860071079609 169.08367739417008 0 0 0 0 449.9676760019247 133.99881204470148 0 133.99881204470148 -107.69641816409421 0 0 0 0 330.45981897876482 15.824261325629777 0 15.824261325629777 -115.79237585552619 0 0 0 0 -42.193995581940122 24.979626477389488 0 24.979626477389488 40.397181224543601 0 0 0 0 -42.214417234754364 101.32693924827618 0 101.32693924827618 -48.309205466823187 0 0 0 0 77.232718735875096 129.85995157191792 0 129.85995157191792 -391.86956098406517 0 0 0 0 225.16353307684767 233.24253858039447 0 233.24253858039447 -449.37755206430666 0 0 0 0 82.016945604700595 171.58635255744957 0 171.58635255744957 -224.54008298805275 0 0 0 0 -18.491777303945128 98.748462556171944 0 98.748462556171944 -110.03206316880824 0 0 0 0 -29.222197428156505 142.49420147757337 0 142.49420147757337 -231.37317765381158 0 0 0 0 122.63087823430396 323.30390261948924 0 323.30390261948924 -298.59286216908367 0 0 0 0 -47.496843056360376 273.31966456084774 0 273.31966456084774 -304.1506643025059 0 0 0 0 -52.00566149352062 54.703063288549465 0 54.703063288549465 -44.33003899961227 0 0 0 0 -102.28529046128824 195.75522253894815 0 195.75522253894815 -142.84607479884289 0 0 0 0 -81.770110898527491 307.24452263140847 0 307.24452263140847 80.584395915133427 0 0 0 0 7.5945769468952449 17.052859806033268 0 17.052859806033268 -1.7389924200185192 0 0 0 0 -123.1357934904081 27.172825046251091 0 27.172825046251091 11.241578708024463 0 0 0 0 -89.174152056077219 35.459926095840274 0 35.459926095840274 10.303015687022707 0 0 0 0 -10.61453730380812 8.2957417049487177 0 8.2957417049487177 -3.2789146264668148 0 0 0 0 -123.89633551902079 14.837633094743069 0 14.837633094743069 23.004330893477345 0 0 0 0 -48.104505877601184 15.354994942610801 0 15.354994942610801 21.577636706742766 0 0 0 0 -129.06513068835193 28.565266330959275 0 28.565266330959275 21.498392511875863 0 0 0 0 -20.346588793682059 9.6925138759085883 0 9.6925138759085883 0.032030117088595489 0 0 0 0 119.03549577769627 153.51127069296308 0 153.51127069296308 -912.35401604211074 0 0 0 0 -554.12525240895411 -204.0324732362933 0 -204.0324732362933 -9.6029139701568056 0 0 0 0 -1.1512166942323034 4.2870124182105087 0 4.2870124182105087 -7.2513938351463878 0 0 0 0 -45.836608039826388 -30.516918713328778 0 -30.516918713328778 -49.071397976862499 0 0 0 0 -203.92488001668607 585.07204712909515 0 585.07204712909515 -844.19571132503916 0 0 0 0 -710.25276384028984 535.41595279378816 0 535.41595279378816 -376.53790029935772 0 0 0 0 -464.36277517203416 -57.565655469326884 0 -57.565655469326884 -256.22751367258752 0 0 0 0 -717.74631410366419 343.63473054644419 0 343.63473054644419 83.713695946300504 0 0 0 0 -15.352129707600398 422.1495040632326 0 422.1495040632326 -1021.3904842558259 0 0 0 0 -19.086423415771264 514.76690484681944 0 514.76690484681944 -185.04685532515578 0 0 0 0 -48.84715389260603 51.796021062436282 0 51.796021062436282 -50.644573898256454 0 0 0 0 107.16405597604899 181.02868657696672 0 181.02868657696672 -538.72258859153226 0 0 0 0 -51.577864342090123 50.483484062661688 0 50.483484062661688 -44.408857756359907 0 0 0 0 584.58345057054044 602.77421200708136 0 602.77421200708136 -141.33599272124411 0 0 0 0 97.547826535948843 198.0704128071884 0 198.0704128071884 -123.55535146908369 0 0 0 0 195.96535698011576 415.22736265506683 0 415.22736265506683 -30.657243252633634 0 0 0 0 190.3883213296649 345.12774254402757 0 345.12774254402757 -320.81794897695363 0 0 0 0 -21.951417347803726 38.025525822740747 0 38.025525822740747 -32.462034691052395 0 0 0 0 -16.905254747376603 36.366533146887377 0 36.366533146887377 -32.517757971138053 0 0 0 0 -11.077316903654719 -69.933327655242465 0 -69.933327655242465 3.9251662232891249 0 0 0 0 -1.4453183944359864 16.493992656887542 0 16.493992656887542 -3.3847153203048777 0 0 0 0 -267.18806800893071 91.897688436183671 0 91.897688436183671 -204.7493721973442 0 0 0 0 56.52259779126598 89.012045242756358 0 89.012045242756358 -217.0272131748352 0 0 0 0 -17.188399223879969 33.426333840769075 0 33.426333840769075 -18.577919724717503 0 0 0 0 0.74355979584652232 5.0819297085796222 0 5.0819297085796222 7.1635998449760905 0 0 0 0 -222.56770764887187 -29.819114154903218 0 -29.819114154903218 32.541475472615275 0 0 0 0 -144.15995333878254 247.40600280142007 0 247.40600280142007 -205.86776420069509 0 0 0 0 -348.32350711040272 238.13365125485143 0 238.13365125485143 -178.7990158037428 0 0 0 0 -269.37189071127432 217.34174318439182 0 217.34174318439182 -115.37310947165679 0 0 0 0 -2.3856901581701493 5.3652352526181346 0 5.3652352526181346 5.4944735440780619 0 0 0 0 -13.894013534265241 28.811932258681281 0 28.811932258681281 52.999039747897768 0 0 0 0 21.658766311207728 70.769646731809189 0 70.769646731809189 27.988981036687619 0 0 0 0 -2.7611538059136365 44.427242275247409 0 44.427242275247409 -0.13532624397339532 0 0 0 0 -14.526118412342839 21.537305673685751 0 21.537305673685751 -6.4599556674947962 0 0 0 0 -21.036197265064402 50.653521848937089 0 50.653521848937089 8.6650171886140015 0 0 0 0 -30.715729264249603 38.433607130913515 0 38.433607130913515 0.033962073051952757 0 0 0 0 -41.165916001038568 46.862506551289698 0 46.862506551289698 -5.852905779183402 0 0 0 0 -40.308921409086906 44.212442514472059 0 44.212442514472059 -5.6613812459836481 0 0 0 0 -86.379724716625788 371.78155493900704 0 371.78155493900704 -65.823813713242998 0 0 0 0 18.881594660138944 374.77650590953999 0 374.77650590953999 -165.31890933474642 0 0 0 0 17.394361003750419 365.17423968596995 0 365.17423968596995 -75.490262223203899 0 0 0 0 56.35224497148738 414.3798455773358 0 414.3798455773358 -122.2508658687002 0 0 0 0 89.005563267550315 316.43519732175628 0 316.43519732175628 -83.105035373766441 0 0 0 0 62.133694434305653 299.97312124560995 0 299.97312124560995 -87.201026454684325 0 0 0 0 228.41030636415235 235.27481292242737 0 235.27481292242737 -65.007059973722789 0 0 0 0 131.88667476094997 413.06500346362009 0 413.06500346362009 -64.019883387431037 0 0 0 0 245.38664305613202 425.78339904935274 0 425.78339904935274 101.33966969305766 0 0 0 0 61.862542293580191 294.18672648014035 0 294.18672648014035 8.8139146960529615 0 0 0 0 1.5753517888697388 108.99732936520741 0 108.99732936520741 -69.227930016044411 0 0 0 0 20.272236559281737 376.01077088835882 0 376.01077088835882 -130.07796157298435 0 0 0 0 -256.45938638021471 343.48661317796359 0 343.48661317796359 -169.51516424310103 0 0 0 0 -256.28899258233287 316.02024988098128 0 316.02024988098128 -532.32244933743641 0 0 0 0 -306.09913024461639 250.63847817400529 0 250.63847817400529 -201.5402136669436 0 0 0 0 -200.66217837890144 318.22225924425584 0 318.22225924425584 -228.31669146542481 0 0 0 0 -261.65444556394141 275.5246354168994 0 275.5246354168994 -258.13855729471834 0 0 0 0 -87.371843544017338 354.65984189260962 0 354.65984189260962 -213.28494065512496 0 0 0 0 -199.74539875398477 331.61592332077998 0 331.61592332077998 -172.18648078828119 0 0 0 0 -45.729732905288984 437.61286307894625 0 437.61286307894625 -219.33140422873475 0 0 0 0 -81.142083940674638 435.11499268008265 0 435.11499268008265 -208.19287981008529 0 0 0 0 -19.326340975945641 521.68573071224091 0 521.68573071224091 -227.86642482684692 0 0 0 0 -122.35215050573606 342.15126039304778 0 342.15126039304778 -410.458678173105 0 0 0 0 -62.542695546500909 542.56234501501604 0 542.56234501501604 -419.36997561887847 0 0 0 0 -2.287532995205126 3.1763925796525996 0 3.1763925796525996 3.3126546289950056 0 0 0 0 29.468295987445345 63.542956467612385 0 63.542956467612385 0.5878664695774205 0 0 0 0 -4.0288009896685253 310.36459044374351 0 310.36459044374351 503.15267736359965 0 0 0 0 -53.08001397800399 601.8278285482229 0 601.8278285482229 -103.24046066343726 0 0 0 0 -96.126477807010815 574.3119507326046 0 574.3119507326046 9.7832067849521991 0 0 0 0 1.5165431137211272 324.41775013106417 0 324.41775013106417 134.91623718049959 0 0 0 0 -78.517677231498965 440.02379082496918 0 440.02379082496918 -0.11163221913739108 0 0 0 0 -92.567818432667991 418.34251774112636 0 418.34251774112636 -28.583166780634201 0 0 0 0 -45.953307031406439 500.09097133547766 0 500.09097133547766 -67.620945536822546 0 0 0 0 -45.89606811966587 484.83364124437503 0 484.83364124437503 -148.56839299935382 0 0 0 0 -35.463715082474664 458.48781022255571 0 458.48781022255571 -82.180834719212726 0 0 0 0 11.22820539624081 404.52759381928627 0 404.52759381928627 -111.28806516958866 0 0 0 0 -16.853515356720891 449.03405016813485 0 449.03405016813485 -154.53766613405787 0 0 0 0 -46.170792663260045 445.53158160695193 0 445.53158160695193 -123.34841355023673 0 0 0 0 -36.101424603220948 362.52780989340681 0 362.52780989340681 -99.875949567416683 0 0 0 0 6.4745000155035086 383.63568763635703 0 383.63568763635703 -95.497914671723265 0 0 0 0 -37.412376293214038 434.45243336733256 0 434.45243336733256 -122.60314651376393 0 0 0 0 -94.38471067408318 361.62373820866196 0 361.62373820866196 -92.718898723715029 0 0 0 0 -184.4857334086355 390.6194326660916 0 390.6194326660916 -0.15761849728005473 0 0 0 0 0.90904970271965357 -0.54330717366324066 0 -0.54330717366324066 -0.096392746946094121 0 0 0 0 -451.85488190913384 209.35391074120707 0 209.35391074120707 4.7392843051056843 0 0 0 0 1172.9299246152605 242.87917663703729 0 242.87917663703729 -36.235892151496955 0 0 0 0 765.55820008188675 416.73038841620291 0 416.73038841620291 0.26225032182377811 0 0 0 0 607.00805388814479 250.41810181151959 0 250.41810181151959 77.565602184520685 0 0 0 0 636.03841746175021 253.5470863046794 0 253.5470863046794 72.722297146377969 0 0 0 0 45.489488288862049 155.09886483986338 0 155.09886483986338 -25.426102871308103 0 0 0 0 -52.171281281504434 245.60258979049013 0 245.60258979049013 -71.933769599912921 0 0 0 0 504.20002861318244 461.02885828132094 0 461.02885828132094 -0.10322245680436026 0 0 0 0 621.1431702971804 307.92010512677371 0 307.92010512677371 89.236913912245655 0 0 0 0 656.212556805247 315.27033307163947 0 315.27033307163947 64.518433202698361 0 0 0 0 484.30148784743506 439.08664355889778 0 439.08664355889778 63.036914294154485 0 0 0 0 382.93252396561547 547.16351378879335 0 547.16351378879335 -0.92390299220278393 0 0 0 0 473.58216643613559 439.64723515229707 0 439.64723515229707 121.04299668470048 0 0 0 0 292.27641940455032 457.12760618464381 0 457.12760618464381 120.44566267817436 0 0 0 0 399.36067735374945 396.55221040315337 0 396.55221040315337 106.61777588553377 0 0 0 0 536.81139790431189 335.24302967898257 0 335.24302967898257 64.226906288880855 0 0 0 0 451.40170847900663 310.67199366955901 0 310.67199366955901 84.40595959755592 0 0 0 0 372.78913464553261 339.31257432118218 0 339.31257432118218 85.453386106761172 0 0 0 0 291.5366675867142 390.90879346832116 0 390.90879346832116 117.77424726483878 0 0 0 0 309.96346665254214 271.73326295080278 0 271.73326295080278 73.880240562459221 0 0 0 0 340.64804860160802 263.03798246711813 0 263.03798246711813 67.043560647900449 0 0 0 0 252.98953734650422 355.61685545552609 0 355.61685545552609 92.120606989476073 0 0 0 0 282.14638492934318 56.504064476321219 0 56.504064476321219 -58.803867376380367 0 0 0 0 390.41067631828628 35.951154395850608 0 35.951154395850608 -77.21507856604876 0 0 0 0 185.49785959347355 -1.4333225322479848 0 -1.4333225322479848 -7.1977370137465186 0 0 0 0 273.51473943702877 243.25510500805103 0 243.25510500805103 -84.356797535918304 0 0 0 0 180.16522611416076 179.13257977332978 0 179.13257977332978 -53.21826209613937 0 0 0 0 46.942865240745903 145.17063870602271 0 145.17063870602271 -50.709082498739008 0 0 0 0 109.37434320426109 106.3235009455384 0 106.3235009455384 -35.597985734908434 0 0 0 0 706.11200740116328 205.15305162603181 0 205.15305162603181 2.0478678206272889 0 0 0 0 -0.23912158465112565 2.2773455874179014 0 2.2773455874179014 0.96518683724065113 0 0 0 0 45.216567575864474 5.9531070872340024 0 5.9531070872340024 3.0970445955172181 0 0 0 0 569.48719479179999 248.32443055912154 0 248.32443055912154 44.747508032553014 0 0 0 0 591.02925735256576 225.69454429289908 0 225.69454429289908 57.780605715262936 0 0 0 0 457.08056634110835 213.89786048007954 0 213.89786048007954 66.388441175688058 0 0 0 0 648.85755925319972 171.75894350340241 0 171.75894350340241 22.841649121663067 0 0 0 0 655.68826038765746 109.01695295351419 0 109.01695295351419 -13.899214581702836 0 0 0 0 2.9537741095037156 -1.2985857434535966 0 -1.2985857434535966 -0.30159264192934643 0 0 0 0 465.82588006855076 158.10455843020463 0 158.10455843020463 26.743628424635972 0 0 0 0 345.33811575052459 47.793813342475914 0 47.793813342475914 13.437231855728896 0 0 0 0 170.26107187518573 121.40006868648197 0 121.40006868648197 56.752206673801993 0 0 0 0 352.86416781825756 72.628939238522435 0 72.628939238522435 -61.178171115199802 0 0 0 0 2.6535745795417327 2.5804401419223844 0 2.5804401419223844 1.5183385607187461 0 0 0 0 554.02574699048273 55.509481923203566 0 55.509481923203566 11.919572251907084 0 0 0 0 281.9753283464488 177.89696678137989 0 177.89696678137989 56.44861962680443 0 0 0 0 479.78024277039367 205.88953385743662 0 205.88953385743662 60.073314294975717 0 0 0 0 332.37946676429601 172.89164476155565 0 172.89164476155565 233.01435873227456 0 0 0 0 415.28821716630773 -27.529704982458497 0 -27.529704982458497 -27.45023214194498 0 0 0 0 165.07201189010539 -37.384851460961727 0 -37.384851460961727 -26.569332159211626 0 0 0 0 289.61750389565714 -32.586397912964458 0 -32.586397912964458 -28.050616516091395 0 0 0 0 694.51107230895286 226.20712329313392 0 226.20712329313392 -89.574315924946859 0 0 0 0 433.94084341760504 239.69221012969501 0 239.69221012969501 20.682146129882312 0 0 0 0 386.21740192308607 145.21604223861868 0 145.21604223861868 20.830986681394279 0 0 0 0 628.02878393076935 197.13609184253437 0 197.13609184253437 -45.765332677197875 0 0 0 0 -108.11266860799333 109.46329947208869 0 109.46329947208869 42.477421635481733 0 0 0 0 0.006799188061794581 1.7292450715901087 0 1.7292450715901087 0.48715161238226301 0 0 0 0 227.30829726993306 177.78397372380641 0 177.78397372380641 20.603190361813176 0 0 0 0 0.29541322646759305 2.9784942272300849 0 2.9784942272300849 1.4863571476436164 0 0 0 0 188.38416908170404 366.62811721040453 0 366.62811721040453 100.40766295173671 0 0 0 0 160.78997791661641 202.92446924308024 0 202.92446924308024 49.569879859605862 0 0 0 0 167.24299933089787 324.3054012463399 0 324.3054012463399 63.600640467731864 0 0 0 0 -48.294050945448362 290.73576415505886 0 290.73576415505886 119.03313410237024 0 0 0 0 47.744331142203919 213.43913136786796 0 213.43913136786796 17.60605781506456 0 0 0 0 -282.14118716579105 84.27982831945701 0 84.27982831945701 1.0005783766246168 0 0 0 0 -9.5450891048174071 229.95200270636087 0 229.95200270636087 92.015824393514777 0 0 0 0 73.329920852866053 309.12872605611483 0 309.12872605611483 45.494261057741824 0 0 0 0 -5.0342198437758725 208.77392613597112 0 208.77392613597112 -63.360111419227906 0 0 0 0 -327.96379657200305 253.86698710838391 0 253.86698710838391 32.736295215749124 0 0 0 0 755.50902997416961 186.00007182070112 0 186.00007182070112 -39.505709561501135 0 0 0 0 -562.9573267705855 122.04022348286526 0 122.04022348286526 107.82563335126906 0 0 0 0 0.55016340474335479 -0.917559617680201 0 -0.917559617680201 -0.47443688156243979 0 0 0 0 121.05587208389625 187.2406679608539 0 187.2406679608539 55.534364627550531 0 0 0 0 250.88952995448801 119.61232237157833 0 119.61232237157833 88.940684972752933 0 0 0 0 94.479669582127656 486.01407580942214 0 486.01407580942214 382.69134916611074 0 0 0 0 92.160409806020652 476.51926368912245 0 476.51926368912245 371.04346046905266 0 0 0 0 124.77675008215488 600.06000263274473 0 600.06000263274473 673.65057817353227 0 0 0 0 331.18922405034164 570.01796915234445 0 570.01796915234445 346.33294485069928 0 0 0 0 -59.213962201299864 327.00675486373802 0 327.00675486373802 874.09690949680225 0 0 0 0 132.78966060658013 513.46454645899394 0 513.46454645899394 581.8169805687503 0 0 0 0 154.58037293728228 666.55475441115959 0 666.55475441115959 1059.1756890057586 0 0 0 0 -47.679992258724837 323.3804260892648 0 323.3804260892648 1138.921356957464 0 0 0 0 -65.579433084806624 297.3203338572057 0 297.3203338572057 1249.2475990876701 0 0 0 0 2.161107263194026 360.30795746525837 0 360.30795746525837 548.0467169664189 0 0 0 0 -61.32593600209092 175.83773447487386 0 175.83773447487386 350.6338971547957 0 0 0 0 -44.520743346488871 228.36589299181105 0 228.36589299181105 212.75896147040476 0 0 0 0 24.192070666425934 215.05356933498115 0 215.05356933498115 204.40270564531238 0 0 0 0 29.513607640323244 266.4678665233514 0 266.4678665233514 117.04236588595813 0 0 0 0 -20.125160755531397 130.58554759242543 0 130.58554759242543 44.92227955153794 0 0 0 0 10.816609517372854 277.80348894861527 0 277.80348894861527 120.25178538213368 0 0 0 0 78.250301769016005 424.69100808383519 0 424.69100808383519 241.69800327511621 0 0 0 0 46.322931483668981 373.31956922223617 0 373.31956922223617 328.68932413370931 0 0 0 0 147.14254061933116 529.73566048402427 0 529.73566048402427 274.77205481738201 0 0 0 0 128.68577725756086 484.21050587968239 0 484.21050587968239 188.11211446140078 0 0 0 0 60.247398670222537 367.12266298379836 0 367.12266298379836 211.70408588135615 0 0 0 0 152.41443409902604 433.30671962862834 0 433.30671962862834 134.27778795112681 0 0 0 0 203.41165150594315 443.68657560431893 0 443.68657560431893 129.61076359522849 0 0 0 0 103.47511209963614 438.73060744127179 0 438.73060744127179 163.58675522904377 0 0 0 0 214.81653785570415 545.27416191108932 0 545.27416191108932 188.60102098026113 0 0 0 0 182.13765461956018 580.46884802930253 0 580.46884802930253 150.75026079626696 0 0 0 0 177.53736910995121 576.4148255932887 0 576.4148255932887 228.9803608220318 0 0 0 0 154.95335260539832 534.99175634860876 0 534.99175634860876 215.25345215447305 0 0 0 0 215.82086423264047 617.08628606582351 0 617.08628606582351 325.96167893375969 0 0 0 0 246.54149670834977 512.795292544316 0 512.795292544316 210.64611940037867 0 0 0 0 451.99381042199684 653.63847705104854 0 653.63847705104854 306.26371532102348 0 0 0 0 65.320823646447025 395.70086300511502 0 395.70086300511502 168.6180442506884 0 0 0 0 367.79350601813371 501.63709874662163 0 501.63709874662163 199.55195996125258 0 0 0 0 84.066665431957063 406.89195003390341 0 406.89195003390341 137.22302612414205 0 0 0 0 136.95385670901521 602.52378238941492 0 602.52378238941492 234.36074510742037 0 0 0 0 -110.91825143037386 335.37954607966094 0 335.37954607966094 130.52734295124355 0 0 0 0 -28.413909123013468 303.26329395865832 0 303.26329395865832 79.387796892522601 0 0 0 0 6.2946190904871173 280.65140288324619 0 280.65140288324619 -357.00203176549985 0 0 0 0 323.84261448469715 430.30190284715354 0 430.30190284715354 162.42675832890382 0 0 0 0 232.89752173430838 471.59295667485458 0 471.59295667485458 144.99047369463369 0 0 0 0 364.30209494758219 598.60058768249291 0 598.60058768249291 141.46502641992629 0 0 0 0 0.31367448628149575 4.385510056383481 0 4.385510056383481 2.985032701759053 0 0 0 0 21.654217042531172 601.91340966073039 0 601.91340966073039 475.51446422787558 0 0 0 0 302.64555382435015 494.23913060227824 0 494.23913060227824 234.25026524583518 0 0 0 0 322.59819361103473 578.97888717499154 0 578.97888717499154 190.77493397233047 0 0 0 0 274.54999420403055 394.96632583318933 0 394.96632583318933 -625.50563284954114 0 0 0 0 369.70092969584721 627.0958451309416 0 627.0958451309416 -73.239789177823695 0 0 0 0 48.619101309677262 357.73374161661559 0 357.73374161661559 -0.067481171419785824 0 0 0 0 360.62328657642865 413.31979335877259 0 413.31979335877259 47.413619103188466 0 0 0 0 358.37603621810376 330.80703443071252 0 330.80703443071252 -244.92955046458883 0 0 0 0 -132.57719721688034 330.04839120320685 0 330.04839120320685 -264.47963818667631 0 0 0 0 -30.964521907105336 333.51438279743888 0 333.51438279743888 -400.96940527664265 0 0 0 0 1.6973669978212254 6.3394889573096407 0 6.3394889573096407 4.0047925127946087 0 0 0 0 -299.64715216475724 188.79858781187068 0 188.79858781187068 -152.1806911543099 0 0 0 0 -44.273646249340118 235.77287424395035 0 235.77287424395035 -143.70573542715283 0 0 0 0 -242.89495733846206 228.1662840978679 0 228.1662840978679 -0.21614985834457912 0 0 0 0 -117.71338596004512 190.36759147447447 0 190.36759147447447 -184.79841298349493 0 0 0 0 -89.062568758086172 108.95866136172754 0 108.95866136172754 0.47048131245537661 0 0 0 0 -245.15434941951526 101.42363221681444 0 101.42363221681444 -546.12854843144305 0 0 0 0 -13.809105663157425 170.83587452754728 0 170.83587452754728 -488.44523738852877 0 0 0 0 -283.57017473753785 275.41819365495758 0 275.41819365495758 -472.52011974461493 0 0 0 0 83.3609877687677 141.17013337672688 0 141.17013337672688 -594.29084062141192 0 0 0 0 113.02660564058078 65.015959739801474 0 65.015959739801474 -400.03827285010993 0 0 0 0 178.72586723070162 303.1295454963838 0 303.1295454963838 -485.66360081049061 0 0 0 0 211.63242447217817 245.95670614359551 0 245.95670614359551 -387.55395475562545 0 0 0 0 -0.54020188531069557 3.7676269440208046 0 3.7676269440208046 2.7015825185887934 0 0 0 0 199.40427283888584 342.72472159720928 0 342.72472159720928 -529.96426900670849 0 0 0 0 265.83814857802645 438.30933480001113 0 438.30933480001113 291.17867072418449 0 0 0 0 350.20702034490751 519.87007318575343 0 519.87007318575343 -343.64007175819279 0 0 0 0 323.97746050241994 289.94081107470993 0 289.94081107470993 244.07359396989341 0 0 0 0 271.88321218742021 446.34481021450483 0 446.34481021450483 -0.11054416140541434 0 0 0 0 257.36534647689041 490.24517991568428 0 490.24517991568428 43.103085570590338 0 0 0 0 290.15174345627747 511.32729142578319 0 511.32729142578319 -185.84179261728423 0 0 0 0 309.43738764092905 604.23260559345727 0 604.23260559345727 62.439281269733328 0 0 0 0 260.05205069685644 451.11478949888442 0 451.11478949888442 -13.414318929630099 0 0 0 0 261.24506900948677 456.36114948085287 0 456.36114948085287 -52.468809226556914 0 0 0 0 273.95851528630737 432.23411688045599 0 432.23411688045599 -30.487121669459157 0 0 0 0 194.47999575790345 293.50558919794275 0 293.50558919794275 -96.974910669589008 0 0 0 0 248.60108527220655 369.94931401562644 0 369.94931401562644 -182.9266106678424 0 0 0 0 292.68305448617593 357.86981872564502 0 357.86981872564502 -251.57048744900385 0 0 0 0 197.78436237492588 236.98010379585321 0 236.98010379585321 16.083780286280671 0 0 0 0 125.86930371152994 135.78104601629457 0 135.78104601629457 -47.353225398568611 0 0 0 0 160.05746924696541 138.05955657576851 0 138.05955657576851 -241.38791002554535 0 0 0 0 238.11273641913795 364.59698330880201 0 364.59698330880201 136.59305633402982 0 0 0 0 106.05038900674799 185.03970652159114 0 185.03970652159114 218.12047444829659 0 0 0 0 230.60126697078613 379.8672022169776 0 379.8672022169776 105.64908536180155 0 0 0 0 131.82862503890829 134.52849994579447 0 134.52849994579447 133.74116217379924 0 0 0 0 38.86290521540468 62.230800195131451 0 62.230800195131451 189.35391721224732 0 0 0 0 36.540232287992694 44.633179569034837 0 44.633179569034837 77.157278406702972 0 0 0 0 76.243480217006436 35.916915915557183 0 35.916915915557183 39.457790384753025 0 0 0 0 43.336092045615942 35.713651387726713 0 35.713651387726713 24.843419077107683 0 0 0 0 162.33663705438744 160.06048495833966 0 160.06048495833966 119.28880564073916 0 0 0 0 1.1629738700676171 -68.00509381925076 0 -68.00509381925076 -333.89969297792413 0 0 0 0 45.15431434804259 379.81584796439711 0 379.81584796439711 -338.81502193886263 0 0 0 0 2.0401097216097028 -0.1154111669937663 0 -0.1154111669937663 -5.6018031887893471 0 0 0 0 -18.409709964650347 290.66502668330213 0 290.66502668330213 42.279573167150375 0 0 0 0 3.5769397532694711 -42.366209247556981 0 -42.366209247556981 -73.810019559648936 0 0 0 0 159.92443056420643 144.14297553659708 0 144.14297553659708 -266.53406452044146 0 0 0 0 8.2314083423752891 5.1762236481554282 0 5.1762236481554282 -5.4384418730332982 0 0 0 0 8.8791498207610857 -7.0564509731193539 0 -7.0564509731193539 3.6052241708894144 0 0 0 0 2.0458621728391222 4.5744648717025882 0 4.5744648717025882 2.2404230531245446 0 0 0 0 -0.62951463367608085 -2.433133086851889 0 -2.433133086851889 1.6545327878430385 0 0 0 0 -20.500701391504663 15.347745889019279 0 15.347745889019279 0.018796559073962271 0 0 0 0 56.696382155578249 40.821997428567556 0 40.821997428567556 28.723079397299443 0 0 0 0 -1.7861189261969308 -2.9407320383748292 0 -2.9407320383748292 1.9254099443025439 0 0 0 0 3.2319104190355574 2.8465347293167724 0 2.8465347293167724 -7.6349880425259471 0 0 0 0 3.3684183143664086 1.508676159267452 0 1.508676159267452 4.3334763929015025 0 0 0 0 2.9634932067326751 0.57852476421652455 0 0.57852476421652455 -6.1056578972769557 0 0 0 0 -7.8994906836414884 13.111948610821855 0 13.111948610821855 1.7692219886157545 0 0 0 0 11.388061014975392 14.699957807031751 0 14.699957807031751 -2.2519523910959833 0 0 0 0 4.5781561734420393 2.3410025139419304 0 2.3410025139419304 -2.8203239801805466 0 0 0 0 35.926138263756002 28.409217492509924 0 28.409217492509924 32.567047306540189 0 0 0 0 379.49221588606451 130.28597300288675 0 130.28597300288675 -45.879891852615401 0 0 0 0 -205.64441266848735 145.58232963030605 0 145.58232963030605 14.379731423658086 0 0 0 0 21.436457994230295 16.622185142379749 0 16.622185142379749 -0.018640263748238795 0 0 0 0 1.7622138596413919 -1.5571382776663398 0 -1.5571382776663398 -3.461257072598471 0 0 0 0 143.20983234971573 420.15521993058792 0 420.15521993058792 -0.075384686074283502 0 0 0 0 302.15245197259719 422.66989001823822 0 422.66989001823822 -61.782405431571533 0 0 0 0 197.18255015543218 412.0271547402408 0 412.0271547402408 -4.6593854273378383 0 0 0 0 374.72006653712742 372.54719725108589 0 372.54719725108589 -2.4515741072536912 0 0 0 0 311.887260254578 501.11024322938465 0 501.11024322938465 13.452357980633678 0 0 0 0 270.66631214355039 471.34103993541066 0 471.34103993541066 433.86244694962807 0 0 0 0 597.71406618652327 203.72900436068448 0 203.72900436068448 346.514513004935 0 0 0 0 615.55873603915461 554.6237586345087 0 554.6237586345087 100.14665121935832 0 0 0 0 137.38404161206137 348.4455786001929 0 348.4455786001929 416.91440781092388 0 0 0 0 -82.46068955847295 105.58162363688461 0 105.58162363688461 320.16988742011745 0 0 0 0 803.64938170928144 594.39224760136858 0 594.39224760136858 236.65743342397036 0 0 0 0 1092.7105186394692 686.42459120962303 0 686.42459120962303 284.34565302346891 0 0 0 0 764.26058205043955 472.6079700988339 0 472.6079700988339 150.85048063399154 0 0 0 0 709.86007911219349 493.01134119911876 0 493.01134119911876 193.9475066063751 0 0 0 0 2.5046073867159677 4.1064716408775439 0 4.1064716408775439 0.17079905099720349 0 0 0 0 456.92098450048252 483.26068859654333 0 483.26068859654333 404.21639342384879 0 0 0 0 35.672663211291365 124.82011133863125 0 124.82011133863125 154.456463859824 0 0 0 0 622.25293802297585 -32.231023867247984 0 -32.231023867247984 -48.081186496943701 0 0 0 0 761.62732529727145 452.28645134723047 0 452.28645134723047 94.103780784265837 0 0 0 0 1.1058525131173127 0.56059799605233351 0 0.56059799605233351 -2.3798064866574009 0 0 0 0 4.3397412361009629 1.8943432460800977 0 1.8943432460800977 -1.5578684161955607 0 0 0 0 1.6865786523914892 5.0955055729522769 0 5.0955055729522769 -0.3820123634797028 0 0 0 0 -15.192298605301403 -139.69426808001845 0 -139.69426808001845 78.206739781307988 0 0 0 0 4.6738745544154554 -0.48995799289507147 0 -0.48995799289507147 -2.8001072561468732 0 0 0 0 -1.39503451879186 1.9830432386037273 0 1.9830432386037273 2.7683841148284785 0 0 0 0 302.35697873170284 51.269133373658406 0 51.269133373658406 -133.01404679313418 0 0 0 0 372.31935611681547 320.78380420050962 0 320.78380420050962 281.98674529828713 0 0 0 0 1093.6194165234119 -51.287000542826718 0 -51.287000542826718 185.07822277219384 0 0 0 0 -1.3889878097645649 -3.2428006741464337 0 -3.2428006741464337 0.57362105650850026 0 0 0 0 1.5457134489357394 -3.5167536230256786 0 -3.5167536230256786 11.537734599622468 0 0 0 0 7.4527881657759281 50.887131585444877 0 50.887131585444877 413.22477386970422 0 0 0 0 -78.784917520195449 47.028466324685724 0 47.028466324685724 -18.707655840240477 0 0 0 0 -104.31371858669081 97.51748300055624 0 97.51748300055624 -45.225320829002158 0 0 0 0 -144.70093361305317 61.88127838557557 0 61.88127838557557 73.244104975223308 0 0 0 0 -159.18922104345347 104.03320177257592 0 104.03320177257592 -1.9439787672599778 0 0 0 0 -2.5329429219243025 10.833194906613613 0 10.833194906613613 9.229637410516446 0 0 0 0 -8.651225200490444 -4.3463260521384655 0 -4.3463260521384655 -2.2224215978421853 0 0 0 0 5.7755986785450659 12.757289409129953 0 12.757289409129953 -17.744366086568334 0 0 0 0 254.34483753878976 402.40707502071382 0 402.40707502071382 -462.57846426816832 0 0 0 0 -240.21580959384664 -17.127903954031353 0 -17.127903954031353 240.26016111465287 0 0 0 0 -246.24108496994268 -61.307009615535208 0 -61.307009615535208 62.351172055583447 0 0 0 0 1.7494208132496389 -2.2256877557760788 0 -2.2256877557760788 3.329527923360672 0 0 0 0 573.0134601836653 751.64540058017883 0 751.64540058017883 779.5855332363717 0 0 0 0 366.06541032632958 426.99703827339545 0 426.99703827339545 274.85172045606305 0 0 0 0 230.26969365652985 643.46532734330322 0 643.46532734330322 1320.0031313326326 0 0 0 0 1179.3348261970968 685.3441430949606 0 685.3441430949606 571.97585628965317 0 0 0 0 -3.9758270456641185 242.84469207558868 0 242.84469207558868 1070.2360044295783 0 0 0 0 414.97461850671061 75.828072298616462 0 75.828072298616462 -22.352272727075615 0 0 0 0 497.23566398423281 289.57732472250063 0 289.57732472250063 427.98852946181432 0 0 0 0 441.56504742502148 -125.43184525915422 0 -125.43184525915422 -58.918341933371266 0 0 0 0 3.5209987715248623 3.1684810195688726 0 3.1684810195688726 -0.6384122438491886 0 0 0 0 642.13049059955301 -303.48790588595693 0 -303.48790588595693 95.010685932851629 0 0 0 0 1104.7829820498703 -13.958797694816894 0 -13.958797694816894 102.96520573398448 0 0 0 0 460.43049156455709 494.74267251117271 0 494.74267251117271 554.24650380192179 0 0 0 0 571.53493606520715 686.37996891108196 0 686.37996891108196 787.98348088598868 0 0 0 0 3.0003834462890495 4.7703303997034538 0 4.7703303997034538 4.6728210015990612 0 0 0 0 -140.97325708624612 5.7531862421055848 0 5.7531862421055848 151.18450579384807 0 0 0 0 3.93183028000586 -0.84709647152379119 0 -0.84709647152379119 0.63100907223213198 0 0 0 0 28.653935437672317 21.75207321963353 0 21.75207321963353 -5.5800319194531767 0 0 0 0 12.79135469173616 60.714916397497291 0 60.714916397497291 -94.67826225348108 0 0 0 0 11.883589760840394 12.364752694068557 0 12.364752694068557 12.158839557085088 0 0 0 0 31.358269508777084 9.9175704512308585 0 9.9175704512308585 6.0420433065446559 0 0 0 0 67.907596107430436 25.812944587793027 0 25.812944587793027 2.2584771652473137 0 0 0 0 41.749402683538392 42.296665312511323 0 42.296665312511323 14.516729624418076 0 0 0 0 50.097986753999066 22.009255948094506 0 22.009255948094506 17.835745395917911 0 0 0 0 258.71470490718457 287.63106698729825 0 287.63106698729825 484.94853953144047 0 0 0 0 -0.38127988765141474 2.2868874016475544 0 2.2868874016475544 2.6817130032571299 0 0 0 0 937.41043400462149 537.27266787271947 0 537.27266787271947 -462.99187656829599 0 0 0 0 228.77704496143542 454.19647229731345 0 454.19647229731345 -364.07348984165583 0 0 0 0 437.93903334431889 -222.02303631404357 0 -222.02303631404357 -241.68874763020722 0 0 0 0 225.81329007832392 268.45527254801709 0 268.45527254801709 -110.35375865903188 0 0 0 0 463.84724378849569 402.61615209397132 0 402.61615209397132 -1138.1433375758206 0 0 0 0 -245.3477112966284 -159.30122776169446 0 -159.30122776169446 -450.33716309562442 0 0 0 0 -151.07286071644921 378.18917692604009 0 378.18917692604009 927.79509895759111 0 0 0 0 -159.77914559821875 134.51181714321137 0 134.51181714321137 386.77169550863618 0 0 0 0 3.3714743362917119 5.1498957260665748 0 5.1498957260665748 3.0552390932751621 0 0 0 0 -87.081977018566249 266.22037155589351 0 266.22037155589351 -55.619319795732736 0 0 0 0 6.2421714952947127 11.301981962191434 0 11.301981962191434 7.0151291297720206 0 0 0 0 -153.61358916286918 313.68828758403106 0 313.68828758403106 -73.611102169852529 0 0 0 0 -101.61966451138164 820.53513516389285 0 820.53513516389285 -617.17943961509445 0 0 0 0 514.14614897281353 389.39154945224436 0 389.39154945224436 126.40722975526296 0 0 0 0 680.29392373308201 393.2524245588138 0 393.2524245588138 -13.512214142283483 0 0 0 0 426.88854537369298 425.47695845976705 0 425.47695845976705 149.50037216917553 0 0 0 0 376.20795509481263 230.44273108093273 0 230.44273108093273 -48.763356163457502 0 0 0 0 1.5772727405566185 1.2120888396440108 0 1.2120888396440108 -11.613692429120988 0 0 0 0 27.942726692045653 12.871322416780458 0 12.871322416780458 45.840619805945607 0 0 0 0 348.06627916675779 161.31518282624893 0 161.31518282624893 30.668909154497669 0 0 0 0 40.637128033352383 26.5682558838962 0 26.5682558838962 -16.545153355778893 0 0 0 0 24.706201920111198 18.548424300497572 0 18.548424300497572 57.552020627808815 0 0 0 0 0.080710983465905883 58.626610170445929 0 58.626610170445929 33.681932951338695 0 0 0 0 72.242375963309314 29.52054336026049 0 29.52054336026049 34.686409534217091 0 0 0 0 31.786405253900739 38.217168893745111 0 38.217168893745111 -57.006079623744881 0 0 0 0 35.792518870301137 11.846181377462926 0 11.846181377462926 -22.55665680776292 0 0 0 0 3.9244811351248057 6.9933536701077372 0 6.9933536701077372 -14.490260440774705 0 0 0 0 24.608578086870693 15.425068378630385 0 15.425068378630385 -13.192301992214198 0 0 0 0 331.52589769223277 -348.38476918553715 0 -348.38476918553715 -24.981938448676374 0 0 0 0 14.782473689376275 38.4846324605478 0 38.4846324605478 7.4592163082706975 0 0 0 0 16.71284374141684 20.786818316884535 0 20.786818316884535 13.290434195213692 0 0 0 0 12.910042214145506 27.699328080620035 0 27.699328080620035 15.975824712528265 0 0 0 0 -159.05924738027625 -155.92527285905089 0 -155.92527285905089 538.92503872510861 0 0 0 0 -4.8256940164457802 12.520979004580582 0 12.520979004580582 0.03382657507421527 0 0 0 0 91.804350984627035 303.95922129870814 0 303.95922129870814 991.57279360246321 0 0 0 0 1151.4959213227339 160.38137317163637 0 160.38137317163637 55.797023913270095 0 0 0 0 1.339963756262776 6.3062728502539755 0 6.3062728502539755 3.7957639653779438 0 0 0 0 2346.1966477928163 85.415374724019784 0 85.415374724019784 1555.3600300388644 0 0 0 0 1558.2573984319197 835.11193344895582 0 835.11193344895582 497.13008322459063 0 0 0 0 885.56623303699234 1073.0784105304047 0 1073.0784105304047 1067.3646661671482 0 0 0 0 1377.8291710621397 879.21694293893233 0 879.21694293893233 1569.2474328158046 0 0 0 0 1758.815587720881 1303.3978817357274 0 1303.3978817357274 1960.7446323993499 0 0 0 0 2870.9039919422885 572.09562023161561 0 572.09562023161561 1568.7303220239701 0 0 0 0 1554.135532525821 1176.2457327411612 0 1176.2457327411612 1170.2148698175442 0 0 0 0 1575.4904526355722 648.29277620086214 0 648.29277620086214 162.80867359889089 0 0 0 0 748.25040868976339 281.4131348648516 0 281.4131348648516 124.85558170829609 0 0 0 0 929.27274361908712 657.27651691240317 0 657.27651691240317 228.73861993413448 0 0 0 0 587.47291831891198 691.02547756204149 0 691.02547756204149 568.56473648830433 0 0 0 0 501.71590054570606 686.07520914085035 0 686.07520914085035 569.21850421911222 0 0 0 0 567.094942122877 773.32327721180627 0 773.32327721180627 585.66603190288515 0 0 0 0 486.63451448203523 762.98100425294251 0 762.98100425294251 584.44645024975762 0 0 0 0 901.34650764979779 647.84448993613478 0 647.84448993613478 742.77093393841642 0 0 0 0 884.30539154803228 1029.4792043148918 0 1029.4792043148918 950.73376286012353 0 0 0 0 837.86849723171144 980.91245010079001 0 980.91245010079001 2346.7117158212495 0 0 0 0 450.91774794430057 705.22874575661262 0 705.22874575661262 1360.6805659202219 0 0 0 0 829.788958357909 903.98394902914879 0 903.98394902914879 1816.2886058548465 0 0 0 0 751.99759131416795 1069.4326917494764 0 1069.4326917494764 1801.0978034829604 0 0 0 0 385.40267457444861 614.53020796898636 0 614.53020796898636 1682.5832775583258 0 0 0 0 440.50844982499621 515.74721893388778 0 515.74721893388778 1833.9085110263968 0 0 0 0 314.57088854943686 825.90975263089058 0 825.90975263089058 1458.3723787674098 0 0 0 0 259.03294780514716 658.26411864632973 0 658.26411864632973 1018.3380299145647 0 0 0 0 149.18581093646571 432.13640695560025 0 432.13640695560025 1542.8041134219748 0 0 0 0 101.48893220655555 495.18238015385577 0 495.18238015385577 1472.309962784755 0 0 0 0 4.0104533104923572 9.0740012959187197 0 9.0740012959187197 9.0886954995455085 0 0 0 0 62.710651413906817 291.2532955257484 0 291.2532955257484 1875.9875103842351 0 0 0 0 -16.594960223570524 -221.51961214971379 0 -221.51961214971379 1476.2358550473582 0 0 0 0 1221.0562355928705 611.87691608836758 0 611.87691608836758 -1169.8514469252623 0 0 0 0 1212.9567281047275 1174.780465559772 0 1174.780465559772 -983.08772355073597 0 0 0 0 258.58256922555665 192.90319690486649 0 192.90319690486649 1998.8179508137982 0 0 0 0 -37.936966526953256 58.376519122015452 0 58.376519122015452 1339.5414505865774 0 0 0 0 -45.963663807721787 99.079804310196778 0 99.079804310196778 1251.160372582206 0 0 0 0 1266.4106173067808 687.84454211022967 0 687.84454211022967 -1072.48498720926 0 0 0 0 -126.4927537327053 -472.47151358934934 0 -472.47151358934934 927.92293594358489 0 0 0 0 1008.2912211694747 1441.0228594350629 0 1441.0228594350629 956.92522728651238 0 0 0 0 1126.6565310439109 987.41844767090515 0 987.41844767090515 376.80920172244078 0 0 0 0 1183.6564860390245 1382.3268042737327 0 1382.3268042737327 38.992536200181348 0 0 0 0 1263.1702324049093 640.52126650960417 0 640.52126650960417 -420.90040122550636 0 0 0 0 1364.9222750306144 1020.6127980723395 0 1020.6127980723395 -484.50763182109222 0 0 0 0 1220.2826348389481 586.68825650102372 0 586.68825650102372 -483.45969195722137 0 0 0 0 1128.181046200388 289.76264675093353 0 289.76264675093353 -288.22411029681098 0 0 0 0 898.50303214543601 242.65875387749111 0 242.65875387749111 -271.81023720507801 0 0 0 0 1064.6762617340682 708.08470466901781 0 708.08470466901781 -1815.0032367161912 0 0 0 0 1433.6339792068466 190.93816388047708 0 190.93816388047708 -1579.7053634674812 0 0 0 0 771.0489381319876 713.06909460516181 0 713.06909460516181 -1178.1667660084786 0 0 0 0 1335.2712273709658 110.70566459867405 0 110.70566459867405 -777.84170615284529 0 0 0 0 1133.1751073454006 220.0493376853633 0 220.0493376853633 -570.57137243897887 0 0 0 0 1062.4310369956938 -157.27512077246502 0 -157.27512077246502 123.24195837322623 0 0 0 0 1024.8558210213669 -18.569450395487365 0 -18.569450395487365 -383.35450302848767 0 0 0 0 798.2453787850136 114.18220940529136 0 114.18220940529136 29.888968429586384 0 0 0 0 980.02832680689062 47.203995724099514 0 47.203995724099514 -17.135004672687501 0 0 0 0 755.77192604087395 24.948080194386421 0 24.948080194386421 77.127643068030011 0 0 0 0 769.72391482877902 121.81434996909229 0 121.81434996909229 88.375640274063699 0 0 0 0 791.61524131709848 116.76338292014407 0 116.76338292014407 89.234742532280507 0 0 0 0 958.42754479689393 43.38337845919159 0 43.38337845919159 50.024288897417136 0 0 0 0 994.06043392644096 111.22801992566383 0 111.22801992566383 117.17437465483522 0 0 0 0 529.15696455351645 198.92849782849953 0 198.92849782849953 181.52275980933337 0 0 0 0 549.72065779915715 342.30038307237646 0 342.30038307237646 362.75163496198365 0 0 0 0 337.16250696415227 208.20414606544364 0 208.20414606544364 311.70636305425433 0 0 0 0 598.70266897020883 188.07753762320499 0 188.07753762320499 183.11317298065478 0 0 0 0 607.32877438937612 50.263541371779866 0 50.263541371779866 78.790896043676184 0 0 0 0 672.4694361304073 287.87789334643458 0 287.87789334643458 236.18404504522914 0 0 0 0 657.66765822492926 232.21934470967244 0 232.21934470967244 35.95796153806441 0 0 0 0 927.85280952771018 349.15098296067481 0 349.15098296067481 79.269032432988752 0 0 0 0 602.47302580065298 356.13017735998437 0 356.13017735998437 177.30145731194352 0 0 0 0 636.31115381890777 412.9128910505533 0 412.9128910505533 323.49034043928259 0 0 0 0 615.83437718570394 415.71431071610277 0 415.71431071610277 332.81177228034358 0 0 0 0 642.73397092714004 448.83042286214913 0 448.83042286214913 256.91157279848994 0 0 0 0 649.94218241213093 452.49967981148802 0 452.49967981148802 228.99754769518768 0 0 0 0 722.31927516438918 481.4051068248591 0 481.4051068248591 22.170973689309903 0 0 0 0 788.68373149401668 617.54898392254836 0 617.54898392254836 66.832505914859212 0 0 0 0 407.15769104462015 452.20784187685058 0 452.20784187685058 130.38925242098776 0 0 0 0 979.23056792606531 794.90056151400859 0 794.90056151400859 53.980188994581113 0 0 0 0 442.87177870394044 798.60170004835527 0 798.60170004835527 904.12572144687874 0 0 0 0 1209.7301618933625 1058.1611437772699 0 1058.1611437772699 158.49311839826987 0 0 0 0 -8.3226202244041119 7.0885271318147147 0 7.0885271318147147 2.574076518194488 0 0 0 0 505.72562421852854 682.80232540360157 0 682.80232540360157 345.37738521202118 0 0 0 0 321.66891772507006 411.64706398635462 0 411.64706398635462 256.51030611278838 0 0 0 0 24.017913025087182 8.9080729904453619 0 8.9080729904453619 13.870536629492449 0 0 0 0 34.451268255485047 49.138840109568264 0 49.138840109568264 40.02592616045149 0 0 0 0 92.591368807668914 0.84124515020812396 0 0.84124515020812396 11.870570055500139 0 0 0 0 10.487452746223425 363.26210322028783 0 363.26210322028783 46.490537148638396 0 0 0 0 -245.84990333315 71.943778433713305 0 71.943778433713305 -1.732154745477601 0 0 0 0 -0.32715682383022759 1.3105827853800562 0 1.3105827853800562 4.0577987291110276 0 0 0 0 146.18272345491459 47.296623702677607 0 47.296623702677607 -6.1093541502486914 0 0 0 0 -5.3077255779739865 5.4395326991961781 0 5.4395326991961781 2.9845552865253353 0 0 0 0 683.82745665955008 465.55594640757772 0 465.55594640757772 255.48457344420603 0 0 0 0 87.323146259039277 75.127325003966689 0 75.127325003966689 20.561483249053708 0 0 0 0 117.36252298033287 -14.325353735490353 0 -14.325353735490353 21.339278995178233 0 0 0 0 -221.67183538099198 398.29232790728565 0 398.29232790728565 161.41259622108191 0 0 0 0 -200.3496054733987 425.65146218238078 0 425.65146218238078 -67.703641433341545 0 0 0 0 -403.2961789398214 172.60486592078087 0 172.60486592078087 -31.127989890606841 0 0 0 0 -221.45818748784041 492.41961481271937 0 492.41961481271937 5.1553858585393755 0 0 0 0 -281.83802663492315 431.99016653330182 0 431.99016653330182 -46.430564265756402 0 0 0 0 -223.13874733624107 532.89408780320082 0 532.89408780320082 -0.92918082798132673 0 0 0 0 -224.40118465878186 492.06299843910529 0 492.06299843910529 -20.043435545201646 0 0 0 0 -329.52309039177635 513.58703632796096 0 513.58703632796096 107.51384012561175 0 0 0 0 -373.7062015565898 438.61221121143899 0 438.61221121143899 -3.420289395362488 0 0 0 0 -609.81112261763337 404.9912463316723 0 404.9912463316723 14.868202505560475 0 0 0 0 -596.96408282549919 355.79647709261189 0 355.79647709261189 39.576995404466288 0 0 0 0 -866.15438859321966 238.93949190353669 0 238.93949190353669 13.224456055293558 0 0 0 0 -962.20630573247581 678.60232220966282 0 678.60232220966282 390.29069847073697 0 0 0 0 -728.63021961892446 528.41025696720681 0 528.41025696720681 116.62707357484032 0 0 0 0 -348.64397585366169 514.93981901842926 0 514.93981901842926 68.34800240318873 0 0 0 0 -310.68048829209147 337.93601291332743 0 337.93601291332743 191.28815080977074 0 0 0 0 694.02766401319786 504.17793535495002 0 504.17793535495002 352.1038562276517 0 0 0 0 622.38281003062548 413.04557681741426 0 413.04557681741426 432.15463066080702 0 0 0 0 -0.31773331405397798 -0.2764688117636922 0 -0.2764688117636922 1.1950635453026734 0 0 0 0 226.61372123181991 174.09828957368336 0 174.09828957368336 -171.24779965408379 0 0 0 0 -845.91495252899404 251.46558142449794 0 251.46558142449794 110.20976230033557 0 0 0 0 -1456.6810734594801 235.70808068395854 0 235.70808068395854 356.21091936308949 0 0 0 0 -1.1771451832981796 1.5052563093570512 0 1.5052563093570512 0.41477539368378302 0 0 0 0 1066.4565309379441 883.4589084964573 0 883.4589084964573 322.01991655069287 0 0 0 0 -1224.0289344920893 -317.07760246468388 0 -317.07760246468388 145.55165418533215 0 0 0 0 490.41191613492538 869.53884358827781 0 869.53884358827781 496.71855007327395 0 0 0 0 368.3023931085263 327.79684619867476 0 327.79684619867476 351.97716832024162 0 0 0 0 839.97942964846879 381.22204830186092 0 381.22204830186092 368.60722071920463 0 0 0 0 578.78910858760355 509.26935860083904 0 509.26935860083904 449.86342160913046 0 0 0 0 533.80642530155092 280.80809461291938 0 280.80809461291938 289.03843104785483 0 0 0 0 432.90589372836621 335.34947196123539 0 335.34947196123539 257.75511549634393 0 0 0 0 338.98775235645917 184.58993002880743 0 184.58993002880743 -131.15132036397699 0 0 0 0 53.875246099054493 132.11499680484121 0 132.11499680484121 175.60792250670056 0 0 0 0 -91.052025614582817 669.59698575026414 0 669.59698575026414 436.10725196199564 0 0 0 0 -649.83748282320266 147.25969497074038 0 147.25969497074038 33.204796309204539 0 0 0 0 -304.03842887927385 576.51468709447363 0 576.51468709447363 -284.10802783459803 0 0 0 0 53.802719155553859 300.85798480932863 0 300.85798480932863 -86.693143838929245 0 0 0 0 3.5875945179723203 225.30264278194954 0 225.30264278194954 -182.21780610788846 0 0 0 0 -350.97701393501029 505.4765100255463 0 505.4765100255463 430.31251586935832 0 0 0 0 -1.1942585729987591 1.1222618804859792 0 1.1222618804859792 4.1175744452472145 0 0 0 0 -1008.9515911456092 638.39127451507375 0 638.39127451507375 391.95795994402101 0 0 0 0 36.489672037985656 516.82237722856371 0 516.82237722856371 126.1225235751117 0 0 0 0 -190.87437783059067 262.02977965150058 0 262.02977965150058 -123.40603383757116 0 0 0 0 -224.70439131445164 319.46611618847965 0 319.46611618847965 -366.39669361778942 0 0 0 0 -449.88647822193889 277.39636643564882 0 277.39636643564882 -123.27869370732333 0 0 0 0 -508.72689647228162 377.52941689421277 0 377.52941689421277 -272.56682740064571 0 0 0 0 -440.00381391956034 350.80648444789404 0 350.80648444789404 -285.00958528314732 0 0 0 0 -952.41407072479933 661.70811216956372 0 661.70811216956372 -419.87017630808987 0 0 0 0 -515.10697175737005 1120.270867033003 0 1120.270867033003 -664.81036277965177 0 0 0 0 -423.84227751456638 416.41998797077395 0 416.41998797077395 -375.67435992834999 0 0 0 0 28.889997519418557 33.699190990320119 0 33.699190990320119 32.200227810301783 0 0 0 0 -19.581538642607484 241.96283000415133 0 241.96283000415133 -202.57842017919756 0 0 0 0 -505.97996733764376 381.30667995884869 0 381.30667995884869 -150.70903875694785 0 0 0 0 0.11311177830645747 3.8226864190391368 0 3.8226864190391368 5.4042793816015546 0 0 0 0 -652.42565225935687 619.00884018035867 0 619.00884018035867 -105.48001437378116 0 0 0 0 -24.311872860183939 366.07208317436744 0 366.07208317436744 -193.84312545302419 0 0 0 0 23.927730559762495 314.69221829924572 0 314.69221829924572 -145.6054540729674 0 0 0 0 -70.758060712796578 212.97324684275372 0 212.97324684275372 -88.328649036589923 0 0 0 0 33.93807386719709 311.66557073266813 0 311.66557073266813 -160.97942768696521 0 0 0 0 338.99478395551796 115.32594933465589 0 115.32594933465589 -123.2480058150104 0 0 0 0 328.19231906680398 108.0637597710811 0 108.0637597710811 -104.68930749397259 0 0 0 0 461.00628579917247 -11.504127899170271 0 -11.504127899170271 -144.02151208528812 0 0 0 0 654.14018778211539 -81.379091539238289 0 -81.379091539238289 -148.60525738541901 0 0 0 0 926.77799331381721 -58.557099984507659 0 -58.557099984507659 -240.25134651281405 0 0 0 0 708.74666460348635 -13.575990736288077 0 -13.575990736288077 -166.37991570135637 0 0 0 0 876.65046641417939 -15.112086387860472 0 -15.112086387860472 -187.44925565526137 0 0 0 0 636.99638933651477 55.437314817143488 0 55.437314817143488 -41.622028150261031 0 0 0 0 933.04208019852467 -75.095908570452593 0 -75.095908570452593 -10.236722727247979 0 0 0 0 892.64439220440931 90.401387286379759 0 90.401387286379759 0.46434832279919647 0 0 0 0 780.22162238353485 7.0715414058868191 0 7.0715414058868191 -44.352707837184425 0 0 0 0 551.10421414846132 75.427312535466626 0 75.427312535466626 76.090814761480942 0 0 0 0 582.54356793959778 141.2880650836305 0 141.2880650836305 49.00853017171903 0 0 0 0 464.53449060177081 79.532599688216578 0 79.532599688216578 95.523876768449554 0 0 0 0 501.51869413352506 180.98579878968303 0 180.98579878968303 119.80195489356993 0 0 0 0 285.96090443707362 151.00449339533225 0 151.00449339533225 115.85471997160857 0 0 0 0 329.44108342285836 125.3478295601526 0 125.3478295601526 -145.99429573183443 0 0 0 0 466.01604868972481 49.079212067470507 0 49.079212067470507 -22.646939904399915 0 0 0 0 608.02669924646216 8.9271330106566893 0 8.9271330106566893 -115.78141661192876 0 0 0 0 338.87711677843708 169.68806527026027 0 169.68806527026027 -51.17107270413544 0 0 0 0 -103.89065606557415 56.803943711900502 0 56.803943711900502 17.50815209611028 0 0 0 0 -811.46579405808006 1347.5145691415237 0 1347.5145691415237 -605.59865138717487 0 0 0 0 25.881216883574155 25.052719874694006 0 25.052719874694006 20.90368271132283 0 0 0 0 -939.34123733438355 1129.3380555972653 0 1129.3380555972653 -52.122490625362843 0 0 0 0 -568.38915620584294 378.00503223630267 0 378.00503223630267 70.855020230228547 0 0 0 0 -554.09725592293398 673.60451303661102 0 673.60451303661102 -689.3317791051777 0 0 0 0 -216.23677270869666 -331.35542618243198 0 -331.35542618243198 740.9062446248563 0 0 0 0 -477.70246172456973 800.17663013101264 0 800.17663013101264 903.39165029514697 0 0 0 0 -730.80191866350287 390.95505501977459 0 390.95505501977459 -29.74131302665046 0 0 0 0 -763.59660557479219 172.61967166283284 0 172.61967166283284 408.06556539802114 0 0 0 0 15.487401076967274 18.403275352249182 0 18.403275352249182 18.678571798812982 0 0 0 0 -93.889027122681 262.84785744547116 0 262.84785744547116 -170.8536079400219 0 0 0 0 -218.52241630681237 213.92031455452525 0 213.92031455452525 -122.59738006947737 0 0 0 0 -208.44988449830998 270.43302050898274 0 270.43302050898274 47.645014240144519 0 0 0 0 -428.34472173143877 251.10386161413044 0 251.10386161413044 52.074170260231767 0 0 0 0 -118.49034814141851 328.30739706089844 0 328.30739706089844 -509.98436210294312 0 0 0 0 -373.84747039396098 114.30058326707513 0 114.30058326707513 160.02793598051358 0 0 0 0 -370.03213333220629 593.54139708052389 0 593.54139708052389 -648.45324337643979 0 0 0 0 -597.96472447115957 172.37563505235448 0 172.37563505235448 -190.88976852592896 0 0 0 0 -138.23447108481923 156.13314201359026 0 156.13314201359026 -602.61378232644347 0 0 0 0 -37.601725541535416 429.50481406645849 0 429.50481406645849 -1161.4755430946389 0 0 0 0 -6.1514038938702242 0.9087721605347383 0 0.9087721605347383 -0.90805216858908011 0 0 0 0 -208.02942800342862 -62.152394375385484 0 -62.152394375385484 304.71403849072522 0 0 0 0 -122.98995289614049 156.83955097780654 0 156.83955097780654 -52.061568034434458 0 0 0 0 121.33616100487416 20.175197447533719 0 20.175197447533719 -59.004761113378663 0 0 0 0 -108.98826420681871 263.24706268165028 0 263.24706268165028 -319.47354643879225 0 0 0 0 -19.050526593940049 7.3166107297083727 0 7.3166107297083727 5.5591219376388352 0 0 0 0 -97.133391414263315 99.23876055376968 0 99.23876055376968 126.03134984742064 0 0 0 0 -38.790127856103936 216.49035977994208 0 216.49035977994208 -451.3422325774809 0 0 0 0 -3.4811817115761556 5.1120026291057457 0 5.1120026291057457 3.8600301085066633 0 0 0 0 10.559193208468059 479.63922177489439 0 479.63922177489439 -1471.0939915282142 0 0 0 0 11.904839056408093 16.091147895703244 0 16.091147895703244 10.050413348311679 0 0 0 0 -45.195491154088813 60.969604024765431 0 60.969604024765431 134.95543403518968 0 0 0 0 -306.96233547980592 467.11106283675326 0 467.11106283675326 -1069.773348878356 0 0 0 0 -89.658188404035172 192.44983584347938 0 192.44983584347938 -585.16410773330426 0 0 0 0 106.52434860633366 626.57258875852858 0 626.57258875852858 -1008.2845181381272 0 0 0 0 -182.62437823716755 961.74861598221469 0 961.74861598221469 -1159.5271161017008 0 0 0 0 29.562089878338099 27.140891718677764 0 27.140891718677764 15.472742226256571 0 0 0 0 -198.15527442530583 547.66210989959654 0 547.66210989959654 -1030.6945301716041 0 0 0 0 -455.26458341065154 522.3536817819404 0 522.3536817819404 -698.956658210569 0 0 0 0 -271.10450975095227 536.96762730464252 0 536.96762730464252 -1027.6130762728135 0 0 0 0 -247.80177650352198 745.5656290821571 0 745.5656290821571 -993.66551121006341 0 0 0 0 -271.54604572513836 399.07431845806605 0 399.07431845806605 -154.37681856569543 0 0 0 0 20.333210792004508 23.085144392767546 0 23.085144392767546 21.276478349323384 0 0 0 0 -269.09275434749088 447.47276331027751 0 447.47276331027751 356.51585925978725 0 0 0 0 -227.38561550500162 312.45508079821593 0 312.45508079821593 -146.08129602066128 0 0 0 0 -303.33477470955881 135.30118964625262 0 135.30118964625262 944.45964883343549 0 0 0 0 -303.57032151383703 124.51938115732287 0 124.51938115732287 521.36614682973595 0 0 0 0 -194.42045295683056 759.17657251222408 0 759.17657251222408 962.96781480821664 0 0 0 0 -263.62795186296353 568.98790121667844 0 568.98790121667844 624.7357439470361 0 0 0 0 -282.69052702446788 619.52997327670164 0 619.52997327670164 495.62050174591241 0 0 0 0 -360.64991478536012 475.94408960138389 0 475.94408960138389 355.93772478643223 0 0 0 0 319.79138263393543 1108.3781005289638 0 1108.3781005289638 480.53762081474997 0 0 0 0 293.06456784518377 777.56014150151168 0 777.56014150151168 -230.65375924005639 0 0 0 0 -344.99009437315544 444.33978110895259 0 444.33978110895259 724.77238033781759 0 0 0 0 213.28369973854933 341.25621827974646 0 341.25621827974646 -682.30847433462623 0 0 0 0 46.334814891287351 986.0580007040553 0 986.0580007040553 -244.72794291281025 0 0 0 0 284.99718887639028 336.59353941032168 0 336.59353941032168 -560.87862805882651 0 0 0 0 6.9676015031106004 8.2142222480950267 0 8.2142222480950267 8.4016100790149153 0 0 0 0 -277.77241973525815 274.05121350202535 0 274.05121350202535 1356.9096627594554 0 0 0 0 576.65234183934808 957.3997902586998 0 957.3997902586998 -13.794533754276927 0 0 0 0 430.76755268806301 1000.7484870643821 0 1000.7484870643821 1234.1299316305303 0 0 0 0 1449.2617544759196 -327.7001545853127 0 -327.7001545853127 1619.5861221989035 0 0 0 0 -61.452431305129721 726.9351892222985 0 726.9351892222985 621.39797598894802 0 0 0 0 -87.452220210230735 829.81435549471644 0 829.81435549471644 1205.8929727188079 0 0 0 0 431.74058805782988 972.94686485685816 0 972.94686485685816 345.20692581872572 0 0 0 0 -162.3593246451419 670.61238593199232 0 670.61238593199232 1081.7366936999315 0 0 0 0 -321.69627518030029 -309.73895255892421 0 -309.73895255892421 1801.7794233437362 0 0 0 0 260.95633609496872 736.34995080297813 0 736.34995080297813 1455.1220440105826 0 0 0 0 308.32398154999828 790.443930112815 0 790.443930112815 1382.1602098018629 0 0 0 0 976.46775508040446 -287.83749142391025 0 -287.83749142391025 2151.3982769330614 0 0 0 0 -328.32763260960201 682.28746650548419 0 682.28746650548419 1574.0740075898648 0 0 0 0 -1.4385298833165336 2.9659766421580116 0 2.9659766421580116 7.6133695051711356 0 0 0 0 -207.68009111367064 961.73498496185584 0 961.73498496185584 -67.173889555167989 0 0 0 0 15.668079058642434 499.32304302591183 0 499.32304302591183 -509.4647228930844 0 0 0 0 108.63470826820412 623.46975300498889 0 623.46975300498889 111.97802513041825 0 0 0 0 -77.3917953682394 759.8074783016782 0 759.8074783016782 639.09796244929021 0 0 0 0 194.16029904981406 856.00819806917571 0 856.00819806917571 170.4631861212838 0 0 0 0 -28.950345151421061 624.09863873641734 0 624.09863873641734 92.045894423354184 0 0 0 0 121.19119567259622 561.85848952220113 0 561.85848952220113 -265.6883846783021 0 0 0 0 43.990557977214849 706.92858121443351 0 706.92858121443351 24.78099832450971 0 0 0 0 -170.43944993641708 391.42480344634168 0 391.42480344634168 -153.25833406083984 0 0 0 0 -59.268582734261145 465.62456780220236 0 465.62456780220236 -203.13581718498608 0 0 0 0 -441.79201619291052 176.96100376746472 0 176.96100376746472 -298.27352586940106 0 0 0 0 -176.19131320844826 409.65605261802557 0 409.65605261802557 -210.97283524213708 0 0 0 0 -384.18782370234294 499.76311295456981 0 499.76311295456981 354.29794050422788 0 0 0 0 -188.51374015927286 639.42727940943587 0 639.42727940943587 206.63540466595441 0 0 0 0 16.694149646620644 676.22142335397075 0 676.22142335397075 -23.278221245011082 0 0 0 0 -188.59037454964346 639.43017857013911 0 639.43017857013911 265.82110485681915 0 0 0 0 -71.390865576962824 789.52305100990634 0 789.52305100990634 361.71571706516261 0 0 0 0 -110.71275665214853 558.92442717527592 0 558.92442717527592 -46.721560938094626 0 0 0 0 -144.15452764845395 517.86563259227114 0 517.86563259227114 -21.800935836747556 0 0 0 0 -217.88716108179142 524.3495705894311 0 524.3495705894311 121.26502343690663 0 0 0 0 -196.66999130990735 467.4163069591159 0 467.4163069591159 -92.149833010804286 0 0 0 0 -180.42165797643611 512.50513722169853 0 512.50513722169853 0.2170252767537022 0 0 0 0 -187.69781582986667 467.0659667417782 0 467.0659667417782 -98.816568205409567 0 0 0 0 -218.49380772579752 386.21948709344724 0 386.21948709344724 -140.88025926070986 0 0 0 0 -199.65463105083472 431.64572944121028 0 431.64572944121028 -80.414827278626035 0 0 0 0 -401.0894227726385 337.48538719268618 0 337.48538719268618 -133.79405766785203 0 0 0 0 -262.5893006216611 285.54632442806178 0 285.54632442806178 -239.69547132444131 0 0 0 0 -231.11083649378998 410.90382913465874 0 410.90382913465874 -137.23134641886281 0 0 0 0 -189.29401821071161 392.58169202330748 0 392.58169202330748 -190.82130496687023 0 0 0 0 -274.8115061063254 336.10228869326966 0 336.10228869326966 -167.73036042896274 0 0 0 0 -378.85023648096831 369.55896987275628 0 369.55896987275628 -133.1902695313936 0 0 0 0 -431.43518680749548 323.6212402374149 0 323.6212402374149 -111.71681639369126 0 0 0 0 -826.24881085754896 1033.6407889082766 0 1033.6407889082766 -281.94184677449812 0 0 0 0 -464.89041022805213 367.58605032628111 0 367.58605032628111 -132.9446247358137 0 0 0 0 0.44659647177351758 9.4079885620309227 0 9.4079885620309227 15.352279121810909 0 0 0 0 -411.46874562588346 304.34690762418541 0 304.34690762418541 -213.04790089611197 0 0 0 0 -1.3981235015337887 7.9338717627133519 0 7.9338717627133519 15.827199655742447 0 0 0 0 -557.58482274715425 476.55293312056892 0 476.55293312056892 -288.44933021810357 0 0 0 0 -652.17171276996487 156.20647695922526 0 156.20647695922526 53.65619247086579 0 0 0 0 -767.97778486179777 315.28297417118665 0 315.28297417118665 238.51996421896911 0 0 0 0 -550.10200523109961 198.42690228277934 0 198.42690228277934 269.56203336207545 0 0 0 0 1257.0452756184459 843.42132189545373 0 843.42132189545373 -82.058389459532918 0 0 0 0 302.50292408198584 952.0635731764196 0 952.0635731764196 1322.7466057848787 0 0 0 0 1372.2627419421879 373.67626264983483 0 373.67626264983483 1363.1444568769657 0 0 0 0 -248.82652292703278 -27.384360819356516 0 -27.384360819356516 1256.1330470514076 0 0 0 0 5.1056158582302373 6.6807787537253631 0 6.6807787537253631 8.087982462271782 0 0 0 0 -524.6786558432068 449.37989858483343 0 449.37989858483343 646.66684624527988 0 0 0 0 -248.77975832683296 -53.103758449855377 0 -53.103758449855377 358.53832927440817 0 0 0 0 -306.09968838458008 199.80853957860018 0 199.80853957860018 401.05537064210512 0 0 0 0 599.14488940151932 616.7294581560709 0 616.7294581560709 4.8322241660862346 0 0 0 0 647.89351084221562 265.59591794815788 0 265.59591794815788 -270.20936562647148 0 0 0 0 2088.0798636850377 955.83257095917361 0 955.83257095917361 -211.5106676837313 0 0 0 0 982.91409671165638 249.7532936027892 0 249.7532936027892 -476.32823357760208 0 0 0 0 -1.7343319652876872 8.8897416577046471 0 8.8897416577046471 -3.0314891725298594 0 0 0 0 345.13393565366277 -71.122018593727262 0 -71.122018593727262 -309.18062548789021 0 0 0 0 -673.91373375356488 265.5478674970509 0 265.5478674970509 38.179770578833995 0 0 0 0 0.77494586136607779 4.6115432964544283 0 4.6115432964544283 6.5183621695740612 0 0 0 0 -356.52435214396974 60.527482632154715 0 60.527482632154715 559.62045562329877 0 0 0 0 -239.08267810322286 1053.6508517492693 0 1053.6508517492693 -508.75426395825161 0 0 0 0 23.068919717879908 546.11099254753935 0 546.11099254753935 372.70626991329482 0 0 0 0 -1.8830348661330589 10.055837406366962 0 10.055837406366962 -5.5817137010559463 0 0 0 0 803.08599637464067 384.05809189182582 0 384.05809189182582 -266.12528227572329 0 0 0 0 -1732.0785594117042 382.79315925567607 0 382.79315925567607 165.14150898912339 0 0 0 0 1626.1322960308789 285.4046480656034 0 285.4046480656034 -420.23721669716178 0 0 0 0 989.77775849355385 -120.0144797628891 0 -120.0144797628891 221.51100271887844 0 0 0 0 205.25362434893032 -137.23251266268198 0 -137.23251266268198 -673.67739971283299 0 0 0 0 1335.8371162777985 479.13627036389516 0 479.13627036389516 -291.21598710576654 0 0 0 0 -0.65999029644662954 3.0589496399139193 0 3.0589496399139193 -1.9474490123764099 0 0 0 0 -889.51709009895421 991.56695670571935 0 991.56695670571935 -401.59637909477715 0 0 0 0 -448.85775829370687 602.55490315778661 0 602.55490315778661 -159.76663194483262 0 0 0 0 -868.77927491052105 763.68443360207311 0 763.68443360207311 574.10882231525193 0 0 0 0 -414.09030985358186 625.52583202074675 0 625.52583202074675 -161.82877119933255 0 0 0 0 -386.92089667240725 503.32230590114341 0 503.32230590114341 60.407994860623148 0 0 0 0 -341.49208923958213 396.03946898719732 0 396.03946898719732 -264.40678260982531 0 0 0 0 -415.33232961841713 416.6472016585758 0 416.6472016585758 -193.95901315368246 0 0 0 0 -282.63066126960621 547.59924563816458 0 547.59924563816458 -132.6440532632696 0 0 0 0 -200.00814215446371 540.87465359004273 0 540.87465359004273 -278.33719617694442 0 0 0 0 -264.00504076071957 585.88138790482481 0 585.88138790482481 -282.66853094742692 0 0 0 0 -266.14651928878448 614.53611166025075 0 614.53611166025075 -37.868852142695687 0 0 0 0 -105.83110000089073 358.90882231049181 0 358.90882231049181 45.797994582142564 0 0 0 0 -283.79605904421624 455.14275771402026 0 455.14275771402026 49.1062702472409 0 0 0 0 -276.34217480411826 525.79320184395328 0 525.79320184395328 -107.16204416880646 0 0 0 0 -334.92361200570303 523.43552456779435 0 523.43552456779435 -85.500407492465456 0 0 0 0 -337.82622731241281 493.42873797769425 0 493.42873797769425 -116.61102410474268 0 0 0 0 -330.35641260782722 540.8632456724954 0 540.8632456724954 -186.07128387101693 0 0 0 0 -182.51906305363809 524.16831294920485 0 524.16831294920485 -210.22202398779336 0 0 0 0 -275.3080465526873 643.33703822027019 0 643.33703822027019 -356.33004391289251 0 0 0 0 -426.24937577103265 615.97533316311456 0 615.97533316311456 -109.03760715617682 0 0 0 0 -183.10369021079168 272.19454911286448 0 272.19454911286448 -120.23777912577498 0 0 0 0 -245.99963238168857 411.99096247947455 0 411.99096247947455 -164.96132180404675 0 0 0 0 -178.38753297668609 284.16561464507322 0 284.16561464507322 -298.23831003931991 0 0 0 0 -230.15418133727144 421.28262025040385 0 421.28262025040385 -473.31163946832385 0 0 0 0 -253.74625929885224 339.95372403204237 0 339.95372403204237 -280.52615714311833 0 0 0 0 -292.38537568490938 380.76567802816135 0 380.76567802816135 -259.67733594463789 0 0 0 0 -307.60235493590153 352.1462012615666 0 352.1462012615666 -207.57302126521245 0 0 0 0 -197.42428433261375 525.7111212750624 0 525.7111212750624 -783.91370180074591 0 0 0 0 -191.21372704399982 598.74588357040193 0 598.74588357040193 -185.00689191449783 0 0 0 0 82.980449125261657 529.45876106274227 0 529.45876106274227 174.37968691423885 0 0 0 0 -226.04945116735689 57.983632325544022 0 57.983632325544022 1083.4482297433569 0 0 0 0 -14.520846072649874 114.74601306451223 0 114.74601306451223 249.95004420157056 0 0 0 0 -0.53662508189975711 4.9986328138095359 0 4.9986328138095359 4.1163649720288333 0 0 0 0 2.9085333942184519 10.601616914135519 0 10.601616914135519 7.5442566415236172 0 0 0 0 -266.60749959415989 316.01852251879609 0 316.01852251879609 120.18017886648158 0 0 0 0 -289.60526469607066 244.98822324227513 0 244.98822324227513 286.92979411832493 0 0 0 0 -305.20695613883436 156.60909340302896 0 156.60909340302896 367.00880711088394 0 0 0 0 -390.00090559270211 222.73261876285687 0 222.73261876285687 600.15064099240408 0 0 0 0 -393.45065089482705 268.89112902212582 0 268.89112902212582 289.22035468286776 0 0 0 0 -108.60348436525965 143.05258528113154 0 143.05258528113154 -255.85045211628312 0 0 0 0 20.344609955260239 37.221071013249457 0 37.221071013249457 -49.562243806081824 0 0 0 0 -236.36610504133557 135.05274973993301 0 135.05274973993301 163.03939746541437 0 0 0 0 -107.00221905634316 112.14984690606798 0 112.14984690606798 -2.0344964846153744 0 0 0 0 -235.47272802764928 154.25614461423538 0 154.25614461423538 124.32558181988861 0 0 0 0 -264.4660556153176 339.19553144767997 0 339.19553144767997 56.292271553153114 0 0 0 0 -191.31380789410741 201.48307655336976 0 201.48307655336976 -150.83293012088689 0 0 0 0 0.99133164697472864 11.713791581595331 0 11.713791581595331 7.1855842613619103 0 0 0 0 -478.37642623011925 238.44725566105626 0 238.44725566105626 -145.26028111293726 0 0 0 0 -176.10932710903944 384.22271232186904 0 384.22271232186904 -402.48091036960614 0 0 0 0 171.90333705279772 675.65723341418925 0 675.65723341418925 135.52729269301926 0 0 0 0 89.579262062614362 268.63618659425629 0 268.63618659425629 -1777.046697093494 0 0 0 0 -32.031131755211391 131.05104001750806 0 131.05104001750806 -86.280939631571528 0 0 0 0 -138.87646372077143 403.87840575495647 0 403.87840575495647 185.31127973130788 0 0 0 0 31.36855452452437 261.4824580424538 0 261.4824580424538 132.36277312143829 0 0 0 0 188.51035772931982 413.9905944523739 0 413.9905944523739 -9.3990602803678485 0 0 0 0 202.86741921609064 286.77582491423527 0 286.77582491423527 -211.03468115899159 0 0 0 0 0.04802791063116274 5.9440955838365142 0 5.9440955838365142 0.78975329790278437 0 0 0 0 294.82623594845063 1197.0014122595312 0 1197.0014122595312 -2008.7324766899546 0 0 0 0 -111.73093034961494 345.23605709801632 0 345.23605709801632 786.12392064042797 0 0 0 0 141.55782138278482 354.18655316204604 0 354.18655316204604 -268.71263270605414 0 0 0 0 98.191506890194432 329.2737472386525 0 329.2737472386525 355.7960449034872 0 0 0 0 195.05171084072754 238.17395579038202 0 238.17395579038202 0.057074046002526302 0 0 0 0 0.81360906583368831 6.6439165193225165 0 6.6439165193225165 2.9982756090536355 0 0 0 0 79.379248276534781 198.29215603588818 0 198.29215603588818 419.20342497918682 0 0 0 0 -271.38507676907466 1738.5359242386767 0 1738.5359242386767 -1276.8266314655484 0 0 0 0 20.971144857816398 78.526358769013314 0 78.526358769013314 249.37441504677554 0 0 0 0 -0.30422085221563577 3.228173979648318 0 3.228173979648318 2.0163148899473811 0 0 0 0 -34.070896295378589 -29.83837497692366 0 -29.83837497692366 -1.6844354334461968 0 0 0 0 108.85924173428793 196.08595515340858 0 196.08595515340858 193.20032138457464 0 0 0 0 41.286429584499274 63.302491215872578 0 63.302491215872578 0.1496424216185509 0 0 0 0 71.182327636295668 126.84630345094774 0 126.84630345094774 66.898461076751119 0 0 0 0 -17.414198737409606 0.25973265677748714 0 0.25973265677748714 91.460072569125259 0 0 0 0 -275.73004102668347 347.7470396634526 0 347.7470396634526 -390.06765941894446 0 0 0 0 -466.71076454062131 655.58050472896866 0 655.58050472896866 -314.18507229816896 0 0 0 0 -352.98940912459875 480.88376236732074 0 480.88376236732074 -125.5930707322841 0 0 0 0 -361.21621322389819 493.13945666499967 0 493.13945666499967 -49.989351953059668 0 0 0 0 -2.6951088444620837 379.82711388015014 0 379.82711388015014 -80.199357188859722 0 0 0 0 -6.1872623494346044 356.57016938440938 0 356.57016938440938 -24.48536671634065 0 0 0 0 10.496671356409934 238.11565311605227 0 238.11565311605227 -129.9318765092612 0 0 0 0 20.484674257131701 176.44594180897548 0 176.44594180897548 250.77980040368129 0 0 0 0 -142.01510582496121 342.4655846895912 0 342.4655846895912 19.882041694654617 0 0 0 0 -160.96101165209984 432.87684347286995 0 432.87684347286995 -280.70992373526678 0 0 0 0 -112.57824307942064 218.77850961446529 0 218.77850961446529 -191.06766727287686 0 0 0 0 -102.43197556539963 250.5838807273376 0 250.5838807273376 -92.97346764242684 0 0 0 0 -219.78569838087424 289.8882744495786 0 289.8882744495786 -276.22415719969649 0 0 0 0 -0.67689043398397075 10.454025537574239 0 10.454025537574239 2.6932079861928173 0 0 0 0 -323.27101825149293 -170.49627239145775 0 -170.49627239145775 -843.40773418384197 0 0 0 0 -244.14610380315571 280.4541322183286 0 280.4541322183286 0.072848650110245217 0 0 0 0 -123.50830231553118 218.77455193717469 0 218.77455193717469 -230.99271897355356 0 0 0 0 -95.909688333351369 126.87923378587584 0 126.87923378587584 46.115578480850672 0 0 0 0 78.377741782212979 193.81835581851919 0 193.81835581851919 15.550506560830399 0 0 0 0 -3.3521609581221128 143.06041447482858 0 143.06041447482858 -0.16121657985058846 0 0 0 0 -189.84132611885434 409.47205947206749 0 409.47205947206749 -589.26115059107542 0 0 0 0 -2.7964409472030241 9.6046876943854045 0 9.6046876943854045 2.4973436665710693 0 0 0 0 -15.501877532376966 176.99365134057734 0 176.99365134057734 61.152033124933951 0 0 0 0 -534.18103727232665 908.45973459031666 0 908.45973459031666 -1384.2695497350287 0 0 0 0 -561.42137675313279 872.29101259080198 0 872.29101259080198 -1346.5328416678531 0 0 0 0 -2.2454456379632006 5.5723368665554744 0 5.5723368665554744 1.2449314083373224 0 0 0 0 103.84819977031475 88.833952793520439 0 88.833952793520439 337.54787095272331 0 0 0 0 -359.15420759770495 244.77133334351674 0 244.77133334351674 924.6213824308652 0 0 0 0 -23.486520286220184 432.89917094900738 0 432.89917094900738 0.6664317699323874 0 0 0 0 -621.76319491810864 728.70015784646966 0 728.70015784646966 483.14820522333321 0 0 0 0 -551.90153644249949 566.95613528229296 0 566.95613528229296 -0.77398225269280374 0 0 0 0 -541.3560043436355 775.16580658462954 0 775.16580658462954 -361.46259984115022 0 0 0 0 -440.54339396351133 513.25198459951207 0 513.25198459951207 -442.54468425293453 0 0 0 0 -557.93679442349821 887.0562659555726 0 887.0562659555726 -1287.5115036526258 0 0 0 0 -520.52211352401355 947.27972611715086 0 947.27972611715086 -1305.3049111177097 0 0 0 0 -322.8460209528057 148.48040432719426 0 148.48040432719426 408.08800113631878 0 0 0 0 -4.7135549444258515 3.7774169058462661 0 3.7774169058462661 3.0230517079212404 0 0 0 0 -215.15437873678275 277.3698129216391 0 277.3698129216391 -6.0277683576277923 0 0 0 0 -406.24912157181097 490.92471828674752 0 490.92471828674752 -72.344923917265987 0 0 0 0 -431.5494356274321 475.72082963072171 0 475.72082963072171 92.131597838058951 0 0 0 0 -281.22020163630077 354.49406875848945 0 354.49406875848945 -73.130550644353207 0 0 0 0 -445.85410472414515 400.34488666206744 0 400.34488666206744 -22.889619452653278 0 0 0 0 -486.94939428187718 327.14872900922819 0 327.14872900922819 -102.38659868744435 0 0 0 0 -560.52436703773128 486.22654042981594 0 486.22654042981594 14.083029741312203 0 0 0 0 -443.2670842736843 457.58739795919246 0 457.58739795919246 16.766453124349937 0 0 0 0 -307.73995418504273 447.78446329182043 0 447.78446329182043 -288.43686581900693 0 0 0 0 -914.48294575186446 387.36141676205443 0 387.36141676205443 -107.76261056765361 0 0 0 0 -674.11459474502044 509.47114783550569 0 509.47114783550569 -533.56150682792941 0 0 0 0 -470.83930582822359 335.43410890102678 0 335.43410890102678 -459.46746394335059 0 0 0 0 -449.22551823091635 455.58014776247001 0 455.58014776247001 -252.80339290667325 0 0 0 0 -387.08440944596259 597.35241662329827 0 597.35241662329827 -448.83696310174128 0 0 0 0 -8.4026646817993367 5.8720515528816435 0 5.8720515528816435 5.3686322452532522 0 0 0 0 -323.49807350596529 394.14620170527633 0 394.14620170527633 -361.55345538927213 0 0 0 0 -5.9671677895668438 4.2456228210794933 0 4.2456228210794933 3.4141665159431227 0 0 0 0 -238.18478448571841 126.28241956437159 0 126.28241956437159 290.50983123332117 0 0 0 0 -1763.5187501322362 1209.7017136391951 0 1209.7017136391951 1.6464402460819476 0 0 0 0 -2126.540943082 1346.7808386014731 0 1346.7808386014731 -893.75532869130984 0 0 0 0 256.32260757885524 358.38746656045987 0 358.38746656045987 -358.73188518773532 0 0 0 0 -1.8224628640082692 1.5010403083786343 0 1.5010403083786343 -1.2131054016111875 0 0 0 0 -2173.1550674970131 695.78429890098778 0 695.78429890098778 4.7419527865131386 0 0 0 0 -255.10621566824557 697.80029585023294 0 697.80029585023294 -314.77816913665447 0 0 0 0 -1253.447085307911 328.37935914528498 0 328.37935914528498 0.34200473675446119 0 0 0 0 -1301.2207369954995 808.59616844362972 0 808.59616844362972 -4.0104455220862292 0 0 0 0 -391.92647819984268 258.08568899629608 0 258.08568899629608 92.416748651507078 0 0 0 0 -737.56479310520808 303.36129472634639 0 303.36129472634639 91.497143748347753 0 0 0 0 -731.68053398637858 315.7966719013566 0 315.7966719013566 116.7301417698618 0 0 0 0 -778.68546944569971 624.26616398611804 0 624.26616398611804 60.862715156923514 0 0 0 0 -1117.7359861463483 309.22401012789487 0 309.22401012789487 242.59208309976384 0 0 0 0 -731.48603322447161 249.44144327001413 0 249.44144327001413 237.65203489345095 0 0 0 0 -19.986096504877423 4.1337293466658593 0 4.1337293466658593 -0.70318393316119909 0 0 0 0 108.39273782586679 227.50538062940905 0 227.50538062940905 242.3924563046312 0 0 0 0 298.98572052417148 116.15063515899237 0 116.15063515899237 49.179145598493051 0 0 0 0 189.39733033256198 -105.93146095083284 0 -105.93146095083284 34.090194877790054 0 0 0 0 18.119276997807901 76.245793507521739 0 76.245793507521739 65.117265823551861 0 0 0 0 4.7616566776996478 -166.84102448055637 0 -166.84102448055637 29.856945615396398 0 0 0 0 -1134.5831190140161 458.34142945756321 0 458.34142945756321 -168.49679188203072 0 0 0 0 -513.6904246454942 -244.84884414412954 0 -244.84884414412954 231.50359433272752 0 0 0 0 -8.079742667998147 2.5067182943809314 0 2.5067182943809314 0.13577996883504895 0 0 0 0 -1639.7731712025416 294.50365934927686 0 294.50365934927686 308.83506684121676 0 0 0 0 -1148.7811696007557 -130.08693799191678 0 -130.08693799191678 272.40022280892299 0 0 0 0 -454.3973487384792 78.429871412372449 0 78.429871412372449 49.340594126741053 0 0 0 0 -946.66919110309391 14.299435750406701 0 14.299435750406701 215.22597725852393 0 0 0 0 -885.90096570260357 122.86542910154094 0 122.86542910154094 334.532988171748 0 0 0 0 -704.76112325883878 9.8672576815879438 0 9.8672576815879438 214.20395177654609 0 0 0 0 -392.30522022099831 -43.02435025323939 0 -43.02435025323939 60.729517941974336 0 0 0 0 -465.18314490228659 -187.01535759257968 0 -187.01535759257968 188.08711514132301 0 0 0 0 13.539182191510918 84.811126814282034 0 84.811126814282034 -49.505859503624379 0 0 0 0 -132.02589184815588 -67.912710760938353 0 -67.912710760938353 16.510470818750036 0 0 0 0 -124.30961173661581 47.424314256054004 0 47.424314256054004 14.381463164987508 0 0 0 0 86.991434852214297 54.839878853614209 0 54.839878853614209 -11.218280813365709 0 0 0 0 19.807552244674298 127.72688908272539 0 127.72688908272539 123.10932116757613 0 0 0 0 -165.16614992501854 129.38408563155099 0 129.38408563155099 -68.895132025383646 0 0 0 0 -56.162147716117033 36.522213390926481 0 36.522213390926481 -53.854241292123334 0 0 0 0 -582.26370158411009 246.93796278566151 0 246.93796278566151 2.1499319969298085 0 0 0 0 -346.0612927142065 72.399070992723864 0 72.399070992723864 48.846823112820857 0 0 0 0 -458.5575315661481 171.26424616594159 0 171.26424616594159 -8.4317341782443691 0 0 0 0 -268.36232454550918 252.52708392810018 0 252.52708392810018 -93.742340033772052 0 0 0 0 -439.01619868150738 181.17031014915847 0 181.17031014915847 -24.120319067566015 0 0 0 0 -172.13560013896495 78.101182088023052 0 78.101182088023052 -64.320652788732332 0 0 0 0 -58.238700652989792 135.64265227376745 0 135.64265227376745 -101.42097836034372 0 0 0 0 -1.176488510064118 4.5064802400350175 0 4.5064802400350175 -1.1985573019267122 0 0 0 0 -1195.2473112469743 624.03908180345024 0 624.03908180345024 -253.45075858230848 0 0 0 0 -748.59436594619001 327.59854910592185 0 327.59854910592185 55.402771581575507 0 0 0 0 -672.80282386677573 229.21782003334374 0 229.21782003334374 105.10795418610178 0 0 0 0 -698.53745235930546 296.20287511669449 0 296.20287511669449 -48.670937294402393 0 0 0 0 -823.06495849274506 157.84327737792773 0 157.84327737792773 -67.453547274750235 0 0 0 0 -658.17133538331836 330.48292674966069 0 330.48292674966069 -81.466940854283166 0 0 0 0 -436.51734274555929 191.44422675282112 0 191.44422675282112 -173.785904317323 0 0 0 0 -1.0286253748860261 4.1183116571667 0 4.1183116571667 0.72565836407676443 0 0 0 0 -1258.8354715897294 341.44249345961725 0 341.44249345961725 23.312559289523051 0 0 0 0 -715.43897443066817 304.518583063611 0 304.518583063611 -236.27270590426633 0 0 0 0 -397.19261758256471 317.24503230140544 0 317.24503230140544 -179.00252623326378 0 0 0 0 -688.63194518704586 186.10991884778377 0 186.10991884778377 -54.125325789122144 0 0 0 0 -307.37549384104204 496.71930103973864 0 496.71930103973864 -298.36948904422752 0 0 0 0 -1691.6045214954138 513.96899670749553 0 513.96899670749553 2.9534960118617164 0 0 0 0 -1.0084308139628817 0.48775539403818868 0 0.48775539403818868 0.8344416391802838 0 0 0 0 126.0231641952123 38.485189972136141 0 38.485189972136141 -142.45043453368999 0 0 0 0 -127.5730963871647 199.118601068516 0 199.118601068516 122.84041570307454 0 0 0 0 -150.85087471549195 114.8783529368302 0 114.8783529368302 -181.69799638866971 0 0 0 0 -146.93414599496464 -22.700631509032974 0 -22.700631509032974 -134.1594723615035 0 0 0 0 1.8492349214333501 -3.0715146180786235 0 -3.0715146180786235 0.46843916824644793 0 0 0 0 85.639065040639252 -14.543082460342703 0 -14.543082460342703 -18.827193360280944 0 0 0 0 21.367606464664277 -121.68613365718193 0 -121.68613365718193 -23.006234070300707 0 0 0 0 6.1672615118950489 -20.776610726381477 0 -20.776610726381477 -15.055297138882452 0 0 0 0 -109.07877429318614 135.67593299880173 0 135.67593299880173 133.05174867981987 0 0 0 0 -124.67291498256964 36.101326685435197 0 36.101326685435197 19.908654903498245 0 0 0 0 6.5350630695465952 -17.275496731948806 0 -17.275496731948806 40.976331504258269 0 0 0 0 34.676221559588157 32.772601895005209 0 32.772601895005209 127.09464531953563 0 0 0 0 68.404974064087583 -71.150605816663301 0 -71.150605816663301 23.283320946677122 0 0 0 0 236.47508329592529 159.46445030470204 0 159.46445030470204 151.67191483511851 0 0 0 0 56.956167151627596 -10.002741012140177 0 -10.002741012140177 95.336704688874306 0 0 0 0 419.68561941132066 -69.558297744209995 0 -69.558297744209995 -10.543053859641077 0 0 0 0 -361.47607598578907 31.139732599433046 0 31.139732599433046 247.96896693069721 0 0 0 0 20.111355595479836 -106.79390435989626 0 -106.79390435989626 73.286184373602737 0 0 0 0 43.278697398614895 153.58713948645163 0 153.58713948645163 22.284106929939298 0 0 0 0 -358.37958853832242 20.77481236730091 0 20.77481236730091 81.534540456603281 0 0 0 0 -169.83547507966432 268.18769908047034 0 268.18769908047034 373.13094540120073 0 0 0 0 1.2758615198472398 49.309048711511423 0 49.309048711511423 199.23559044959256 0 0 0 0 -33.716626492905618 15.776572861617467 0 15.776572861617467 -8.4036316522413301 0 0 0 0 -11.064994365481084 7.0012945264174959 0 7.0012945264174959 -4.3565996060845293 0 0 0 0 -825.51488975727989 -398.91782588879869 0 -398.91782588879869 -12.347002402464568 0 0 0 0 -113.32630782493652 714.4236111156697 0 714.4236111156697 -587.18756013113307 0 0 0 0 -1405.8071634729567 655.43534548999742 0 655.43534548999742 63.073471515061101 0 0 0 0 -684.11263717997645 -89.019483442505589 0 -89.019483442505589 -270.99059621425113 0 0 0 0 -1014.8848675544359 777.360347552436 0 777.360347552436 271.2944437492115 0 0 0 0 232.03696145542199 275.43707425110915 0 275.43707425110915 27.40810098512884 0 0 0 0 237.22760281459341 427.51719346993195 0 427.51719346993195 51.675264116609469 0 0 0 0 -245.88345935751568 487.86358025488153 0 487.86358025488153 169.15401638047479 0 0 0 0 643.84767227368138 679.36006722509046 0 679.36006722509046 -275.45431206013018 0 0 0 0 -240.3885381435357 486.8593980569749 0 486.8593980569749 -735.80187603296508 0 0 0 0 -350.92326034694088 100.76582766347929 0 100.76582766347929 -179.64142137796443 0 0 0 0 -230.98883534825291 451.48933157244755 0 451.48933157244755 -309.59652984367858 0 0 0 0 -195.02246891766481 367.54179464539266 0 367.54179464539266 -183.18810855950142 0 0 0 0 -338.64643350899678 424.32620489499249 0 424.32620489499249 -126.07651555477059 0 0 0 0 -411.20551506585616 502.05970575576066 0 502.05970575576066 51.593075500299165 0 0 0 0 -813.42764469896065 381.82268244737497 0 381.82268244737497 160.34636343093734 0 0 0 0 -429.07145160672371 356.77687610403518 0 356.77687610403518 18.389135033612547 0 0 0 0 501.57415828591911 423.4609145125205 0 423.4609145125205 -97.164121070047258 0 0 0 0 -282.94183496740152 685.38401559041813 0 685.38401559041813 55.638170256701414 0 0 0 0 166.19321379812027 350.0359387218632 0 350.0359387218632 59.794698681402224 0 0 0 0 501.66993977533821 450.54050509151057 0 450.54050509151057 89.756944641725568 0 0 0 0 790.74323542180355 545.95645753016288 0 545.95645753016288 7.7864671456882206 0 0 0 0 8.0834469707187964 809.78641183890795 0 809.78641183890795 305.46174842187611 0 0 0 0 7737.1892840522778 3208.3432878086242 0 3208.3432878086242 -27.22524212587799 0 0 0 0 -127.63656822176472 2.8815908607739402 0 2.8815908607739402 -64.435333602596074 0 0 0 0 -139.76003948277503 220.45095775388472 0 220.45095775388472 -0.39650974738238232 0 0 0 0 10.314406019926196 8.7546221579463008 0 8.7546221579463008 7.9181150807314111 0 0 0 0 73.572743752651149 263.04993371410819 0 263.04993371410819 -143.60660831749738 0 0 0 0 874.94797771779122 90.42291752114852 0 90.42291752114852 -108.51905043217994 0 0 0 0 -57.209942616362241 -24.906031632948725 0 -24.906031632948725 225.65524017350981 0 0 0 0 31.137384679636682 26.320999852595939 0 26.320999852595939 21.859142131309113 0 0 0 0 445.75539250907968 -72.847452332018293 0 -72.847452332018293 -194.15756787767168 0 0 0 0 226.97264811613422 246.83258410215785 0 246.83258410215785 0.41800406682887115 0 0 0 0 -637.48353284646873 363.40366395983438 0 363.40366395983438 234.45082106872724 0 0 0 0 -160.62160226142441 373.30118108731403 0 373.30118108731403 -0.21810106644988991 0 0 0 0 -1.8906155373813789 -1.2473185001342415 0 -1.2473185001342415 0.89279697181075335 0 0 0 0 -130.30928003702866 -26.295470082295651 0 -26.295470082295651 -113.54009052428592 0 0 0 0 37.523457145526436 42.390727731072836 0 42.390727731072836 41.896097824672324 0 0 0 0 8.5553476572102625 3.7019972251497535 0 3.7019972251497535 -4.1877046486970357 0 0 0 0 182.759949981315 53.53420025858577 0 53.53420025858577 -151.23125357476238 0 0 0 0 298.39609483412278 -39.227265721721778 0 -39.227265721721778 -73.334163606894435 0 0 0 0 -14.463795100069547 140.16828878763954 0 140.16828878763954 102.00677483718027 0 0 0 0 136.61351786975865 82.777178017466213 0 82.777178017466213 89.027552701099921 0 0 0 0 23.220417631731834 37.003360403075931 0 37.003360403075931 72.311585270421347 0 0 0 0 103.23128942985204 136.24678996956936 0 136.24678996956936 145.93456713452906 0 0 0 0 107.65022089169361 107.13293369855091 0 107.13293369855091 107.09543947523343 0 0 0 0 81.631193158200404 282.49526342116997 0 282.49526342116997 195.24408787209541 0 0 0 0 145.22663166609709 356.75280542179826 0 356.75280542179826 148.96155441741575 0 0 0 0 -129.33206570733455 -106.56191758588102 0 -106.56191758588102 6.9820950304711005 0 0 0 0 -10.847970028189138 2.4854721479199782 0 2.4854721479199782 8.3140470376634141 0 0 0 0 67.400573547914973 157.76022834941978 0 157.76022834941978 -71.585238230742107 0 0 0 0 -178.57662985983188 84.558832782902755 0 84.558832782902755 267.46479743614327 0 0 0 0 -15.891362320967062 2.2498349276992542 0 2.2498349276992542 12.501826870988339 0 0 0 0 42.301762987193797 54.995708060117153 0 54.995708060117153 53.286510750453886 0 0 0 0 100.72012189235829 94.258682798550581 0 94.258682798550581 46.698776322591584 0 0 0 0 189.7319167309397 60.384529656330415 0 60.384529656330415 -102.84184970239585 0 0 0 0 88.030643964586488 53.067695549778364 0 53.067695549778364 46.725854528165655 0 0 0 0 1.6005772946551016 17.795093024721936 0 17.795093024721936 -4.3027982375161855 0 0 0 0 104.15371053433773 35.803595219138515 0 35.803595219138515 80.163164218771271 0 0 0 0 148.07702134999272 160.62821153541154 0 160.62821153541154 -217.11775241639407 0 0 0 0 -170.05103108558978 143.59377268919343 0 143.59377268919343 -15.82238488762232 0 0 0 0 736.16645678701752 94.471829141315538 0 94.471829141315538 0.17731372828711756 0 0 0 0 440.78855146744172 256.36525575949054 0 256.36525575949054 -51.176119421361363 0 0 0 0 363.39204954540583 -185.63616828874274 0 -185.63616828874274 107.01721732411534 0 0 0 0 62.066383491095621 7.403164927920443 0 7.403164927920443 371.84971030877205 0 0 0 0 -21.770423335052328 8.0409686742195845 0 8.0409686742195845 -0.05759688068064861 0 0 0 0 12.3472768322099 60.699416066956474 0 60.699416066956474 130.50996980166883 0 0 0 0 2.7916029123995827 6.9747312133459616 0 6.9747312133459616 -1.8147900915555359 0 0 0 0 -13.74881981881547 -0.30167827857172824 0 -0.30167827857172824 -0.044114040809006383 0 0 0 0 -0.39728699922706845 17.195899645276654 0 17.195899645276654 -3.8933879511088776 0 0 0 0 -19.442085582963045 45.738645502643067 0 45.738645502643067 30.152425623789895 0 0 0 0 238.58634521508066 -22.116007135493419 0 -22.116007135493419 -106.73967377912049 0 0 0 0 -14.303429465449881 43.478362294925319 0 43.478362294925319 16.932875383121427 0 0 0 0 -5.3240326773975539 73.395392127997184 0 73.395392127997184 102.69897219503764 0 0 0 0 -4.9777473190042656 64.753177930964739 0 64.753177930964739 54.985866918927059 0 0 0 0 -28.275945771028859 6.3408750502787825 0 6.3408750502787825 0.86708462291183386 0 0 0 0 -23.144080663711065 5.5084955997299403 0 5.5084955997299403 1.277009932891815 0 0 0 0 -8.1562885467719752 35.485284482056159 0 35.485284482056159 15.791395174877835 0 0 0 0 0.47963842877652496 14.300094469392207 0 14.300094469392207 35.378247190659749 0 0 0 0 -23.370282638672506 4.7173065114475321 0 4.7173065114475321 0.19292730400405395 0 0 0 0 -20.18711835531326 3.3463530496969156 0 3.3463530496969156 0.25871996806304853 0 0 0 0 -33.905942556913942 125.96290388610214 0 125.96290388610214 328.31251254453855 0 0 0 0 -21.148260914640559 2.2442298414007382 0 2.2442298414007382 1.3452850571338786 0 0 0 0 -48.011261410516454 41.368058990221471 0 41.368058990221471 276.02947684700484 0 0 0 0 9.7379207616322674 70.886947664170293 0 70.886947664170293 117.02222371567041 0 0 0 0 -6.116939092418761 12.35387570655439 0 12.35387570655439 89.551571466960013 0 0 0 0 -18.173065936905914 18.963655142004427 0 18.963655142004427 227.01456610392779 0 0 0 0 1.7077840118145104 133.09353377018124 0 133.09353377018124 239.0571290361986 0 0 0 0 26.324996398150688 107.51445667195367 0 107.51445667195367 128.00382903380523 0 0 0 0 45.561445160026778 104.47215750883333 0 104.47215750883333 22.460836754355114 0 0 0 0 9.4470166247047018 102.53248763241572 0 102.53248763241572 120.77815560420277 0 0 0 0 23.1603574159235 82.00834986580594 0 82.00834986580594 28.411471650149906 0 0 0 0 22.029527079081163 109.24397318859701 0 109.24397318859701 19.62032510334393 0 0 0 0 0.71565772642497905 67.809210583771346 0 67.809210583771346 16.723405737295252 0 0 0 0 34.942290507344296 65.719231796865643 0 65.719231796865643 -37.269880681727955 0 0 0 0 25.466602991735272 88.645155281650659 0 88.645155281650659 -80.12409926703549 0 0 0 0 32.598092251741036 53.119645493658027 0 53.119645493658027 -11.42818361040554 0 0 0 0 58.82059961206096 31.036843099983798 0 31.036843099983798 -39.588251852968824 0 0 0 0 56.911323532069218 13.014371234130522 0 13.014371234130522 -5.103248112500296 0 0 0 0 54.272427372176026 37.846889254098642 0 37.846889254098642 -77.102812615121366 0 0 0 0 28.027171255322173 29.837936397030717 0 29.837936397030717 -73.203714267790929 0 0 0 0 57.957033244656486 -44.294025931640135 0 -44.294025931640135 8.5403312865382759 0 0 0 0 40.854843351015006 21.671024600786041 0 21.671024600786041 100.63187302602455 0 0 0 0 37.318064730570768 -0.97912101536348928 0 -0.97912101536348928 -7.2460017726407386 0 0 0 0 97.449911906982379 36.849632413419386 0 36.849632413419386 -1.7721046524966368 0 0 0 0 42.728885764016013 17.962718548238627 0 17.962718548238627 24.627396408337518 0 0 0 0 84.275846268399619 80.003907972306479 0 80.003907972306479 -86.1141334453132 0 0 0 0 65.711710464966018 127.40557562069444 0 127.40557562069444 59.314574729880405 0 0 0 0 4.9642843386999402 0.47255052362845618 0 0.47255052362845618 6.8367083149766472 0 0 0 0 195.35652971042146 9.2608988183201291 0 9.2608988183201291 -139.42460494113766 0 0 0 0 214.13463501706428 -69.268151700249291 0 -69.268151700249291 -91.021212745334196 0 0 0 0 -431.91324879243621 62.281852926971624 0 62.281852926971624 964.35074807703495 0 0 0 0 -16.249852864119021 -51.456351416774851 0 -51.456351416774851 25.416570903704269 0 0 0 0 -229.23024528168025 153.59937188007461 0 153.59937188007461 49.283578094822587 0 0 0 0 -72.060184984409716 18.604802409274271 0 18.604802409274271 -23.320441680203658 0 0 0 0 -9.9849813103597285 -4.2883613624673558 0 -4.2883613624673558 10.842068738323576 0 0 0 0 17.023006870362877 30.589323695888332 0 30.589323695888332 42.302132940887702 0 0 0 0 -30.013370947803196 557.04165895486949 0 557.04165895486949 409.56119810015662 0 0 0 0 -0.94261048766202293 30.964004811816267 0 30.964004811816267 65.999071361642564 0 0 0 0 5.0092751708289143 38.361864152015187 0 38.361864152015187 69.3654965536698 0 0 0 0 -7.7933875890812487 28.239070751304098 0 28.239070751304098 71.033275282068644 0 0 0 0 67.009374985507748 12.57854218481225 0 12.57854218481225 -10.082809325816925 0 0 0 0 -157.46027041727211 25.513689450977836 0 25.513689450977836 -214.74770367401652 0 0 0 0 3.3515243971633026 38.495384318834112 0 38.495384318834112 22.575847255066037 0 0 0 0 0.85861287187725566 11.135106188123444 0 11.135106188123444 7.3466773251947473 0 0 0 0 200.8867149240341 -139.23128476306829 0 -139.23128476306829 14.822670538473176 0 0 0 0 0.80764565861738902 1.7850387705773016 0 1.7850387705773016 2.2794249976220158 0 0 0 0 71.292386846675072 215.82158345624339 0 215.82158345624339 -58.133699829457328 0 0 0 0 100.96398655927624 -21.718903753775521 0 -21.718903753775521 19.722908787041888 0 0 0 0 -246.70676961944264 -161.22207059626817 0 -161.22207059626817 -105.05852309622787 0 0 0 0 -8.1477654528936228 10.185149648769979 0 10.185149648769979 9.785598474521862 0 0 0 0 29.356932157068513 64.62335854844423 0 64.62335854844423 18.536113178881351 0 0 0 0 8.2485660995589569 69.594554217270343 0 69.594554217270343 30.71286967661581 0 0 0 0 31.227714171795576 39.070816600197801 0 39.070816600197801 12.491977403279918 0 0 0 0 -6.277927185408771 48.61662036945927 0 48.61662036945927 4.6515829758136533 0 0 0 0 15.366433305163582 41.443543856107169 0 41.443543856107169 27.603904333408167 0 0 0 0 37.34103376523101 40.118552658704061 0 40.118552658704061 9.5661086699261659 0 0 0 0 -5.7811255709448233 37.801730586651502 0 37.801730586651502 29.961646932701115 0 0 0 0 73.629171177613898 34.18442318932648 0 34.18442318932648 -37.716885153145995 0 0 0 0 16.755444196667213 38.712883375061153 0 38.712883375061153 18.044894815125463 0 0 0 0 -11.417317129336425 40.465653406664813 0 40.465653406664813 55.680027879334304 0 0 0 0 -68.30539545694046 73.161524495808408 0 73.161524495808408 129.97080954327248 0 0 0 0 -65.447893535107141 62.428005239966296 0 62.428005239966296 98.237663358217105 0 0 0 0 7.2443746782583052 36.437118956812412 0 36.437118956812412 60.889400290054596 0 0 0 0 -13.826078047073679 35.247824366975692 0 35.247824366975692 66.803131347318413 0 0 0 0 -3.4337620952489942 6.9296766030317656 0 6.9296766030317656 -2.4026304744186291 0 0 0 0 18.263436167122563 170.80609744936373 0 170.80609744936373 218.90391369277495 0 0 0 0 141.58067109003605 89.993665513655287 0 89.993665513655287 8.11473894273513 0 0 0 0 -0.14132367126876488 -4.2197830140066799 0 -4.2197830140066799 218.93265867246637 0 0 0 0 113.25641573625035 -4.7513535152902477 0 -4.7513535152902477 81.466011683893157 0 0 0 0 -67.311640018568141 76.454351307358593 0 76.454351307358593 128.89712969626999 0 0 0 0 -18.423534058721287 -11.627417838865767 0 -11.627417838865767 8.5576579399119055 0 0 0 0 -25.562268419394968 28.334252243785158 0 28.334252243785158 103.40201797345071 0 0 0 0 109.47454985926743 96.52530118940922 0 96.52530118940922 102.36167141242186 0 0 0 0 9.3862381165381521 86.025928874325473 0 86.025928874325473 181.75883965510002 0 0 0 0 -39.869067228632048 -11.962543514913705 0 -11.962543514913705 131.9662236317854 0 0 0 0 3.5033544964462635 -0.44680714686546708 0 -0.44680714686546708 25.045547265508503 0 0 0 0 -31.180674672300768 4.3513492803811289 0 4.3513492803811289 5.7885888395591873 0 0 0 0 -45.665701001620619 42.422636502386013 0 42.422636502386013 56.64305172888271 0 0 0 0 -86.040622119733598 32.527708191541024 0 32.527708191541024 62.515843293876969 0 0 0 0 9.0259536594659266 25.361684795998059 0 25.361684795998059 21.157300932242379 0 0 0 0 -31.778850656031864 57.347767285304144 0 57.347767285304144 8.4457035710884156 0 0 0 0 -24.270565831015119 59.051377164112637 0 59.051377164112637 8.0278091406507883 0 0 0 0 -14.123603355037631 46.661735840869369 0 46.661735840869369 24.655311045982671 0 0 0 0 -0.2539029031793234 25.590382236500695 0 25.590382236500695 37.231556837947608 0 0 0 0 4.4116505428893618 23.363509529288322 0 23.363509529288322 31.863030605423148 0 0 0 0 23.344952833169373 43.239178068331967 0 43.239178068331967 -18.338094377322705 0 0 0 0 5.6530136780710407 20.110901833784538 0 20.110901833784538 -3.3455744065219619 0 0 0 0 8.1942496192932595 33.891129890856973 0 33.891129890856973 42.119996614037518 0 0 0 0 74.562179829008528 138.69265988835832 0 138.69265988835832 -93.904620412853546 0 0 0 0 0.87172781268600374 96.65608362895 0 96.65608362895 51.613218719772703 0 0 0 0 22.650513163445453 28.562397117424197 0 28.562397117424197 16.887352572765394 0 0 0 0 -26.466759156814078 74.892201058384671 0 74.892201058384671 6.3685955744631428 0 0 0 0 9.9530831175851233 35.040927069489271 0 35.040927069489271 50.252484595707756 0 0 0 0 -3.2942476345130558 2.511475448080958 0 2.511475448080958 2.1922156202209635 0 0 0 0 -49.795920004398795 -41.318690452753799 0 -41.318690452753799 14.247082406945992 0 0 0 0 70.440427628433099 129.2277805407939 0 129.2277805407939 -17.102404454308271 0 0 0 0 68.842168963368749 160.62490646227525 0 160.62490646227525 129.49093754245405 0 0 0 0 19.247651027530083 65.908696541810059 0 65.908696541810059 128.77068590059935 0 0 0 0 104.73599086384638 154.55486220199236 0 154.55486220199236 65.782248422096018 0 0 0 0 11.018799869823852 22.39530828736315 0 22.39530828736315 29.595173881178198 0 0 0 0 -41.12893555212213 4.787298728380847 0 4.787298728380847 31.83703907536983 0 0 0 0 -42.766628139994282 25.040494414421119 0 25.040494414421119 107.25326952624891 0 0 0 0 -22.075316142960219 38.353147921727214 0 38.353147921727214 78.116222491211374 0 0 0 0 -1.793105249031214 2.9922029083136295 0 2.9922029083136295 17.455539370683255 0 0 0 0 -17.667936952111972 -0.073465750353818748 0 -0.073465750353818748 -0.409734310357738 0 0 0 0 36.152764745376771 94.901945022615109 0 94.901945022615109 166.27802255193819 0 0 0 0 -60.347587424024823 38.314919932563498 0 38.314919932563498 149.94255142111069 0 0 0 0 63.285777571105427 -201.88857694397484 0 -201.88857694397484 258.40317590104678 0 0 0 0 5.1919512057789348 3.2993865521588077 0 3.2993865521588077 1.8148091576137233 0 0 0 0 -0.28834999547689222 229.49029237444847 0 229.49029237444847 -371.49112408635119 0 0 0 0 11.183176729216939 172.40004092329036 0 172.40004092329036 448.43694012375454 0 0 0 0 -5.5440685239586855 -0.9160477174411028 0 -0.9160477174411028 0.57824584308080773 0 0 0 0 12.519744824967347 1267.4578687831527 0 1267.4578687831527 -132.7587010117677 0 0 0 0 -1.6687842039967908 260.36483543765024 0 260.36483543765024 230.92617080568743 0 0 0 0 52.918249781047052 311.43702349454179 0 311.43702349454179 122.10483811753511 0 0 0 0 109.63512514505419 230.40329544775159 0 230.40329544775159 203.6010080238957 0 0 0 0 22.291137549349514 111.61713482924461 0 111.61713482924461 167.12008241932199 0 0 0 0 91.980387168292509 181.6852603260013 0 181.6852603260013 89.60855446322239 0 0 0 0 261.34766767714609 194.02614199473828 0 194.02614199473828 84.987574647864676 0 0 0 0 260.83118810507585 172.76663126296262 0 172.76663126296262 137.79321886083926 0 0 0 0 -0.011702742340276018 73.513634022165206 0 73.513634022165206 713.67908879333118 0 0 0 0 -96.916316558228573 279.06238736496016 0 279.06238736496016 611.84395883784237 0 0 0 0 -167.70344423931965 107.33938634815058 0 107.33938634815058 218.3551748569007 0 0 0 0 -79.69829145759104 368.40876112066871 0 368.40876112066871 146.00628053526452 0 0 0 0 -39.994571362913121 159.03017010715848 0 159.03017010715848 138.16867788317177 0 0 0 0 0.20038894636992755 290.17668383653182 0 290.17668383653182 -111.6115693818283 0 0 0 0 -81.287176392841502 169.79477900416168 0 169.79477900416168 -256.69856602698201 0 0 0 0 -120.38849575590757 367.95833940401963 0 367.95833940401963 -307.02564571193943 0 0 0 0 11.37102922810783 10.756953120415726 0 10.756953120415726 9.2592797847125894 0 0 0 0 -181.42330152455543 190.60815370088312 0 190.60815370088312 -103.19011272278294 0 0 0 0 19.931164045759942 -75.080056606777362 0 -75.080056606777362 171.69681706848769 0 0 0 0 2.8945311278057488 8.5805914606835358 0 8.5805914606835358 83.875480523667648 0 0 0 0 -0.48267837933963165 18.037545266153757 0 18.037545266153757 107.19051432967069 0 0 0 0 -221.98948075676162 275.8307674807802 0 275.8307674807802 -123.74377272396669 0 0 0 0 17.222483392280367 17.149983524632081 0 17.149983524632081 16.048571073650578 0 0 0 0 12.795575861280668 9.8726091302814893 0 9.8726091302814893 83.018278760740941 0 0 0 0 -115.05271821383212 139.95740497225779 0 139.95740497225779 44.69644607839291 0 0 0 0 -248.10387012123829 267.11763074465307 0 267.11763074465307 65.95423927216325 0 0 0 0 -205.8535267279949 183.37052653960563 0 183.37052653960563 140.14606862892106 0 0 0 0 -224.3070216489723 138.37380593396665 0 138.37380593396665 42.672405794195583 0 0 0 0 -255.45742320195131 190.6486254221727 0 190.6486254221727 -20.894363660481758 0 0 0 0 -332.309652320444 129.57750059634054 0 129.57750059634054 48.020478239937802 0 0 0 0 -234.66445598306018 18.733157362927159 0 18.733157362927159 38.813095846635406 0 0 0 0 -0.86968032006814155 5.6080376879857852 0 5.6080376879857852 8.3296258203016009 0 0 0 0 18.899660146416863 44.331807080881845 0 44.331807080881845 -103.97778227205981 0 0 0 0 10.58863368263701 70.898353919037618 0 70.898353919037618 -12.730003895434493 0 0 0 0 13.968954158597626 45.711602631723508 0 45.711602631723508 152.33187120889488 0 0 0 0 63.256365703884512 9.1647308674437227 0 9.1647308674437227 42.27426020243729 0 0 0 0 49.201912170508876 37.915248193712614 0 37.915248193712614 164.35531104530673 0 0 0 0 124.66052085655974 64.143584727957204 0 64.143584727957204 0.95036144135519862 0 0 0 0 11.159016343233105 10.459349481439318 0 10.459349481439318 6.4455802668118736 0 0 0 0 2.2501582920376677 22.832390739218681 0 22.832390739218681 11.330546666868031 0 0 0 0 10.949527510273697 30.055036673999211 0 30.055036673999211 25.059994508402212 0 0 0 0 19.871425755554526 27.568344928016288 0 27.568344928016288 20.74900830821457 0 0 0 0 8.4972886302712141 29.884101605530304 0 29.884101605530304 24.480722916079685 0 0 0 0 16.908743101370369 35.45855190592772 0 35.45855190592772 25.286749263730968 0 0 0 0 31.132700156456281 33.290479686753997 0 33.290479686753997 9.8565293543107941 0 0 0 0 25.109012858592905 30.09844046625949 0 30.09844046625949 37.566878057445138 0 0 0 0 17.388049241097178 10.883210726511606 0 10.883210726511606 28.187766032169748 0 0 0 0 21.289870267981314 24.24719335338159 0 24.24719335338159 35.147058763061068 0 0 0 0 5.2367724499409132 26.797612698313173 0 26.797612698313173 23.309731328394037 0 0 0 0 17.975745226023719 38.74645927734673 0 38.74645927734673 29.101735225041921 0 0 0 0 8.5594349273858938 21.27874124496401 0 21.27874124496401 22.589983988217014 0 0 0 0 23.313579898278476 23.484653851450705 0 23.484653851450705 19.911732518812158 0 0 0 0 -170.41768839780707 9.508653851939016 0 9.508653851939016 36.682136337069096 0 0 0 0 21.061449521934264 21.600697540794499 0 21.600697540794499 28.549386563609005 0 0 0 0 16.57449772837208 18.430067347755539 0 18.430067347755539 73.800399097090121 0 0 0 0 30.986617544673209 22.041388025332708 0 22.041388025332708 28.50212552404264 0 0 0 0 -4.9872782706188445 31.516447221092676 0 31.516447221092676 75.070945665793261 0 0 0 0 19.719469214996479 35.041729405781155 0 35.041729405781155 61.808458670857362 0 0 0 0 19.610730647371383 61.534255122038303 0 61.534255122038303 111.62767141343647 0 0 0 0 33.211179408499447 33.563146271029836 0 33.563146271029836 47.598354829780874 0 0 0 0 6.0312411994381954 19.192791896275111 0 19.192791896275111 33.364751346626122 0 0 0 0 -84.070852857057616 22.912654234905858 0 22.912654234905858 65.151195012091193 0 0 0 0 -8.5391060077818111 3.8454436788815656 0 3.8454436788815656 49.93566550019932 0 0 0 0 62.111898044444388 47.011932144596358 0 47.011932144596358 32.064538791804807 0 0 0 0 -6.0480526471193059 13.232430555121638 0 13.232430555121638 44.368268045108323 0 0 0 0 22.344876876959461 12.859865077713039 0 12.859865077713039 32.889884312040522 0 0 0 0 4.5841461217760298 18.148023327893497 0 18.148023327893497 35.092374857093091 0 0 0 0 -0.67823710063138876 17.227393782946677 0 17.227393782946677 40.673015519795513 0 0 0 0 34.644951316899096 96.143450665156706 0 96.143450665156706 126.3987423813669 0 0 0 0 -0.39383562228603353 18.51029954717292 0 18.51029954717292 43.643436872616292 0 0 0 0 -0.070541032095206901 45.200171656615566 0 45.200171656615566 35.51804325037665 0 0 0 0 94.553666165389586 114.1106527808879 0 114.1106527808879 109.1290013830876 0 0 0 0 -3.9766461774978126 24.857118564531845 0 24.857118564531845 49.396721265622944 0 0 0 0 -27.956759869193775 34.967834391959514 0 34.967834391959514 62.777270145976217 0 0 0 0 -18.484708154428517 17.96595219426672 0 17.96595219426672 0.80697285749192815 0 0 0 0 -31.985035039790091 37.452070015726349 0 37.452070015726349 70.401673242042307 0 0 0 0 5.0373457510577282 3.5257848242399632 0 3.5257848242399632 60.792613235782483 0 0 0 0 28.731264229252702 41.796612500147603 0 41.796612500147603 55.549966353777563 0 0 0 0 -11.494714218806351 11.576150462162786 0 11.576150462162786 54.849638900927857 0 0 0 0 -34.469107760000043 -8.7608679022960132 0 -8.7608679022960132 118.45672607590677 0 0 0 0 -69.562900476710638 34.739035963517381 0 34.739035963517381 151.3403264603985 0 0 0 0 -37.170285943400813 -6.4144217872599256 0 -6.4144217872599256 158.22345068704453 0 0 0 0 -0.48853668963420205 12.411436199152377 0 12.411436199152377 75.444151020783465 0 0 0 0 -69.225455345585942 75.338496355310781 0 75.338496355310781 164.54895963799208 0 0 0 0 6.5678654463517887 51.368855762779276 0 51.368855762779276 135.6756573265302 0 0 0 0 28.388599550716862 32.233733825394353 0 32.233733825394353 -12.199738287292917 0 0 0 0 53.196546791259607 157.60114951047126 0 157.60114951047126 155.18208221931127 0 0 0 0 57.679328585800249 87.702151797377155 0 87.702151797377155 74.142960012917001 0 0 0 0 56.309249722540699 55.090197516317858 0 55.090197516317858 13.072152325010393 0 0 0 0 50.236665824719239 57.119479054694239 0 57.119479054694239 58.445027947382187 0 0 0 0 54.524584365150076 38.962116691756819 0 38.962116691756819 17.204380901101104 0 0 0 0 1.5717973029240966 33.291974273946835 0 33.291974273946835 32.629485337645747 0 0 0 0 24.077374072774546 36.213118741521612 0 36.213118741521612 13.295845805085264 0 0 0 0 17.469314277009772 37.270032881312858 0 37.270032881312858 31.942061804312402 0 0 0 0 -2.8890121759972658 59.296280201247065 0 59.296280201247065 54.024700496999458 0 0 0 0 48.784827385827214 44.376624055986554 0 44.376624055986554 30.851267484064124 0 0 0 0 25.908803358657735 36.962542391556838 0 36.962542391556838 32.257107093260032 0 0 0 0 16.543895874376872 26.509531884889981 0 26.509531884889981 16.253924932952884 0 0 0 0 56.195240278113488 40.828369023187406 0 40.828369023187406 24.155960044154199 0 0 0 0 52.121761895279633 53.814556651857856 0 53.814556651857856 34.654251695203129 0 0 0 0 43.760126027849765 59.329339565767441 0 59.329339565767441 37.504351607130957 0 0 0 0 44.691207636831678 70.547136439774476 0 70.547136439774476 53.522672726874589 0 0 0 0 55.972286811855156 61.561103169155103 0 61.561103169155103 34.40612714321469 0 0 0 0 26.153452846745239 45.155453385891832 0 45.155453385891832 30.282593778890373 0 0 0 0 63.063750698143849 43.194555901456624 0 43.194555901456624 23.838969621312572 0 0 0 0 68.280896558862878 55.244776050181827 0 55.244776050181827 31.755883343415917 0 0 0 0 11.160392474093161 46.274105534966139 0 46.274105534966139 44.609034223379069 0 0 0 0 84.533261158125242 81.618230676154781 0 81.618230676154781 71.034925401574583 0 0 0 0 125.51300165565044 95.05005588266431 0 95.05005588266431 30.474609383520146 0 0 0 0 68.438309900815511 87.391388658431424 0 87.391388658431424 54.042494983572396 0 0 0 0 44.308500281398324 28.259050891705556 0 28.259050891705556 -0.16579672602547646 0 0 0 0 8.0486678600968276 13.05995800060515 0 13.05995800060515 10.291757555462368 0 0 0 0 24.008779268013313 36.923134633427253 0 36.923134633427253 17.953630701464135 0 0 0 0 58.647588714570929 30.252768479435389 0 30.252768479435389 -28.301090463250446 0 0 0 0 56.632474029735022 36.72413095806769 0 36.72413095806769 36.162987909046933 0 0 0 0 92.241464344901033 98.804632070758089 0 98.804632070758089 53.226135439472273 0 0 0 0 125.46453344919428 102.94743419744918 0 102.94743419744918 24.05755555901851 0 0 0 0 81.481275912810815 74.292058643943164 0 74.292058643943164 27.284641077669221 0 0 0 0 114.60235395503696 21.399449625663692 0 21.399449625663692 -44.254676820535678 0 0 0 0 13.816665570290027 13.717264787688961 0 13.717264787688961 -9.644554526465555 0 0 0 0 40.108590967620898 36.221081886549001 0 36.221081886549001 -1.3218964108737055 0 0 0 0 32.745227155336181 52.962091633031093 0 52.962091633031093 11.740919760319031 0 0 0 0 7.7024753038752465 17.131666398281084 0 17.131666398281084 3.6143633033130698 0 0 0 0 106.61013721628115 61.936430548783392 0 61.936430548783392 51.270618960217689 0 0 0 0 31.451230905644479 60.384841510491242 0 60.384841510491242 32.697159396157076 0 0 0 0 76.417545869047899 75.363506160727411 0 75.363506160727411 50.710596487406292 0 0 0 0 -3.253197185804158 39.91286918788316 0 39.91286918788316 13.977803578240753 0 0 0 0 21.502302605302134 30.41208337284462 0 30.41208337284462 15.199483095448159 0 0 0 0 40.096769688960194 47.208115955050744 0 47.208115955050744 34.678867885522777 0 0 0 0 182.18790657405043 85.346157625070191 0 85.346157625070191 51.921042582773225 0 0 0 0 122.98775427960209 66.46575380070135 0 66.46575380070135 46.950948739427986 0 0 0 0 159.56733609020739 133.27639511636335 0 133.27639511636335 73.314983296797436 0 0 0 0 120.99142355538061 125.07244782135058 0 125.07244782135058 84.06640592624899 0 0 0 0 153.54330593992199 97.547325977226137 0 97.547325977226137 48.748506815405563 0 0 0 0 141.36815536863287 105.10752090151072 0 105.10752090151072 69.075847101674299 0 0 0 0 290.14775391139483 446.12531279717405 0 446.12531279717405 573.6222048427444 0 0 0 0 -1.6125613373714884 3.4213236413008019 0 3.4213236413008019 -1.1320506869141127 0 0 0 0 304.59995848292601 611.96953692371244 0 611.96953692371244 -3.0387875305314083 0 0 0 0 434.34977633479866 -34.304581935994065 0 -34.304581935994065 142.21487139106102 0 0 0 0 179.01517048687674 112.39418100688636 0 112.39418100688636 68.042528168654826 0 0 0 0 204.74231696066181 98.630676421996213 0 98.630676421996213 48.178821228764718 0 0 0 0 -4.7615758042240266 9.5790380297624438 0 9.5790380297624438 47.722666055387663 0 0 0 0 -148.86628422968897 171.24757272230954 0 171.24757272230954 77.732690946475486 0 0 0 0 110.03454345182399 24.58302361557071 0 24.58302361557071 -191.10016323613672 0 0 0 0 103.80508635397564 29.960922934051268 0 29.960922934051268 136.48963446352718 0 0 0 0 -15.49604867531562 17.604301144705573 0 17.604301144705573 -22.086198148758342 0 0 0 0 -22.686407064604282 27.864335373265931 0 27.864335373265931 -1.4822085469058948 0 0 0 0 17.353898083943932 71.471474424253756 0 71.471474424253756 25.316131837054854 0 0 0 0 -31.539810841946746 109.90105684474474 0 109.90105684474474 -53.989224216944422 0 0 0 0 -112.67184807395097 35.406295594122639 0 35.406295594122639 7.0200050476996694 0 0 0 0 60.424120002469863 107.36431016969436 0 107.36431016969436 -17.276246583518514 0 0 0 0 -19.910489031197187 37.249469684258003 0 37.249469684258003 -31.996371095360814 0 0 0 0 -0.74576108914334327 67.512468200337025 0 67.512468200337025 1.8680578097773832 0 0 0 0 -36.46650774567388 128.62355240567558 0 128.62355240567558 178.58240844041575 0 0 0 0 60.560316337419863 24.111616043951699 0 24.111616043951699 -46.734465216402896 0 0 0 0 4.1474522283097031 6.6329961647120967 0 6.6329961647120967 7.3066178842586282 0 0 0 0 35.563135143689578 56.121765960084304 0 56.121765960084304 -85.257935465124319 0 0 0 0 89.506698117533233 39.845741003300645 0 39.845741003300645 152.24826333791134 0 0 0 0 -53.680619511957048 178.28774073842578 0 178.28774073842578 122.40475023182807 0 0 0 0 -67.011929416534258 245.69005719314737 0 245.69005719314737 -78.739199941892366 0 0 0 0 -367.53140982332116 28.958628751013748 0 28.958628751013748 106.45603925616888 0 0 0 0 -283.09360186822596 -77.693370093278645 0 -77.693370093278645 -21.531230662676236 0 0 0 0 -100.31655362914898 -69.804105528113723 0 -69.804105528113723 75.590888607010129 0 0 0 0 -226.4162102972914 -74.491129870792065 0 -74.491129870792065 219.61995798791759 0 0 0 0 -239.00858456760761 -11.955520570685621 0 -11.955520570685621 76.150800716612139 0 0 0 0 -199.70144666972919 -52.211999740913598 0 -52.211999740913598 84.294027033247403 0 0 0 0 -194.77879247141391 -50.994330874527805 0 -50.994330874527805 51.135461041034432 0 0 0 0 -210.39575453981524 -37.285138115545124 0 -37.285138115545124 92.72693082096157 0 0 0 0 -163.58386700261326 75.915853479637008 0 75.915853479637008 112.59291727858636 0 0 0 0 -52.643777951907396 -87.810108801108072 0 -87.810108801108072 -77.233457819049363 0 0 0 0 -575.83232015739486 11.844070667310007 0 11.844070667310007 67.573977011943498 0 0 0 0 -190.4234348330865 -15.65283333563093 0 -15.65283333563093 -17.569012877560453 0 0 0 0 -201.37548980060092 -15.130572075322561 0 -15.130572075322561 58.301607535910989 0 0 0 0 -238.4100972135202 -7.9476077064700803 0 -7.9476077064700803 50.661501809845504 0 0 0 0 2.4386117313546549 6.1390927457441364 0 6.1390927457441364 11.288591657354516 0 0 0 0 -131.33728858986433 111.40045874211864 0 111.40045874211864 -42.197131730055844 0 0 0 0 3.0322436386414466 9.012135749159512 0 9.012135749159512 17.719424032686618 0 0 0 0 -0.13556900293042418 91.237260591780796 0 91.237260591780796 -71.918591078785539 0 0 0 0 -86.68327139831672 51.254116493476431 0 51.254116493476431 -11.902752299363783 0 0 0 0 -67.080837656030781 28.449575422902853 0 28.449575422902853 -28.257612319546752 0 0 0 0 0.12021413420734461 -6.6577859692079073 0 -6.6577859692079073 -40.022532488103025 0 0 0 0 -139.43329417865607 4.8616742575031822 0 4.8616742575031822 34.628674700834381 0 0 0 0 14.731165737044648 -187.29875573569007 0 -187.29875573569007 297.82588964671777 0 0 0 0 -88.158990885975072 -23.566887786157167 0 -23.566887786157167 49.959530891937902 0 0 0 0 1.8656069057336566 3.3817274115318696 0 3.3817274115318696 3.2245165818579551 0 0 0 0 58.611991006975586 151.01964446708007 0 151.01964446708007 151.36273349312251 0 0 0 0 -5.7650546152411266 9.565510804970927 0 9.565510804970927 -1.5539306066484073 0 0 0 0 184.89052895625173 417.81456717717811 0 417.81456717717811 173.63474010518985 0 0 0 0 -284.06817410149961 287.97551991188448 0 287.97551991188448 -36.509864980485872 0 0 0 0 -183.49904602205061 93.985260700821527 0 93.985260700821527 138.75637609821206 0 0 0 0 -15.837125280668261 65.873990184918512 0 65.873990184918512 80.793833967942874 0 0 0 0 -1338.1119373181282 187.58270155190985 0 187.58270155190985 293.95098387989856 0 0 0 0 -0.96294826240683662 4.0403027905832829 0 4.0403027905832829 1.2452516088850416 0 0 0 0 -446.50707633120328 612.94280827516195 0 612.94280827516195 259.74041004190804 0 0 0 0 -404.21842671020568 241.53249975628569 0 241.53249975628569 -28.260300147376256 0 0 0 0 -407.58005779754603 267.78675256441056 0 267.78675256441056 -5.3512902679940453 0 0 0 0 -327.78080044173839 361.55720738460514 0 361.55720738460514 88.932789873243109 0 0 0 0 -410.5126808208297 249.06181050318082 0 249.06181050318082 12.970141838057316 0 0 0 0 -418.45682836337801 265.83854624778905 0 265.83854624778905 42.138681436146726 0 0 0 0 -555.01768244846608 264.58152284986863 0 264.58152284986863 306.6435104898992 0 0 0 0 -557.13518737073173 106.30520041841373 0 106.30520041841373 21.636998975888673 0 0 0 0 -312.58953542094059 374.76711108228483 0 374.76711108228483 69.658519125950988 0 0 0 0 -13.055909085196618 824.97493124564062 0 824.97493124564062 -264.44054308116029 0 0 0 0 176.2743171592374 367.44719029052067 0 367.44719029052067 288.5322287527124 0 0 0 0 -1846.7069651787569 342.90595202669283 0 342.90595202669283 410.91601810825523 0 0 0 0 -2.9262262908169205 4.2632385745936858 0 4.2632385745936858 -0.45103228243698368 0 0 0 0 792.88188282443662 665.31544072673205 0 665.31544072673205 168.33678630649229 0 0 0 0 -339.89030125880527 186.92031371708435 0 186.92031371708435 337.5014059683599 0 0 0 0 -461.70850626350148 62.510360925451096 0 62.510360925451096 281.33900425050524 0 0 0 0 -313.7145671025155 72.79299298321439 0 72.79299298321439 236.20874959439971 0 0 0 0 -253.47942798968143 10.744084225181723 0 10.744084225181723 280.70289095526095 0 0 0 0 -259.95592518623016 58.263666514496435 0 58.263666514496435 199.83481595700141 0 0 0 0 -26.397309350157229 98.956122057957145 0 98.956122057957145 156.32454074684938 0 0 0 0 -258.94007330433669 210.61753434935963 0 210.61753434935963 118.21105711307609 0 0 0 0 -413.60906017807429 333.64145204232045 0 333.64145204232045 64.708119877279387 0 0 0 0 -25.251285800972255 85.819127830327488 0 85.819127830327488 395.3712161477597 0 0 0 0 547.19763023203996 214.03615765328868 0 214.03615765328868 33.008166073122993 0 0 0 0 -143.10660181150888 53.838746714842273 0 53.838746714842273 180.67888511315687 0 0 0 0 -184.18523147930318 834.14628623360204 0 834.14628623360204 341.57677765085828 0 0 0 0 -92.439189378346782 -649.74614820154966 0 -649.74614820154966 566.61956492206082 0 0 0 0 1.1012749416664889 10.93058153687543 0 10.93058153687543 -2.664968321993797 0 0 0 0 -41.076305307320524 31.975737170357093 0 31.975737170357093 -6.6123933452390133 0 0 0 0 -17.367238557650126 100.13495382842666 0 100.13495382842666 278.61161305118731 0 0 0 0 1.2612010439042933 140.76458595105942 0 140.76458595105942 108.43462167496909 0 0 0 0 74.475660259922734 136.4017297487735 0 136.4017297487735 37.160487326051225 0 0 0 0 -9.1313581675749447 179.41324258001805 0 179.41324258001805 24.80680238280911 0 0 0 0 -18.168973099905998 91.838280623764149 0 91.838280623764149 60.972991532340529 0 0 0 0 23.012661145752247 8.8219699846315791 0 8.8219699846315791 -1.2759683555217975 0 0 0 0 32.347556415105373 23.205243902440998 0 23.205243902440998 -22.186226421254815 0 0 0 0 70.604003139495035 63.996153370768297 0 63.996153370768297 40.987756817041372 0 0 0 0 119.96174692929344 131.1479865106885 0 131.1479865106885 59.997143691842211 0 0 0 0 34.537425139397882 65.439883118423694 0 65.439883118423694 31.471110768838685 0 0 0 0 43.988705105351983 113.62177544372389 0 113.62177544372389 -16.847992595285177 0 0 0 0 13.802135953213593 17.494610628717709 0 17.494610628717709 1.3736660018098519 0 0 0 0 65.754921725878376 74.831487720388395 0 74.831487720388395 53.64801994554 0 0 0 0 79.320161021867534 85.555650738198892 0 85.555650738198892 45.986120127245158 0 0 0 0 67.709288205569464 69.757910280633951 0 69.757910280633951 37.700202548439847 0 0 0 0 75.161652514885645 110.22095474814705 0 110.22095474814705 73.168338056944776 0 0 0 0 46.131157151979238 62.665630843974505 0 62.665630843974505 49.675748000072417 0 0 0 0 74.515442840318428 114.54385667097813 0 114.54385667097813 57.100617508149298 0 0 0 0 104.32182558930799 148.76546805306134 0 148.76546805306134 48.906174953619484 0 0 0 0 146.03437727432174 116.77717255800599 0 116.77717255800599 103.74051523455273 0 0 0 0 125.92617258226528 74.744393718625361 0 74.744393718625361 64.196244982245844 0 0 0 0 85.647141569583141 64.649049031558349 0 64.649049031558349 20.792065959522375 0 0 0 0 65.569125748617807 82.238417578890221 0 82.238417578890221 27.455525925164693 0 0 0 0 54.891197187159008 100.47379222282197 0 100.47379222282197 59.15345140025164 0 0 0 0 30.511686517139822 75.789949884695716 0 75.789949884695716 89.51891019514477 0 0 0 0 70.332711004390148 52.802764374398976 0 52.802764374398976 22.053327629000705 0 0 0 0 70.637818129456775 53.575541591196355 0 53.575541591196355 2.4010232263691336 0 0 0 0 63.359398600601708 50.194068791097379 0 50.194068791097379 48.381676732862616 0 0 0 0 68.916717841711943 213.47218239347421 0 213.47218239347421 -89.454409310841584 0 0 0 0 73.096725425471959 134.53161290683056 0 134.53161290683056 43.321377780492185 0 0 0 0 -0.13139410482014569 10.592439865969453 0 10.592439865969453 13.519472375938292 0 0 0 0 40.328450211134623 55.146595128957415 0 55.146595128957415 -176.30532470086473 0 0 0 0 -143.41564286026551 346.34021971916081 0 346.34021971916081 -152.89192967800773 0 0 0 0 11.20153694679172 14.640683551439423 0 14.640683551439423 14.97464030563782 0 0 0 0 155.42197129424312 141.68829608164378 0 141.68829608164378 44.215712866949616 0 0 0 0 -164.73304384631774 76.9921830409221 0 76.9921830409221 281.25645720146713 0 0 0 0 103.0046556765592 158.85793130405 0 158.85793130405 177.5559264952899 0 0 0 0 -393.3165720404686 248.59497400555847 0 248.59497400555847 225.04915133486793 0 0 0 0 -345.77144020525884 135.08700191392563 0 135.08700191392563 236.86554793725008 0 0 0 0 -79.315813840839837 264.58828640258798 0 264.58828640258798 120.19454685496748 0 0 0 0 109.14720268682868 77.519743129960261 0 77.519743129960261 115.70411938927282 0 0 0 0 96.90612323825917 29.517638536228333 0 29.517638536228333 61.905674362040372 0 0 0 0 -247.0776668997205 434.80102055542739 0 434.80102055542739 136.33485686175118 0 0 0 0 52.623294607511774 96.819959543043382 0 96.819959543043382 155.56102512535131 0 0 0 0 151.88033908573561 161.11406696032645 0 161.11406696032645 102.51359748477068 0 0 0 0 116.1743032770537 97.705682813262683 0 97.705682813262683 73.581410716331447 0 0 0 0 131.26759937884344 87.443968966945249 0 87.443968966945249 40.224464034101402 0 0 0 0 129.38980945450021 280.43773591060108 0 280.43773591060108 18.921230878600909 0 0 0 0 9.879234642718302 35.28517649499139 0 35.28517649499139 -6.9573045990557318 0 0 0 0 43.541484480572734 102.19350475100077 0 102.19350475100077 164.6777256499995 0 0 0 0 166.6424077898555 181.13856877767466 0 181.13856877767466 39.797257826888199 0 0 0 0 -8.5317805246100136 6.0139548338693771 0 6.0139548338693771 -13.277575188670596 0 0 0 0 334.53425494730254 325.91108980001445 0 325.91108980001445 66.357213146693539 0 0 0 0 422.90873334735807 -83.715421935801714 0 -83.715421935801714 209.91820560871565 0 0 0 0 358.4457256293681 533.81257606360487 0 533.81257606360487 130.35630611545639 0 0 0 0 329.33398774136731 192.12787815919728 0 192.12787815919728 207.43851261428063 0 0 0 0 742.57289984397357 650.83302067154727 0 650.83302067154727 606.97472423352883 0 0 0 0 19.575981984988175 180.44272136889231 0 180.44272136889231 79.317282413423527 0 0 0 0 117.57186811078282 402.73451472337547 0 402.73451472337547 582.29941779813089 0 0 0 0 -57.818221339022784 -22.869168826860459 0 -22.869168826860459 751.20494375577255 0 0 0 0 -50.109520350551975 22.627457566962221 0 22.627457566962221 243.75884915486677 0 0 0 0 207.14655088825384 -286.09688074123551 0 -286.09688074123551 411.6304583763922 0 0 0 0 93.396798355388455 117.42644801239658 0 117.42644801239658 455.40430136674695 0 0 0 0 124.01776599453297 296.98098771713376 0 296.98098771713376 1419.6881189882843 0 0 0 0 -2.5916252967931541 2.3173090822357523 0 2.3173090822357523 8.026783032033336 0 0 0 0 760.7524860832782 262.4073778786169 0 262.4073778786169 107.2319169054681 0 0 0 0 238.1202839644975 -437.69000576063263 0 -437.69000576063263 1043.6012044171548 0 0 0 0 281.33114301331807 959.55991855938919 0 959.55991855938919 619.97724864311749 0 0 0 0 728.40969768434297 -138.45270818464633 0 -138.45270818464633 1302.425890776678 0 0 0 0 86.228299769198202 93.163561899460547 0 93.163561899460547 28.535427888375125 0 0 0 0 -420.06756525456876 380.81506447685024 0 380.81506447685024 130.97145883096528 0 0 0 0 -363.56770946615143 72.8159164924582 0 72.8159164924582 424.16307549054181 0 0 0 0 -511.65864157375472 350.96413386616405 0 350.96413386616405 269.76209259810275 0 0 0 0 -33.123173213534756 -187.96749500703663 0 -187.96749500703663 400.85420854079712 0 0 0 0 -37.898910896488815 30.614452165962575 0 30.614452165962575 97.921835254230245 0 0 0 0 47.045568854710012 90.732125176929316 0 90.732125176929316 148.21760911776715 0 0 0 0 -175.88587177161389 140.70223011315102 0 140.70223011315102 153.46977667490864 0 0 0 0 -62.802654812207038 347.85344920483476 0 347.85344920483476 113.01401151403479 0 0 0 0 157.60354781616115 277.51996716167196 0 277.51996716167196 -34.089799333858537 0 0 0 0 204.96606253554637 516.99480582143588 0 516.99480582143588 192.91324185859412 0 0 0 0 -2.1158938769644564 3.5763924380644312 0 3.5763924380644312 -0.46872248268590511 0 0 0 0 -1044.9622229841007 -105.16149702879557 0 -105.16149702879557 173.11663354990014 0 0 0 0 194.0593873761245 244.22763148874219 0 244.22763148874219 244.31114792060544 0 0 0 0 963.83648469452783 476.8080077104205 0 476.8080077104205 18.567647317366209 0 0 0 0 -5.1798221210024877 8.8031448347417154 0 8.8031448347417154 -1.5969396279507464 0 0 0 0 440.99042850891419 394.66544140170481 0 394.66544140170481 106.16548052441794 0 0 0 0 -423.55463230036548 169.62639288206265 0 169.62639288206265 117.95913623031811 0 0 0 0 -374.3546836331152 198.24057343122331 0 198.24057343122331 102.46622624940937 0 0 0 0 43.409693845729635 511.09967935956956 0 511.09967935956956 280.86435556335346 0 0 0 0 74.285126369912177 451.44940684177709 0 451.44940684177709 109.08615600233315 0 0 0 0 55.525384433080035 344.56515373047296 0 344.56515373047296 203.10280639745179 0 0 0 0 78.487610631505959 279.99890750687337 0 279.99890750687337 -122.89074766236809 0 0 0 0 105.70774413006438 519.2298530487642 0 519.2298530487642 7.9417635506833903 0 0 0 0 -105.52386130700324 245.99753630893247 0 245.99753630893247 -0.31953916851489339 0 0 0 0 317.54006008897704 269.38509612580856 0 269.38509612580856 -48.388086017919704 0 0 0 0 76.017914189607836 232.49800374251208 0 232.49800374251208 3.3961844249533897 0 0 0 0 109.29654539899639 238.16199549544763 0 238.16199549544763 -274.60329626034945 0 0 0 0 -27.611157012732292 16.704570856170903 0 16.704570856170903 -169.46790934811361 0 0 0 0 66.116655865873327 100.51521972319824 0 100.51521972319824 -102.37321349960985 0 0 0 0 -27.193970800452917 35.494098471659527 0 35.494098471659527 -52.917091050578165 0 0 0 0 27.014330385818937 13.103913747067935 0 13.103913747067935 3.653647138517627 0 0 0 0 -29.97764128154995 45.389877471122418 0 45.389877471122418 -68.713709407558781 0 0 0 0 154.93621946856956 -53.945448661601858 0 -53.945448661601858 668.13655690592714 0 0 0 0 149.06995989008283 -5.9336779562290758 0 -5.9336779562290758 336.09459949850861 0 0 0 0 34.953402650942735 -41.640102629164176 0 -41.640102629164176 377.64009250065283 0 0 0 0 67.36223761716974 57.874948530785332 0 57.874948530785332 427.21400731152971 0 0 0 0 190.65526242767373 177.01293470575183 0 177.01293470575183 240.59465202638967 0 0 0 0 213.9186968656868 302.57369530206779 0 302.57369530206779 682.87167061751825 0 0 0 0 -114.58708239984844 204.3482987838488 0 204.3482987838488 166.82757281562954 0 0 0 0 32.70322754531756 70.182048935087437 0 70.182048935087437 141.09185698284998 0 0 0 0 -147.98461106866307 46.352972962260537 0 46.352972962260537 202.43491970228206 0 0 0 0 -224.08468976481527 188.21836699233972 0 188.21836699233972 236.82990785323636 0 0 0 0 72.281752737044371 53.43482081475122 0 53.43482081475122 143.58124378751381 0 0 0 0 3.2018686977316975 65.114392535739171 0 65.114392535739171 73.843780730690924 0 0 0 0 22.694146890673437 -66.735122774305637 0 -66.735122774305637 329.83483380242251 0 0 0 0 -87.427786667685723 28.474398048831063 0 28.474398048831063 233.28203907642455 0 0 0 0 38.030097088292848 29.243538429901491 0 29.243538429901491 35.049341733796396 0 0 0 0 38.0539100840911 62.568146207522084 0 62.568146207522084 119.16427564504335 0 0 0 0 27.656770970770594 113.28161834522689 0 113.28161834522689 -37.539364615557133 0 0 0 0 86.088443982531317 77.576408490778704 0 77.576408490778704 119.99704352724439 0 0 0 0 13.828902614108301 121.16474076354825 0 121.16474076354825 105.62567008855694 0 0 0 0 53.150405094297476 85.888217229874385 0 85.888217229874385 135.84064775409036 0 0 0 0 -235.87879743145459 20.999770132268168 0 20.999770132268168 314.00233742043929 0 0 0 0 -1.6161155213927714 13.34922309288114 0 13.34922309288114 32.466370615849684 0 0 0 0 44.337788692049799 82.734039802351617 0 82.734039802351617 36.612508805064863 0 0 0 0 19.63776845009852 5.1972232873122266 0 5.1972232873122266 2.9404985209548613 0 0 0 0 22.638128705410054 43.541290561301139 0 43.541290561301139 143.42325633248402 0 0 0 0 72.15879051493539 102.71137336704123 0 102.71137336704123 37.59103960813809 0 0 0 0 -23.221838261893936 211.54193636997661 0 211.54193636997661 176.32075838178571 0 0 0 0 159.18600339787736 604.56467618255647 0 604.56467618255647 106.61042347767216 0 0 0 0 -33.818573354843465 129.70767092260485 0 129.70767092260485 -225.42377734716865 0 0 0 0 127.777570236256 457.80323344918361 0 457.80323344918361 -534.43536437979492 0 0 0 0 -4.3722680376346261 2.8480633566506555 0 2.8480633566506555 6.2377778717679178 0 0 0 0 -2.9946738197509148 -1.6498665642641441 0 -1.6498665642641441 0.66303197302573835 0 0 0 0 -320.15740292915143 248.09924160121773 0 248.09924160121773 126.52984551469126 0 0 0 0 -40.658412458622479 12.436624288442545 0 12.436624288442545 62.937131395621691 0 0 0 0 40.336775702380692 -165.37532598699181 0 -165.37532598699181 336.51782325649401 0 0 0 0 4.1013260178370103 8.4853839837899443 0 8.4853839837899443 14.930743392289628 0 0 0 0 -81.140269237657776 -110.59477279928979 0 -110.59477279928979 87.685785900372139 0 0 0 0 -51.89445876647369 81.882525657856604 0 81.882525657856604 -49.912411917408463 0 0 0 0 60.591880912950728 -187.7556185616013 0 -187.7556185616013 217.15639685172937 0 0 0 0 12.623688461666461 -58.363431284276885 0 -58.363431284276885 372.79110850191501 0 0 0 0 -105.1081743384857 36.699456005215325 0 36.699456005215325 309.39523542388633 0 0 0 0 85.775141409554635 -186.74374390522644 0 -186.74374390522644 118.35881743267237 0 0 0 0 -70.312686253935681 -76.63351119814979 0 -76.63351119814979 164.65088763702079 0 0 0 0 109.74669568176614 -150.54753823937062 0 -150.54753823937062 136.78727755594446 0 0 0 0 1.8030725528478797 -51.782423933479549 0 -51.782423933479549 90.592691771693353 0 0 0 0 -236.05553780336049 42.080421005295648 0 42.080421005295648 135.76129152188514 0 0 0 0 -39.271988268304995 -132.74916445177769 0 -132.74916445177769 230.87951247258752 0 0 0 0 181.71529486677173 -135.42578232602864 0 -135.42578232602864 138.34405358065851 0 0 0 0 80.887141506333137 -39.499170380004216 0 -39.499170380004216 301.1367104807432 0 0 0 0 321.03628503701475 147.70471991612067 0 147.70471991612067 -0.096200096645475242 0 0 0 0 65.557245427829912 73.239764811438363 0 73.239764811438363 1.9093373092910042 0 0 0 0 2.3179871300409616 5.5655226202523522 0 5.5655226202523522 11.922305108970647 0 0 0 0 0.50273459564721179 1.5994725226716469 0 1.5994725226716469 5.0487153729994247 0 0 0 0 -9.9112772917869734 -196.75372399365006 0 -196.75372399365006 372.86648307965515 0 0 0 0 -79.90496126038488 88.326777404789027 0 88.326777404789027 499.55933844355604 0 0 0 0 195.94467008506763 -143.36481567471492 0 -143.36481567471492 190.96508317874395 0 0 0 0 -13.218375589771313 5.4763207790092565 0 5.4763207790092565 466.41809067915892 0 0 0 0 338.56547017897901 206.36004155223145 0 206.36004155223145 104.30892269690958 0 0 0 0 218.27467721668654 33.468077249428461 0 33.468077249428461 -263.56170084771111 0 0 0 0 97.757922556091216 -65.978168082727279 0 -65.978168082727279 -287.26775057672785 0 0 0 0 99.014396817075919 66.47926466627888 0 66.47926466627888 43.873790434907534 0 0 0 0 -228.63632777922248 -133.69685912738987 0 -133.69685912738987 -35.626736780137435 0 0 0 0 157.13321462235035 539.5999880156287 0 539.5999880156287 -250.26403564024804 0 0 0 0 76.87963678855192 56.121615907265586 0 56.121615907265586 39.127424477119035 0 0 0 0 -48.770802820086828 -70.504501642655669 0 -70.504501642655669 318.76931822740517 0 0 0 0 -43.309344361507101 424.1290601527071 0 424.1290601527071 -171.87681281910136 0 0 0 0 6.6577963146933143 3.9617983847505087 0 3.9617983847505087 1.0136482805351932 0 0 0 0 -210.67446985788411 83.796565937827836 0 83.796565937827836 -13.241353124234593 0 0 0 0 -283.77196454646764 212.28063967407434 0 212.28063967407434 -55.305979974760703 0 0 0 0 -175.5840563670572 173.35851329913203 0 173.35851329913203 -118.26699782925425 0 0 0 0 -218.48246953700436 238.43486079423019 0 238.43486079423019 -213.14590559176577 0 0 0 0 -563.46245778072625 267.06053831525423 0 267.06053831525423 -20.813739430906026 0 0 0 0 -257.20768276049057 190.92017376833974 0 190.92017376833974 -38.858633404721331 0 0 0 0 -36.529859452143683 -18.007432516818881 0 -18.007432516818881 114.34564622835751 0 0 0 0 -33.021189765480813 39.611826152198773 0 39.611826152198773 -113.31424311480077 0 0 0 0 -326.54245653230464 138.19775501533513 0 138.19775501533513 -12.232756873344897 0 0 0 0 146.2821516727563 447.37395505037421 0 447.37395505037421 190.33760137060381 0 0 0 0 165.14623756086803 310.41056034117719 0 310.41056034117719 -569.21619740579627 0 0 0 0 -478.88345903725713 -115.71726305418633 0 -115.71726305418633 -52.655432092218689 0 0 0 0 -323.69671960477717 39.826195299741812 0 39.826195299741812 -3.6484650878601315 0 0 0 0 -199.79773682341329 316.89153136602545 0 316.89153136602545 -422.81714903592729 0 0 0 0 -8.0273190793861886 -2.189112695683491 0 -2.189112695683491 0.70024695541832749 0 0 0 0 -19.455669574075728 302.11012180125181 0 302.11012180125181 265.79875595164776 0 0 0 0 253.83907531006116 129.57362526338056 0 129.57362526338056 445.14900257809495 0 0 0 0 189.04321388408425 454.89159759347967 0 454.89159759347967 372.95266434032601 0 0 0 0 205.4266882619122 6.9351718327961862 0 6.9351718327961862 -249.30370635346299 0 0 0 0 4.607175555656454 1.0159102274149348 0 1.0159102274149348 -1.4421825285948415 0 0 0 0 83.404858803871321 120.84936820819712 0 120.84936820819712 248.7494445727425 0 0 0 0 275.5824070800154 81.832262033200095 0 81.832262033200095 -268.52871713875629 0 0 0 0 366.09287901310017 272.11150415507655 0 272.11150415507655 35.7104005736619 0 0 0 0 375.08192026810138 407.62388010407449 0 407.62388010407449 151.6943251515986 0 0 0 0 493.46493018127512 379.95135929370008 0 379.95135929370008 81.504826995889744 0 0 0 0 501.3143791682669 143.72169810673222 0 143.72169810673222 393.30367519545689 0 0 0 0 339.35143973815138 312.74724652724399 0 312.74724652724399 -86.170116502020392 0 0 0 0 393.68126526051492 392.47828809513885 0 392.47828809513885 154.43806664764998 0 0 0 0 -1.8913876588742369 2.1668403989676932 0 2.1668403989676932 12.56620852606725 0 0 0 0 182.26128339582647 299.75590321597565 0 299.75590321597565 -97.862412516085897 0 0 0 0 -44.360206654208014 120.43994586765257 0 120.43994586765257 573.92983186186029 0 0 0 0 302.96044174852432 149.54595894636805 0 149.54595894636805 217.98161610198622 0 0 0 0 197.40354712973931 369.70819900410424 0 369.70819900410424 225.27837735169305 0 0 0 0 391.66333572141593 171.89462312712567 0 171.89462312712567 -119.07060247714617 0 0 0 0 -360.6470922419976 125.64028043183498 0 125.64028043183498 -19.0875640947379 0 0 0 0 65.881077594764065 118.59400588623976 0 118.59400588623976 304.16325763534041 0 0 0 0 -255.08924603473861 328.83591300743137 0 328.83591300743137 230.33387295029752 0 0 0 0 -75.312988786914843 28.156833785616115 0 28.156833785616115 15.754651453891974 0 0 0 0 2.2701605443426729 9.1334079699718416 0 9.1334079699718416 14.077711098536227 0 0 0 0 48.135618173601586 78.743938973001278 0 78.743938973001278 37.851816678098828 0 0 0 0 -21.70361511061958 35.648966745751864 0 35.648966745751864 60.816093726074456 0 0 0 0 35.867522016487783 81.794207448263478 0 81.794207448263478 102.12404058225366 0 0 0 0 22.345190467138309 81.846816463505093 0 81.846816463505093 103.08268973469967 0 0 0 0 109.15608190143462 83.505178333009368 0 83.505178333009368 55.18567121745631 0 0 0 0 77.033660179156868 360.77366184589391 0 360.77366184589391 20.121198649703729 0 0 0 0 -12.980624561503646 -2.256156055838801 0 -2.256156055838801 110.63490826372436 0 0 0 0 83.996882598468801 67.373108897460042 0 67.373108897460042 169.65344578305667 0 0 0 0 25.862097612470123 55.895818632592537 0 55.895818632592537 47.37065933469745 0 0 0 0 7.9410533481175491 56.726569245856304 0 56.726569245856304 77.357346839260686 0 0 0 0 46.964142066892236 106.23368197010132 0 106.23368197010132 93.616883967188187 0 0 0 0 -34.631936985402717 67.853910204299609 0 67.853910204299609 51.931109489943992 0 0 0 0 32.635040081037516 61.9869684059272 0 61.9869684059272 87.860574242532991 0 0 0 0 26.277259620459517 86.529649499818333 0 86.529649499818333 95.622266443548142 0 0 0 0 19.710923452051247 62.437823277378669 0 62.437823277378669 73.851804511394391 0 0 0 0 -19.555304447421804 56.869660030293744 0 56.869660030293744 49.348198344669072 0 0 0 0 3.7360232653772982 64.363209648135808 0 64.363209648135808 106.80012932338286 0 0 0 0 -13.192137594234111 43.909092747178526 0 43.909092747178526 75.362242636033073 0 0 0 0 10.29576787305632 87.936077914006347 0 87.936077914006347 101.3254833433197 0 0 0 0 9.2192021835576163 45.589369223727743 0 45.589369223727743 66.254839159732313 0 0 0 0 -14.707988694135565 53.328063236869639 0 53.328063236869639 51.6628360846953 0 0 0 0 13.42259322074824 89.090603371252655 0 89.090603371252655 44.894326689507579 0 0 0 0 11.894463926496371 54.787262768456316 0 54.787262768456316 36.267763003960468 0 0 0 0 17.3933739431086 88.159886934387032 0 88.159886934387032 115.1085282908025 0 0 0 0 21.201420791418059 85.184283219656209 0 85.184283219656209 48.384849828693405 0 0 0 0 7.8220896234561224 170.09712651342488 0 170.09712651342488 19.50965709279626 0 0 0 0 21.176082282868094 64.495597612059498 0 64.495597612059498 33.278388415500388 0 0 0 0 24.2420299404932 65.659920454818121 0 65.659920454818121 35.64983696613865 0 0 0 0 36.927154123870423 95.393094272396411 0 95.393094272396411 30.88502776241512 0 0 0 0 47.124460337986847 79.85059932645602 0 79.85059932645602 49.748481589291799 0 0 0 0 24.919549629092216 108.6403813047873 0 108.6403813047873 37.45657013435266 0 0 0 0 33.867201779241441 105.00566972756496 0 105.00566972756496 5.4364149650646141 0 0 0 0 24.701069502451901 112.40220252568997 0 112.40220252568997 13.195153165521333 0 0 0 0 37.651806005684193 104.03299237772444 0 104.03299237772444 -6.5648510921237175 0 0 0 0 56.877067544930128 67.567356774115083 0 67.567356774115083 4.8760785376734361 0 0 0 0 -38.549157738496433 100.7925963281923 0 100.7925963281923 235.60176871089789 0 0 0 0 -12.562883253354812 67.225015256903134 0 67.225015256903134 17.904342280438868 0 0 0 0 24.859809174944075 76.591856537262615 0 76.591856537262615 61.867202852349578 0 0 0 0 4.3070674934517399 95.566053418949082 0 95.566053418949082 140.64232431408089 0 0 0 0 8.6350376891222993 63.098180654492715 0 63.098180654492715 64.185897788278623 0 0 0 0 15.4165188478255 101.67189569778748 0 101.67189569778748 52.591741816198919 0 0 0 0 28.558280917815864 240.50415779791365 0 240.50415779791365 147.72591967898552 0 0 0 0 30.963723810229567 112.06865390810708 0 112.06865390810708 178.60944841473975 0 0 0 0 112.00392362561252 86.839787634067761 0 86.839787634067761 -132.51688521594042 0 0 0 0 0.083479983958341109 62.433536521383672 0 62.433536521383672 -2.8858423824952695 0 0 0 0 -357.27987787037273 -68.167661908926675 0 -68.167661908926675 263.30550689591837 0 0 0 0 -9.4665052840158523 2.2942702616171857 0 2.2942702616171857 1.8465196249635198 0 0 0 0 -10.185116702945379 169.58592053681059 0 169.58592053681059 290.73799643974053 0 0 0 0 -308.32239339275111 474.44195708760526 0 474.44195708760526 417.25425818178337 0 0 0 0 12.759601597419532 131.72729488146433 0 131.72729488146433 54.079618677293183 0 0 0 0 -94.571363219227351 251.6948604589852 0 251.6948604589852 -71.037401356152259 0 0 0 0 -533.1968881674693 235.47582171458635 0 235.47582171458635 222.48028182430426 0 0 0 0 22.355654695445992 81.7014171193332 0 81.7014171193332 122.74538889559335 0 0 0 0 -14.606466058951554 28.857789508518806 0 28.857789508518806 35.19471639411708 0 0 0 0 10.004876973063801 93.774315299466252 0 93.774315299466252 156.94200114838895 0 0 0 0 10.17470899966429 67.217410234166891 0 67.217410234166891 104.62180765485391 0 0 0 0 4.1213784573483281 75.465742802000022 0 75.465742802000022 143.00990026854561 0 0 0 0 20.14797678701143 67.066716358465783 0 67.066716358465783 102.95968787479796 0 0 0 0 2.1535619210690129 88.364514245389728 0 88.364514245389728 104.46020729135489 0 0 0 0 32.536708852509037 143.33562309217814 0 143.33562309217814 218.34847533017455 0 0 0 0 1.318207030067299 34.142089184243162 0 34.142089184243162 10.410546919691171 0 0 0 0 0.57295565976210128 112.93318047554385 0 112.93318047554385 73.995160676131491 0 0 0 0 -202.13322217859968 126.93620855663903 0 126.93620855663903 256.29970096307807 0 0 0 0 -183.16805286250019 140.88781319826376 0 140.88781319826376 214.71585383056663 0 0 0 0 -166.32060815287696 173.49367158705718 0 173.49367158705718 101.19023506436497 0 0 0 0 -46.765182347742666 86.734076877131884 0 86.734076877131884 129.35489126268658 0 0 0 0 -126.98389175368357 56.144267868759925 0 56.144267868759925 148.60437346868275 0 0 0 0 -163.26552304570214 -21.54821027698199 0 -21.54821027698199 61.527443856532045 0 0 0 0 -175.4956297301469 43.698281682474772 0 43.698281682474772 191.3018779214035 0 0 0 0 -115.52395446900482 90.140878397178312 0 90.140878397178312 84.520138154039159 0 0 0 0 -8.519767986051022 7.2500897591708906 0 7.2500897591708906 -9.0594573461623895 0 0 0 0 189.08286884275003 272.36034904747794 0 272.36034904747794 223.61534174045664 0 0 0 0 125.89133191361907 194.10833069418732 0 194.10833069418732 261.8030748955789 0 0 0 0 117.35910839755525 217.79129916609236 0 217.79129916609236 238.83932971928152 0 0 0 0 136.11075810148031 317.99357335410605 0 317.99357335410605 46.178400635410071 0 0 0 0 134.87631290509262 126.67831977954665 0 126.67831977954665 23.259117579073063 0 0 0 0 -10.627984850318171 -69.645291309338063 0 -69.645291309338063 280.94838414441256 0 0 0 0 59.441542564105475 18.391171942523215 0 18.391171942523215 88.463130638621806 0 0 0 0 99.833090182219166 -31.828244923741295 0 -31.828244923741295 107.22519125070539 0 0 0 0 27.22343545586881 74.43398523154292 0 74.43398523154292 158.5766976876518 0 0 0 0 18.529961817926782 24.771700367045455 0 24.771700367045455 -0.06998844355109668 0 0 0 0 -124.29609452833392 321.79605500745674 0 321.79605500745674 272.86672637466108 0 0 0 0 -85.385554928227066 44.226505474052829 0 44.226505474052829 180.12103863047378 0 0 0 0 -0.19825995383871486 250.49765305387155 0 250.49765305387155 222.36611790624738 0 0 0 0 -236.83856327326794 237.03931313415887 0 237.03931313415887 284.07630847446399 0 0 0 0 -196.79047444561729 16.318855842699122 0 16.318855842699122 -172.70151630260807 0 0 0 0 -144.71561850705984 194.14091405053705 0 194.14091405053705 293.67141106050258 0 0 0 0 -111.49828902698209 88.455152722828643 0 88.455152722828643 -5.6458774088459904 0 0 0 0 0.011344910884729189 164.18662200619207 0 164.18662200619207 -75.364701707789209 0 0 0 0 -100.62568975028989 108.76784767180652 0 108.76784767180652 -72.693903199649867 0 0 0 0 -103.66706911653819 93.813955651573906 0 93.813955651573906 -76.286035559016454 0 0 0 0 -304.04851540140226 217.75932609972733 0 217.75932609972733 1.733862020624656 0 0 0 0 4.0660893582150948 11.671308505283577 0 11.671308505283577 17.993174127187586 0 0 0 0 -1015.3790273351769 463.06050885261357 0 463.06050885261357 519.37740569128073 0 0 0 0 -1113.1405785393436 515.65953919656022 0 515.65953919656022 765.99664180064428 0 0 0 0 -281.89457899679837 136.21453246870442 0 136.21453246870442 -406.86115039366996 0 0 0 0 -87.49207597268105 -230.25005528309157 0 -230.25005528309157 -264.58073591059656 0 0 0 0 -4.8612697597430383 5.9239294226459549 0 5.9239294226459549 -5.8758780544314106 0 0 0 0 22.68081709582475 110.75107739568557 0 110.75107739568557 34.422105151748838 0 0 0 0 1638.9079037633201 -430.15436913935264 0 -430.15436913935264 -242.25701585502247 0 0 0 0 712.48549214228046 1478.0668456278072 0 1478.0668456278072 -355.78369926243613 0 0 0 0 -1601.6869406663027 1049.523933129185 0 1049.523933129185 3069.939501877263 0 0 0 0 715.02987879683496 1664.5990498221363 0 1664.5990498221363 353.83397330300068 0 0 0 0 603.55920262439759 1048.2433129629862 0 1048.2433129629862 137.24501053159474 0 0 0 0 691.67445094988216 949.10695715394831 0 949.10695715394831 -468.08814538971637 0 0 0 0 -100.57101203183993 505.79503340908195 0 505.79503340908195 -346.18112501167343 0 0 0 0 1276.1155197663757 910.7382607556101 0 910.7382607556101 -633.97484161854663 0 0 0 0 -2.4841022137536584 6.0256714888539875 0 6.0256714888539875 4.1497255183948027 0 0 0 0 1132.1512105674337 425.18648376844067 0 425.18648376844067 -508.84511891461079 0 0 0 0 -400.95965335455548 120.34448567544587 0 120.34448567544587 585.26847980973253 0 0 0 0 -352.70096107183053 359.3534274681806 0 359.3534274681806 506.79076255078689 0 0 0 0 4.1895987167814894 7.6301505116663009 0 7.6301505116663009 6.7009619614517248 0 0 0 0 -305.23382317004143 525.45804597632014 0 525.45804597632014 1079.4508756485484 0 0 0 0 1136.1184074474149 391.67699031822303 0 391.67699031822303 -605.12082395608013 0 0 0 0 245.23858716484392 -172.38041559623525 0 -172.38041559623525 95.930849059628599 0 0 0 0 -221.40556627939804 148.79495096496976 0 148.79495096496976 341.29805399904581 0 0 0 0 -295.21998381096637 437.29390518244327 0 437.29390518244327 -255.69598907683394 0 0 0 0 -422.90356334066018 384.74377602342429 0 384.74377602342429 -55.831884788167372 0 0 0 0 -189.47067580436124 104.29775093102944 0 104.29775093102944 -414.8851012144296 0 0 0 0 26.070291337440722 126.71712003664288 0 126.71712003664288 9.6018290597057785 0 0 0 0 -300.09517140980461 224.17438055994717 0 224.17438055994717 83.286428478524613 0 0 0 0 -267.17802789202688 422.17426958209398 0 422.17426958209398 -113.17189043923281 0 0 0 0 -279.28518973506289 309.89253046862723 0 309.89253046862723 37.452423936243576 0 0 0 0 -202.06495931980317 446.22174381496734 0 446.22174381496734 -167.29988764775408 0 0 0 0 -231.5667845848584 411.54546224662863 0 411.54546224662863 -49.847937487254967 0 0 0 0 -204.93326327844989 498.00496408303297 0 498.00496408303297 -220.2985397398661 0 0 0 0 -209.99659908111789 595.43610482648364 0 595.43610482648364 -424.64388616616634 0 0 0 0 -374.78200205415487 366.18563728492154 0 366.18563728492154 -138.9400405680135 0 0 0 0 -426.34016782679828 553.9434425388099 0 553.9434425388099 -136.0131404701624 0 0 0 0 46.74061647719418 36.848945234195746 0 36.848945234195746 24.951048513395307 0 0 0 0 274.98485623532906 887.59003778663464 0 887.59003778663464 -826.52363303702441 0 0 0 0 295.87348484364338 418.04515342355444 0 418.04515342355444 32.858302154105331 0 0 0 0 -553.55247929650795 767.45546687285059 0 767.45546687285059 -374.23685314174509 0 0 0 0 749.14880432543578 310.28129399628961 0 310.28129399628961 -4.5919439175486332 0 0 0 0 -84.719060664210701 600.81203345182166 0 600.81203345182166 -545.29102858420811 0 0 0 0 -150.70153317172662 315.87879556232656 0 315.87879556232656 -1409.7625884943991 0 0 0 0 -761.33175263769226 371.36570523785667 0 371.36570523785667 -250.35076859152468 0 0 0 0 478.45900842780247 1047.7332898699096 0 1047.7332898699096 -942.14675795796211 0 0 0 0 -307.06513556299615 -91.732104466082092 0 -91.732104466082092 1734.6433691073835 0 0 0 0 -241.87826989891619 -69.228343999955541 0 -69.228343999955541 1117.3562140446156 0 0 0 0 18.252752729144902 14.25512680289312 0 14.25512680289312 9.8719357276038977 0 0 0 0 23.202455514234316 347.58757529107788 0 347.58757529107788 330.43615109321399 0 0 0 0 57.486282412915898 645.45622333309439 0 645.45622333309439 1407.1259220440406 0 0 0 0 -288.14180697737174 181.02529190582572 0 181.02529190582572 1293.7886192368314 0 0 0 0 -297.64805678515404 83.350734551415371 0 83.350734551415371 1271.7840006667902 0 0 0 0 -304.82797060089069 -135.27646441889192 0 -135.27646441889192 670.80186705676897 0 0 0 0 533.40522470480937 559.02511396042974 0 559.02511396042974 1111.6283932823935 0 0 0 0 -13.740640709133004 -114.16298514562368 0 -114.16298514562368 359.99094498124032 0 0 0 0 1139.2838660820853 -10.103623866663838 0 -10.103623866663838 362.54683424201357 0 0 0 0 149.10036585875787 -44.107477168567129 0 -44.107477168567129 400.82992255768477 0 0 0 0 241.90349615516607 -308.05645502050538 0 -308.05645502050538 1397.8424702959019 0 0 0 0 1159.0083832182518 637.50494229767219 0 637.50494229767219 -135.73404979435145 0 0 0 0 1.4865657643251566 0.40646235709297684 0 0.40646235709297684 17.084534821405782 0 0 0 0 541.44171317891596 956.29161477823072 0 956.29161477823072 1296.5331943260244 0 0 0 0 287.36193129766616 617.55894976424315 0 617.55894976424315 376.68205706006847 0 0 0 0 336.95495437277714 486.66758948386996 0 486.66758948386996 321.61463547240419 0 0 0 0 118.76437211572193 343.72156736034958 0 343.72156736034958 290.90262893807085 0 0 0 0 137.10164395406537 435.45402414239288 0 435.45402414239288 738.39287885138765 0 0 0 0 22.122643054462969 11.731188605546777 0 11.731188605546777 784.57135505663609 0 0 0 0 213.97784777329798 -100.70866639843007 0 -100.70866639843007 441.76430628370144 0 0 0 0 73.990979314810829 -177.29960639799538 0 -177.29960639799538 509.62655880921375 0 0 0 0 106.19946865506063 -145.09785702650333 0 -145.09785702650333 224.38132404099451 0 0 0 0 251.02900991035858 -310.59389165366883 0 -310.59389165366883 7.3959916352905566 0 0 0 0 149.40896728087682 -256.2948127743075 0 -256.2948127743075 193.15718645750894 0 0 0 0 175.89044851138169 -216.23859099042602 0 -216.23859099042602 138.09597997191304 0 0 0 0 161.09133339760592 -387.32604764813732 0 -387.32604764813732 302.10503582999809 0 0 0 0 416.75134650769905 -5.8969853095404687 0 -5.8969853095404687 286.6215483926062 0 0 0 0 -225.31621441582683 -162.6898557393215 0 -162.6898557393215 253.06122400506138 0 0 0 0 3.3806429965586062 2.0452642993742955 0 2.0452642993742955 -0.16500834632368822 0 0 0 0 -579.52508567590849 -52.013983479700983 0 -52.013983479700983 -55.260317344967916 0 0 0 0 -173.13512617981178 521.75348955660593 0 521.75348955660593 -393.910676165935 0 0 0 0 -184.85117362433812 484.83392887952505 0 484.83392887952505 -248.75146646756912 0 0 0 0 209.1439637772346 -146.32441601696155 0 -146.32441601696155 -22.847158632575884 0 0 0 0 62.812744725164237 47.450941690478693 0 47.450941690478693 33.29558431696266 0 0 0 0 -301.99782060919097 135.32621383280639 0 135.32621383280639 -92.590741061074368 0 0 0 0 5.9224165503675295 4.7857528516643839 0 4.7857528516643839 2.0132321534219386 0 0 0 0 -294.26663839159301 342.39148510990708 0 342.39148510990708 -222.30935326766485 0 0 0 0 -345.95280572130287 231.43522351405409 0 231.43522351405409 -137.4175984978865 0 0 0 0 -203.646377399622 245.07608801834067 0 245.07608801834067 -398.4764103290089 0 0 0 0 -220.35500650841277 339.33045070937442 0 339.33045070937442 -47.630483125343744 0 0 0 0 -263.41409855654638 201.25053942823797 0 201.25053942823797 -6.223539474849531 0 0 0 0 -100.78793212433811 75.171200072116335 0 75.171200072116335 -11.497027138038902 0 0 0 0 -163.63749067432946 185.90924575568351 0 185.90924575568351 -110.80429361326969 0 0 0 0 -204.61402113149234 220.80868754739822 0 220.80868754739822 -153.1213467353009 0 0 0 0 -281.42817742604529 261.12174160918221 0 261.12174160918221 -77.342131737903401 0 0 0 0 -281.12084406380745 227.5960819966956 0 227.5960819966956 -72.228556997120904 0 0 0 0 -67.606312918578624 103.26979850085445 0 103.26979850085445 -110.99441792699508 0 0 0 0 -192.92446411485435 232.81197372022871 0 232.81197372022871 -130.56944753051357 0 0 0 0 -48.876555287075462 80.66376835650226 0 80.66376835650226 94.595819687589938 0 0 0 0 -30.515839125524508 19.694147126614553 0 19.694147126614553 0.61436830397724407 0 0 0 0 -22.547691637766377 3.5232071904989084 0 3.5232071904989084 2.1426896876382067 0 0 0 0 -1.3768582013542527 0.53258847772296747 0 0.53258847772296747 -3.2795374864874134 0 0 0 0 -111.8307854063678 56.220449713488961 0 56.220449713488961 -9.1765536043094471 0 0 0 0 -22.427586862038879 80.972452959253133 0 80.972452959253133 -59.740839924299507 0 0 0 0 -74.0845310104487 128.23726134498429 0 128.23726134498429 -53.998918035234965 0 0 0 0 -185.35145818282763 110.42249694897373 0 110.42249694897373 -8.4806942237046314 0 0 0 0 57.707465422921814 68.549684344234265 0 68.549684344234265 -15.409706393531451 0 0 0 0 1.8100965123065862 -1.2191840100815909 0 -1.2191840100815909 -2.1480248961608481 0 0 0 0 -76.004059419414261 -46.237341524512431 0 -46.237341524512431 99.582742396327376 0 0 0 0 -1.8969402721561437 6.7686000551834979 0 6.7686000551834979 4.521888143439412 0 0 0 0 -114.93183145765215 -14.98759752328624 0 -14.98759752328624 4.1042721437625005 0 0 0 0 -13.336797846117406 10.867906385694369 0 10.867906385694369 -36.329214012037482 0 0 0 0 -141.90238122269511 -22.338335337823082 0 -22.338335337823082 23.412526610132772 0 0 0 0 -52.250940918456763 -24.748043686384335 0 -24.748043686384335 -30.68986044551275 0 0 0 0 -11.100475686921243 5.0069172276813703 0 5.0069172276813703 1.2713771758613426 0 0 0 0 -24.662779575621244 -40.18408368258315 0 -40.18408368258315 -39.439800324631506 0 0 0 0 -17.882644976256415 -84.051318153527973 0 -84.051318153527973 -4.2015473487481358 0 0 0 0 -32.927139283972792 -21.720470076477795 0 -21.720470076477795 -74.643815316572727 0 0 0 0 2.1364368801587261 -4.48363292087015 0 -4.48363292087015 46.198260299741378 0 0 0 0 1.2699498978763586 -20.686524138418463 0 -20.686524138418463 46.827910694148159 0 0 0 0 -21.204168339463649 -64.391626853292109 0 -64.391626853292109 17.652911391109228 0 0 0 0 -2.3874457588535734 -25.345455478141957 0 -25.345455478141957 102.51163543321309 0 0 0 0 -96.217360395108699 -60.725712974312046 0 -60.725712974312046 -1.0432066755311098 0 0 0 0 -4.923419509694213 -37.97812318814249 0 -37.97812318814249 -7.171177406256902 0 0 0 0 35.435729852295481 42.730733011081611 0 42.730733011081611 -69.426926589672803 0 0 0 0 71.989848232151417 145.63962640567297 0 145.63962640567297 121.76106518732558 0 0 0 0 4.3433328930696007 201.78521324665053 0 201.78521324665053 142.96399944712539 0 0 0 0 2.526526900322466 2.6170263029374894 0 2.6170263029374894 1.0250979659742541 0 0 0 0 145.41490821378829 239.80878152869627 0 239.80878152869627 247.84620529949461 0 0 0 0 -61.929853738460224 -171.56144763207703 0 -171.56144763207703 84.618354610574897 0 0 0 0 27.464104084167047 133.8337868525723 0 133.8337868525723 331.18737718931516 0 0 0 0 -103.08311826660065 32.669043464993592 0 32.669043464993592 58.908048102974135 0 0 0 0 -181.12383190685068 140.68339439606279 0 140.68339439606279 210.08647720485533 0 0 0 0 -72.319052230464877 -85.242547185534931 0 -85.242547185534931 407.59070241068548 0 0 0 0 -128.32280723797157 250.71434730282635 0 250.71434730282635 412.112521694311 0 0 0 0 -134.5245588210164 198.15493426906505 0 198.15493426906505 46.324363740168337 0 0 0 0 -211.99132270162227 335.9073747266084 0 335.9073747266084 66.898349636649982 0 0 0 0 -172.00508795675705 329.51129624056193 0 329.51129624056193 -161.83583472711325 0 0 0 0 -132.62773137076874 372.0358124824852 0 372.0358124824852 -75.626028669721563 0 0 0 0 -126.83264953717844 217.81253666002465 0 217.81253666002465 121.42412160296226 0 0 0 0 -146.94738117052475 334.94385093760866 0 334.94385093760866 15.167095473385416 0 0 0 0 -6.5356630059395684 118.69999173511314 0 118.69999173511314 138.94261414850916 0 0 0 0 140.78156488645618 15.485308904374961 0 15.485308904374961 302.51436976009427 0 0 0 0 220.95502058920101 24.452809825575969 0 24.452809825575969 139.39118393786933 0 0 0 0 185.42637447614106 246.71897305261518 0 246.71897305261518 106.43068831130222 0 0 0 0 477.81596854949748 71.694296505305829 0 71.694296505305829 45.539429561737052 0 0 0 0 -3.2685348926209485 6.1966828415346811 0 6.1966828415346811 7.5536171952794007 0 0 0 0 327.46223466513038 65.513587425564765 0 65.513587425564765 1717.7363746544434 0 0 0 0 230.17756399104837 65.335090513322939 0 65.335090513322939 166.89599017877481 0 0 0 0 177.47330266909557 800.7674123543693 0 800.7674123543693 291.51689509110656 0 0 0 0 -192.25380106036027 527.19220844658412 0 527.19220844658412 556.84758832205262 0 0 0 0 110.75291656851186 609.79789850559973 0 609.79789850559973 -152.15918262237392 0 0 0 0 -2.2179299843849378 3.2191163352208321 0 3.2191163352208321 5.3452177280997546 0 0 0 0 -64.255859374912689 103.78375353227239 0 103.78375353227239 -333.08669942445886 0 0 0 0 -639.02260846648278 -206.45883552903524 0 -206.45883552903524 267.26212519594992 0 0 0 0 271.8785476340563 125.98347403621665 0 125.98347403621665 179.45987054220859 0 0 0 0 449.11248322624306 212.29904666341099 0 212.29904666341099 139.64808441110654 0 0 0 0 156.82755339874711 259.5958826367023 0 259.5958826367023 371.59779854877706 0 0 0 0 98.252793247986119 103.87017034421297 0 103.87017034421297 180.77044321857829 0 0 0 0 110.65705038644955 78.026104059787031 0 78.026104059787031 169.4410487684072 0 0 0 0 41.545157876360463 -33.307816807831841 0 -33.307816807831841 46.581827752444951 0 0 0 0 46.454693735751789 -53.437885023220588 0 -53.437885023220588 61.561943097422045 0 0 0 0 59.235948604637088 76.474776235701484 0 76.474776235701484 189.90186287402321 0 0 0 0 122.51823144577793 94.921925869215556 0 94.921925869215556 68.810915092071809 0 0 0 0 22.104305538290646 -22.11025021027308 0 -22.11025021027308 -7.7026464504269825 0 0 0 0 53.744176609441638 17.65827706420896 0 17.65827706420896 -93.258963984451839 0 0 0 0 26.2649475876824 12.783212048521818 0 12.783212048521818 -27.354417195943824 0 0 0 0 -47.8980014763074 -92.383156104195223 0 -92.383156104195223 -69.677049197618544 0 0 0 0 93.558106887590839 177.39443871402182 0 177.39443871402182 -26.227215331685329 0 0 0 0 214.50314506130962 50.841006316408311 0 50.841006316408311 -44.743991897528758 0 0 0 0 66.352504996641073 -31.632225212142657 0 -31.632225212142657 309.74876250829402 0 0 0 0 549.84976443825508 460.79560794130339 0 460.79560794130339 270.31413574833277 0 0 0 0 135.71576335036298 286.08184322321699 0 286.08184322321699 548.5205489164 0 0 0 0 -394.07119396622875 68.205519833227299 0 68.205519833227299 414.63441447542937 0 0 0 0 -102.39134391312291 -210.24821338426318 0 -210.24821338426318 500.13933972666564 0 0 0 0 3.5775890673554045 3.373060396638067 0 3.373060396638067 2.0601037451008892 0 0 0 0 -242.12690030306112 -7.6765653603433748 0 -7.6765653603433748 795.200695599553 0 0 0 0 -115.44678322262189 -78.280984923629148 0 -78.280984923629148 306.30280187182325 0 0 0 0 111.23061373271048 56.829593991678848 0 56.829593991678848 -49.875160477464306 0 0 0 0 -26.894883313609171 2.0350616565010569 0 2.0350616565010569 -11.273791250893737 0 0 0 0 -0.029230679348984268 81.699205538447131 0 81.699205538447131 140.6153123045442 0 0 0 0 61.99783219123492 142.3050894558437 0 142.3050894558437 51.391661432626279 0 0 0 0 60.888255094585475 291.19580921346278 0 291.19580921346278 671.82185618175572 0 0 0 0 354.18447662402468 -34.394001316457434 0 -34.394001316457434 689.79336029117962 0 0 0 0 -70.526228116214043 389.90400085902002 0 389.90400085902002 703.77903453786348 0 0 0 0 -151.79480567904466 250.87997082264565 0 250.87997082264565 295.66858321819018 0 0 0 0 -270.41360506041383 -107.19741689307921 0 -107.19741689307921 500.13962964442908 0 0 0 0 -90.100473358077579 305.2085419543364 0 305.2085419543364 343.46441548515486 0 0 0 0 -47.040286689316815 364.9542428538025 0 364.9542428538025 331.39894087493303 0 0 0 0 -189.68316312725074 469.72774113087144 0 469.72774113087144 264.43355490911654 0 0 0 0 -47.96270273070229 207.50298431566938 0 207.50298431566938 294.03856990628265 0 0 0 0 0.24341905961773591 286.91986570517474 0 286.91986570517474 398.12836400738524 0 0 0 0 -86.485583305940963 133.77051218613906 0 133.77051218613906 -124.79643190820934 0 0 0 0 -135.5058276062482 68.451772913061177 0 68.451772913061177 -33.658205939791515 0 0 0 0 2.0808296182789832 0.24300664687399376 0 0.24300664687399376 -2.8976463462811211 0 0 0 0 -80.923666203125322 115.69324182053833 0 115.69324182053833 -81.73356722776407 0 0 0 0 -22.871943582838867 10.935764040600588 0 10.935764040600588 19.48528225980408 0 0 0 0 3.1105724356410747 -0.63436355030412983 0 -0.63436355030412983 -2.9900595571967443 0 0 0 0 -0.17855032238003332 107.3557597006793 0 107.3557597006793 -122.76650461951067 0 0 0 0 9.5138092398556182 -30.855269978712386 0 -30.855269978712386 53.580423177489138 0 0 0 0 -35.49346662707103 14.198457604039504 0 14.198457604039504 53.137304038273214 0 0 0 0 0.17100121246007896 24.792944890847913 0 24.792944890847913 7.831346619012038 0 0 0 0 -56.920321158850129 43.400692681254895 0 43.400692681254895 1.9273529291276645 0 0 0 0 -9.5369731982791563 12.723286628239293 0 12.723286628239293 -4.4507603256533912 0 0 0 0 5.4086200932884481 9.914834471730245 0 9.914834471730245 10.071908177828028 0 0 0 0 -32.819631239653972 26.597158665459574 0 26.597158665459574 9.8727538033017481 0 0 0 0 -29.330777654482517 8.2053064368419655 0 8.2053064368419655 25.404364515299676 0 0 0 0 -101.72559956743498 127.72605316429144 0 127.72605316429144 -17.510746268177172 0 0 0 0 6.162944318769803 7.1277405441808952 0 7.1277405441808952 7.4970315875036135 0 0 0 0 47.509535081131617 6.3710943059577403 0 6.3710943059577403 -58.986177718048566 0 0 0 0 12.787762701293104 8.2226942748966394 0 8.2226942748966394 -16.364777358743595 0 0 0 0 3.4460783382528462 -19.77650966352121 0 -19.77650966352121 -56.356542266046745 0 0 0 0 -0.33480857231859318 -0.16009778845051414 0 -0.16009778845051414 -3.1184607805283076 0 0 0 0 40.637838906171964 -50.799477666081657 0 -50.799477666081657 -240.63398504709767 0 0 0 0 21.748365908832056 -28.157348988010199 0 -28.157348988010199 -96.996169359707892 0 0 0 0 -6.5589256170787849 30.515581642266625 0 30.515581642266625 4.9152856482814968 0 0 0 0 -4.8188819403294474 34.217135495044204 0 34.217135495044204 -55.143949933652948 0 0 0 0 -2.6017141796258443 9.5171003408489696 0 9.5171003408489696 -7.9729810133128467 0 0 0 0 -1.2449888300034218 15.114536617849808 0 15.114536617849808 7.579495953352307 0 0 0 0 15.513781931265839 21.330753866730447 0 21.330753866730447 -8.9534881561921793 0 0 0 0 -5.2937029477099031 8.3483143753321372 0 8.3483143753321372 -6.8958605755128914 0 0 0 0 5.305578088373295 24.358036572170022 0 24.358036572170022 12.866510696705518 0 0 0 0 9.5113669736019801 -6.8065779529952124 0 -6.8065779529952124 -19.423475266925379 0 0 0 0 -10.523506544272379 12.329347755219942 0 12.329347755219942 10.836738171341807 0 0 0 0 4.7250264113827143 22.659778455229571 0 22.659778455229571 20.080954615488736 0 0 0 0 -2.57183176777977 0.57437588965802888 0 0.57437588965802888 0.3419182433941117 0 0 0 0 -17.823490107402904 12.176784426663289 0 12.176784426663289 14.43330923988924 0 0 0 0 -10.861909078579629 -5.1831706855373341 0 -5.1831706855373341 22.450571468124281 0 0 0 0 -6.0138960865915578 10.419134499214806 0 10.419134499214806 3.8171671728632646 0 0 0 0 -6.1961638890182371 7.0835088792590426 0 7.0835088792590426 1.3199865867160767 0 0 0 0 -59.682935417746194 101.72907065518848 0 101.72907065518848 -104.46140737811402 0 0 0 0 -1.7589307882347498 -0.48731727548495485 0 -0.48731727548495485 1.8033917689286021 0 0 0 0 1.8220355952653335 10.355984472172167 0 10.355984472172167 1.9282458774869156 0 0 0 0 -10.007088513346389 -25.693665164817503 0 -25.693665164817503 18.362468267338045 0 0 0 0 2.767375299472576 7.6205131734462412 0 7.6205131734462412 -7.4394212908203308 0 0 0 0 -50.711665099835955 12.047682832962892 0 12.047682832962892 17.905290192034045 0 0 0 0 -3.1405653266964464 11.061465998554468 0 11.061465998554468 -1.4218324845331693 0 0 0 0 18.480004980418016 -28.993329254163655 0 -28.993329254163655 31.688383130421698 0 0 0 0 83.485101512065739 159.08608995873146 0 159.08608995873146 157.62791090055725 0 0 0 0 84.530837162223179 180.64331911100362 0 180.64331911100362 114.3697314019355 0 0 0 0 111.45916445912735 33.40134057166506 0 33.40134057166506 -30.355738991771432 0 0 0 0 -2.0340014438843355 22.3830710047514 0 22.3830710047514 14.47517746334961 0 0 0 0 1.9772869491425809 12.62668081899028 0 12.62668081899028 5.7787327446403651 0 0 0 0 2.2262578033478349 18.522984327095401 0 18.522984327095401 -6.5504757793714816 0 0 0 0 -7.5609087639459176 8.6467620549101412 0 8.6467620549101412 -3.4986554289903324 0 0 0 0 -5.2004466843780079 7.7782100320747247 0 7.7782100320747247 -9.2165349669167682 0 0 0 0 -1.7916147621872369 13.270894805659736 0 13.270894805659736 -2.2666682849630888 0 0 0 0 -6.1532585405584541 14.398817813281312 0 14.398817813281312 2.269665736486786 0 0 0 0 -5.6981528289209109 9.6746242634789041 0 9.6746242634789041 -5.3304582590960692 0 0 0 0 -0.17705828813086555 20.698393828659846 0 20.698393828659846 3.3543764021342213 0 0 0 0 2.5110512118844781 24.487217392093953 0 24.487217392093953 -30.098736819980331 0 0 0 0 5.3743983146082144 12.273435942014004 0 12.273435942014004 8.2833019203171787 0 0 0 0 572.7092769103474 81.945040911359683 0 81.945040911359683 29.84534778296711 0 0 0 0 -33.623275222373195 241.68281566326186 0 241.68281566326186 96.329594237529818 0 0 0 0 16.864778599105193 24.396672373966794 0 24.396672373966794 -70.064482461631997 0 0 0 0 -2.5691902336685075 1.8471393518997843 0 1.8471393518997843 5.240137083026994 0 0 0 0 4.6733726043123056 15.327100404162564 0 15.327100404162564 2.5294870629272594 0 0 0 0 12.049415293644415 6.1693048717761485 0 6.1693048717761485 19.9918223883069 0 0 0 0 -112.83447635253833 302.07982209567308 0 302.07982209567308 618.72623848051808 0 0 0 0 45.497603695654107 -90.009019575512866 0 -90.009019575512866 142.8005461222856 0 0 0 0 -45.181312546308618 134.58306974658626 0 134.58306974658626 5.3515245512826368 0 0 0 0 -205.31866306535085 813.98819313270542 0 813.98819313270542 263.86340140240827 0 0 0 0 329.57266768383852 404.1511863816886 0 404.1511863816886 -292.79569550136148 0 0 0 0 1251.0760684972338 291.73073821574326 0 291.73073821574326 -54.083117439552552 0 0 0 0 -145.22575561326266 98.363820101507827 0 98.363820101507827 18.598253642292548 0 0 0 0 -162.20058593801514 47.538764373891354 0 47.538764373891354 420.37532177310641 0 0 0 0 3.5383164091955734 4.2126203093566517 0 4.2126203093566517 2.3161672378475799 0 0 0 0 233.0849970341369 445.33860333980374 0 445.33860333980374 455.50687098744413 0 0 0 0 670.11442697981693 328.41439512834631 0 328.41439512834631 76.61216482007876 0 0 0 0 87.953951002433314 -80.920752680378428 0 -80.920752680378428 665.92879356794401 0 0 0 0 122.32180523207353 184.03655153376758 0 184.03655153376758 148.89957557881917 0 0 0 0 231.35230797744589 203.38602796605301 0 203.38602796605301 52.663799598062042 0 0 0 0 309.40582167267712 334.97285770925146 0 334.97285770925146 197.44318303263753 0 0 0 0 186.096272095725 198.2777376392919 0 198.2777376392919 112.20065898403482 0 0 0 0 155.8522713650309 200.74042118637362 0 200.74042118637362 175.19971715692373 0 0 0 0 9.6753710016309924 13.979120746575376 0 13.979120746575376 -26.655688114227814 0 0 0 0 13.526011415990979 61.450497350205652 0 61.450497350205652 32.353182418188226 0 0 0 0 -32.55286580141501 -7.4490529462219968 0 -7.4490529462219968 24.332143738931336 0 0 0 0 -34.065909935360878 -55.983091967977472 0 -55.983091967977472 -45.654458633793183 0 0 0 0 94.18311391309544 24.836025110233663 0 24.836025110233663 -65.814680734341664 0 0 0 0 63.019968272477854 0.015612157265422866 0 0.015612157265422866 108.24546670458395 0 0 0 0 280.39352817107283 9.157484096868302 0 9.157484096868302 281.45036323180557 0 0 0 0 215.00580694459495 137.51543491416908 0 137.51543491416908 71.390158143079589 0 0 0 0 25.384499892577878 21.749634029895788 0 21.749634029895788 68.139587795036064 0 0 0 0 276.96375430434273 158.7883995923894 0 158.7883995923894 -6.8400270745742091 0 0 0 0 72.952231338735146 239.39667670399831 0 239.39667670399831 113.43362886585101 0 0 0 0 436.4924523751688 317.56153576415642 0 317.56153576415642 111.66570642100032 0 0 0 0 4.6320364808536283 1.8654412669690146 0 1.8654412669690146 0.58925095295907326 0 0 0 0 -41.528764894770575 -1.48708565724246 0 -1.48708565724246 448.921829083798 0 0 0 0 202.07171488241875 316.98446573357069 0 316.98446573357069 441.59416727107418 0 0 0 0 318.30661559192231 352.34572033608856 0 352.34572033608856 122.37834873935532 0 0 0 0 356.82616616007726 418.91867163264794 0 418.91867163264794 222.83394117787429 0 0 0 0 429.12921883464514 89.399798635865068 0 89.399798635865068 -101.31692031456259 0 0 0 0 -23.599232228021719 61.13813091598422 0 61.13813091598422 102.99823121457439 0 0 0 0 -23.225819759260048 59.18051042854222 0 59.18051042854222 -13.359842645559638 0 0 0 0 7.6087608447771231 7.8706349530405646 0 7.8706349530405646 1.1242142947850198 0 0 0 0 13.356932899660023 36.962555474093733 0 36.962555474093733 32.369762038413683 0 0 0 0 -1.2485936290218831 8.5180537710270698 0 8.5180537710270698 -9.343504742375103 0 0 0 0 7.7514877670546412 27.177673511482453 0 27.177673511482453 29.745972266995523 0 0 0 0 -134.9742882912542 65.230688799845666 0 65.230688799845666 -45.672872864420242 0 0 0 0 -162.75750797640649 121.91141830952074 0 121.91141830952074 -45.309950143257083 0 0 0 0 -125.97607875020185 93.443463473365682 0 93.443463473365682 -26.740881191813969 0 0 0 0 -2.5160089907042504 3.5219890935762805 0 3.5219890935762805 -2.5301200913811748 0 0 0 0 82.603681069653248 101.32165295989444 0 101.32165295989444 83.47768843153699 0 0 0 0 111.63777518489223 394.94288652232581 0 394.94288652232581 380.38123562561088 0 0 0 0 30.777160978177562 45.431929560934805 0 45.431929560934805 28.92677375646872 0 0 0 0 24.527373491349863 33.597788215799937 0 33.597788215799937 22.797718419429657 0 0 0 0 82.191982730630116 277.6496346749359 0 277.6496346749359 -83.326806147706066 0 0 0 0 51.883768915551627 251.41463489617718 0 251.41463489617718 335.31373538815933 0 0 0 0 73.322600725194206 226.24636042591351 0 226.24636042591351 82.18081080544971 0 0 0 0 -124.59537678014021 507.90068678224338 0 507.90068678224338 118.15315339281369 0 0 0 0 -426.66789020726719 152.80627706877891 0 152.80627706877891 420.42507274082391 0 0 0 0 26.412946650045342 175.40865621951025 0 175.40865621951025 -229.78195591854274 0 0 0 0 75.351703925152833 211.9942020540102 0 211.9942020540102 425.52547403209883 0 0 0 0 0.33768010124913417 294.43863245408943 0 294.43863245408943 457.16787981024436 0 0 0 0 -61.442544984929555 36.984563535217205 0 36.984563535217205 228.58895013871825 0 0 0 0 -0.046815134235657752 260.81364076849331 0 260.81364076849331 -92.786254175453905 0 0 0 0 -50.615426411262888 208.19726048595294 0 208.19726048595294 -146.8271802379104 0 0 0 0 -697.14858121608268 151.23775686406793 0 151.23775686406793 18.098003729994161 0 0 0 0 -270.10973251798714 425.56531624348008 0 425.56531624348008 -145.44303449509471 0 0 0 0 -181.36469429239514 99.130374345735618 0 99.130374345735618 23.357293748756547 0 0 0 0 -166.93574544146031 103.53617997589822 0 103.53617997589822 -77.467809709913126 0 0 0 0 -212.67521827724704 139.38646795030945 0 139.38646795030945 -24.66213843985679 0 0 0 0 -0.040347152622416615 167.53129340272017 0 167.53129340272017 -127.75016728532682 0 0 0 0 -120.89673467373359 232.33848065917573 0 232.33848065917573 -138.86923077664778 0 0 0 0 -72.099990354530746 -3.3080304770137445 0 -3.3080304770137445 47.617681999703564 0 0 0 0 0.27512764634545306 1.6796833594487737 0 1.6796833594487737 2.5386434237507984 0 0 0 0 -73.80337402728037 87.341758173899507 0 87.341758173899507 172.84959515849005 0 0 0 0 -97.533378756954335 9.9062805499452224 0 9.9062805499452224 12.697157060862082 0 0 0 0 -74.883256106235876 63.339074311362253 0 63.339074311362253 -29.096707257875096 0 0 0 0 -149.42857370371348 145.1366604612831 0 145.1366604612831 66.056775651250064 0 0 0 0 116.95559493523615 10.165088663915412 0 10.165088663915412 -65.590869959380143 0 0 0 0 27.591187536445858 37.580677020614985 0 37.580677020614985 9.6832740266583528 0 0 0 0 100.19839505681011 79.108748422506324 0 79.108748422506324 -42.008126819235258 0 0 0 0 53.126295038062381 5.5936617650022527 0 5.5936617650022527 -25.200346009996792 0 0 0 0 -85.565605941374088 81.668885112526368 0 81.668885112526368 17.867703076182806 0 0 0 0 342.79112081116182 -47.706135520850694 0 -47.706135520850694 -36.847457569867402 0 0 0 0 133.36158382691792 208.72275080932013 0 208.72275080932013 84.669570694835784 0 0 0 0 -24.692292882427154 21.397358995405739 0 21.397358995405739 -11.269428605378998 0 0 0 0 41.505165029644559 27.631587902777483 0 27.631587902777483 39.065771212740401 0 0 0 0 -4.3145195329052513 54.933663473423621 0 54.933663473423621 13.124552985351329 0 0 0 0 7.2343561389863806 44.138895406959819 0 44.138895406959819 6.5693404417595929 0 0 0 0 -33.655441750721366 57.419593129185159 0 57.419593129185159 19.980698415967709 0 0 0 0 12.488154561932348 52.399487444910591 0 52.399487444910591 13.305817244059639 0 0 0 0 -2.9405518458288498 108.06445846907309 0 108.06445846907309 10.901069504492625 0 0 0 0 13.466637484767659 24.759000337480387 0 24.759000337480387 1.6855639279924759 0 0 0 0 -31.141470414891955 9.4419597255955523 0 9.4419597255955523 109.23181746284172 0 0 0 0 496.15276604350947 148.23542347459625 0 148.23542347459625 -19.763765743045951 0 0 0 0 188.36829853285599 47.985847854197345 0 47.985847854197345 -21.15407023278749 0 0 0 0 50.959708717666217 291.5667268310317 0 291.5667268310317 203.77623609357397 0 0 0 0 149.47173278185073 87.810446957391832 0 87.810446957391832 6.3830054685604409 0 0 0 0 186.3971862287799 40.871724988369351 0 40.871724988369351 28.301852707234502 0 0 0 0 -101.4232123036636 124.61881470491062 0 124.61881470491062 -5.2972567798133241 0 0 0 0 127.31504189496627 120.99824756975613 0 120.99824756975613 -22.366970993913128 0 0 0 0 115.78350319934543 134.12123497789526 0 134.12123497789526 -6.4909929945570184 0 0 0 0 98.371271493364475 103.39957752913233 0 103.39957752913233 27.453568981378339 0 0 0 0 -0.3848149913319503 108.07488899080636 0 108.07488899080636 10.656633121847335 0 0 0 0 20.561902958984806 35.862180490364594 0 35.862180490364594 -1.9976720333847595 0 0 0 0 77.754668631173445 48.867154322335864 0 48.867154322335864 11.391750472597778 0 0 0 0 -4.9055757078191249 54.345275452426975 0 54.345275452426975 1.80597791621787 0 0 0 0 -43.989883841486588 48.391056415831457 0 48.391056415831457 21.646323770461251 0 0 0 0 -9.003088611030762 89.504443474123946 0 89.504443474123946 41.691043736587744 0 0 0 0 59.840816333191469 63.502375997442869 0 63.502375997442869 6.7368817917013075 0 0 0 0 -12.777481597652695 47.172028749886749 0 47.172028749886749 -10.918337062816136 0 0 0 0 -29.050323352275882 84.02870506929321 0 84.02870506929321 -54.592836256044393 0 0 0 0 24.756843610754004 101.18510290923587 0 101.18510290923587 -26.413774612155976 0 0 0 0 -1.0600565754607345 70.121362791296292 0 70.121362791296292 -19.828591314241891 0 0 0 0 -15.33559513372893 83.030640171338746 0 83.030640171338746 8.8382019140699413 0 0 0 0 -6.9097812555172595 9.2605408994485856 0 9.2605408994485856 -1.4334515436892517 0 0 0 0 9.0607984922970104 61.043772459228364 0 61.043772459228364 8.0690219026308725 0 0 0 0 13.931281581601013 73.286353600885462 0 73.286353600885462 48.594956310590739 0 0 0 0 31.275688215304399 86.304873502507689 0 86.304873502507689 -17.068894900112355 0 0 0 0 -10.114951239243965 98.849630591696041 0 98.849630591696041 44.59194524497434 0 0 0 0 -0.87311824041535147 59.087860601204738 0 59.087860601204738 30.781259519731975 0 0 0 0 28.021098091739077 53.439049214458464 0 53.439049214458464 20.026067998478538 0 0 0 0 9.6665000640568337 65.048217288371887 0 65.048217288371887 -15.356456587565219 0 0 0 0 42.918647094920743 128.02533474136726 0 128.02533474136726 32.942036134892987 0 0 0 0 26.394710797672559 55.543915391394847 0 55.543915391394847 19.093553627350815 0 0 0 0 77.597023209091276 73.162176409449785 0 73.162176409449785 22.075076250475831 0 0 0 0 8.1798856251097902 42.713437990993427 0 42.713437990993427 0.34084172834135984 0 0 0 0 33.148607552290514 44.282863020986582 0 44.282863020986582 19.036380753659977 0 0 0 0 7.4032020512386225 52.047304531064583 0 52.047304531064583 30.744710923994717 0 0 0 0 32.406902665185044 110.91804345350829 0 110.91804345350829 3.8205309800250689 0 0 0 0 20.282715832019562 46.202123464196347 0 46.202123464196347 19.652133869960025 0 0 0 0 14.352488122995233 57.600809435481963 0 57.600809435481963 41.811942061139916 0 0 0 0 -9.1940431630355306 72.146989986096742 0 72.146989986096742 109.67530479886045 0 0 0 0 -54.460308618549902 19.078749390750488 0 19.078749390750488 9.019197176433952 0 0 0 0 -62.576691380032571 150.82251299819836 0 150.82251299819836 175.11593387224457 0 0 0 0 -4.6188818308776547 10.367413801267645 0 10.367413801267645 7.587631295768432 0 0 0 0 -51.792010912227397 31.790338008205453 0 31.790338008205453 34.141643556125928 0 0 0 0 -51.632312303045182 14.803161358029683 0 14.803161358029683 9.1355740861090453 0 0 0 0 -56.776199319731234 13.428639208078437 0 13.428639208078437 1.8562085592170838 0 0 0 0 -119.84874698757631 50.121612179579188 0 50.121612179579188 27.768429038951581 0 0 0 0 -76.430935290271009 58.231007604698789 0 58.231007604698789 17.544551256676641 0 0 0 0 -46.557578663603636 24.593925327495526 0 24.593925327495526 2.5804498903853528 0 0 0 0 96.244445173506392 122.11423576405832 0 122.11423576405832 -225.85914731989033 0 0 0 0 -77.959237783012213 87.738279033182152 0 87.738279033182152 130.23481368770081 0 0 0 0 112.88186231648433 36.89094925491554 0 36.89094925491554 143.77424015911674 0 0 0 0 -102.54761744794087 318.79133494522466 0 318.79133494522466 440.07299724654695 0 0 0 0 -165.59846065827878 295.4905806242823 0 295.4905806242823 169.55277743843908 0 0 0 0 31.018320607254282 -312.9937866271448 0 -312.9937866271448 -161.166493686178 0 0 0 0 152.77739345878945 350.78937782721187 0 350.78937782721187 158.49801462186224 0 0 0 0 -17.446698718238622 139.57113988148922 0 139.57113988148922 765.64891435101163 0 0 0 0 -306.23878378032532 -10.937945296354883 0 -10.937945296354883 190.76922087003186 0 0 0 0 202.43197553305072 -47.60739115668548 0 -47.60739115668548 136.87519634259661 0 0 0 0 268.90031841411837 473.66006228458355 0 473.66006228458355 521.47307256952627 0 0 0 0 -80.540673786723232 21.212727055331783 0 21.212727055331783 3.621630020276676 0 0 0 0 145.58421455821372 -37.215041357234441 0 -37.215041357234441 -130.7416329846983 0 0 0 0 346.81794129199261 369.64766516132568 0 369.64766516132568 220.27566507099255 0 0 0 0 -41.823251050540421 79.921633960904728 0 79.921633960904728 30.606026049506909 0 0 0 0 -359.3526589423127 252.59099060892731 0 252.59099060892731 270.42703227327911 0 0 0 0 17.124415213627799 46.324707556995691 0 46.324707556995691 -42.122686540078575 0 0 0 0 20.355413624520011 44.722628707639075 0 44.722628707639075 10.200579862614077 0 0 0 0 143.52014454509481 -46.097165295106606 0 -46.097165295106606 29.774371853243792 0 0 0 0 19.497836434380275 32.661200562292606 0 32.661200562292606 -1.5444337881317693 0 0 0 0 187.42694030366692 -61.541746543142835 0 -61.541746543142835 -141.05065250825282 0 0 0 0 6.4576146825904743 8.9849127221654328 0 8.9849127221654328 -6.0158390172146667 0 0 0 0 293.3965486886591 460.23252300663444 0 460.23252300663444 596.93634910945548 0 0 0 0 -2.6755169344521335 1.3463190383474739 0 1.3463190383474739 -0.31196005260247262 0 0 0 0 245.31779393955367 335.57724631056044 0 335.57724631056044 803.11889866883575 0 0 0 0 -37.24311715161457 -2.1203338141904169 0 -2.1203338141904169 862.43051550124801 0 0 0 0 1.7400334421687944 0.31521695924313065 0 0.31521695924313065 -4.0604321164687605 0 0 0 0 83.983932733477559 -43.631705290757964 0 -43.631705290757964 875.61322736853981 0 0 0 0 -5.8616415272515496 12.8967233134655 0 12.8967233134655 -3.5423148576049321 0 0 0 0 260.31058654986555 803.49693735779874 0 803.49693735779874 1003.3816622716356 0 0 0 0 -231.7259431533239 767.22366119794037 0 767.22366119794037 353.78988823568943 0 0 0 0 -196.40915518475231 442.41870631607162 0 442.41870631607162 1011.1229904271889 0 0 0 0 -14.55591749818268 143.36380798085247 0 143.36380798085247 -166.61761281478539 0 0 0 0 -67.143668982462259 125.88042046362534 0 125.88042046362534 -50.172471050460445 0 0 0 0 0.65123046130611328 79.73325279502842 0 79.73325279502842 -103.39608780509661 0 0 0 0 82.748156185989501 193.85328494638998 0 193.85328494638998 -1034.5853502078244 0 0 0 0 -127.07423864882003 531.75450918006118 0 531.75450918006118 1208.6470845995973 0 0 0 0 -7.5372328035653027 -0.031626452372222502 0 -0.031626452372222502 1.6953547074180726 0 0 0 0 -276.08229406538885 341.73226664665617 0 341.73226664665617 311.22138873129825 0 0 0 0 -7.9139262928074459 761.93563085715527 0 761.93563085715527 -426.89967913037253 0 0 0 0 -264.76695884605579 336.76154249871888 0 336.76154249871888 -107.10333629132583 0 0 0 0 -135.75407673520385 201.0237414627727 0 201.0237414627727 -54.274439195334708 0 0 0 0 26.338599530688953 131.32805033921341 0 131.32805033921341 -24.525448425447394 0 0 0 0 -32.528274101881834 284.28321002051985 0 284.28321002051985 14.498099952410485 0 0 0 0 -190.50216142965655 184.98322579606429 0 184.98322579606429 20.53563990967541 0 0 0 0 30.964093372683863 42.461147295156934 0 42.461147295156934 4.0311568766639354 0 0 0 0 -77.908212022070074 339.10823247389953 0 339.10823247389953 -115.51554500769089 0 0 0 0 -58.876564430596773 282.1100105979458 0 282.1100105979458 2.4342777534375273 0 0 0 0 9.0941297421541094 263.23376804824574 0 263.23376804824574 -191.18786614116107 0 0 0 0 -643.49867528938921 -866.23408418355211 0 -866.23408418355211 -1396.192939210945 0 0 0 0 -115.26989183838305 160.00103982318115 0 160.00103982318115 7.7489776084137247 0 0 0 0 -627.78667412065261 -12.423575142434764 0 -12.423575142434764 -82.855917403903732 0 0 0 0 33.424503199337096 44.605555669881994 0 44.605555669881994 6.9098732872042667 0 0 0 0 -2083.9692729750823 783.55828910889738 0 783.55828910889738 1831.6996153891339 0 0 0 0 -7.3019181143639287 10.108664529471895 0 10.108664529471895 -6.8088674664784747 0 0 0 0 325.5765767430421 235.92543309804842 0 235.92543309804842 -216.2735641602394 0 0 0 0 -276.96318694423098 113.26754700388574 0 113.26754700388574 -46.621874818416472 0 0 0 0 -12.270830104373999 21.220607217576827 0 21.220607217576827 -27.455203703090319 0 0 0 0 -283.32883352150384 167.61056115647762 0 167.61056115647762 -72.332928040531442 0 0 0 0 -245.27319275354967 138.0348279298446 0 138.0348279298446 -60.540518278746049 0 0 0 0 -1.2376666550856399 4.2322010542323767 0 4.2322010542323767 -1.5468391995268505 0 0 0 0 -102.32818793080514 76.223049991057451 0 76.223049991057451 232.12533199395102 0 0 0 0 -51.741159235716623 -75.566901472482982 0 -75.566901472482982 33.469379347013273 0 0 0 0 -466.35393776434648 144.849603724085 0 144.849603724085 42.070396509533339 0 0 0 0 132.05461142242712 168.24925594053241 0 168.24925594053241 -57.460774653076612 0 0 0 0 135.14884646813425 43.476107553815496 0 43.476107553815496 -58.174046816739065 0 0 0 0 -0.241475564255893 3.927935865508573 0 3.927935865508573 -9.6585628134568751 0 0 0 0 -159.95603612104605 -44.728989718984167 0 -44.728989718984167 65.016054017514762 0 0 0 0 -285.15212394589798 42.200717443660295 0 42.200717443660295 78.727405428985094 0 0 0 0 -17.578458397170238 30.553245037777486 0 30.553245037777486 -45.552598214986432 0 0 0 0 65.649639457158628 125.53559824720304 0 125.53559824720304 -57.85204591069396 0 0 0 0 -10.733815800616867 66.106912599173484 0 66.106912599173484 -89.09564208368829 0 0 0 0 5.0803398713449042 -2.4546397229176904 0 -2.4546397229176904 -11.448447038030324 0 0 0 0 -36.816782056739612 47.156798013256775 0 47.156798013256775 -20.999160771716561 0 0 0 0 -119.26670152711449 60.576541823557704 0 60.576541823557704 25.426505436187711 0 0 0 0 -96.68972051703895 -20.125991078511333 0 -20.125991078511333 -60.194827889630687 0 0 0 0 -7.6355108590445866 12.92030353514636 0 12.92030353514636 -20.789613878484182 0 0 0 0 -220.04460247944735 137.63896741682584 0 137.63896741682584 -109.09293345656079 0 0 0 0 -181.53224656058592 40.450808402254552 0 40.450808402254552 -4.8036907262030581 0 0 0 0 -5.7355990023588674 24.803004169946803 0 24.803004169946803 -89.256341135122057 0 0 0 0 -105.16050796027412 34.706099650689794 0 34.706099650689794 -77.707427748728151 0 0 0 0 -41.26585778628214 26.927021516542936 0 26.927021516542936 -108.60017770239938 0 0 0 0 -127.07721325900638 90.256024921447988 0 90.256024921447988 -149.92228954026359 0 0 0 0 -204.8437235984311 85.135361333387664 0 85.135361333387664 -76.644800596793175 0 0 0 0 -3465.6752482231241 -2449.105046644996 0 -2449.105046644996 608.74979535283637 0 0 0 0 -49.234739105449563 73.991248974233656 0 73.991248974233656 -31.812798363150108 0 0 0 0 -13.692163601486129 7.2865205747779811 0 7.2865205747779811 6.7876522263680172 0 0 0 0 -313.33190664136782 632.91567593313812 0 632.91567593313812 -1071.3229724939738 0 0 0 0 -1375.7084257039969 1802.5231360212474 0 1802.5231360212474 745.05919270457969 0 0 0 0 84.354346285908832 87.419839721364042 0 87.419839721364042 66.631823230032751 0 0 0 0 -7.1644562198185326 51.916562990813475 0 51.916562990813475 27.163320352843691 0 0 0 0 -336.01366522214084 488.1175261686094 0 488.1175261686094 -799.37975826664479 0 0 0 0 -4.50498956254728 37.649661934220845 0 37.649661934220845 -1.8333477037901353 0 0 0 0 -40.909775428008288 101.53109501264771 0 101.53109501264771 31.078420290235954 0 0 0 0 12.233002311157179 35.610866982067819 0 35.610866982067819 -17.631922214197402 0 0 0 0 -16.28174912603572 76.205408562254888 0 76.205408562254888 1.8410479320878039 0 0 0 0 33.185588405700656 57.650459592997663 0 57.650459592997663 11.066321428144686 0 0 0 0 12.184812915176735 78.843192730849182 0 78.843192730849182 -1.53416415255532 0 0 0 0 52.373600152306608 88.322380986896405 0 88.322380986896405 4.7702095397780795 0 0 0 0 -3.7083692177548073 63.470674841023538 0 63.470674841023538 6.9209193367296393 0 0 0 0 -26.528827595349867 123.25189926373707 0 123.25189926373707 -8.2395007434224681 0 0 0 0 -10.837488599483976 51.244305580542971 0 51.244305580542971 -13.142473710932286 0 0 0 0 15.361204636615355 57.680348169264107 0 57.680348169264107 16.92055219222793 0 0 0 0 14.770269704562594 49.00810042262006 0 49.00810042262006 7.8038612915308478 0 0 0 0 31.447834770046029 58.60659085673683 0 58.60659085673683 -9.1169650541510237 0 0 0 0 -1.7160761361155892 74.268760535908314 0 74.268760535908314 15.662871892235671 0 0 0 0 10.586984351350111 121.64494546047626 0 121.64494546047626 -23.749410333355627 0 0 0 0 -8.8284192249122668 36.774634872973834 0 36.774634872973834 -23.663536033075875 0 0 0 0 41.611274841074191 52.126199548350769 0 52.126199548350769 -30.401133030096389 0 0 0 0 16.685269077657836 49.306953350767955 0 49.306953350767955 19.270582581913263 0 0 0 0 -3.0364204734933473 41.781461510025053 0 41.781461510025053 15.508457995702638 0 0 0 0 30.584584875157134 68.572942721656077 0 68.572942721656077 9.7889197393596987 0 0 0 0 116.93299014860531 65.662031823417237 0 65.662031823417237 -18.444238483743902 0 0 0 0 34.142779500645702 71.797207710123075 0 71.797207710123075 43.458449693024704 0 0 0 0 64.803048135356221 70.433898536884044 0 70.433898536884044 -9.7517449753186156 0 0 0 0 4.3189954152748156 46.276201729370626 0 46.276201729370626 25.650598626347033 0 0 0 0 11.729898158548167 55.922990491294513 0 55.922990491294513 28.686512107155522 0 0 0 0 49.064729022735264 42.068221680404804 0 42.068221680404804 17.473094489778305 0 0 0 0 78.296635342187074 67.551266020252513 0 67.551266020252513 30.941421190539586 0 0 0 0 43.807690878045833 41.832936259518114 0 41.832936259518114 -20.090549919637702 0 0 0 0 51.582651530164867 74.137349839418548 0 74.137349839418548 84.585568763837728 0 0 0 0 139.86163012171801 -6.5530387892844146 0 -6.5530387892844146 -53.848670410530758 0 0 0 0 70.104268804726502 105.05926266146959 0 105.05926266146959 3.1059224733282562 0 0 0 0 42.831831175550946 18.565753380954114 0 18.565753380954114 -12.931054476070434 0 0 0 0 61.984561018412933 81.734935398988455 0 81.734935398988455 83.418192347544391 0 0 0 0 47.804479053273099 84.984004622469001 0 84.984004622469001 2.5840124919741356 0 0 0 0 9.7616298747598194 51.035207874776461 0 51.035207874776461 48.073397163734626 0 0 0 0 42.785319482594787 88.998556936625391 0 88.998556936625391 8.7598957056325162 0 0 0 0 8.5790872080366967 7.2451211348540738 0 7.2451211348540738 -4.4096884857785668 0 0 0 0 47.691952045483049 92.440963596518486 0 92.440963596518486 10.888441172214698 0 0 0 0 -174.00762922710783 154.23406449243259 0 154.23406449243259 110.70458063248952 0 0 0 0 37.047944836696843 25.923751832804555 0 25.923751832804555 -44.148459895972337 0 0 0 0 -5.5420446046628058 90.50235182097822 0 90.50235182097822 21.189327671821957 0 0 0 0 7.4891950084522847 14.67223209925163 0 14.67223209925163 -8.321133481621402 0 0 0 0 37.608184679878718 47.43867178787356 0 47.43867178787356 -21.744693433921846 0 0 0 0 273.3525532810454 90.292164462640358 0 90.292164462640358 -68.256645709698205 0 0 0 0 47.563436416314289 90.620176380090356 0 90.620176380090356 400.09712064720225 0 0 0 0 391.02825203551038 111.91269370620103 0 111.91269370620103 -329.94769905485737 0 0 0 0 10.248651733366927 14.738064135586882 0 14.738064135586882 8.349563682229217 0 0 0 0 9.9703611239358452 19.44846936749051 0 19.44846936749051 24.81140265264494 0 0 0 0 125.81855409003037 82.790081544830173 0 82.790081544830173 -36.997522754993042 0 0 0 0 25.063455836643698 312.90270940544724 0 312.90270940544724 383.50709704851943 0 0 0 0 49.836694577839765 90.61913173847546 0 90.61913173847546 114.41495355178763 0 0 0 0 74.674239085408772 103.70353503009625 0 103.70353503009625 69.09584305149383 0 0 0 0 47.916395839507459 157.64095918856856 0 157.64095918856856 134.27929991714882 0 0 0 0 66.94501853541442 141.52198258622832 0 141.52198258622832 70.46078083842167 0 0 0 0 78.572668098204304 157.85730941296424 0 157.85730941296424 53.096958040226127 0 0 0 0 92.587150685678353 166.60589532829226 0 166.60589532829226 58.185424014718137 0 0 0 0 63.902542224554054 113.41533187258983 0 113.41533187258983 37.422378833217408 0 0 0 0 17.790827878776014 34.6409183071125 0 34.6409183071125 8.3326995739801504 0 0 0 0 101.95517549378565 118.81868936523097 0 118.81868936523097 -73.232475570722727 0 0 0 0 114.32438232924324 158.27505892038789 0 158.27505892038789 42.933572510783051 0 0 0 0 70.575854722535269 51.769906509588921 0 51.769906509588921 -7.5514149315606645 0 0 0 0 100.2094680643786 95.799998855297417 0 95.799998855297417 135.55019118651398 0 0 0 0 76.344530368107371 86.106387657287996 0 86.106387657287996 40.828000358420468 0 0 0 0 72.392443049233407 66.528807891056204 0 66.528807891056204 33.102959772371833 0 0 0 0 61.234043048454311 57.878028741365739 0 57.878028741365739 8.6205056802491455 0 0 0 0 49.802669905591756 58.122279573202832 0 58.122279573202832 65.297180599795865 0 0 0 0 62.363504466193262 86.537207280842267 0 86.537207280842267 66.03611033684507 0 0 0 0 21.383007553608195 43.62909757570003 0 43.62909757570003 -13.122542284788683 0 0 0 0 37.102040449208289 73.827879294487275 0 73.827879294487275 182.4531969355678 0 0 0 0 7.1108577700397291 80.407301753761914 0 80.407301753761914 315.11584653683724 0 0 0 0 3.0916226412446406 31.356422770253278 0 31.356422770253278 22.112046271941587 0 0 0 0 80.159982593879249 112.72155599727301 0 112.72155599727301 10.135802178574295 0 0 0 0 -20.975017059572565 144.64183852109045 0 144.64183852109045 224.87504558385922 0 0 0 0 67.846488863971899 141.38980301246647 0 141.38980301246647 24.990368077805897 0 0 0 0 69.956095867200929 131.39520980825421 0 131.39520980825421 40.851415734983675 0 0 0 0 78.414418866683263 153.51145933422595 0 153.51145933422595 35.203986748475018 0 0 0 0 -16.049713581578544 78.573207486271031 0 78.573207486271031 16.458692667080413 0 0 0 0 74.706295035843141 14.49701928509767 0 14.49701928509767 -198.53021370761357 0 0 0 0 114.79218487873004 149.68147131781825 0 149.68147131781825 20.146124438170006 0 0 0 0 217.97522647845108 247.05988496298528 0 247.05988496298528 118.02410176910053 0 0 0 0 15.762609352317668 82.239106834581207 0 82.239106834581207 68.250816398718598 0 0 0 0 64.028353536239592 128.54378456324412 0 128.54378456324412 141.90996683355843 0 0 0 0 68.736119882538333 159.50767861638633 0 159.50767861638633 111.86661339759485 0 0 0 0 75.385854876385565 134.82722644755972 0 134.82722644755972 83.482247925007869 0 0 0 0 74.501664405646807 172.9937988348214 0 172.9937988348214 61.152198752357435 0 0 0 0 242.86029285724362 -147.22626477279573 0 -147.22626477279573 -501.66928273016129 0 0 0 0 -3.3636755529788331 42.587559288022291 0 42.587559288022291 -59.06725856188428 0 0 0 0 -64.840196195313183 98.750033958010135 0 98.750033958010135 135.13410597981601 0 0 0 0 48.685357222770108 181.13115513018693 0 181.13115513018693 18.762919359382977 0 0 0 0 -2.7961770801477428 3.4784931391584095 0 3.4784931391584095 6.6583680492766284 0 0 0 0 36.975726187509082 61.065364396919477 0 61.065364396919477 29.263803199566006 0 0 0 0 -5.2441232319251867 85.430624042238378 0 85.430624042238378 23.707113735496932 0 0 0 0 43.317357020688178 80.478031393278854 0 80.478031393278854 0.68128508166591928 0 0 0 0 70.409409164232784 142.70812898286022 0 142.70812898286022 62.311365276549623 0 0 0 0 22.417894360079202 45.400440573695512 0 45.400440573695512 -35.53126230879807 0 0 0 0 71.518458908409229 144.91101877571782 0 144.91101877571782 61.843003994034916 0 0 0 0 -332.75255688773905 441.10955768742133 0 441.10955768742133 373.135329807159 0 0 0 0 91.339689174521482 152.78306531340422 0 152.78306531340422 42.796551365648952 0 0 0 0 -7.787612773058342 3.1601787068561293 0 3.1601787068561293 -5.7160986238939273 0 0 0 0 296.27811847001431 -414.81057714557892 0 -414.81057714557892 -256.01239503892066 0 0 0 0 -0.9458932366251247 432.92733510638936 0 432.92733510638936 -82.411884925152663 0 0 0 0 39.026711268057205 49.696097458387058 0 49.696097458387058 22.441348013345376 0 0 0 0 31.813879092100251 162.79363141266731 0 162.79363141266731 45.582943421657546 0 0 0 0 371.01331396551905 200.55498203051502 0 200.55498203051502 -81.908307558980596 0 0 0 0 -27.445269629974064 122.91986246668239 0 122.91986246668239 41.895494591848546 0 0 0 0 -5.3340982058598456 119.10580908783618 0 119.10580908783618 27.294456341704063 0 0 0 0 -40.513115515295794 99.10972374505991 0 99.10972374505991 86.120428547917982 0 0 0 0 -42.859589504318137 110.77724073646277 0 110.77724073646277 38.129923926749143 0 0 0 0 -221.18194125473451 73.06642046282488 0 73.06642046282488 131.01672492448415 0 0 0 0 -224.62990895924304 325.12887749638503 0 325.12887749638503 112.25988740316461 0 0 0 0 5.1182289965945529 67.315268330072286 0 67.315268330072286 106.9214272511399 0 0 0 0 -12.27032097403486 25.843961669667998 0 25.843961669667998 6.2425235341909868 0 0 0 0 55.00806107968674 57.477617363827449 0 57.477617363827449 -113.83985510311004 0 0 0 0 84.396523538410293 137.8464176187407 0 137.8464176187407 -70.231194181455066 0 0 0 0 81.392607161935302 107.29853238086071 0 107.29853238086071 -127.17740372615663 0 0 0 0 38.504211865453129 82.497886287950124 0 82.497886287950124 56.007340506159601 0 0 0 0 21.409416985285134 109.17115308991742 0 109.17115308991742 84.824109415567364 0 0 0 0 668.97376438626088 671.41660520888399 0 671.41660520888399 827.68616689834744 0 0 0 0 40.010143281755518 122.90691252003717 0 122.90691252003717 81.642446583784476 0 0 0 0 -854.41015283598972 708.66214746337209 0 708.66214746337209 1901.6763358681346 0 0 0 0 17.516740435115935 88.885714233460021 0 88.885714233460021 21.349359175568679 0 0 0 0 52.445825826631335 100.31514332469123 0 100.31514332469123 66.660553412897571 0 0 0 0 10.409419276817061 82.064830193216039 0 82.064830193216039 67.21483421099822 0 0 0 0 32.550055316497946 79.054610584620264 0 79.054610584620264 123.9508737995202 0 0 0 0 21.284417897836931 62.864303729409045 0 62.864303729409045 68.02359629277116 0 0 0 0 16.953863771938686 13.814738923329145 0 13.814738923329145 14.14347236476732 0 0 0 0 -68.547113363096287 -150.24885719325812 0 -150.24885719325812 -684.80326234351378 0 0 0 0 -186.3234704466513 417.31583670110649 0 417.31583670110649 -63.052085243776673 0 0 0 0 11.960545301903039 -229.91405707402737 0 -229.91405707402737 80.346877484204015 0 0 0 0 4.8486073908713223 4.3386980641284083 0 4.3386980641284083 3.9864876682821091 0 0 0 0 326.02538314700359 50.873285110181314 0 50.873285110181314 97.657186709606322 0 0 0 0 140.30812932647677 318.98780815628561 0 318.98780815628561 10.282748628931586 0 0 0 0 588.09402835941 416.54966079949008 0 416.54966079949008 22.543535114324186 0 0 0 0 225.39280720129318 190.06421301567752 0 190.06421301567752 -326.50336834476911 0 0 0 0 63.991543165058829 128.38838715814927 0 128.38838715814927 136.07404974311794 0 0 0 0 156.6891754441458 190.36127047902846 0 190.36127047902846 -144.88500160451076 0 0 0 0 311.65105691469216 253.04378087941586 0 253.04378087941586 -131.21375619980972 0 0 0 0 170.07383703004598 210.37588251243142 0 210.37588251243142 -117.16128932053107 0 0 0 0 -3.261351200724846 1.8128007230207857 0 1.8128007230207857 -4.0440750799654666 0 0 0 0 131.83857259825163 27.441722922951158 0 27.441722922951158 -249.62498770306411 0 0 0 0 104.76652332216327 70.384275218537368 0 70.384275218537368 -117.80142334554279 0 0 0 0 -215.93950487181746 -20.964742708717495 0 -20.964742708717495 17.449936770906788 0 0 0 0 -73.631372416824888 -24.102356318355305 0 -24.102356318355305 -120.53461543550657 0 0 0 0 -242.79957608796394 161.58127542973671 0 161.58127542973671 -26.626705653645331 0 0 0 0 -131.82296602202405 111.18629016089835 0 111.18629016089835 36.698348107063794 0 0 0 0 -93.432126516266635 149.38286136668239 0 149.38286136668239 -11.13456073589623 0 0 0 0 -88.720115531876218 79.771788858968648 0 79.771788858968648 8.4894343433115864 0 0 0 0 26.402700118304907 37.081516914175296 0 37.081516914175296 0.34853907681838336 0 0 0 0 8.9018357554232352 156.5218910221447 0 156.5218910221447 -125.49764710752061 0 0 0 0 13.983441726308229 134.29986158839529 0 134.29986158839529 -28.335251514130505 0 0 0 0 -13.770409939534147 122.95066446415694 0 122.95066446415694 -21.544001297181239 0 0 0 0 -1.0489669050683972 56.096021615262885 0 56.096021615262885 47.156635874759658 0 0 0 0 62.570177858375246 1.2274704278388526 0 1.2274704278388526 -49.978286376936012 0 0 0 0 -4.5856037800549529 93.967164883113583 0 93.967164883113583 -9.0491953753116832 0 0 0 0 0.37899857938285209 56.434460765739942 0 56.434460765739942 23.965786912086969 0 0 0 0 -36.053678398242482 115.13700442695017 0 115.13700442695017 7.5648596312166774 0 0 0 0 -23.116049433527223 101.47553756380512 0 101.47553756380512 9.8213483000581618 0 0 0 0 -22.899775670892268 108.47091324876601 0 108.47091324876601 38.191210384805345 0 0 0 0 -11.64791824365966 113.44138967727986 0 113.44138967727986 -3.794312109137536 0 0 0 0 -16.230904583382653 110.32699166132443 0 110.32699166132443 14.37583831410393 0 0 0 0 -67.900521731717163 82.071799216690124 0 82.071799216690124 136.93197544368741 0 0 0 0 -20.76744720278657 87.251299355040828 0 87.251299355040828 -5.4090991730408859 0 0 0 0 128.43360706886961 436.89980412622026 0 436.89980412622026 243.44228900414237 0 0 0 0 67.794241157967917 -231.4545944992451 0 -231.4545944992451 -18.900157419906463 0 0 0 0 -60.58895376504006 416.06196400469344 0 416.06196400469344 318.07059284494972 0 0 0 0 -399.51318788908247 229.12968632992124 0 229.12968632992124 233.5050109702388 0 0 0 0 162.73109200195904 -78.65379593277612 0 -78.65379593277612 -124.09169263306103 0 0 0 0 -107.88637659140295 386.46936393425221 0 386.46936393425221 360.01097050625685 0 0 0 0 7.0993179036522633 113.31968667354886 0 113.31968667354886 67.532130077168404 0 0 0 0 -59.286887849082333 52.733908246601544 0 52.733908246601544 -31.803831288499765 0 0 0 0 1.4960352462585433 122.05336804001126 0 122.05336804001126 56.698552491317969 0 0 0 0 25.478995453646348 136.5650509596162 0 136.5650509596162 27.646986535000906 0 0 0 0 16.96799688716419 107.87227320452803 0 107.87227320452803 65.462534270125616 0 0 0 0 104.05452981315102 89.133905336511816 0 89.133905336511816 19.682907752423489 0 0 0 0 36.057370343405637 116.46936032093072 0 116.46936032093072 33.852852645958336 0 0 0 0 41.509691025195934 125.11330219376396 0 125.11330219376396 33.880751997623094 0 0 0 0 53.808082070565433 158.19724992610281 0 158.19724992610281 -66.583997355526662 0 0 0 0 55.578041868480796 240.9647763011817 0 240.9647763011817 -20.194785739371582 0 0 0 0 115.80011735579319 219.13419493685433 0 219.13419493685433 -15.101575741864508 0 0 0 0 20.342478576749272 228.94635849386395 0 228.94635849386395 72.62051571412303 0 0 0 0 -38.86887285578814 140.68713119729 0 140.68713119729 28.043531211966183 0 0 0 0 -160.18001855936018 116.20253212619355 0 116.20253212619355 93.642856793852843 0 0 0 0 86.781748610897921 157.48365043660306 0 157.48365043660306 100.2687098277529 0 0 0 0 -0.85084549623434214 40.765314529923558 0 40.765314529923558 -55.921373576206022 0 0 0 0 -61.385388875094215 41.325733414423652 0 41.325733414423652 14.158567486265412 0 0 0 0 2.2236717122959817 218.92169571070554 0 218.92169571070554 139.96705330598343 0 0 0 0 1.8236228691193901 193.11398878636192 0 193.11398878636192 27.90311180716526 0 0 0 0 27.203687870178328 123.28151398526279 0 123.28151398526279 49.659388240143016 0 0 0 0 36.35217795668359 103.79719061210926 0 103.79719061210926 55.538991137858829 0 0 0 0 14.626247394029633 73.9077599800803 0 73.9077599800803 7.5552177980589477 0 0 0 0 -14.131740226245427 61.640475010147583 0 61.640475010147583 -21.203129074873743 0 0 0 0 -467.61156649389159 -243.60325899771851 0 -243.60325899771851 54.382437908322572 0 0 0 0 -36.02666693698427 62.69184947511765 0 62.69184947511765 18.831634248920409 0 0 0 0 28.225653242424954 70.962585064675807 0 70.962585064675807 -1.5653747377700853 0 0 0 0 3.0532198531687271 56.209633163111334 0 56.209633163111334 -71.293806397353109 0 0 0 0 61.213653026352404 116.90083731230607 0 116.90083731230607 -243.89023257668669 0 0 0 0 70.133116797575752 101.61777123565247 0 101.61777123565247 62.551940816446056 0 0 0 0 73.758572080630074 196.44229941534974 0 196.44229941534974 -53.475689024227904 0 0 0 0 129.45712212056969 99.181038222177449 0 99.181038222177449 -87.70982940873364 0 0 0 0 30.758425043488387 172.93368339166409 0 172.93368339166409 -113.81905939715398 0 0 0 0 546.62852711637788 77.258065993804848 0 77.258065993804848 -21.005937132351391 0 0 0 0 -57.120617036278418 11.497625537665954 0 11.497625537665954 -117.89839807591488 0 0 0 0 57.670464878152416 71.261733800190996 0 71.261733800190996 0.025408731396964868 0 0 0 0 6.576463394006435 7.0300403873748643 0 7.0300403873748643 -2.2010801477227346 0 0 0 0 9.7232266653872799 9.780131914020135 0 9.780131914020135 3.404037354202913 0 0 0 0 -318.72493443826897 231.63977587855334 0 231.63977587855334 -25.822399046493956 0 0 0 0 93.386920134817046 48.722151185236726 0 48.722151185236726 -50.952398942044965 0 0 0 0 -16.011738401701223 54.446054761218875 0 54.446054761218875 -22.065036626976507 0 0 0 0 -48.374299047325621 100.38342819534955 0 100.38342819534955 -70.056858534317143 0 0 0 0 -14.299677348466929 44.925640513134312 0 44.925640513134312 53.963260394303333 0 0 0 0 -52.236187855414755 125.19872019799141 0 125.19872019799141 -4.4125595632799559 0 0 0 0 36.623506659613952 64.494019920042263 0 64.494019920042263 63.408619884836568 0 0 0 0 -48.666895047732396 107.81095702848012 0 107.81095702848012 -118.71879797693913 0 0 0 0 -72.627307336122612 4.6199978989041028 0 4.6199978989041028 -252.64051352740722 0 0 0 0 -1.9647050903004128 175.97265692377141 0 175.97265692377141 -133.8637102405628 0 0 0 0 -111.72368591320901 35.437707811098107 0 35.437707811098107 19.435979465155469 0 0 0 0 77.521101409722178 320.38935607176245 0 320.38935607176245 288.58326517320802 0 0 0 0 7.6586998262365853 3.0525200476512655 0 3.0525200476512655 -14.90255051843878 0 0 0 0 79.398107705870643 150.95291390488001 0 150.95291390488001 184.03350646597073 0 0 0 0 140.26408992940196 264.18979632907167 0 264.18979632907167 37.556055987079162 0 0 0 0 10.143023624164925 157.51600623277591 0 157.51600623277591 -41.04618691030737 0 0 0 0 -17.8674483639752 174.15326927138949 0 174.15326927138949 -12.396741102704254 0 0 0 0 -18.117940512420319 129.68950655940944 0 129.68950655940944 56.743698833448377 0 0 0 0 -12.638610266207252 84.517369910169691 0 84.517369910169691 -105.54993818876528 0 0 0 0 93.583277056968655 136.8301201795025 0 136.8301201795025 -39.771603476632663 0 0 0 0 -22.937720893700316 25.963204129425989 0 25.963204129425989 -51.771323002461436 0 0 0 0 74.295283408886462 129.06340009780828 0 129.06340009780828 -80.239986474642848 0 0 0 0 1.0045725176756832 10.361577384068166 0 10.361577384068166 -2.574225273460145 0 0 0 0 22.28862889148877 9.6048687295509865 0 9.6048687295509865 -331.19709341698797 0 0 0 0 44.16495042193128 88.092229160645175 0 88.092229160645175 304.7375331544128 0 0 0 0 42.200287122490408 165.97916827251538 0 165.97916827251538 480.84648033693611 0 0 0 0 28.294403582192899 127.73921182907775 0 127.73921182907775 357.29729379350107 0 0 0 0 -1.0628897738625085 8.3122888364639831 0 8.3122888364639831 -6.3917648722888547 0 0 0 0 -111.29613377614078 333.31219146602689 0 333.31219146602689 793.42232695692542 0 0 0 0 80.741885943074521 167.96776350586697 0 167.96776350586697 -764.48615438143929 0 0 0 0 0.80206545626424486 5.4046610761085505 0 5.4046610761085505 -1.6431543844983652 0 0 0 0 115.84315698056707 122.9639573151115 0 122.9639573151115 324.54741748617249 0 0 0 0 -139.87795748674398 96.198432920277412 0 96.198432920277412 324.17205238537127 0 0 0 0 -14.589583581788247 66.670529312053873 0 66.670529312053873 572.89099550607625 0 0 0 0 27.105328976322198 154.7254715980134 0 154.7254715980134 312.66833686831001 0 0 0 0 -192.9448522809289 88.677656674111233 0 88.677656674111233 311.3268147085339 0 0 0 0 -153.22333988931859 42.629379794945521 0 42.629379794945521 293.09528494420465 0 0 0 0 -124.20602534276986 229.1208366388164 0 229.1208366388164 -139.85606523264505 0 0 0 0 34.039720850079902 391.04947380084559 0 391.04947380084559 311.60693758463998 0 0 0 0 -25.848184886153831 221.54376651867562 0 221.54376651867562 -162.19870929705939 0 0 0 0 17.389252051874792 14.14586511613345 0 14.14586511613345 38.351580315877698 0 0 0 0 0.19279125038219647 0.81102196427849194 0 0.81102196427849194 10.598072690181191 0 0 0 0 -275.75076897039253 -25.849068686351529 0 -25.849068686351529 168.81062054023789 0 0 0 0 483.91087005105328 25.684025674956388 0 25.684025674956388 8.8309503838872843 0 0 0 0 -313.97162605447193 29.04737820882292 0 29.04737820882292 345.23596077683032 0 0 0 0 393.74760161252925 409.88918256187389 0 409.88918256187389 211.25557361493679 0 0 0 0 -100.85312409038124 140.99676044800026 0 140.99676044800026 100.33918116351924 0 0 0 0 216.71490702355004 567.54612769584401 0 567.54612769584401 441.17247396471043 0 0 0 0 -100.57313970560806 194.54066868290573 0 194.54066868290573 786.2821281396109 0 0 0 0 231.27873712453402 -445.44363379236779 0 -445.44363379236779 259.86087668558889 0 0 0 0 10.170918738765089 4.3522912117884678 0 4.3522912117884678 2.3525346682618116 0 0 0 0 342.09583650411878 255.44577686528919 0 255.44577686528919 -402.51659106459829 0 0 0 0 -59.477158790725525 -310.38928701154327 0 -310.38928701154327 -348.1447160750904 0 0 0 0 144.15473755890525 167.7853552950595 0 167.7853552950595 -63.372329426522015 0 0 0 0 33.395245785667555 12.670856741556054 0 12.670856741556054 5.052644616630678 0 0 0 0 -68.559033373852799 566.28974470347384 0 566.28974470347384 -538.50884236148386 0 0 0 0 -0.22885795212550519 -1.801719790779007 0 -1.801719790779007 -0.49098113857521264 0 0 0 0 453.63609642709616 72.12472055622311 0 72.12472055622311 -1554.5278599755738 0 0 0 0 -350.34466030825934 -304.44847277532062 0 -304.44847277532062 -696.31493320654317 0 0 0 0 325.28945190436934 480.10861891770355 0 480.10861891770355 -1018.0895192237167 0 0 0 0 142.45228085434212 2.2614784561458237 0 2.2614784561458237 168.69958518882049 0 0 0 0 107.88023782203936 265.00076908880294 0 265.00076908880294 246.80429510704562 0 0 0 0 -18.601226671003587 235.62796706788822 0 235.62796706788822 949.49589236747124 0 0 0 0 261.81728291708987 241.83713204881587 0 241.83713204881587 28.570042645676949 0 0 0 0 -37.515661288134879 76.247331104465047 0 76.247331104465047 55.621369890526694 0 0 0 0 34.868653362706254 179.95203214012145 0 179.95203214012145 88.558220741289006 0 0 0 0 94.524138218474604 105.51283482763847 0 105.51283482763847 -19.318480556245049 0 0 0 0 89.287532891980618 124.80547978617142 0 124.80547978617142 -90.210841047304712 0 0 0 0 -4.6339745401980394 27.036972484947103 0 27.036972484947103 -2.7990342514333832 0 0 0 0 -20.228311229731844 180.94327241631618 0 180.94327241631618 -77.372816104358208 0 0 0 0 -23.967315899659859 72.479531329438544 0 72.479531329438544 -32.182442999858552 0 0 0 0 3.1736821498494443 18.841513559073359 0 18.841513559073359 13.400078764835612 0 0 0 0 -224.01425612248204 211.29443304685492 0 211.29443304685492 -39.362264478377256 0 0 0 0 -5.2297955389413531 26.828265476486727 0 26.828265476486727 16.245864477100028 0 0 0 0 51.286501057256828 166.97793545682816 0 166.97793545682816 -138.56314317230226 0 0 0 0 -142.74459578056849 357.22756608680629 0 357.22756608680629 -94.550845125246269 0 0 0 0 92.171335230865338 195.00237334558915 0 195.00237334558915 -93.163815070216515 0 0 0 0 26.534360257230219 31.682968785226535 0 31.682968785226535 -76.993933090165228 0 0 0 0 39.535362332573946 38.811574704069855 0 38.811574704069855 10.388058025701564 0 0 0 0 77.592391784962842 219.92729955875166 0 219.92729955875166 1.1153117739850131 0 0 0 0 -43.547905475670632 166.45000506469819 0 166.45000506469819 -79.902150621646797 0 0 0 0 -201.09460068914996 115.97593470311767 0 115.97593470311767 -84.057387214369101 0 0 0 0 45.152828048732772 548.70743438328168 0 548.70743438328168 -454.47991548469872 0 0 0 0 1.2235488613344359 1.7017091944727571 0 1.7017091944727571 0.16539319401134422 0 0 0 0 -61.81810581578975 748.27557827554631 0 748.27557827554631 1744.6519890165901 0 0 0 0 74.40868267492624 105.11042557638609 0 105.11042557638609 -868.76780920053193 0 0 0 0 -156.37518346962497 76.569768816614896 0 76.569768816614896 -255.81315903745281 0 0 0 0 -146.44905927067157 246.44824720681459 0 246.44824720681459 -132.74709158622954 0 0 0 0 -105.85487904116235 214.38960875836847 0 214.38960875836847 -113.23229435871144 0 0 0 0 -195.34795362975092 248.66424796670435 0 248.66424796670435 -119.98199334530182 0 0 0 0 -154.12925859530151 265.11434411070786 0 265.11434411070786 -113.42260137958419 0 0 0 0 -134.61895774256845 271.7861423766808 0 271.7861423766808 -211.26637388452218 0 0 0 0 -164.99746605688324 120.40663435962858 0 120.40663435962858 49.729573634102962 0 0 0 0 -91.661982259138313 -233.60531877926064 0 -233.60531877926064 -372.32744676982406 0 0 0 0 -164.13642344106484 -326.85657536133158 0 -326.85657536133158 482.56545397804985 0 0 0 0 740.21620297550544 174.60753450888683 0 174.60753450888683 -481.28856687756934 0 0 0 0 775.63247099665296 375.90998309694419 0 375.90998309694419 -311.43751724482172 0 0 0 0 -117.6054088764613 508.20048775564874 0 508.20048775564874 697.61316876217677 0 0 0 0 -15.702413330167474 227.11766654795247 0 227.11766654795247 -336.91375036422232 0 0 0 0 -3.9772911213976698 2.5394924502687424 0 2.5394924502687424 -1.1379145315995749 0 0 0 0 391.05207480966055 218.47548470994934 0 218.47548470994934 -1350.8230208340847 0 0 0 0 -225.19951815254899 108.37282146752841 0 108.37282146752841 717.31946281725823 0 0 0 0 -5.8388212650534115 -43.441600387638573 0 -43.441600387638573 -833.87674516257812 0 0 0 0 -101.99425867563696 351.3402474556533 0 351.3402474556533 31.720697104869032 0 0 0 0 -121.8201378095946 -7.4246256316419021 0 -7.4246256316419021 -3.1371356055897195 0 0 0 0 -274.86935598223135 294.01530076208473 0 294.01530076208473 223.39796235229613 0 0 0 0 31.094350331739406 -29.118922242401823 0 -29.118922242401823 222.7032349473011 0 0 0 0 46.093948823742366 89.345166387619145 0 89.345166387619145 87.887172892266264 0 0 0 0 -196.70347525498897 527.62204446354917 0 527.62204446354917 -254.05405165188859 0 0 0 0 115.15607787105637 367.93640790359586 0 367.93640790359586 -24.483492093902896 0 0 0 0 -9.2224580277195969 3.5350896178824875 0 3.5350896178824875 25.857999445786511 0 0 0 0 3.1499779254045279 299.39974665727141 0 299.39974665727141 -510.45033502372098 0 0 0 0 -117.23891866427584 44.565361145396309 0 44.565361145396309 188.0435217310569 0 0 0 0 -11.553152117279687 14.838948164367769 0 14.838948164367769 7.5706484214820318 0 0 0 0 -97.060921375343241 420.54348716352587 0 420.54348716352587 -246.35101702023167 0 0 0 0 -4.4486193484227563 5.6503362309686445 0 5.6503362309686445 5.473033671720553 0 0 0 0 257.66238324468941 539.70962417785267 0 539.70962417785267 -1329.0019617880007 0 0 0 0 -13.246738273650408 134.29136804747122 0 134.29136804747122 -204.94937608611417 0 0 0 0 -299.5976620745314 156.52067931406418 0 156.52067931406418 -302.01893748699331 0 0 0 0 -26.989245454660704 177.09306056904461 0 177.09306056904461 -281.04255772453826 0 0 0 0 56.004767177727487 28.5011960213881 0 28.5011960213881 -29.518846093279876 0 0 0 0 -5.3874831797606824 71.706495910808712 0 71.706495910808712 -68.847079899734354 0 0 0 0 94.955184170081338 716.69676176063149 0 716.69676176063149 -454.53826523834505 0 0 0 0 -97.370533251240886 218.20404764547493 0 218.20404764547493 -302.04630591578461 0 0 0 0 187.40984380555278 243.67438291006192 0 243.67438291006192 -534.71024180763925 0 0 0 0 -397.45738140717731 798.94636561069092 0 798.94636561069092 -765.89177891642885 0 0 0 0 -402.85232988503412 264.4720519833063 0 264.4720519833063 105.68232542028181 0 0 0 0 -178.90801628676491 434.97731726713027 0 434.97731726713027 -785.70867649005231 0 0 0 0 -99.192734367181401 83.31900427718756 0 83.31900427718756 -24.981300356081874 0 0 0 0 37.654867544900071 21.349657241569226 0 21.349657241569226 5.0908445323123317 0 0 0 0 -427.82294360796004 153.40918804017201 0 153.40918804017201 -552.52110165107297 0 0 0 0 -377.66596335864961 401.85059153612747 0 401.85059153612747 -153.44572378147132 0 0 0 0 -324.03356266438459 -284.27825757766914 0 -284.27825757766914 2218.058372991778 0 0 0 0 -58.571044524951503 557.62518187978912 0 557.62518187978912 873.77266292838613 0 0 0 0 -289.77810490681895 232.54802266520346 0 232.54802266520346 852.84170307820023 0 0 0 0 -15.652146161344817 58.570791869112497 0 58.570791869112497 -85.649732966780533 0 0 0 0 56.490135111383637 707.76848557613914 0 707.76848557613914 207.76722080556647 0 0 0 0 7.7453708365319471 -49.813237638132705 0 -49.813237638132705 292.99832204700215 0 0 0 0 -181.4729957617642 483.80497679625387 0 483.80497679625387 62.596360994997667 0 0 0 0 186.58647727078824 -48.483289779200277 0 -48.483289779200277 502.8940687123395 0 0 0 0 93.719368340638539 -437.82955868030695 0 -437.82955868030695 975.31651014123509 0 0 0 0 -103.33194946188723 12.92417119689344 0 12.92417119689344 764.92933508545684 0 0 0 0 -228.87903934528481 185.68318016845296 0 185.68318016845296 354.36988688046404 0 0 0 0 -157.93156487260057 334.40660975708306 0 334.40660975708306 441.24035619897222 0 0 0 0 -81.857775012175864 177.22374379494431 0 177.22374379494431 -49.177152980773826 0 0 0 0 2.8040857339324248 77.225340047007194 0 77.225340047007194 201.03976006754237 0 0 0 0 -84.456918401157282 -27.664810450121877 0 -27.664810450121877 476.57012255029986 0 0 0 0 -0.66821283240782492 13.30991856524011 0 13.30991856524011 11.693621427940627 0 0 0 0 88.671729647319808 737.93164448525204 0 737.93164448525204 -776.94201758883719 0 0 0 0 -496.19373188388863 126.04146697677061 0 126.04146697677061 -38.589037281359197 0 0 0 0 -44.779433691279337 -63.784233015103382 0 -63.784233015103382 979.98373629221169 0 0 0 0 -6.3246188572036743 8.3360066462914375 0 8.3360066462914375 8.7750209942441302 0 0 0 0 -13.261547754772437 -156.0718412807073 0 -156.0718412807073 623.72600049866378 0 0 0 0 -744.04520970879457 747.53560185329115 0 747.53560185329115 -836.37410403334798 0 0 0 0 -1138.7294167567688 2015.2842786001347 0 2015.2842786001347 -2091.2513306438632 0 0 0 0 -1692.2651976902089 170.99949281362933 0 170.99949281362933 598.61973191874131 0 0 0 0 -379.31141860237585 436.16181908617727 0 436.16181908617727 -769.68979715192108 0 0 0 0 -2733.6594861601461 882.42263666995859 0 882.42263666995859 114.13463528880675 0 0 0 0 -4.4738537788348829 12.861597588040041 0 12.861597588040041 -6.5031658716491165 0 0 0 0 -2.3205001850648941 0.75359647281956654 0 0.75359647281956654 0.13829641446444896 0 0 0 0 1592.5403963594608 952.69133284645795 0 952.69133284645795 -1256.0627422368852 0 0 0 0 -1220.5115177024272 1423.7589391739457 0 1423.7589391739457 -2325.8415540823771 0 0 0 0 -222.53520954785495 2224.9082106658157 0 2224.9082106658157 -1691.2587220979331 0 0 0 0 -29.034106082009494 76.912432885083135 0 76.912432885083135 -34.995805876922304 0 0 0 0 -10.926396517455032 158.93472693780313 0 158.93472693780313 -117.9395829634941 0 0 0 0 126.38677350947546 99.958550242025012 0 99.958550242025012 -78.224486566898122 0 0 0 0 -46.22504454425507 75.067444210741087 0 75.067444210741087 40.858578608840617 0 0 0 0 -96.185294677154161 178.2890007209644 0 178.2890007209644 -164.18743202602309 0 0 0 0 -202.16884794782163 75.707783522751924 0 75.707783522751924 44.361095210260828 0 0 0 0 -11.39250032972086 -4.6074346205014081 0 -4.6074346205014081 -49.869121704658028 0 0 0 0 -162.18403196492386 353.43015386030129 0 353.43015386030129 -101.62642845137452 0 0 0 0 -103.69744061905385 307.78920257960635 0 307.78920257960635 163.53176351927817 0 0 0 0 91.502169138096178 45.033002719053911 0 45.033002719053911 -56.553562966610116 0 0 0 0 49.335096867658692 81.37910473295392 0 81.37910473295392 98.2046017280082 0 0 0 0 40.043046280278759 396.64600050440276 0 396.64600050440276 -229.56310914618825 0 0 0 0 -138.58487421112341 126.99487663645414 0 126.99487663645414 275.24751473873766 0 0 0 0 25.304193674791033 87.185128959819664 0 87.185128959819664 98.288691018324343 0 0 0 0 -63.578507747070034 127.85045323798113 0 127.85045323798113 164.54216890165844 0 0 0 0 -128.54594324708023 199.77245795458703 0 199.77245795458703 114.86980880889314 0 0 0 0 -33.673141843337589 71.684370384642534 0 71.684370384642534 178.40287501971034 0 0 0 0 -77.477954840255734 93.644379669742193 0 93.644379669742193 195.7286811752565 0 0 0 0 -33.661675753677116 73.254833980788561 0 73.254833980788561 104.90948406947038 0 0 0 0 -101.15391478478432 20.874364869538113 0 20.874364869538113 162.6132386564168 0 0 0 0 -76.916628777785263 86.427428048780712 0 86.427428048780712 116.62226268272207 0 0 0 0 -35.60500266370218 233.03334762960731 0 233.03334762960731 264.3551206857428 0 0 0 0 -130.23953473404163 -7.1602373997284303 0 -7.1602373997284303 320.03919228991435 0 0 0 0 -40.466575999641833 70.761772860788668 0 70.761772860788668 109.01580461085445 0 0 0 0 114.24024289306544 91.324459005409153 0 91.324459005409153 41.297624947968757 0 0 0 0 -14.353413842845029 12.563740886218923 0 12.563740886218923 6.6027345612941843 0 0 0 0 85.74910205529568 284.31812976034462 0 284.31812976034462 90.864287818912999 0 0 0 0 -22.449144433374812 14.94954050108376 0 14.94954050108376 66.273298658300234 0 0 0 0 -3.2886121154697321 86.192787022871926 0 86.192787022871926 135.47177227813518 0 0 0 0 8.2106792442666574 71.594684080001713 0 71.594684080001713 63.847964459623284 0 0 0 0 2.1388998294205521 57.435439045308158 0 57.435439045308158 104.56217231342453 0 0 0 0 15.077835995209171 82.018635208973137 0 82.018635208973137 149.69918072465225 0 0 0 0 -24.235074741700373 121.3829036414827 0 121.3829036414827 313.59566785587231 0 0 0 0 51.514796465176914 79.974478867981816 0 79.974478867981816 114.97167640695989 0 0 0 0 -16.330714444291729 25.417457185179131 0 25.417457185179131 15.782810283049372 0 0 0 0 1.5806052018087939 72.578627591967233 0 72.578627591967233 121.32441262287466 0 0 0 0 52.070453058833664 167.11505944850796 0 167.11505944850796 -31.768663559323613 0 0 0 0 2.7957643240230965 45.067616508161734 0 45.067616508161734 14.515920864251093 0 0 0 0 -56.189038155254821 167.05852945798324 0 167.05852945798324 131.26131406381319 0 0 0 0 -8.9481559635460144 38.803432756685652 0 38.803432756685652 75.956628867759719 0 0 0 0 5.3607579424438114 57.552904284703175 0 57.552904284703175 19.534027180355864 0 0 0 0 -3.3116014535917202 125.91605042092851 0 125.91605042092851 159.16872457518184 0 0 0 0 -15.284558052199028 25.42135940666293 0 25.42135940666293 32.64448125825821 0 0 0 0 -103.63077611247445 32.428575469617499 0 32.428575469617499 222.17015433582856 0 0 0 0 -79.94862398443729 252.01127094597905 0 252.01127094597905 -224.27899960189825 0 0 0 0 6.8962603480540565 67.183277004747652 0 67.183277004747652 95.73234447062714 0 0 0 0 -32.132408656838088 61.649421873967498 0 61.649421873967498 62.725117521691274 0 0 0 0 19.88001280723411 102.00972305476714 0 102.00972305476714 43.645226294131987 0 0 0 0 -43.181603066783282 58.403446921147406 0 58.403446921147406 67.422667177510448 0 0 0 0 -83.711571759595188 76.823977743266724 0 76.823977743266724 77.251053775901255 0 0 0 0 -308.80249967828939 524.88057783010299 0 524.88057783010299 247.48017600664753 0 0 0 0 -96.806837540448456 23.846383111039358 0 23.846383111039358 9.395710407865721 0 0 0 0 -409.01380122190312 -35.570088040069095 0 -35.570088040069095 217.02857634426618 0 0 0 0 -229.75611235737233 -57.902265532444289 0 -57.902265532444289 136.90973483603739 0 0 0 0 -717.99275827746897 269.47631298207853 0 269.47631298207853 -75.628151470999001 0 0 0 0 95.604569450209965 119.23512896673128 0 119.23512896673128 -41.741286252130521 0 0 0 0 -17.75666302164182 6.8450335277324115 0 6.8450335277324115 12.018858320064624 0 0 0 0 -184.29558433279817 -74.79512105572212 0 -74.79512105572212 137.28803235874511 0 0 0 0 -343.84064370598935 -282.96861155253282 0 -282.96861155253282 220.4412672642793 0 0 0 0 -8.424913486767764 266.7217545130552 0 266.7217545130552 -248.89554276145645 0 0 0 0 218.91235034506099 7.9571227072810871 0 7.9571227072810871 -78.841204490046948 0 0 0 0 -53.380616699549137 -434.7885769928107 0 -434.7885769928107 588.20728981401771 0 0 0 0 -4.7223682539904814 4.9835476741916125 0 4.9835476741916125 -7.1290617866633852 0 0 0 0 -38.888354160755625 448.66699830146899 0 448.66699830146899 -433.57375061354833 0 0 0 0 -502.02746122553071 744.37034543670597 0 744.37034543670597 -488.22590399466571 0 0 0 0 -174.034566476279 408.13680003488844 0 408.13680003488844 -289.76374583374127 0 0 0 0 -27.288211861952732 455.83388566826761 0 455.83388566826761 -405.98175937175984 0 0 0 0 -577.51665672238596 398.38202178577194 0 398.38202178577194 2.1971312980167568 0 0 0 0 -1159.4057634919191 1065.3453679211561 0 1065.3453679211561 -729.25851068328484 0 0 0 0 -1540.3331650989348 236.41110755075351 0 236.41110755075351 628.24985169650608 0 0 0 0 -413.141827311425 548.00949950701033 0 548.00949950701033 -1143.1571269421183 0 0 0 0 -511.94133219803916 449.78157924757397 0 449.78157924757397 -513.31005589474807 0 0 0 0 -1008.7948237186611 476.68726103001973 0 476.68726103001973 -372.11411579724518 0 0 0 0 -796.65699531625432 236.61373787786579 0 236.61373787786579 -664.82895856027608 0 0 0 0 -704.85369018508572 547.69433312701585 0 547.69433312701585 -351.39101601988659 0 0 0 0 -596.09125109885645 622.41969684550713 0 622.41969684550713 -353.20541564960149 0 0 0 0 -414.90256597683037 668.23941604988795 0 668.23941604988795 -333.94980745803332 0 0 0 0 -762.41836517810589 826.74660636663612 0 826.74660636663612 -327.28245403652545 0 0 0 0 -476.92547735432163 583.71404761172744 0 583.71404761172744 -427.78548787653563 0 0 0 0 -607.7859885650596 649.65258638270461 0 649.65258638270461 -343.04816955601564 0 0 0 0 -460.70353605548735 679.39668596335105 0 679.39668596335105 -379.99187209752563 0 0 0 0 -464.31123267173825 568.27760816416412 0 568.27760816416412 -300.74124166644106 0 0 0 0 -148.84786795090258 404.07824408839952 0 404.07824408839952 -338.99636787972122 0 0 0 0 -162.9143067878249 468.48955264515098 0 468.48955264515098 -180.41821485914988 0 0 0 0 -226.66066167400277 397.68712072043854 0 397.68712072043854 -248.29407944050035 0 0 0 0 -6.8148552850761916 99.313388355418283 0 99.313388355418283 -82.154267185287608 0 0 0 0 -8.4807401175930863 8.7913794403502834 0 8.7913794403502834 93.219715452505625 0 0 0 0 -102.06073722936526 266.84628986434109 0 266.84628986434109 331.32554449055169 0 0 0 0 2.195236827045747 1.5039321687995084 0 1.5039321687995084 -0.51051875522256296 0 0 0 0 10.54187982383155 37.889941760367947 0 37.889941760367947 124.67515620928316 0 0 0 0 2.9690656110833515 55.436955718279933 0 55.436955718279933 39.19328296011372 0 0 0 0 -40.736349081533263 13.730678352367249 0 13.730678352367249 163.5832956648228 0 0 0 0 1.1558627293270547 -65.102942163241096 0 -65.102942163241096 244.56930724205449 0 0 0 0 -10.531714198954433 105.7768042933676 0 105.7768042933676 81.805456880829297 0 0 0 0 -1095.389006993868 -1337.6588861632044 0 -1337.6588861632044 196.37166586317107 0 0 0 0 1017.0906072932466 367.03050611695653 0 367.03050611695653 27.419709052890539 0 0 0 0 223.75020745343318 1739.4820686965577 0 1739.4820686965577 -1003.6442334985477 0 0 0 0 -5.2610498941208412 20.445021783177225 0 20.445021783177225 -15.569037973374009 0 0 0 0 -1357.6923411555872 220.88686992915609 0 220.88686992915609 604.75815210944347 0 0 0 0 -1131.591017977601 -198.26163607351191 0 -198.26163607351191 1311.4188846058969 0 0 0 0 -93.699703892754769 731.88179727566603 0 731.88179727566603 -2277.921817518356 0 0 0 0 -1796.9778594807431 1375.1152239915027 0 1375.1152239915027 -580.276312954491 0 0 0 0 -26.736727557376895 3.9164438184168944 0 3.9164438184168944 -0.77466502048967456 0 0 0 0 -24.793117193930811 305.39245163033047 0 305.39245163033047 -704.62460751397884 0 0 0 0 482.37880801049505 312.20480571587541 0 312.20480571587541 -12.79370767986984 0 0 0 0 -70.33952178307112 13.265224361130663 0 13.265224361130663 -2.1943106078617198 0 0 0 0 -85.103223964728613 -218.4381530897881 0 -218.4381530897881 -29.766620930531644 0 0 0 0 -495.29024340522756 401.84211773287097 0 401.84211773287097 1172.1455102932287 0 0 0 0 -265.03212200198323 336.28217564780789 0 336.28217564780789 -266.34571474464428 0 0 0 0 -283.60133153746165 429.51931347275058 0 429.51931347275058 -418.29310521873413 0 0 0 0 -200.4353535534101 522.86098137112276 0 522.86098137112276 -402.79141660506139 0 0 0 0 -396.00016231696918 729.48887032334824 0 729.48887032334824 -615.74689523670531 0 0 0 0 -420.79653706414229 500.98799578113903 0 500.98799578113903 -573.6756006560172 0 0 0 0 -303.70657718345956 485.90419888497854 0 485.90419888497854 -249.37222580959497 0 0 0 0 -279.40946180092214 513.7174627797358 0 513.7174627797358 -609.17193558225699 0 0 0 0 -530.10630989582478 426.48260868865327 0 426.48260868865327 -350.18226670805598 0 0 0 0 -339.388341530248 370.74936319071276 0 370.74936319071276 -408.17794839334965 0 0 0 0 -63.612918617378455 394.11380242537416 0 394.11380242537416 -380.66521517222282 0 0 0 0 -290.16784694984381 65.961426865927933 0 65.961426865927933 226.59870972860517 0 0 0 0 -171.17516539664575 651.39919393096352 0 651.39919393096352 -830.01990468175791 0 0 0 0 -387.24114298933273 832.6041691419814 0 832.6041691419814 -548.20706833637087 0 0 0 0 -498.97056320882257 245.3213693394855 0 245.3213693394855 -140.11902557173744 0 0 0 0 21.936104355203497 364.1494116168542 0 364.1494116168542 -172.53622766161425 0 0 0 0 21.315433702619046 28.647256012613013 0 28.647256012613013 20.799095324987462 0 0 0 0 300.85397197470957 538.40909052167262 0 538.40909052167262 -1249.9271769048637 0 0 0 0 15.856899305272279 19.102216740279232 0 19.102216740279232 13.056982841903732 0 0 0 0 15.180687202750278 -17.829035973900318 0 -17.829035973900318 -1200.9986926030106 0 0 0 0 -3.4458424939766097 15.966916102629469 0 15.966916102629469 -1.2063982034376295 0 0 0 0 -423.72250265800176 -327.57863028324209 0 -327.57863028324209 446.23565365239483 0 0 0 0 1090.4155204059816 -131.39470051312674 0 -131.39470051312674 -360.88877088960726 0 0 0 0 283.18624862147499 206.5508558715519 0 206.5508558715519 391.66206002501713 0 0 0 0 1257.2649033020462 -218.2691585773573 0 -218.2691585773573 -183.94057167579558 0 0 0 0 -28.80109684792842 216.82527530996595 0 216.82527530996595 -162.81511029283138 0 0 0 0 300.95373627986191 192.47513856153455 0 192.47513856153455 -746.1803886538255 0 0 0 0 -123.29549897201105 673.58289909470477 0 673.58289909470477 -445.72994729329366 0 0 0 0 -28.407621345604639 710.66134369297288 0 710.66134369297288 -1142.8211922571063 0 0 0 0 342.54564544603636 119.68145246428321 0 119.68145246428321 -358.73176361793412 0 0 0 0 9.7634055308517418 586.82808470070449 0 586.82808470070449 -346.7721953621076 0 0 0 0 -451.53739875427345 783.24012852463238 0 783.24012852463238 -591.04723500178079 0 0 0 0 -310.98168717349836 358.77260283202486 0 358.77260283202486 -431.46692502134829 0 0 0 0 -257.45452033848051 342.45540814317064 0 342.45540814317064 -409.14874692999001 0 0 0 0 -239.14844269356399 178.37747129442869 0 178.37747129442869 162.18775372879463 0 0 0 0 -295.0754736072704 198.56246552510129 0 198.56246552510129 -226.4597485847471 0 0 0 0 32.54695649475623 31.170595974069357 0 31.170595974069357 22.017322569635951 0 0 0 0 -13.667233553915324 10.274793258155853 0 10.274793258155853 17.941385723424332 0 0 0 0 -347.77291970225633 418.53620379333006 0 418.53620379333006 -207.65899852810253 0 0 0 0 -362.33114430203477 829.54298050703073 0 829.54298050703073 -903.26997348992154 0 0 0 0 -582.60017121513738 391.45976153590891 0 391.45976153590891 -736.42182895462611 0 0 0 0 -177.28983138361582 368.11228717259655 0 368.11228717259655 -287.70629592322803 0 0 0 0 -461.78669226265993 644.68088420676577 0 644.68088420676577 -543.82328111826791 0 0 0 0 -375.10272167903486 296.3474554458935 0 296.3474554458935 -305.91458290591254 0 0 0 0 -374.85496334255367 596.91404387229704 0 596.91404387229704 -537.49686868319986 0 0 0 0 -267.80684564310923 467.71620673330835 0 467.71620673330835 -335.14245575107634 0 0 0 0 -180.64596335799979 204.15930079342252 0 204.15930079342252 -91.025956555415178 0 0 0 0 179.13559444074053 161.83767187582271 0 161.83767187582271 -133.8283925466967 0 0 0 0 236.22396783070326 -85.120261116031543 0 -85.120261116031543 -9.4115427941724192 0 0 0 0 103.21360757326693 139.61091159542411 0 139.61091159542411 -34.443076485447818 0 0 0 0 31.102740099606308 60.372379269370867 0 60.372379269370867 -61.456689529994037 0 0 0 0 -143.29876149950451 444.53725658353869 0 444.53725658353869 -323.64133327730815 0 0 0 0 378.46159035925302 -66.129214556713123 0 -66.129214556713123 -69.224004761839751 0 0 0 0 -19.767509999722733 134.61555311765915 0 134.61555311765915 142.80307666535373 0 0 0 0 411.08132410682265 17.404490032422473 0 17.404490032422473 135.86344729701523 0 0 0 0 791.98778367847626 -278.67494301027182 0 -278.67494301027182 -64.268839623968233 0 0 0 0 896.98054750768461 -86.596602774734492 0 -86.596602774734492 -261.76337691977096 0 0 0 0 1438.0740010767825 -423.35438410264624 0 -423.35438410264624 -65.459659101761645 0 0 0 0 654.89757159584769 -307.08364250017621 0 -307.08364250017621 508.38500522549293 0 0 0 0 1598.5854107729347 194.60769505099233 0 194.60769505099233 100.16329436433443 0 0 0 0 -570.21672648516687 314.86846945453726 0 314.86846945453726 -500.47472689058668 0 0 0 0 -716.61644310627707 703.46822806296768 0 703.46822806296768 -588.63660171121592 0 0 0 0 -482.48239407076471 536.47368170519621 0 536.47368170519621 -1090.3714170010062 0 0 0 0 -1168.9933777026308 924.75395887085324 0 924.75395887085324 -604.79845857628607 0 0 0 0 -88.227477149159313 156.64589826638803 0 156.64589826638803 -412.10184694261989 0 0 0 0 -371.12540420259165 188.65011862552728 0 188.65011862552728 -385.12043596796866 0 0 0 0 -332.14156714230558 398.00132584040148 0 398.00132584040148 -537.44879443309037 0 0 0 0 -323.10600357846306 571.30834809915541 0 571.30834809915541 -476.04671761937789 0 0 0 0 -375.07490086066537 277.46840753500146 0 277.46840753500146 -345.6007031074696 0 0 0 0 -448.94823419823661 481.96101498356438 0 481.96101498356438 -535.14547521257191 0 0 0 0 -406.91934059740015 560.44638500679866 0 560.44638500679866 -444.91824213898508 0 0 0 0 -546.26879240423295 632.48031603783602 0 632.48031603783602 -405.27722550158796 0 0 0 0 -471.89264804310369 646.40075936538051 0 646.40075936538051 -649.38022559662932 0 0 0 0 -502.95807873731246 598.23909467502381 0 598.23909467502381 -645.910581477714 0 0 0 0 -564.07733006150374 615.73903590773989 0 615.73903590773989 -410.12447638109734 0 0 0 0 -487.20615192176774 676.5170053397087 0 676.5170053397087 -564.56162243691506 0 0 0 0 -300.65325623126409 385.0062047195097 0 385.0062047195097 -398.27074941792671 0 0 0 0 -526.55628985777003 478.99430377463432 0 478.99430377463432 -371.56300000549527 0 0 0 0 -552.04183229072078 614.65502434904556 0 614.65502434904556 -460.315608448087 0 0 0 0 -484.99401702856267 531.23184274797677 0 531.23184274797677 -357.57377360624014 0 0 0 0 -443.8175519809447 545.80367466487223 0 545.80367466487223 -573.48608285660157 0 0 0 0 -453.87509434013919 560.64032717442024 0 560.64032717442024 -496.0773045537353 0 0 0 0 -235.31940604570991 460.42863384129305 0 460.42863384129305 -707.54428843375354 0 0 0 0 -159.04791059267154 342.81802477636666 0 342.81802477636666 -566.53419801281416 0 0 0 0 -12.064917941690894 5.8789456925262868 0 5.8789456925262868 7.7395076631699453 0 0 0 0 114.90122509890716 -229.21333968392901 0 -229.21333968392901 -28.63471844731248 0 0 0 0 -399.08069010445615 653.9977354498842 0 653.9977354498842 -774.73064652109315 0 0 0 0 -867.06737700836857 772.48022184467845 0 772.48022184467845 -546.02000712769222 0 0 0 0 -500.44879433677124 364.17915244936012 0 364.17915244936012 330.13233059422055 0 0 0 0 -554.39373795718711 600.30767505247786 0 600.30767505247786 -643.6197438946474 0 0 0 0 -529.96172323832434 631.17011756250577 0 631.17011756250577 -653.12668615746952 0 0 0 0 -167.15860825206619 428.2646873431222 0 428.2646873431222 -853.51086580034462 0 0 0 0 -524.95487654725002 999.57791460206499 0 999.57791460206499 -825.63452674832661 0 0 0 0 36.63963508555436 39.210823915841686 0 39.210823915841686 37.292793864725411 0 0 0 0 -447.08850652257388 628.74392609653296 0 628.74392609653296 -561.12073440043605 0 0 0 0 -375.19013857581012 940.15608663856983 0 940.15608663856983 -915.9407946675783 0 0 0 0 -385.47959110215015 721.96863743166614 0 721.96863743166614 -630.22783360179164 0 0 0 0 -143.27805652299139 677.08238234411692 0 677.08238234411692 -1040.229573826553 0 0 0 0 -308.95556761334956 436.09173788371845 0 436.09173788371845 -354.97422082850244 0 0 0 0 -382.32413599373103 480.54445570302778 0 480.54445570302778 -340.2537882172328 0 0 0 0 -113.1913895957714 593.33630027266918 0 593.33630027266918 -322.85925265029073 0 0 0 0 -224.06936732219037 326.25538274127757 0 326.25538274127757 -136.44699372383184 0 0 0 0 154.4442408906616 395.21894372686074 0 395.21894372686074 -245.49194301445095 0 0 0 0 -744.25324733698108 820.90662240561505 0 820.90662240561505 -428.27506550366525 0 0 0 0 -0.53676184657125958 1.633282058942676 0 1.633282058942676 2.3840572117233592 0 0 0 0 -857.81309496028916 654.7150630469223 0 654.7150630469223 -419.46249789366266 0 0 0 0 -967.50771116036685 728.84310112548337 0 728.84310112548337 -416.92630422709044 0 0 0 0 -748.23380496788013 577.09800822578836 0 577.09800822578836 283.2875710837834 0 0 0 0 35.050648271046697 39.8547979177754 0 39.8547979177754 38.813064191156172 0 0 0 0 -661.26798401531778 1193.5257032333247 0 1193.5257032333247 -1426.4953003588962 0 0 0 0 208.58565513194117 -499.54173494109455 0 -499.54173494109455 186.32254126002954 0 0 0 0 -6.2540930118372842 2.8593230329174446 0 2.8593230329174446 3.2411187435090199 0 0 0 0 -496.11509999514601 619.6374869985666 0 619.6374869985666 -249.0810222590153 0 0 0 0 -829.32439809906646 286.64908433678283 0 286.64908433678283 56.488280496792868 0 0 0 0 -569.05114992888412 489.06713766736721 0 489.06713766736721 -408.74943005859677 0 0 0 0 409.14331566220426 1095.3742486157571 0 1095.3742486157571 -319.17464020820626 0 0 0 0 425.06517154821006 76.514219641506202 0 76.514219641506202 -79.73452691762941 0 0 0 0 5.5706270316993027 4.876598884832319 0 4.876598884832319 4.4573249236836716 0 0 0 0 248.6325123210172 805.64106571143566 0 805.64106571143566 467.34669714405027 0 0 0 0 842.30150674850302 258.20935545292014 0 258.20935545292014 -200.42205323196686 0 0 0 0 -443.46409777042572 401.17176390448731 0 401.17176390448731 622.75983899409766 0 0 0 0 -103.84021976205986 251.03022194025107 0 251.03022194025107 -123.8000881827611 0 0 0 0 -97.011182860245754 134.12234856110445 0 134.12234856110445 -535.31413257211534 0 0 0 0 264.06259070281226 285.72241675610803 0 285.72241675610803 -343.14707819599425 0 0 0 0 139.77719172322395 55.514301387862361 0 55.514301387862361 -239.54267725341924 0 0 0 0 35.023922297790705 270.49836962455447 0 270.49836962455447 123.41689053316077 0 0 0 0 -10.649547897191951 309.62232412860612 0 309.62232412860612 107.33917953300988 0 0 0 0 -64.110520206835645 273.85476141617255 0 273.85476141617255 177.26328488206491 0 0 0 0 -9.5847619885389577 247.48936533171218 0 247.48936533171218 116.13341397489421 0 0 0 0 -10.847685551270843 240.12528484781797 0 240.12528484781797 169.55774825186381 0 0 0 0 45.672120040326263 310.77662949122896 0 310.77662949122896 18.787377676926553 0 0 0 0 138.48100824387075 229.80280331024551 0 229.80280331024551 -188.17912286438514 0 0 0 0 138.54008093366429 234.784214081752 0 234.784214081752 64.695832984463777 0 0 0 0 19.139925941606634 356.31237079222774 0 356.31237079222774 65.977495462226216 0 0 0 0 101.43563950250973 461.96323314921028 0 461.96323314921028 47.912915935754427 0 0 0 0 272.60964060703373 377.30434254823422 0 377.30434254823422 -64.719019832933554 0 0 0 0 -6.0985014859470539 390.31825554576426 0 390.31825554576426 90.182100558668026 0 0 0 0 -91.253102767732344 353.67699549302051 0 353.67699549302051 111.76636026329106 0 0 0 0 -129.5424674545211 372.03652632771264 0 372.03652632771264 89.963071617501555 0 0 0 0 -32.468995602910582 437.11132260396698 0 437.11132260396698 106.04501934177824 0 0 0 0 -37.579728354990948 456.02563235229172 0 456.02563235229172 48.254109718305699 0 0 0 0 -196.64071005838196 220.77744231902761 0 220.77744231902761 510.0986789172166 0 0 0 0 -82.002683590057131 155.53386355316252 0 155.53386355316252 -168.9532507910335 0 0 0 0 -84.643379066277703 218.90101114336721 0 218.90101114336721 -185.75598502850335 0 0 0 0 -147.72999058106507 205.93928169261198 0 205.93928169261198 64.386843961312479 0 0 0 0 -75.322981865632755 291.04684202833596 0 291.04684202833596 -171.12517977686366 0 0 0 0 -88.279349838225471 137.75212838746756 0 137.75212838746756 -296.01732825508225 0 0 0 0 -91.870866608012875 226.3633745127845 0 226.3633745127845 -295.11645641934592 0 0 0 0 -151.94702022747515 361.1917018317472 0 361.1917018317472 -64.344066763544106 0 0 0 0 -147.41362289214885 282.48115900804987 0 282.48115900804987 -255.1389424996305 0 0 0 0 -201.19357844538172 403.50924407054845 0 403.50924407054845 -322.80108981962258 0 0 0 0 -272.60627149753782 212.57146896455924 0 212.57146896455924 -368.16359531294438 0 0 0 0 -191.34923098793206 202.60397737006497 0 202.60397737006497 -118.58767506742151 0 0 0 0 -220.63139910218797 382.57149940076852 0 382.57149940076852 -45.040470678592101 0 0 0 0 -136.20418987255835 228.30090109870071 0 228.30090109870071 96.236850250876159 0 0 0 0 -134.56308613201691 296.46844151824916 0 296.46844151824916 -28.697123998601455 0 0 0 0 -186.0567316154993 352.78844329137064 0 352.78844329137064 138.91730128796189 0 0 0 0 -166.14882103077434 359.7970361306252 0 359.7970361306252 104.79497359896777 0 0 0 0 -103.91670259024249 322.04961982971872 0 322.04961982971872 -51.809550097284955 0 0 0 0 -101.95488425593794 85.120857490837807 0 85.120857490837807 -132.36229147619451 0 0 0 0 -69.810646257159533 95.449399719305802 0 95.449399719305802 -293.88226880958246 0 0 0 0 -273.37876709808734 70.982019304950882 0 70.982019304950882 -113.69285237055738 0 0 0 0 -311.54098649501975 353.69685118898633 0 353.69685118898633 -222.01559831268969 0 0 0 0 -105.4376520731239 334.83611242871848 0 334.83611242871848 -36.939058447162097 0 0 0 0 -94.480002826001282 65.400917148086364 0 65.400917148086364 -113.60640657845943 0 0 0 0 -40.235757827518682 7.5083182911475888 0 7.5083182911475888 -119.77740310550325 0 0 0 0 -65.734150368160044 142.47917151978618 0 142.47917151978618 0.91897207844885997 0 0 0 0 -496.22590892782318 143.60582311938924 0 143.60582311938924 1313.5372901125083 0 0 0 0 24.270770829149114 137.86901038905489 0 137.86901038905489 -120.32439418302238 0 0 0 0 6.7247705201084216 6.8903890746238687 0 6.8903890746238687 4.9841755339733567 0 0 0 0 157.70244182559691 362.53278986355144 0 362.53278986355144 215.67473940583295 0 0 0 0 108.53501505962049 163.60259122510615 0 163.60259122510615 -4.8283424735309382 0 0 0 0 -106.76702729095268 259.95062699929258 0 259.95062699929258 868.6133358370862 0 0 0 0 -101.03513893394847 325.79095631944801 0 325.79095631944801 359.46350032970076 0 0 0 0 -54.983256346829876 314.23055469015526 0 314.23055469015526 138.48949060207815 0 0 0 0 -29.371799897737219 169.64737718476681 0 169.64737718476681 358.09830977218098 0 0 0 0 -85.870958300743951 260.09550123923691 0 260.09550123923691 337.31783695731428 0 0 0 0 36.257102460065653 51.400997938902947 0 51.400997938902947 298.06188375593047 0 0 0 0 47.913942943705479 68.488973803498084 0 68.488973803498084 288.87334907992044 0 0 0 0 197.64486729183409 21.500770657003159 0 21.500770657003159 182.55636816543119 0 0 0 0 347.1579796236183 -60.490076864007278 0 -60.490076864007278 161.45769434770045 0 0 0 0 137.56955922659836 107.59714227978839 0 107.59714227978839 63.960780730121769 0 0 0 0 388.12418000020261 -332.85926209468744 0 -332.85926209468744 649.51345148666587 0 0 0 0 40.469917657003862 14.49680949760932 0 14.49680949760932 352.95274124114076 0 0 0 0 -520.97451340216503 -223.35916662907402 0 -223.35916662907402 54.025657576352387 0 0 0 0 885.67200533732102 266.29748853278579 0 266.29748853278579 127.48190240480471 0 0 0 0 -62.6643995313716 349.59095347968105 0 349.59095347968105 183.24598070376669 0 0 0 0 -1.2992848879796526 2.6089115458867411 0 2.6089115458867411 -3.2864371373791528 0 0 0 0 -97.69665639915911 265.37254810526792 0 265.37254810526792 194.45442781781276 0 0 0 0 -71.442368159201578 290.98772156643099 0 290.98772156643099 143.27286552503938 0 0 0 0 -95.104789454715501 303.0731884627603 0 303.0731884627603 159.09986379834299 0 0 0 0 -99.08585970938293 334.8923232138186 0 334.8923232138186 100.83568410898442 0 0 0 0 -160.62684458679723 313.94465824442159 0 313.94465824442159 198.45415007686825 0 0 0 0 -115.88796347004245 264.64261698270275 0 264.64261698270275 153.45699479613177 0 0 0 0 -120.44378489649898 305.18310847403882 0 305.18310847403882 226.60340746896691 0 0 0 0 -131.51923090478522 223.22019644960528 0 223.22019644960528 308.71567907743156 0 0 0 0 -124.00083943625214 214.74160715598555 0 214.74160715598555 286.53069474919175 0 0 0 0 -81.927440525148995 201.21298799272336 0 201.21298799272336 260.7059521869669 0 0 0 0 -64.019226184580475 168.39256761457364 0 168.39256761457364 288.64875490270788 0 0 0 0 -68.822469559134333 110.20430250243226 0 110.20430250243226 433.205529895582 0 0 0 0 0.045265590255439747 117.27190875914675 0 117.27190875914675 255.99456950646709 0 0 0 0 11.624621261813445 138.82311461819336 0 138.82311461819336 246.76429256836127 0 0 0 0 -39.668585419494775 194.04155407648068 0 194.04155407648068 235.31500815726758 0 0 0 0 -95.319243987854861 246.68229916970449 0 246.68229916970449 231.39942146118847 0 0 0 0 -68.279947290120617 229.24903129882887 0 229.24903129882887 207.52082996472018 0 0 0 0 -48.89766626668461 225.14453481393139 0 225.14453481393139 193.59708174914704 0 0 0 0 -10.978869897444383 180.63818094779708 0 180.63818094779708 191.4935281847429 0 0 0 0 -14.992233361524995 139.98380714024825 0 139.98380714024825 206.45006228638522 0 0 0 0 -12.370568492355233 152.51134720617847 0 152.51134720617847 260.51237333801691 0 0 0 0 -27.28942460759572 176.46035813978233 0 176.46035813978233 228.75364570319653 0 0 0 0 -13.236101760237943 179.51498062891187 0 179.51498062891187 211.87399355767411 0 0 0 0 46.510106022120453 149.9350408144528 0 149.9350408144528 224.4566558546212 0 0 0 0 -26.41448679691166 154.6069734066914 0 154.6069734066914 243.97670040375669 0 0 0 0 45.515515849897383 144.48579306426291 0 144.48579306426291 209.1282824248774 0 0 0 0 113.69329820829444 119.02570062695304 0 119.02570062695304 218.32225119460782 0 0 0 0 117.13703034759965 190.85860042716376 0 190.85860042716376 238.98062872892478 0 0 0 0 7.0096663258555054 168.9971833817981 0 168.9971833817981 327.19600205408642 0 0 0 0 -24.314753479440697 110.14745476093231 0 110.14745476093231 229.54205603999435 0 0 0 0 37.069212428898027 151.30611084297561 0 151.30611084297561 257.53309750830522 0 0 0 0 -30.494360656739445 140.69453506836726 0 140.69453506836726 442.53960012601601 0 0 0 0 -79.096896150862449 47.95337995250884 0 47.95337995250884 311.86950356191846 0 0 0 0 -18.338769993759342 83.224708405836282 0 83.224708405836282 188.71476736618206 0 0 0 0 -17.408197228120116 96.06865493368241 0 96.06865493368241 251.71051569530391 0 0 0 0 -10.980223863989522 137.98613403880881 0 137.98613403880881 205.5711099194159 0 0 0 0 8.1097868198121432 20.067306685377844 0 20.067306685377844 -53.998711970518343 0 0 0 0 -18.223083052078437 -12.104402400887921 0 -12.104402400887921 176.23182222645846 0 0 0 0 -78.80653302596329 11.57247608040052 0 11.57247608040052 114.11833418929018 0 0 0 0 56.311847729681176 119.53101590268489 0 119.53101590268489 170.35001196429948 0 0 0 0 122.91679317009402 86.574564135968103 0 86.574564135968103 95.036793723382289 0 0 0 0 169.68704455587431 196.04795297885721 0 196.04795297885721 173.53988270551781 0 0 0 0 139.71604458121874 50.963522646037745 0 50.963522646037745 157.64596658552182 0 0 0 0 159.3219873788621 158.84233038996172 0 158.84233038996172 124.60087687676423 0 0 0 0 89.13334555325855 162.79572919264319 0 162.79572919264319 91.705995875032386 0 0 0 0 129.02509455251857 114.17651343138277 0 114.17651343138277 136.06688052424579 0 0 0 0 128.20242647519626 115.06830722400628 0 115.06830722400628 137.8811411747738 0 0 0 0 109.86668359540636 156.73156762080907 0 156.73156762080907 197.42637341746013 0 0 0 0 123.88659761562303 198.24170083898935 0 198.24170083898935 244.54377330720308 0 0 0 0 112.06023859888228 265.02941707388527 0 265.02941707388527 384.95601625274867 0 0 0 0 162.28393115622748 110.7545419747039 0 110.7545419747039 516.08311156980926 0 0 0 0 258.96465066482779 385.44946618267568 0 385.44946618267568 711.57794790675689 0 0 0 0 257.1959963270856 163.53506197479874 0 163.53506197479874 253.46626160977758 0 0 0 0 271.07070810026926 93.181836585972633 0 93.181836585972633 227.21853968891082 0 0 0 0 70.615392991501722 86.296419821475865 0 86.296419821475865 242.55121135659283 0 0 0 0 106.8042250109429 154.53194278948649 0 154.53194278948649 385.86194239914767 0 0 0 0 258.97813283286814 175.60340924924822 0 175.60340924924822 327.15173554819194 0 0 0 0 124.50843589303258 0.017177282250486314 0 0.017177282250486314 229.078205602651 0 0 0 0 -297.14670518191997 1.3471124405623414 0 1.3471124405623414 293.7433311190689 0 0 0 0 -129.00447791639453 41.567786655150485 0 41.567786655150485 286.20377522625495 0 0 0 0 566.27503221809457 642.39343268948141 0 642.39343268948141 256.01035659492481 0 0 0 0 342.61003188104951 794.95340897582355 0 794.95340897582355 574.80954315225244 0 0 0 0 -1017.4105850817577 696.4701114166528 0 696.4701114166528 1292.0413561697642 0 0 0 0 -287.64569892113286 -254.77903135386441 0 -254.77903135386441 -21.49137060099747 0 0 0 0 407.700656068424 36.375937783392146 0 36.375937783392146 85.354630754853133 0 0 0 0 1642.1212546595343 498.97069536100025 0 498.97069536100025 -636.36914134581457 0 0 0 0 305.98067124279623 365.28155534763937 0 365.28155534763937 644.42596986223361 0 0 0 0 348.28143908857601 858.60510617891123 0 858.60510617891123 1054.2334360962268 0 0 0 0 454.700951616167 465.19574117424327 0 465.19574117424327 525.15751716855448 0 0 0 0 8.6840162334688102 5.3066327633086985 0 5.3066327633086985 -6.7286113784177815 0 0 0 0 376.84504370462673 69.519303879525978 0 69.519303879525978 -245.36272205526075 0 0 0 0 -6.8118427571098437 45.294159382152429 0 45.294159382152429 -15.971351164684165 0 0 0 0 12.618910368975776 -61.500825836887088 0 -61.500825836887088 198.99428193953645 0 0 0 0 -18.254398992187134 33.077298164292415 0 33.077298164292415 -10.83145030525327 0 0 0 0 390.33229499428126 475.44270473072538 0 475.44270473072538 626.38559489305771 0 0 0 0 -4.5432102481566972 3.668540561723205 0 3.668540561723205 7.8377443921842769 0 0 0 0 15.9619025427819 143.66557135295261 0 143.66557135295261 -24.743103596942092 0 0 0 0 -18.442192539405369 57.044491346281575 0 57.044491346281575 21.277330120952684 0 0 0 0 -26.145206143445222 45.332780659745822 0 45.332780659745822 -17.300253810022994 0 0 0 0 42.542289566939871 100.99593257843662 0 100.99593257843662 -19.318635344814538 0 0 0 0 -9.719404643154121 21.242037018731935 0 21.242037018731935 86.324950146547053 0 0 0 0 -17.167678683976249 36.853608574678162 0 36.853608574678162 -24.859311643557135 0 0 0 0 1.05053177109221 38.33476114628138 0 38.33476114628138 12.729238328523934 0 0 0 0 18.360089528898243 80.104131791944383 0 80.104131791944383 -9.4603254088433459 0 0 0 0 1.0819249437772669 33.01824636105448 0 33.01824636105448 -118.74047562282067 0 0 0 0 -12.930040261253311 87.088685263112495 0 87.088685263112495 -80.624899775383312 0 0 0 0 1.0796497362316586 36.647535050462466 0 36.647535050462466 5.99400537495967 0 0 0 0 4.9832700488306045 51.482473817870584 0 51.482473817870584 -17.135690544738054 0 0 0 0 8.6296981370045387 80.57478817478335 0 80.57478817478335 -10.00674755387962 0 0 0 0 2.2438010427338213 11.868379161926555 0 11.868379161926555 -31.13866900209382 0 0 0 0 198.27837357821409 439.61597182045807 0 439.61597182045807 150.68320696835872 0 0 0 0 -4.1757947433216032 288.31120864411059 0 288.31120864411059 220.89369999882183 0 0 0 0 -21.983276542800013 47.247165288499673 0 47.247165288499673 191.41457725473447 0 0 0 0 -11.558643664197746 31.340730676131841 0 31.340730676131841 -3.7131904323826603 0 0 0 0 1.5381266006043006 42.83129168974483 0 42.83129168974483 12.89308023826743 0 0 0 0 -11.512983517408429 42.677277505619713 0 42.677277505619713 50.59594121533155 0 0 0 0 -22.564984656382876 49.373170503866277 0 49.373170503866277 28.439652222186851 0 0 0 0 -18.990268244305042 33.361939986095393 0 33.361939986095393 -18.307490197323744 0 0 0 0 -103.88846061067306 113.08964616181038 0 113.08964616181038 181.43170563871536 0 0 0 0 -61.728033008857892 29.677838214836811 0 29.677838214836811 110.80348808679264 0 0 0 0 -94.177824446909653 -29.187326925744856 0 -29.187326925744856 -1.6232766854227521 0 0 0 0 -9.665023149078479 30.696970027944189 0 30.696970027944189 117.33104002368782 0 0 0 0 46.073983383506857 63.870144070719107 0 63.870144070719107 9.8302218698663637 0 0 0 0 45.460366596547829 96.708199746230093 0 96.708199746230093 74.03862445611594 0 0 0 0 -8.0424605669409459 16.638616652578037 0 16.638616652578037 5.8677690537598721 0 0 0 0 48.824819209723501 123.33851107265946 0 123.33851107265946 68.56350478307013 0 0 0 0 -10.279152911287383 50.594823054241715 0 50.594823054241715 53.843627153051784 0 0 0 0 -3.0176838244221642 33.943317373257486 0 33.943317373257486 -15.449440600413681 0 0 0 0 -5.3877849860186302 31.178656474613831 0 31.178656474613831 -1.6510935366348534 0 0 0 0 -20.575383360593534 18.899364393767883 0 18.899364393767883 99.962740972604792 0 0 0 0 20.666816156561254 91.571608125384955 0 91.571608125384955 58.741390691684501 0 0 0 0 -99.952068155747838 263.76130047457991 0 263.76130047457991 210.57186351087876 0 0 0 0 0.3928987220547242 62.82188626890391 0 62.82188626890391 -28.307495464116329 0 0 0 0 22.033800094010076 104.57551644928753 0 104.57551644928753 330.56677299627336 0 0 0 0 0.88850519690080887 7.5088553078446694 0 7.5088553078446694 7.9494293932435909 0 0 0 0 9.3445654703391483 99.166903750730853 0 99.166903750730853 71.450775214834721 0 0 0 0 42.474889577120848 98.523575440068271 0 98.523575440068271 59.388107434788253 0 0 0 0 14.510284609041264 101.01785583212586 0 101.01785583212586 71.555449412611779 0 0 0 0 18.708876297714596 111.02777986344881 0 111.02777986344881 66.067013469393714 0 0 0 0 17.525037490337127 107.3465898168397 0 107.3465898168397 65.142960805707844 0 0 0 0 -0.36989897929015569 109.14335224697425 0 109.14335224697425 69.903988659636525 0 0 0 0 0.90049909590015886 103.00054653979896 0 103.00054653979896 85.927995591919171 0 0 0 0 3.498394296184415 119.86308312966139 0 119.86308312966139 25.158545419690199 0 0 0 0 -44.465514287284776 37.816361430089856 0 37.816361430089856 -22.060523290174729 0 0 0 0 -2.7269614943797933 93.793720446814405 0 93.793720446814405 78.537949380232021 0 0 0 0 -9.4790947479923489 118.18003668438905 0 118.18003668438905 73.48050078047163 0 0 0 0 -14.699064967964659 79.414691940131888 0 79.414691940131888 193.65398051372904 0 0 0 0 1.6889236423832301 9.8770773958761851 0 9.8770773958761851 -3.477298280630599 0 0 0 0 5.0978905589292367 65.475170502673421 0 65.475170502673421 41.064923820090371 0 0 0 0 0.96797834325116128 97.189931089196762 0 97.189931089196762 67.442946451141324 0 0 0 0 -3.3707563472089532 91.752907243098889 0 91.752907243098889 72.355547644678154 0 0 0 0 4.9114218839458772 96.231591354578995 0 96.231591354578995 71.394111784851702 0 0 0 0 1.5419361156891682 99.140645404200768 0 99.140645404200768 73.982319829963672 0 0 0 0 2.3650698034293924 62.844218249840964 0 62.844218249840964 -13.984349674929405 0 0 0 0 83.619033203212894 41.689716753884568 0 41.689716753884568 161.64703619603824 0 0 0 0 -115.28373202185321 -51.19820538656495 0 -51.19820538656495 333.12804303254234 0 0 0 0 97.122922512753576 113.87626934550644 0 113.87626934550644 12.298768987820949 0 0 0 0 4.6323653857876081 0.43207262567563021 0 0.43207262567563021 -16.456998381192307 0 0 0 0 -9.6563591432350222 -65.102860797400353 0 -65.102860797400353 606.84186154803319 0 0 0 0 25.209665781105286 234.6978863047334 0 234.6978863047334 245.90953730435285 0 0 0 0 -45.04358362822677 145.50292796760914 0 145.50292796760914 437.62903207261843 0 0 0 0 11.71087327879286 21.877257438073229 0 21.877257438073229 104.18088310930762 0 0 0 0 4.9675744082321103 2.030225154921709 0 2.030225154921709 17.313150051471553 0 0 0 0 -103.26500184645556 46.649313460220583 0 46.649313460220583 388.8676169925966 0 0 0 0 -170.47963243715685 -102.27997930223319 0 -102.27997930223319 -92.947972877154825 0 0 0 0 42.445249657797831 12.201298659056192 0 12.201298659056192 10.73108046836569 0 0 0 0 -205.12046586883662 192.21869707750739 0 192.21869707750739 -54.162887462531216 0 0 0 0 -0.43282687572863665 0.64937011631386099 0 0.64937011631386099 -3.9419180265230693 0 0 0 0 143.927524851817 95.673738054688329 0 95.673738054688329 25.25369140310795 0 0 0 0 109.46370885854776 21.802405809539778 0 21.802405809539778 -106.03985701066267 0 0 0 0 55.833669862346142 128.43894209781138 0 128.43894209781138 109.14381158031756 0 0 0 0 52.089370237328694 135.2487750811124 0 135.2487750811124 99.396138567535672 0 0 0 0 41.2779119734696 192.96382304614235 0 192.96382304614235 47.477715569373686 0 0 0 0 33.710808567862841 194.33128932429827 0 194.33128932429827 134.89419984840788 0 0 0 0 -7.2110618961851287 184.8048353146296 0 184.8048353146296 160.54752190777799 0 0 0 0 4.0698337916910532 134.90905783168273 0 134.90905783168273 161.71431175852149 0 0 0 0 53.539030910316797 104.73593219311442 0 104.73593219311442 138.60899533276097 0 0 0 0 15.650853013248707 76.349301325361012 0 76.349301325361012 122.42858293478639 0 0 0 0 13.5428333777636 132.97351483343664 0 132.97351483343664 122.86320049432106 0 0 0 0 -3.0923070136381341 9.4216089747326066 0 9.4216089747326066 -0.75651149139594054 0 0 0 0 -68.715985929535236 -15.391009613704227 0 -15.391009613704227 12.424186525805453 0 0 0 0 50.856571241340134 125.14702086491889 0 125.14702086491889 110.90486014567432 0 0 0 0 
</DataArray>
<DataArray type="Float64" Name="cross_section_updated" format="ascii">
1 1 1 1 1 1 1 1 1 1 1 1 1 1 1 1 1 1 1 1 1 1 1 1 1 1 0.0094265257640974986 1 1 1 1 0.0092282663868798742 -2.4609489793214756e-09 1 1 0.0080092889865020188 0.013784075457774145 1 1 1 0.0050689451621638883 1 0.0041223378074431664 1 1 1 1 1 1 0.010156979569146558 1 0.010988590190726864 1 1 1 1 1 1 0.011827143008614913 1 1 1 0.010725443981293763 1 1 1 1 1 1 1 1 1 1 1 1 1 1 0.010129964030960018 1 1 0.010240170716167542 1 1 1 1 1 1 1 1 1 1 1 1 1 1 1 1 1 1 1 0.0029819273083864402 1 1 1 0.010142733653145615 1 0.0052638611833973146 0.014103409790493203 0.0039912847129041987 1 0.012815544794644087 1 1 1 1 1 0.0029711670264410388 1 0.0035491868170854056 1 1 1 1 1 1 1 1 1 0.0013510310063469446 1 1 1 1 1 1 1 1 0.00038317742230182129 1 1 1 -1.1263323284466109e-08 1 1 1 1 1 1 1 2.5763540988099631e-09 1 1 0.0056211850677396116 0.015144817475387096 0.018267205819436475 1 1 1 1 0.016035308543927408 1 1 1 1 1 1 1 1 1.2211344799922808e-09 0.0095326041194787534 1 1 1 1 0.012812786033625415 1 0.0072347108786896507 0.0040099029297446746 1 1 1 1 1 1 0.001075990390535627 1 1 1 1 1 0.0022634978602434491 1 1 0.011675029346121751 1 1 1 1 1 1 1 1 1 0.010461783116522237 1 1 1 1 1 1 1 1 1 1 1 1 1 1 1 1 1 1 1 1 1 1 1 1 1 0.010678074594474958 1 1 1 1 0.011825011361467491 1 1 1 1 1 1 1 1 1 1 1 1 1 1 1 1 1 1 1 1 1 0.017415222167335737 1 1 0.00017550605575830831 1 1 1 1 1 1 1 1 1 0.0099134144551577194 1 1 1 1 1 1 1 1 1 1 1 1 1 1 1 1 1 1 1 1 1 1 0.010606486787065826 1 1 1 1 0.011970980939899172 1 1 1 1 1 0.01430233249575754 1 1 1 1 1 1 1 1 0.014640684813750506 1 0.014628813181468588 1 1 1 1 1 1 1 1 1 1 1 1 1 1 1 1 1 1 1 1 1 1 1 1 1 1 1 1 1 0.0082409629429524654 1 1 1 1 0.0093673757703932221 0.010368378560630651 1 1 0.0084986477501030385 1 1 1 1 1 0.010706848632827191 0.0093021927369715263 0.0079903387859098229 0.0096555760174502001 1 1 1 1 1 1 1 1 1 1 1 1 1 1 1 0.0054820575099703284 1 1 1 1 1 1 1 1 1 1 1 1 1 1 1 1 1 1 1 1 1 1 1 0.008675461087955267 1 1 1 1 0.013861037431775136 0.0061041555871902183 1 1 1 0.010060566500291551 1 1 1 1 0.0099563631738750005 1 1 1 1 1 1 1 1 1 1 0.01304767518197876 1 1 1 1 1 0.011274608549749876 1 1 1 1 1 1 1 1 1 1 0.0084545805935367976 1 1 1 1 0.0048899837692545339 1 1 0.013954923753705648 1 1 0.012354952073888023 1 1 0.0029595203403078967 1 1 1 0.010023567910216835 1 0.0039357098860817938 1 1 1 1 1 1 1 1 1 1 1 0.011423540240652577 1 1 1 1 1 1 1 1 1 1 1 1 1 1 1 1 1 1 1 1 1 1 0.012185570359918581 1 1 1 1 1 1 0.0076447703536576522 1 1 1 0.0031145185646911065 1 1 0.020991382143827064 1 0.019968296644185861 1 0.012360244097872661 1 1 0.009228405300604467 1 1 1 1 1 1 1 0.01369859574375213 1 0.015409968302350908 1 1 1 1 1 0.016069528248643453 1 1 0.012507485674233675 1 0.017243918562877644 1 1 1 1 0.0024159376735609465 1 1 1 1 1 1 1 1 1 1 1 0.011291414223167415 1 1 1 1 1 1 0.0089230690555372177 1 1 1 0.0055024497443241678 1 1 0.0073364815533590207 1 1 1 1 1 1 1 1 1 1 1 1 1 0.0084156329754508739 1 1 1 1 1 1 1 1 0.0093595796349297943 1 1 1 1 0.0030607267010558849 1 1 1 1 1 1 1 1 0.011642891444950731 1 1 1 0.011818550731018122 1 1 0.008469969982859751 1 1 0.010447408844051676 1 1 1 1 1 1 1 1 1 1 1 1 1 1 1 1 1 0.0097198980330531464 1 1 1 1 1 1 0.0093436646856127972 1 1 1 1 1 0.0094280608161348128 1 1 1 1 1 1 1 1 1 1 0.0092775351011100231 1 1 1 1 1 1 1 1 1 1 1 0.0096537684485503948 1 1 1 1 1 1 1 1 1 1 1 1 1 1 1 1 1 1 1 0.0098961770688362968 1 1 1 1 1 1 1 1 1 1 1 1 1 1 0.010389753350798751 1 1 1 1 0.0098686025496890189 1 1 1 1 1 0.0083280770006993604 1 1 1 1 1 0.0072900505979291499 1 1 0.0059039948206356455 1 1 1 1 1 1 0.0016822181851320773 1 1 1 1 1 1 1 0.0065717080444518301 1 1 1 1 0.0095841333504454763 1 0.010008602349897609 1 0.0055860743995612867 0.0074194506269153956 1 0.010148314244138479 1 1 1 5.730545585268601e-05 1 1 1 1 3.7551990718365236e-09 1 1 1 1 1 1 0.00039661496701216825 1 1 1 1 0.010431546619325618 1 1 0.010413286653332986 1 1 1 0.010231681175708843 1 1 1 0.010073411142591054 1 1 1 1 1 1 0.010263799258381685 1 1 1 1 1 1 1 1 1 1 1 1 0.001148219542969663 1 1 0.010852997407889736 1 1 1 0.011425367475514044 1 0.0099815864178328106 1 1 1 0.0099199864937826662 1 0.0080388153543931098 1 1 1 0.01003845449291247 1 0.010593594436445364 1 0.0022394212065290648 0.0071990222131220333 1 1 1 1 0.010487911988546955 1 1 1 1 1 1 1 0.01019554064241298 1 1 1 1 1 1 1 1 1 1 0.01068638778968062 1 1 1 1 1 1 1 1 1 1 1 0.010450978774494791 1 1 1 1 1 1 0.011399210865021089 1 1 1 0.010337360375461374 1 1 1 0.012304252861150496 1 1 1 1 0.0042522657413177701 1 1 1 1 1 1 1 1 1 1 1 1 0.0051232017721724084 1 1 1 1 1 1 1 1 0.0056699043731431292 1 1 1 1 1 1 1 1 0.0094617763342194142 1 1 0.0060790914247492202 1 1 1 1 1 1 1 0.0090962118354211072 1 1 1 0.0082734272374999918 1 1 0.010395113465059436 1 1 1 1 1 0.010608543442354491 1 0.0097387704394577661 1 1 1 1 1 1 1 1 1 1 1 0.0097939611555229386 1 1 1 1 0.010349027414219248 1 1 1 1 1 1 1 1 1 1 0.0077776108113866956 1 1 1 1 1 1 1 1 1 1 1 1 1 1 1 1 1 1 0.0056178141836630419 0.0097912938510620676 1 1 1 1 1 1 1 1 0.0099187691486654298 1 1 0.002246399641036196 1 1 1 1 1 1 1 1 0.010352596313597716 1 1 1 1 1 1 1 1 1 1 1 1 1 1 1 1 1 1 1 1 0.027512800864537397 1 1 1 0.029759842057553672 1 1 1 1 1 1 1 1 1 1 6.5203288867728137e-05 1 1 1 1 0.031808551994765157 1 1 1 1 1 1 1 0.009278863213625763 1 1 1 1 0.0079496873869717034 1 0.028571197227655845 1 1 1 0.027528828541141574 0.021505241494676901 1 0.011909766048354069 0.010061275430792533 1 1 3.1581951186188117e-09 1 1 1 1 1 4.0576242499939033e-05 1 1 1 1 1 1 1 1 1 1 1 1 1 0.009278226166334903 1 0.011159857931929392 1 1 0.0080024131293252327 1 1 0.013464123911422925 1 1 1 1 1 0.028585146316121045 1 1 1 1 1 1 1 1 1 1 1 1 1 0.026887386743834611 1 1 1 0.024948250542745524 1 1 1 1 1 0.023354110236530636 1 1 1 1 1 1 1 0.00082728843834711276 1 1 1 1 1 1 1 1 1 1 1 1 1 1 1 1 1 1 1 1 1 1 1 1 1 1 1 1 1 1 1 1 1 1 1 1 1 1 1 1 1 1 1 1 1 1 1 1 1 1 1 1 1 1 1 1 1 1 1 1 1 1 1 1 1 1 1 1 1 1 1 1 1 1 1 1 1 1 1 0.0099593370266650022 1 1 1 0.0079230253047969761 0.022161098032423561 1 1 1 1 1 1 1 1 1 1 1 1 1 1 1 1 1 1 1 1 1 1 1 1 1 1 1 1 1 1 1 1 1 1 1 1 0.020394821498557082 1 1 0.018300921891107789 1 1 1 1 1 1 1 1 1 1 1 1 1 1 1 1 1 1 0.0091489589641681086 1 1 1 1 1 1 1 1 0.011100324294672882 1 1 1 1 1 1 0.010443733088606678 1 1 1 1 1 1 1 1 1 1 1 1 1 1 0.010018238270164799 1 1 1 1 1 1 1 1 1 1 1 1 1 1 1 1 1 1 1 1 1 1 1 1 1 1 1 0.010257028576304283 1 1 1 1 1 1 1 1 0.0085773845759739495 1 1 1 0.0094480692836926439 1 1 1 1 1 1 1 1 1 1 1 1 1 1 1 1 1 1 1 0.0070136617780837858 1 1 1 1 0.0057118965392291138 1 1 1 1 1 1 1 0.0089008586639246958 1 1 1 0.011648614363838319 1 1 1 1 1 1 1 1 1 1 1 1 1 1 0.014518301502211704 1 1 0.0099996178967718275 1 0.011452083582134351 1 0.0063946806509043025 1 0.0070951051248668365 1 0.009220279597265027 1 1 1 1 1 1 1 0.011319035687033119 1 1 1 1 1 1 1 0.013430511702196416 1 1 1 1 0.010149453743478306 1 1 1 1 0.012214631942220815 1 1 0.010009853422301797 1 1 1 1 1 1 1 1 0.01012392609223302 1 1 1 1 1 1 1 0.010346128801081059 1 1 1 0.010470346542264093 1 1 0.013021366441942159 1 1 1 1 1 1 1 1 1 1 1 0.014919772879849967 0.01188900920066978 1 0.0095175858172991245 1 1 1 1 0.0040381941253452699 1 1 1 1 0.0086964763519392606 1 1 0.0059762017356467505 1 1 0.0087394522235766797 1 0.0067659809502091869 1 0.011610810907644003 1 1 1 0.006492491080371662 1 1 1 1 1 1 1 0.0079656629823626791 1 1 1 1 1 1 1 1 1 1 1 1 1 1 1 1 1 1 1 1 0.0076342994393809489 0.010191235028829387 1 1 1 1 1 0.01612374221853994 0.013374441126120379 1 0.0064602835128463702 1 1 1 1 0.0088922015590352666 1 0.010000313122025158 0.016137803126614815 1 1 1 0.010046680056199691 1 1 1 1 0.016003012015898314 0.0058949908309531753 1 1 1 0.010583874613479542 1 0.01019967241323559 1 1 1 1 0.0099024412915231005 1 1 1 1 1 1 1 1 1 1 1 1 0.0095844651819774838 1 1 0.010001889376758565 1 1 0.0086594177846939704 1 0.011415867774472579 1 1 1 0.015087890006359661 1 1 1 1 1 1 0.0014153876747864166 1 0.011375455358121823 1 1 0.0082848736039676119 1 1 0.014430929515559859 0.0060953099272471195 1 1 0.004825144920396103 1 0.0037140161524376325 1 1 1 0.016020508786142293 1 1 1 1 0.0068034546112409958 1 1 1 1 1 0.015640678695010797 0.0098537324238127579 1 1 1 1 1 0.014903014968304575 1 1 0.0099992203898875507 1 1 1 1 0.012553210316783449 1 1 1 1 0.011418050795517281 0.0071772713756533685 0.0066356776227935507 1 0.010696675723268125 1 1 1 0.012297866164353483 1 0.011007302708953601 1 0.011902509424470652 1 0.009938152669586052 1 1 0.010152190274642849 1 1 1 1 1 1 1 1 1 1 1 1 1 1 1 1 0.0047122044539037386 0.010164869687972014 0.012840189324274609 1 1 1 0.0057747834462515673 1 0.0074211645271672622 0.010950992284859143 1 1 1 1 1 1 1 1 1 1 1 0.010092574621427937 0.012100950550174967 1 0.0098641675749132976 1 0.0097914184958695326 1 1 1 0.010606036012732009 1 1 1 1 1 1 1 1 0.01796775996810834 1 1 1 0.0099277638796034223 1 1 1 1 0.0098320615117063123 1 1 1 1 1 1 1 1 1 0.0082702431007346134 1 1 1 1 1 0.0099918521974607377 1 0.01702150702426302 1 1 1 1 1 1 1 1 1 1 1 1 0.010766825393440762 1 1 1 1 1 1 1 1 1 1 1 1 1 1 1 1 1 1 1 1 0.0081325498433980088 1 1 0.012938830950726992 0.0097061607961250237 1 1 1 1 1 0.010124047937507413 1 1 1 1 1 1 1 1 1 1 1 1 1 1.7501016000981418e-09 1 0.0019483072963773895 1 1 1 1 1 0.010086795067723416 0.022348608647006586 1 0.0077599569363830997 1 1 1 1 1 1 1 1 1 1 1 0.0024140788055478282 1 1 0.010173984949231579 1 1 1 1 1 1 0.015076013817065109 1 1 1 1 1 1 1 1 0.011933815116565534 0.0085620750514207623 1 1 1 1 1 1 1 0.0041065919285825873 1 1 0.01093689136729712 1 3.829630740997958e-09 1 1 1 1 0.0071900806287681501 1 1 1 1 0.013400804661659882 8.7944451651611466e-09 1 1 1 1 1 1 1 1 0.0090569166251751668 0.0072507478795053593 1 1 1 1 1 1 1 1 1 1 1 1 1 1 1 1 0.010325172894841014 1 1 1 1 1 1 1 1 1 1 1 1 1 1 1 1 1 1 1 1 1 1 1 1 1 1 1 1 1 1 1 1 1 1 1 1 1 1 1 1 1 0.008805850390414989 1 1 1 1 1 0.0064473423702404581 1 1 1 1 1 1 1 0.016741700571859766 1 0.010611109465744638 0.0094145249955117846 1 0.0099931622192842191 1 1 1 1 1 1 1 1 1 0.013015888435209698 1 1 1 0.0095166156243916486 1 1 1 0.009845598943413629 1 1 1 1 1 1 1 1 1 1 1 1 1 1 1 1 1 1 1 1 1 1 1 1 1 1 1 1 1 1 1 1 1 1 1 1 1 0.010110504325216187 1 1 1 1 1 1 1 1 1 1 0.0075286756758808221 1 0.0080672127265054502 1 1 0.012366547290669043 1 1 1 0.011146818008204197 1 1 1 1 1 1 1 1 1 0.012163750009467046 1 1 0.0089139286250979367 1 1 1 0.00963257415763338 1 1 0.0076906593496440731 0.012198718486164134 0.011086168142876808 1 1 1 1 1 0.010000649822061381 0.0090337710007547221 1 1 1 1 0.01072418992461998 1 1 1 1 1 1 0.010022775013566994 1 1 1 0.01230301100581304 1 0.012106232010029042 1 0.0086522937231597874 1 1 1 1 1 1 0.0081170968370284508 0.013068134114719417 1 0.010389493345661012 0.0078587374286092429 0.010199589289976864 1 1 1 1 1 0.0063874839947189455 1 0.0099941331538655025 1 1 1 1 0.01263790867151459 1 1 0.0071992510072273457 1 1 1 1 0.0085861144744761083 1 1 1 1 1 1 1 0.013487261731215623 1 0.010044706449370305 1 1 1 1 1 1 1 1 1 1 1 1 0.009962593960431837 1 0.0091386851690382909 1 1 0.012599773549861464 1 1 1 1 0.011215220998302536 0.0099010103694520419 1 1 0.012383865697323131 1 1 1 1 1 1 1 0.0076641468779235777 1 0.007857205221588337 0.00848221569941323 1 1 1 0.0084940798879391925 1 0.011632329765314683 1 1 1 0.0077387913338001837 1 0.0077474812711820322 0.010006950141287121 1 0.0089796841301760036 0.010420506346833246 1 1 1 1 1 1 1 1 1 1 0.0099219286396911299 1 1 1 0.0095516538179995138 1 0.0099635996722197279 1 1 1 1 1 1 1 0.0097901296255700956 1 1 1 0.0098556600856973195 1 1 1 0.010068765468617256 1 1 1 1 1 1 1 1 1 1 0.010017954362473106 1 1 1 1 0.010137578132212124 1 1 1 0.010193565406059223 1 1 1 1 1 1 1 1 1 0.010576166900337455 1 0.010988565547930068 1 1 1 1 1 1 1 1 1 1 1 1 1 0.010319847970742001 1 1 1 1 1 1 1 1 1 1 1 1 1 1 1 1 1 1 1 1 1 1 1 1 1 1 0.0096645629293886249 1 1 1 1 1 0.0090196068615449512 1 1 1 1 1 1 1 1 1 1 1 1 1 1 1 0.012674016390073163 1 1 0.0099974497918281155 0.0087629042827014683 1 1 1 1 1 0.009394119922779845 1 1 1 1 1 1 0.010042729239961308 1 1 1 0.015589523249950745 0.0099502345816408974 1 1 1 1 1 1 1 1 1 1 1 0.0097691296776972678 1 1 1 1 0.0098627070031219594 0.010591651610800799 0.0089381503284665514 1 1 0.010889338512932743 1 0.011161021679452602 1 1 1 1 1 0.011635765557969011 0.012672545302526506 1 0.0084194954799932803 1 1 1 0.007534841123294285 0.011042074784776167 1 1 1 0.0097103153647436422 1 1 1 1 1 1 1 1 1 1 0.010007710618396181 1 1 1 0.0048560939348848281 1 0.0099913614934631391 0.0093668175570255363 1 1 0.0083184419862811325 1 1 1 1 0.010812433772391619 1 1 1 1 1 1 1 1 0.010394897112033275 1 1 1 1 1 1 1 0.010293680384603592 1 1 1 0.0093785395010591854 1 1 1 1 1 1 1 1 1 1 0.010590374424416807 1 1 1 0.0087864242180442156 1 1 0.010480419086658428 1 1 1 1 1 1 1 0.01054531781573307 1 0.011622035910743282 1 1 1 1 1 1 1 1 1 1 0.010486211878829218 1 1 1 0.01018372504684522 1 1 1 0.011015071667795331 1 1 1 1 1 1 1 1 1 0.0088456009049501447 1 1 1 1 1 1 1 1 1 1 1 1 1 1 1 0.010002849217259698 0.0099848716818499508 1 1 1 1 0.010792604767712384 1 0.0089381446777373405 1 0.010415193051005314 1 1 1 0.012528824068443169 0.0085598049951525479 0.0075024793956556483 1 1 1 1 1 1 1 1 1 1 1 1 0.0086122407066781051 1 1 1 1 0.007461066996833781 0.0087316927239390121 1 1 1 1 1 0.0070158668422014778 0.010383158862754748 1 1 1 1 1 0.010139520828813845 1 1 0.010133835231307051 1 1 1 1 1 1 1 1 1 0.010611754935450742 1 1 1 1 1 1 1 1 1 0.011751624107091218 1 1 1 1 1 1 0.010362952948691729 0.0092555596780553098 1 0.0093257960818211236 1 1 0.010053792200788624 1 1 0.010091224673523858 0.010003179833383186 1 1 0.0084137477391867076 0.010011308566381286 1 1 1 0.0090383832498860117 1 0.0071929733299435257 0.01009273099228928 1 1 1 0.0042837761112904035 1 1 1 1 1 1 0.00993270699738142 1 0.01214155894128021 1 1 0.0067994879915241196 0.0078661205910041318 1 1 1 1 0.0048332171182804556 1 1 1 1 0.010018493156636388 1 1 1 1 1 1 1 1 1 0.014465707244206214 1 1 1 1 1 1 1 1 1 1 1 1 1 1 1 1 1 1 1 1 0.0093183191721567873 1 1 1 0.010207959564820691 1 1 1 1 1 1 1 1 0.0079392536124376148 1 1 0.0049433693260383417 1 1 0.0080052878370356698 1 1 1 1 1 1 0.0093918774234311234 1 1 1 1 1 1 1 1 1 1 1 0.013784510708224874 1 1 1 1 1 1 0.0082292547457676543 1 1 1 0.011384076219995546 1 1 1 1 1 1 1 1 1 1 1 1 0.012285988180334738 1 1 0.0099965801021979009 1 1 1 1 1 0.0077848407833359043 1 1 1 1 1 1 1 1 1 1 1 1 1 1 1 1 1 1 1 1 1 0.010998818403735146 1 1 1 1 1 1 1 1 1 1 1 1 1 1 1 0.012240383128075107 1 1 0.011603876848522768 1 1 1 1 1 1 1 0.011993802802279217 1 1 1 1 0.010631818921116079 1 1 1 1 1 1 1 1 1 0.013050023075429976 1 1 1 1 1 1 1 1 1 1 1 1 0.010044028094925508 1 8.7973905706037817e-05 1 0.015638726002609932 1 0.014202585750687445 1 1 1 1 1 1 1 1 -4.7761892878195322e-10 1 1 1 1 1 1 1 1 1 1 1 1 6.0691320719064024e-10 1 1 1 0.013556427828467268 1 1 0.016351826480816959 1 1 0.014402786769914832 1 1 0.010108852928953549 1 1 1 1 1 1 1 1 1 1 1 1 1 1 0.0093874960877543441 1 0.010391063027785471 1 0.015051089353426748 1 1 1 1 0.013681008786148372 1 1 0.0095384470754606883 1 1 1 1 1 0.013169470462198744 1 1 0.014308503553617173 1 1 1 1 0.0089408545095208541 1 1 1 1 0.0033545099170002712 0.012913042760567603 1 1 1 1 1 1 1 1 0.0070348151522740682 0.014025415381523874 1 1 1 1 0.0041523270765447262 1 1 0.013092442729328926 1 0.010751600961569675 1 1 1 0.0087783092054323063 1 1 1 1 0.010039496973180963 0.014607788483883447 1 1 1 0.0083926776095983435 1 1 1 1 1 1 1 1 1 1 1 1 1 1 0.0086343978733681211 1 1 0.0080025771246269514 1 1 0.0095355322914650008 1 1 1 1 0.0052505043379946961 1 1 1 1 0.010004406084388854 1 1 1 1 1 1 1 1 0.0060702294955608648 1 1 1 1 1 1 0.0043728984721582934 0.011826752185600517 1 0.0027144285517684379 1 1 1 1 1 1 1 1 1 1 1 1 0.0072534241402985311 1 1 1 1 1 1 1 1 0.0091026918930373624 1 1 1 1 1 1 0.00411303245122914 1 1 0.0058469063187451542 1 1 1 1 1 1 1 1 0.0098722127995998915 1 1 1 1 1 1 1 1 1 1 1 1 1 1 1 1 1 0.0096231322142388068 1 1 1 1 1 1 1 1 1 1 1 1 1 1 1 0.0094551641444989842 0.0065108118277426297 1 1 1 1 1 1 1 1 1 1 1 1 1 1 1 1 1 1 1 1 1 1 1 1 1 1 1 1 1 1 1 1 1 0.010506032170544759 1 1 0.010148002708876898 1 0.0086589786311367586 1 1 0.015162892101233363 1 1 1 0.011662737958397453 0.011303071018915077 1 1 0.0064702164743107096 0.013463615212687867 1 1 0.0073257778402479809 1 1 0.0066367494841978181 1 0.00815083213606849 1 1 1 1 0.0051144779734288819 1 1 0.01000124710723143 0.010016953397681192 1 1 0.0069333169130512545 0.010404169849563355 1 0.0091833049955004006 1 1 0.010014559884021331 0.0099954027076169655 1 1 0.0097240391000559118 1 1 0.0095634535880129642 1 1 0.010353547835554422 1 0.010863937435085978 1 1 1 1 1 0.010085924128499867 1 0.010899277906938723 1 1 1 0.012184048204322985 1 1 0.0099953344476161263 1 0.015697081193693268 0.011821572492405936 1 1 1 0.0073376461390452161 0.009394924988505797 1 1 0.0088146410324348307 0.0095500379061127239 1 1 0.010247449133086936 1 0.010206746662088512 1 1 1 0.0081759617422045641 1 0.0095494415329091045 1 1 1 0.0098754437645393323 1 1 1 1 1 1 1 0.008917756115754516 1 0.010182691689297366 1 1 1 1 0.0085192372016268531 1 1 0.010098426183845582 1 1 1 1 1 1 1 1 1 0.016112325544719378 1 1 1 1 1 1 1 1 1 1 1 0.016808292739434415 0.01657496540183085 1 1 1 1 1 1 1 0.017011124605760725 1 1 1 1 1 1 1 1 1 1 1 1 1 1 1 1 1 1 1 1 1 0.0082273644532242646 1 0.01001990110112987 1 0.016085367551601591 1 1 1 0.0074743290552641839 1 1 1 1 1 0.010031344049485214 0.011229839027394443 1 1 0.009152800222514447 1 1 1 1 1 1 1 1 1 1 0.013904359325356162 1 1 1 1 1 0.013629428065855424 1 1 1 1 1 1 1 1 1 1 1 1 1 1 1 1 1 1 1 1 1 1 1 1 0.015322032033575812 0.011329426918380807 1 1 1 0.015421621271181411 1 1 1 1 1 1 1 1 1 1 1 0.010795046474843048 0.011951500784922364 1 1 1 1 0.0023557850088509261 0.017790156032183486 1 0.019973195642666145 1 1 1 0.0041422480275768239 1 1 1 0.014775725303749036 0.017125619472751735 1 1 0.010127511888715558 0.010536293925361866 1 1 1 1 1 1 1 1 1 1 1 1 0.01017062405496073 1 1 1 1 1 1 1 1 1 1 1 1 1 1 0.010272919359807384 1 0.011743708695537383 1 1 1 0.0091931744308930037 0.020693867110149304 1 1 1 1 1 1 1 0.010382476518421805 1 1 1 1 0.012510582428714709 0.013601115419729028 1 0.011149021461102016 1 1 0.010700750060213645 0.011843376170291369 0.012041790341025538 1 1 1 0.0099122580378214302 0.0091920506606527307 1 1 1 1 1 1 1 1 1 0.0097519184365965593 1 0.0098916097501543163 0.0097557164954083318 1 0.012023213800314902 1 1 1 1 1 0.011249771534886058 0.010712179803799623 1 1 1 0.010121268572991147 1 1 1 1 0.011848452223930776 1 1 1 1 1 1 1 1 1 1 1 1 1 1 1 1 1 0.010160998878620695 0.012701825519303288 1 1 1 0.011324731926284696 1 1 1 0.01046997085441749 1 1 1 1 1 1 1 1 1 1 1 0.010427111415343488 1 1 1 1 1 1 1 1 1 1 1 1 1 1 1 1 1 0.017132839569479263 1 1 1 1 1 1 1 1 1 1 1 1 1 1 1 1 1 0.0096890918826596714 1 1 1 1 1 1 1 1 1 1 1 1 1 0.009119419207543035 1 1 0.0098046870557472049 1 1 0.011043264268884023 1 1 1 1 1 1 1 1 1 0.010259885031914931 1 0.0099108199289963464 1 1 1 1 1 1 1 1 0.010686996447258438 1 1 1 1 1 1 1 1 1 0.013155328224962688 1 1 1 1 1 1 1 1 1 1 1 1 1 1 0.0097190703216544459 1 1 1 1 1 1 1 1 0.013723926557987622 1 1 0.01343111126233508 1 1 1 0.011314755449033133 1 1 1 0.010779391212529993 1 0.010268694783368598 0.0027444640841539532 1 1 1 0.010381736754117315 1 0.0022314196669758306 1 1 1 1 0.0099748292647948711 1 1 1 1 1 1 1 0.01191562660627548 0.0100192434776782 1 1 1 1 0.0092603416222617127 0.010707445728869341 0.0099979792565399322 1 0.010318810073882119 1 1 1 1 1 1 1 0.0097959846189171473 1 1 1 1 0.010718040579390797 1 1 1 1 1 1 1 1 1 1 1 1 1 1 1 1 1 1 1 1 1 1 1 1 1 1 1 1 1 1 0.0086683706926791899 1 1 1 1 1 1 1 1 1 1 1 1 1 1 0.0097760519517311843 1 1 1 1 0.008564215148024858 1 1 1 1 1 1 1 1 1 1 1 1 1 0.0075572566891192999 1 1 0.010244264537374429 1 1 1 1 1 1 1 1 1 1 0.010144005274424495 1 1 1 0.0069699544894293222 1 1 0.008679416345575848 1 1 1 0.011827870606245201 1 1 0.0093725263354488345 1 1 1 0.01001092854836937 1 1 0.0067528910446700095 1 1 1 1 1 1 1 1 0.0046164183079426824 1 0.0092408623828139792 1 1 1 0.010653048574731219 1 1 1 1 1 1 1 0.0083478200461023031 1 1 0.0120843727491745 1 1 0.0062116538555609252 1 1 1 1 1 1 1 1 1 1 1 1 1 1 1 1 1 1 1 1 1 1 0.0078019407716687361 1 1 0.0091409731944576203 1 1 1 0.0096501562212058245 1 1 1 1 1 0.012254550288304213 1 1 1 1 1 1 1 1 1 1 1 1 1 0.012523633789802752 1 1 1 1 1 1 1 1 1 1 0.012766777668863947 1 1 1 1 1 1 1 1 1 1 1 1 1 1 0.0099207612355163635 1 1 1 0.0094271929650727518 1 1 1 1 1 1 1 1 1 1 1 0.008956180250169983 1 1 1 1 1 0.0095313528103194503 1 1 1 1 0.0091070470795111755 1 1 1 0.009273286087066436 1 1 1 1 1 1 1 1 1 1 1 1 1 1 1 1 0.0096162301062593936 1 1 1 0.0094248274398505277 1 1 1 0.0096246001799239096 1 1 1 1 1 1 1 1 1 1 1 1 1 1 1 1 1 1 1 1 1.4012428023457701e-10 0.018407098445401275 1 1 1 1 1 1 0.0097148973692699966 0.0099671293188605854 1 0.015671874678014105 1 1 1 1 1 1 1 1 1 1 0.0034926501920624527 1 1 1 0.0058310842594633885 1 1 0.0099097028106539219 1 1 1 1 1 1 1 1 0.0084915712949235125 1 1 1 1 0.0095064317295563833 1 1 1 1 1 1 1 1 1 1 1 1 0.0068769306294232356 1 1 0.0094220191576469721 1 1 1 1 1 1 1 1 1 1 1 1 1 1 1 1 1 1 1 1 1 1 1 1 0.00968528215736187 1 1 1 1 1 1 0.0065979297644818691 1 1 1 0.010064354467796743 1 1 1 1 1 1 1 1 1 1 1 1 1 1 1 1 1 1 1 1 1 1 1 1 0.0098954870206042107 1 0.010156305033178971 1 1 1 1 1 1 1 1 1 1 1 1 1 1 0.010230117104867166 1 1 1 1 1 1 0.010141671896728969 1 1 0.011079868088829291 0.0099503199007085902 1 1 1 1 0.0095572762267258082 1 1 1 1 1 1 1 1 1 1 1 1 1 1 1 1 1 1 1 1 1 1 1 1 1 1 1 1 1 1 1 1 1 1 1 1 1 1 1 1 1 1 1 1 1 1 0.0099994328399793907 1 1 1 0.010401483282027045 1 1 1 1 1 1 0.010040875503031323 1 1 1 0.010049327713354154 1 1 1 1 1 1 1 1 1 1 1 1 1 1 0.0099665319218872547 1 1 0.0068208617236326305 1 1 0.010359839202904529 1 1 0.0065262063567114934 1 0.010393169194989652 1 1 1 0.0060956691959176551 1 0.011227547807762073 1 1 0.010941179157844004 1 1 0.010691401511296945 1 1 1 1 1 1 1 1 1 1 0.012050102312976804 1 1 1 1 0.010324575302694166 1 1 1 1 1 0.013311549302031198 1 1 0.0084650917149745319 1 0.0094918715268890105 1 1 1 1 0.015507469001792519 1 1 1 0.013307799136903452 1 1 1 1 0.010142941680831172 1 1 1 1 1 1 0.017481149815328258 1 0.0031017275994307536 1 1 1 1 1 1 0.0098631560356119072 1 1 1 1 1 1 1 1 1 1 1 1 0.0094866499601342982 1 1 0.0052046040178954228 1 1 1 1 1 1 0.0072905345827868617 1 1 1 0.0092498183232068501 1 1 1 1 0.0040443477199521754 1 1 0.01000299073938779 1 1 1 1 0.0092204949459386079 0.0091312166022464586 1 1 0.0035149592157996731 1 0.0099972750913730479 1 1 0.011013618299626779 1 1 1 1 1 0.010385452450724187 1 1 1 1 1 1 1 1 1 1 1 1 1 1 1 1 1 0.011106429085789061 1 1 1 1 1 1 1 1 1 1 1 1 1 0.0095608761349440415 1 1 1 1 1 1 0.010042179185100912 1 1 1 1 0.0096529624706538121 0.010034585452745463 1 1 1 1 1 1 1 1 1 1 1 1 1 1 1 1 1 1 1 1 1 1 0.010108989261492131 1 1 1 1 1 1 1 1 1 0.01010922546025683 1 0.011243669583666878 1 1 1 1 1 1 1 1 1 1 1 1 1 1 1 1 1 1 1 1 1 0.0076511934226222572 1 1 1 0.0059255713101532001 1 1 1 1 1 1 1 1 1 1 1 1 1 1 1 1 1 1 1 1 1 1 0.0087258819735156479 1 1 1 0.010021217273101821 0.0091253692743166019 1 1 1 1 1 1 1 1 1 0.011847987210152455 1 1 1 1 1 1 1 1 1 0.0099228134240569379 1 1 0.0096321676831779886 1 1 1 0.01107165988211966 1 0.0099765505841513009 1 1 0.010044919338138237 1 1 0.0082502337368892901 1 0.0085721030684578949 0.010272800440961641 1 1 1 1 1 1 1 1 1 1 1 1 1 0.0088467489363943455 1 1 1 1 1 0.0098262794970852101 1 1 1 1 1 0.0092893852595839627 1 0.0091768552205044908 1 0.0105057319245071 1 1 0.0098265868159238823 0.0099971500188760914 1 1 1 1 1 1 1 1 1 1 1 1 1 0.0095844019425648588 1 1 1 1 1 1 0.010247538909486558 1 1 1 1 1 1 0.010730829785376922 1 0.012002332187055497 1 1 1 1 1 0.013180167569589717 1 0.0089296952157043967 0.0093992848150976898 1 1 1 1 0.010390739205853003 1 1 0.012326370449432711 0.011089100011239464 1 1 1 1 0.0082991406247622003 1 0.0080161513621362472 0.0096085965654055545 1 1 0.006847273232922696 0.0098848548670502686 1 1 1 1 1 1 1 0.012222604081952592 1 1 0.01006178581901079 1 0.010193695470121016 1 1 1 0.0065333621541052503 1 1 1 1 1 0.0080982577396468171 1 0.012471132260471005 1 1 1 0.0096222083153201209 0.010945617009163723 1 1 1 1 0.010106300393740272 0.011747355735792581 1 1 1 1 1 1 1 1 0.011208955510295575 1 1 1 1 1 1 1 1 0.010215289655232402 0.0099978878007950193 1 1 1 1 1 1 1 1 1 1 0.010903651889378274 1 1 1 1 1 1 0.010354985327529891 1 1 1 1 1 1 1 1 1 1 0.010710020990343455 1 1 0.010264442345480301 1 1 1 1 1 1 1 1 1 1 1 1 1 1 1 0.0096517977110324536 1 1 1 1 0.0091963595857313934 1 1 0.0099930345988695889 1 1 1 1 1 1 1 1 1 0.013303970832674684 1 0.012989179443497501 1 1 1 1 1 1 1 1 1 1 1 1 1 1 1 1 1 1 1 0.013694589398852503 1 1 1 1 1 1 0.015169225115525389 1 1 1 0.010373255313809558 1 1 1 1 1 1 0.010058111629196197 1 1 1 1 0.020184811497844263 1 1 1 0.018925031836027447 1 1 0.0099896687299969502 0.010126138951750654 1 1 1 0.0084136167852437316 1 1 1 1 1 1 1 1 1 1 0.012075240310483095 1 1 1 1 0.013221118160990314 1 0.010707830577267216 0.014481462436144068 1 1 1 1 1 1 1 1 1 0.0099748397585050306 1 1 1 1 1 1 1 0.01292675949873542 1 0.011530330865574544 1 1 1 1 1 1 1 0.010437401327894596 1 1 0.0084510247266296398 1 1 1 1 1 1 1 0.0088724323151200182 1 1 1 0.0094948203966768938 1 1 1 1 1 1 1 1 1 1 1 1 1 1 0.0099617996813344978 1 1 1 1 1 1 1 0.020144377998998791 1 1 1 1 0.0098972863363882731 0.020299878049990241 1 0.012209668890496834 1 0.010737230638936895 1 1 0.012765629338417931 1 1 1 0.010261257009695197 1 1 1 1 1 1 1 1 0.0072189109785664243 1 0.0097367370002850936 1 0.007532874468225835 1 1 1 1 1 0.021698959456622622 0.014731845070524184 1 1 1 1 1 1 0.020348230546198651 1 0.009755356843063976 1 1 1 1 1 1 1 1 1 1 1 1 1 1 1 1 1 1 1 1 0.0099761643154304969 1 1 1 1 1 1 0.0093838582987869536 1 1 1 1 1 1 1 1 1 1 1 1 1 1 1 1 1 1 1 0.0087519553082066309 1 1 0.009604789113708748 1 1 1 1 1 0.010147266656324663 1 0.0098857425618584308 1 0.010545792922258278 1 1 1 1 1 1 1 0.010232494505334443 1 1 1 0.0080735406457324264 0.022301960104282949 1 1 1 0.01004031440874054 1 0.004141080919606876 1 1 1 1 1 1 1 1 0.019358832495331893 0.013188710010423162 1 1 1 0.0066551650459933951 1 1 1 0.0094030793613553224 1 0.022904548687073714 0.015719868043213271 0.010002305994542224 1 1 0.013096278011339099 1 1 0.0090788221031016005 1 1 1 0.0096689869581080262 1 1 1 1 0.013106227185027132 1 1 1 1 1 1 1 1 1 0.011712514536371992 1 1 1 1 1 0.024136547791241414 1 1 1 1 1 0.021874897418863219 1 1 1 1 1 1 1 1 1 1 1 1 1 1 1 1 1 1 1 1 1 1 1 1 1 1 1 1 1 1 1 1 1 1 1 1 1 1 1 1 1 1 0.0050907331751327157 1 1 1 1 1 1 1 1 1 1 0.0078376595263709211 1 1 1 1 0.0092709548540458563 1 1 1 1 1 1 1 1 1 1 1 1 1 1 0.010690894168272923 1 1 1 0.010323861453867862 1 1 1 1 1 1 1 1 1 0.009926732504732444 1 1 1 1 1 1 0.010042092963169928 1 1 1 1 1 1 1 1 1 1 1 0.010539003206988456 1 1 1 1 0.010865102179160846 1 1 1 1 1 1 1 0.010441459430609873 1 1 1 1 1 1 1 0.0067291786174761429 1 1 1 1 0.0076967907320438025 1 1 0.0067766070443085521 1 1 1 1 1 1 1 1 1 1 1 0.011652134849688616 1 1 1 0.010119746665697232 1 1 1 0.010115382689012456 5.3736993771858615e-10 1 1 1 0.0095354366471032924 1 1 1 1 1 1 1 0.0090512721875886729 1 1 0.0066452352516388558 0.019311538262223604 1 1 1 1 1 0.012483242475783944 0.01227278056466603 1 0.01547187851178859 1 1 1 1 1 1 1 1 1 1 1 1 1 1 1 1 0.00011921450492079905 1 1 1 1 1 1 0.010822571436798527 0.024576128684906329 1 1 1 1 1 1 1 0.021868028051185609 1 4.182470793312465e-09 1 1 0.016923991840599922 1 1 1 1 1 1 1 1 1 1 2.7993456164221442e-10 1 1 1 1 1 0.0099410721991811876 1 1 1 1 1 1 1 1 1 1 0.010120612577994299 1 1 1 1 1 1 1 0.0023736493912300191 1 -4.909494507113199e-09 1 1 1 0.009958013852956164 1 1 0.010200334097911178 1 1 0.016679041391239331 1 1 0.010334073683961642 1 0.0077851013086580566 1 0.014430541498102792 1 1 1 0.01883344470282618 1 1 1 1 0.013638561095103854 1 1 1 0.010286580009087642 0.025926059067592877 1 1 1 1 1 1 1 1 1 0.010559215843489272 1 1 1 1 1 1 1 1 1 1 1 1 1 1 1 1 0.022532747118194574 1 1 1 1 0.0019192842259288974 1 1 0.020624241471573154 1 1 1 1 1 1 1 0.018678373168705888 1 1 1 1 1 1 1 1 1 1 1 1 1 1 1 0.00052982188239112868 1 1 1 1 1 1 1 1 0.0099103801841178372 1 1 1 1 1 1 1 1 1 1 0.0097457941045118388 1 2.7542169864225308e-09 1 1 1 1 0.01010354818159542 1 1 1 1 0.0083386853782050595 0.010036596695587808 1 1 0.003923081422034895 1 1 1 1 1 1 1 1 1 1 1 1 1 0.0092037057196383883 1 1 1 1 1 1 1 1 1 1 1 1 1 1 1 1 0.0077211091226184001 1 1 0.016728044874867051 0.0048299010591047013 1 1 1 1 1 1 1 1 1 1 1 1 0.01028862542540751 1 1 1 0.012179800474674395 0.00608544413929335 1 1 1 1 0.010030460354496199 1 1 0.010916111278749195 1 0.0035468188184020043 1 1 0.010866395386655922 0.0067679899827448771 0.010281649216097833 1 1 1 1 1 1 1 0.0052134808052397112 1 0.0043483831478428325 1 1 1 1 0.0086854686171643197 1 1 1 1 1 1 1 1 1 1 1 1 1 1 0.0043449106964998218 1 1 0.0089786835122138402 1 1 1 0.0063556222046190353 1 0.007452948276763482 1 0.0075295486414081649 1 0.010018825687098217 1 1 1 1 1 1 0.0082306972214690466 1 0.0071568940234595039 1 1 1 1 1 1 1 1 1 1 0.010639537605746515 1 1 1 0.0011992020170061065 1 1 1 1 1 0.010307744729561476 1 1 1 1 1 1 1 1 1 1 1 1 1 1 1 1 1 1 1 1 0.011801945855206849 1 1 1 0.0076438763648325851 1 1 0.010043646704414086 1 1 1 1 0.0088513224535279877 0.0083505975862811967 1 1 1 1 0.0093915352120184266 1 1 1 0.009120540829169594 1 1 1 1 1 1 1 1 1 1 1 1 1 0.0090839742683608941 1 1 1 0.010231595633018363 1 1 0.011966104786452523 1 1 1 1 1 1 1 1 1 1 1 1 1 1 0.00997129672989484 1 1 1 1 1 1 1 1 1 0.010046314670384381 0.0073370029690811162 1 1 1 1 1 1 1 1 0.0080802152794312646 0.0099530820850577857 1 1 0.0048073639428232694 1 0.011160606015884098 1 0.014300840032407993 1 1 1 1 1 1 1 1 1 1 1 -4.0113114444656484e-09 1 1 1 1 1 1 1 1 1 1 3.4719247511694196e-09 1 0.0083755853143119598 1 1 1 1 1 1 1 1 1 1 1 1 1 1 1 1 1 1 1 1 1 1 1 1 1 0.0085291500473713092 1 1 1 1 1 1 0.0058118581799736259 1 1 0.0065282528083624655 1 1 1 1 1 1 1 1 1 1 1 1 1 1 1 -1.4708085513404079e-09 1 1 1 1 0.01083363958618681 1 1 1 0.00040814934298757238 1 0.012580948331242793 1 0.0083423562391995096 1 1 1 1 1 1 1 1 0.0044913867031079469 1 1 1 1 1 1 1 0.0080908144024171708 1 1 1 1 1 1 1 1 1 1 1 0.0092651552787305844 1 0.0078127554189824713 1 1 1 1 1 1 0.009280169093792888 1 1 1 1 1 1 1 1 1 1 1 1 1 1 1 1 1 1 0.010016319442539065 1 1 1 1 1 1 1 1 1 1 1 1 1 1 1 1 1 0.012424873389093413 1 1 1 1 1 1 0.00048725279032565093 1 1 1 1 1 1 0.0099560349314110966 1 1 1 1 1 1 1 0.0011394707544416672 1 1 1 0.0016134037311356549 1 1 1 1 1 1 1 1 1 1 1 1 1 1 1 1 1 1 1 1 1 1 1 1 1 1 1 1 1 1 1 1 1 1 1 1 1 1 1 1 1 1 1 1 1 1 1 1 1 1 1 1 1 1 1 1 1 1 1 1 1 0.0099573545555120754 1 1 1 0.0058952730260851899 1 0.0099777548162565764 0.0083921582354405527 1 1 1 1 1 1 1 1 1 1 1 1 1 1 1 1 1 1 1 1 0.010001589598120038 1 0.010246205444309472 0.0096243845805153577 1 1 1 1 1 1 1 1 1 1 1 1 1 1 1 1 1 0.0099853797760275989 0.011146205491432595 1 1 1 1 1 0.0097543549258255549 0.010684430078921364 1 1 0.010764624040367456 1 1 0.010360333820865042 1 1 1 0.010302266944000982 1 1 1 1 1 1 1 0.010118320836491564 1 1 1 1 1 1 1 1 1 1 1 0.010963153025690599 1 1 1 1 0.012250049185409513 1 1 1 1 1 1 1 1 1 1 1 1 1 1 1 1 1 1 1 1 1 1 1 1 1 1 1 1 1 1 1 1 1 1 1 1 1 1 1 1 1 1 1 1 1 1 1 1 1 1 1 1 1 1 1 1 1 1 1 1 1 1 1 1 1 1 0.018239611126098898 1 1 1 1 1 1 -3.0951482106467143e-09 1 1 1 1 1 1 0.0098439922602443983 1 1 1 1 0.001656193813456136 1 1 1 1 1 1 1 1 1 1 1 1 1 1 0.015803420448370645 1 1 1 1 1 1 1 1 1 1 1 1 1 1 1 1 1 1 1 1 1 1 1 1 0.010982079445434173 1 1 1 1 1 1 1 1 1 1 1 0.0098838218990826739 1 0.011343276446532061 0.0098362959230894834 1 1 1 1 1 1 1 1 1 1 1 1 1 1 1 0.010553982226021868 1 1 1 1 1 1 1 1 1 1 0.010159701838368854 1 1 1 1 1 1 1 1 0.010128565690139767 1 1 1 1 1 1 1 1 1 1 1 1 1 1 1 0.0098120197927159952 1 1 0.010383313429894996 1 1 1 1 1.7209536573581374e-10 1 1 1 1 1 1 1 8.8394052667750689e-10 1 1 1 1 1 1 0.0006154158749589432 1 1 1 0.009625946658322844 1 1 1 1 0.0048466263441147087 0.0054089691164205343 1 1 0.0064643667545138308 1 1 1 1 1 1 1 1 1 1 0.010347863982512204 1 1 1 1 1 0.010069753467691197 1 1 1 1 1 1 1 1 1 1 1 1 1 1 1 1 1 1 0.0079058172436343704 1 1 1 0.0035340351821451033 0.01043719501912159 1 1 1 0.011160745565687078 0.010201058136714552 1 1 1 0.010530043031099737 1 1 1 1 1 1 1 1 1 1 1 1 1 1 1 1 1 1 1 1 1 1 1 1 1 1 1 1 1 1 1 1 1 1 1 1 1 1 1 1 1 1 1 1 1 1 1 1 1 1 1 1 1 1 1 1 1 1 1 1 1 1 1 1 1 1 0.0037297570295523122 1 1 1 1 0.0027208877657642939 1 1 0.0032174742591387986 1 1 1 1 1 1 1 1 1 1 1 1 1 1 0.0051887173236733058 1 0.0030474866267248338 1 1 1 1 1 1 1 1 1 1 1 1 1 1 1 1 1 1 1 1 1 1 1 1 1 1 1 1 1 1 0.0012791563018177479 1 1 0.0085711963579995498 1 1 1 1 1 1 1 1 0.0094383705545222352 1 1 1 1 0.0028571535974157604 1 1 1 1 1 1 1 1 1 1 1 1 1 1 1 1 1 1 1 1 1 1 1 1 1 1 1 1 1 1 1 1 1 1 1 1 1 1 1 1 1 1 1 1 1 1 1 1 1 1 1 1 1 1 1 1 1 1 1 1 1 1 1 1 1 1 1 1 1 1 1 1 1 1 1 1 1 1 1 1 1 1 1 1 1 1 1 1 1 0.012722392358313123 1 1 1 1 0.0068045298481036881 1 1 1 1 1 1 1 0.0094904259342465658 1 1 1 1 0.0098647292012672243 1 1 1 1 1 1 1 1 1 1 1 1 1 1 1 1 1 1 1 1 1 1 1 1 1 1 1 1 1 1 1 1 1 1 1 1 1 1 1 1 0.0085300101932461406 0.0067744295248247637 1 1 1 1 1 1 1 1 1 1 1 1 1 1 1 0.0084551370163434472 1 1 1 1 1 1 1 1 1 0.005394329146810423 1 1 1 1 1 0.0098885214337794472 1 1 1 1 1 1 1 1 1 1 1 1 1 1 1 1 1 1 1 1 1 1 1 1 1 1 1 1 1 0.008431848400923269 0.0074104680826420632 1 1 0.013173749312332075 0.012945122855933626 0.0091844113111091644 1 1 1 1 1 0.010646628734247855 0.011823271831380842 1 0.013502888275154036 1 1 1 1 1 1 1 1 0.010758192852389936 1 0.01011854444445219 1 1 1 1 1 1 1 1 1 1 1 1 1 1 1 1 1 1 1 1 1 1 1 1 1 1 1 1 0.011612354897032731 1 1 1 1 1 0.01407684033923428 1 1 1 1 1 1 1 1 1 1 1 1 1 0.014576957310303118 1 1 1 1 1 1 1 0.010224449919146035 1 1 1 1 1 1 1 0.011204460591558453 1 1 1 1 1 1 1 1 1 1 1 1 1 1 1 1 1 1 1 1 0.0093141872568376222 1 0.0081947853136889633 1 1 1 1 0.012112471868101576 1 1 0.011070919031057192 1 1 1 0.012435437399987204 1 1 1 1 1 1 1 1 0.0063913468538749543 0.01345526257893298 1 0.0072034897467898682 1 0.015504112232551805 1 1 0.011503114310948987 1 1 1 0.0095324284483238528 1 1 1 1 1 1 1 1 1 0.0091663086505131865 1 1 -3.811096358635746e-09 1 1 1 1 1 1 1 1 0.0084185858233856506 1 1 1 0.0092377843472047309 1 1 1 1 3.5887431068306122e-05 1 1 1 1 1 1 1 1 1 1 1 1 0.011110316126061337 1 1 1 0.013017267218786321 1 1 1 1 1 1 1 1 3.2296308188559109e-09 1 1 1 1 0.009721859573166465 1 1 1 1 1 6.2292245901415799e-09 1 1 1 1 1 0.00032312605503694893 1 1 0.014543330740034471 1 1 1 1 1 1 0.0099635469991574896 1 1 1 1 1 1 1 1 1 1 1 1 1 1 1 1 1 1 1 1 1 1 1 1 1 1 1 0.009603277241017609 1 1 1 1 1 0.009881417667851132 1 1 1 1 1 1 1 0.0047189236262889147 1 1 1 1 1 1 1 1 1 1 1 1 1 1 0.0063915877028533075 1 1 1 1 0.0086617422351557352 1 1 1 1 1 1 1 1 1 1 1 1 1 1 1 1 1 1 1 1 1 1 1 1 1 1 1 1 1 1 1 0.0015856245480036606 0.0099761985790474718 1 1 1 1 1 1 0.0034760510034993666 1 1 0.0099496757161109204 1 1 1 1 1 1 1 1 1 1 1 1 0.0057282964807348659 1 1 1 1 1 1 1 1 1 1 1 0.010106327130251551 1 1 1 0.010104142125803676 1 1 1 0.0084936816785350124 1 1 1 0.011411037041058655 1 1 1 0.014196383262857611 1 1 1 1 1 1 1 0.008977475751492936 1 1 1 1 0.0095378498089049128 1 1 1 1 1 1 1 1 1 1 1 1 1 0.0091808014761809078 1 1 1 1 1 1 1 1 1 1 0.0027183465860714448 1 1 1 1 0.00063830706798266926 1 1 1 0.010828760534265448 1 1 1 1 1 1 1 0.014620756711058135 0.0099258147324622747 1 0.018944099826131211 0.011983244288249062 1 1 1 0.010042930247757114 1 1 1 1 1 1 1 0.0034691082123797356 1 1 0.012966789614963888 1 1 1 1 1 1 1 1 1 1 1 0.0087688309765881038 1 1 1 0.010001630227887269 1 1 0.010730748730298324 1 1 0.016945928749823667 1 1 1 1 1 1 1 1 1 1 0.0096733973313938414 1 1 1 1 1 0.012870917690163531 0.011457566074225996 1 1 1 1 1 1 1 1 0.01233962939767879 1 1 1 0.004651094569359011 1 1 1 1 1 0.0064161153995544538 1 1 1 1 1 0.0087363823490080577 1 1 1 1 0.0097096611240947497 1 1 1 1 1 0.0090221542077186592 1 1 0.0083424245903052502 1 1 1 1 0.0077665324453906406 1 1 1 1 1 1 1 1 1 1 1 1 1 1 1 1 1 1 0.0051958621276537321 1 1 0.0099847836806449316 1 1 1 1 1 1 1 0.0099906140055518455 1 1 0.0057744869227409241 1 1 0.0099706873925746453 0.009999466211377997 1 1 1 1 1 0.012190902388704137 1 1 1 0.014563293198342009 1 1 1 0.0043048015043414996 0.011409397950268428 1 0.0089797502797015205 1 1 1 1 1 1 1 1 1 1 1 1 1 0.0099248174693048231 1 1 1 0.0099868380671039175 1 1 1 1 1 1 1 1 1 1 1 1 1 1 1 1 1 1 1 1 1 1 1 1 1 1 1 1 1 1 1 1 1 1 1 1 1 0.008696891186954249 1 1 0.013390865769463266 1 1 1 1 1 0.0061326432245124574 1 1 0.015525123171528071 1 1 1 0.0098959632508057154 1 1 0.018592069824378405 1 1 1 1 1 1 1 1 1 1 1 1 1 1 1 1 1 1 1 1 1 1 0.0036193389435029838 1 0.0012925848583657598 1 1 1 1 1 1 1 1 1 1 1 1 1 1 1 0.0058848011602765093 1 1 1 1 1 1 0.01137874647420363 0.0048968322606592826 1 0.010039357988922198 1 1 1 1 1 1 1 1 1 0.0020545599156301421 1 1 0.017311457645594854 1 1 1 1 1 1 1 1 1 0.012357259419017864 1 1 1 1 1 1 0.009922985263787867 1 1 1 0.0088149762018212355 1 0.0098807488238940085 1 0.0035219302506016396 1 1 1 1 1 0.012944194493001233 1 1 1 1 0.010947261917421547 1 1 1 1 1 1 1 1 1 1 0.0092440292602125381 1 1 1 1 1 1 1 1 1 0.010603528952039337 1 1 1 1 0.011729992756234722 1 1 0.0047704144829669101 1 1 1 0.010780565584865924 1 1 1 1 0.0043884079375822588 1 1 1 0.011362162346780509 1 1 1 0.012361188013803155 1 1 1 1 0.01264263276106745 0.007904205718388381 1 1 0.011000366276518417 1 1 1 1 1 1 1 1 1 0.0074902894666470966 1 0.014162379155875926 1 1 1 1 0.013166904797435743 1 1 1 1 0.0089399280199207246 0.010982786013545208 1 1 0.0083704912623840076 1 0.009796693576201396 0.0094337672583462897 1 1 0.010827498045523763 1 1 1 1 1 1 1 1 1 1 1 1 1 1 1 1 1 1 1 1 1 1 1 1 0.00040527890960649973 1 0.010257172814300948 1 1 1 1 1 1 0.0095423073251689333 1 0.010309849323989005 1 1 1 1 1 1 0.0030435741879216143 1 1 1 0.0095067832279726611 1 1 1 1 1 0.002013946919541959 1 0.011422233211090177 1 1 1 1 1 1 0.010016908761052545 1 0.0052469941674800798 1 1 1 1 1 1 0.0078262961668375472 1 1 0.009965456720308007 1 0.014794874904502923 0.0096562094174177798 1 1 0.0046990034987159854 1 0.012033578601777097 1 1 0.010606052631498136 1 1 1 0.010621817155274675 1 0.010108747170611602 1 0.0063854228834034701 1 1 1 1 1 1 1 0.010008646246339577 1 1 1 1 1 1 1 1 0.0080457295288872549 1 1 1 0.0046937605599521419 1 1 1 1 1 0.0047600353987315193 1 0.0053347721163509304 1 1 0.0027648059294504441 0.0098943349223171786 0.0069392394279921901 1 1 0.01136702717211863 1 1 1 0.0096499558301797392 1 1 1 1 0.010522238316232623 1 1 1 1 1 1 1 1 1 1 1 1 -5.6878298945739481e-10 1 1 0.012052445619212378 1 1 0.0085993846174678198 1 0.0088673964884650944 1 0.0078852031658445069 1 1 0.0091967346193130104 1 1 1 1 1 1 1 1.8338244117677149e-11 1 0.00041837019093181327 1 1 1 1 1 1 1 0.01115662285434562 1 1 1 0.010622054037238444 1 1 1 1 0.010362719468451662 1 1 1 1 1 1 1 1 1 1 1 1 1 1 1 1 1 1 1 1 1 1 1 1 1 1 1 1 1 1 1 1 0.010146785735915806 1 1 1 1 1 1 1 1 1 1 1 1 1 1 1 1 1 1 0.0099971228078018712 1 1 1 1 1 1 1 1 1 1 1 1 1 1 1 1 1 1 1 1 1 1 1 1 1 1 1 1 1 1 0.010069225953542767 1 1 1 1 1 1 0.01001423275680615 1 1 1 1 0.010079792389188824 1 1 1 1 1 1 1 1 1 1 1 1 0.0099977982652054709 1 0.010060162031739171 1 1 1 1 1 1 1 1 1 1 1 1 0.0099812103439185576 1 1 1 1 1 1 1 1 1 1 1 1 1 1 1 1 1 1 1 1 1 1 1 1 1 1 1 1 1 1 1 1 1 1 1 1 1 1 1 1 1 1 1 0.010398320491397181 1 1 1 1 1 1 1 1 1 1 0.010674935686184342 1 1 1 1 1 1 1 1 1 1 1 1 0.010276615194787174 1 1 1 1 1 1 1 1 1 1 1 1 1 1 1 1 1 1 1 1 1 1 1 1 1 1 1 1 0.0096199097798991412 1 1 1 1 1 0.010443962766307779 0.010022047530219812 1 1 0.01001226259338317 1 1 0.0094786632059286682 1 1 1 1 1 1 1 0.0098376405163380504 1 1 1 1 1 1 1 1 1 1 1 1 1 1 0.010447042670247264 1 1 1 1 0.0098035577765405862 1 0.010418623228221447 1 0.0098612200613293413 0.010033970039148559 1 1 1 0.0098294256806166283 0.011257095355780906 1 1 1 1 1 0.010569228001469005 1 1 1 1 1 0.010466204818642071 1 1 1 1 1 1 1 1 0.0098841846441876588 1 1 1 1 0.010826789318548953 1 0.010080364084783862 1 1 0.012399325606668852 1 1 1 1 1 0.010226029549873956 1 1 1 1 1 1 1 1 0.010707424218325438 1 0.011459943079519062 1 1 1 1 1 1 0.0090319807747251679 1 1 1 1 1 1 1 1 0.008379492951088939 1 1 1 0.013559343580008765 1 1 0.0088524372773713111 1 1 0.010839661446749279 1 1 1 1 1 1 1 1 1 1 1 1 1 1 1 1 1 1 1 1 1 1 1 1 1 1 0.011351447794825735 1 1 1 1 1 1 1 1 1 1 1 1 1 1 1 1 1 1 1 1 1 1 1 1 1 1 1 1 1 1 1 1 1 1 1 1 1 1 1 1 1 1 1 1 1 1 1 1 1 1 0.009424104195666673 1 1 1 1 1 1 1 0.010379622146898811 1 0.009660553489344241 1 1 1 1 1 1 1 1 1 1 1 1 1 1 1 1 1 1 1 1 1 0.010123163840971693 1 1 1 0.0098806315935142039 1 1 1 1 1 1 1 1 1 1 1 1 1 1 1 1 0.010418338299612563 1 1 1 1 1 1 1 1 1 1 0.016352133812559996 1 1 0.010728593039190236 1 1 1 1 1 1 1 1 1 1 1 1 1 1 1 1 1 1 1 1 1 1 1 1 1 1 1 0.014856539912528829 1 1 1 1 1 1 1 0.013528950428815779 1 1 1 1 1 1 1 1 1 1 0.0094178737648971632 1 1 1 1 0.0083299300618165113 1 1 0.0097988128243794576 1 0.012709010172530089 1 1 1 1 1 0.015015062597367779 1 1 1 1 1 0.014350289523232683 1 1 1 1 1 1 1 1 1 1 1 1 1 1 0.011567138462706321 1 1 1 1 1 1 1 1 1 1 1 1 1 0.010645362431594791 1 1 1 1 1 1 1 1 1 1 1 1 1 1 1 1 1 1 1 1 1 1 1 1 1 1 1 1 1 1 1 1 1 1 0.011794764231406149 1 0.011590049036920909 1 1 1 1 1 1 1 1 0.011313021865439962 1 1 1 1 1 1 1 0.0094432617493396057 1 1 0.010850077626080052 1 1 1 0.0091597143643291148 1 1 1 1 1 1 0.009719781731687957 1 1 1 1 1 1 1 1 1 1 1 1 1 1 1 1 1 1 1 1 1 1 1 1 1 1 1 1 1 1 1 1 0.010383892136404664 0.011136410997598281 1 1 1 1 1 1 1 1 1 1 1 1 0.010914163043500916 1 1 1 1 1 1 1 1 1 0.010196381652411789 1 1 1 1 1 0.010528494588936153 1 1 1 0.010154436352779886 1 1 1 1 1 1 1 1 1 1 1 1 1 1 1 1 1 1 0.010274642686253381 1 1 1 1 1 1 1 0.010040616801465204 1 1 1 0.0099623557676236096 1 1 1 1 1 1 1 1 1 1 0.0099627887995910637 1 1 1 1 1 1 1 1 1 1 1 1 1 1 0.0098665996858884816 1 0.009903810886297406 1 1 1 1 0.0099083026216846767 1 1 1 1 1 1 1 1 1 1 1 1 1 1 1 1 1 1 0.0091966399161808546 1 1 1 1 1 1 1 1 1 1 1 1 1 1 1 1 1 1 1 1 1 1 0.0099709478447350119 1 1 1 1 1 1 1 0.010153729152007705 1 1 1 1 1 1 0.010091380803073771 1 1 1 1 0.01026450448313692 1 1 1 1 1 1 1 1 1 1 1 1 1 1 1 1 1 0.0058797741027671185 0.0084600011807834941 1 1 1 1 1 1 1 1 1 1 1 1 1 1 1 1 1 1 1 1 1 1 1 1 1 1 0.011784102966129676 1 1 1 0.015270567635122252 1 1 1 1 0.0099952310273729288 1 0.018213955926607732 0.0098990260605088219 1 1 1 1 1 1 1 1 1 1 0.010098272512236467 1 1 0.010088078952694314 0.018321940478715409 1 1 1 0.0097291035172433343 1 1 1 1 1 1 1 1 1 0.010291772959382411 0.0099901927032075705 0.0097642405070985858 1 1 1 1 1 0.007184146013573707 1 1 1 1 0.0079875258468182081 1 1 1 1 1 1 1 1 1 1 1 1 1 1 1 1 1 1 1 1 1 1 1 1 1 1 1 0.010629978558053567 1 1 1 1 1 1 0.0094744753033787557 0.015821600747096175 1 1 1 1 1 1 1 0.0099869576833685712 1 0.010330998434347703 1 1 1 0.011078103386677326 1 1 0.011600282386706275 1 0.016168854028018785 0.011318800701348657 1 1 0.01132737530903432 0.0085076779074998096 1 1 0.016402276446112404 1 0.010139948284357152 1 1 1 1 1 0.009978916269814779 1 1 1 1 1 0.0068502708597206613 1 1 0.013435156889937959 1 1 1 0.014124924915951305 0.014115710572961007 1 0.0098460284161580452 1 1 1 0.013342249618602101 1 0.016463886098158926 0.010155805554450396 1 1 1 1 1 1 1 1 1 1 0.0082373697151314415 1 1 1 0.010710473499816162 1 1 0.0094550803232739886 1 1 1 1 1 1 1 1 1 1 1 1 1 1 1 1 0.012102317145258732 1 1 1 1 1 0.013345282333455782 1 1 1 1 1 1 1 1 0.009651451810720961 1 1 1 1 1 1 0.010017968350620923 1 0.014559915113720106 0.014702270524612683 1 0.012842274430814446 0.0090676830148126233 1 1 1 0.012565649368931247 1 0.0093960857489018279 0.014485012023194016 1 1 1 1 1 1 1 1 0.013501703962816129 1 1 1 0.014746527843036433 1 1 0.014212280534945648 1 0.015022279065757968 1 1 0.012664547798182858 1 1 1 1 1 0.013920430893829015 1 1 1 1 1 1 0.0092429099176887658 1 1 1 1 1 1 1 0.010580869255462116 0.018224041048303771 0.0107773915044308 0.0096515041571693383 0.0098954013640020974 1 1 1 1 1 0.015509598063664696 1 1 0.014865698641031209 1 1 1 0.012649544635710004 0.0096555374325774032 1 0.013674508590259295 1 1 1 1 1 0.0099989933209209524 0.0079918345106452446 0.014303685404927062 0.0088448422266709376 1 1 1 0.011749229751174685 0.010532490225061378 1 1 1 1 1 1 1 1 0.0095613260915487081 1 1 1 1 0.014847040349781907 1 1 1 0.0063299033344337077 1 1 1 1 1 0.0036325643691299744 1 1 1 0.010094558759517418 1 1 1 1 1 1 1 1 1 1 1 1 1 1 1 1 1 1 0.011399765945187049 1 0.012154530343618603 1 1 1 1 1 1 1 0.01050299740543712 1 0.0092393717059533823 1 1 1 1 1 0.010003329116698441 1 1 1 1 1 1 1 1 1 1 1 1 0.009679382148038998 1 1 1 1 1 1 1 1 1 1 1 1 1 1 0.010527136508918192 0.0039981796290548891 1 1 1 1 1 0.0099916518487045206 0.01007928729128952 1 1 0.017638529229130895 1 0.0089235856494403951 1 1 1 1 0.019182105626765367 1 1 1 1 0.014755222989971346 1 0.02269159590142892 0.010325608697328521 1 0.013802455817297228 1 1 1 0.0095375175590849889 1 1 0.010054420034965691 1 1 1 1 1 1 1 1 1 0.030767175645190714 1 1 1 1 0.0065858446113543218 0.03180146199073438 1 0.0082638670195321687 1 1 1 1 1 1 1 1 1 1 1 1 0.010752297548172921 1 1 1 1 1 1 1 1 1 1 0.029642367002276869 1 1 1 1 0.0097261390783791937 1 1 1 0.0092861286362935849 1 1 1 1 1 1 1 1 1 1 1 1 1 1 1 0.01325799657234264 1 1 1 1 1 1 1 1 0.027435906042962213 1 1 1 1 1 1 0.01555392787498364 0.02508932349566349 1 1 1 0.028321854747594348 1 0.011004583925608028 1 1 1 1 1 1 1 1 0.0098461440136763338 0.009637874783247416 1 1 1 0.011958185073567908 1 1 1 1 1 1 1 1 1 1 1 1 1 1 1 0.011439372159029406 0.010534544810505394 1 1 1 1 1 1 1 0.024260727191933007 1 1 0.021580660012506504 1 1 0.010836057425181881 1 1 1 1 1 1 1 1 1 1 1 1 1 1 0.009266545597619559 1 1 1 1 0.010329696915752598 1 1 1 1 1 1 1 1 0.010143816549872432 1 1 1 1 1 1 1 1 0.0017940315735614498 0.0099100610619709609 0.019969993406451798 0.0084325737508957541 1 1 0.026760899605131172 1 1 1 0.014949168364492843 0.020671515794037337 1 1 0.0098885840614026457 1 0.018625269605686043 1 1 0.014580211371466402 0.006189324183459164 0.016806043956874961 1 1 0.0077166949112497871 1 1 1 0.016607050786714955 0.013827880731198327 1 0.021612507700491272 1 1 1 1 0.015776677119958407 1 1 0.020901846560375949 0.0056991803536035439 0.017608293240002588 1 1 1 1 0.0066649264154550469 1 0.0090533940110201043 1 1 1 1 1 1 0.0072325972646039086 1 1 1 1 1 1 0.0071727063254568985 1 1 1 1 1 1 1 1 1 0.0083957942311751882 1 1 1 1 1 1 1 1 0.029165504388300956 0.010098385169839179 1 1 1 1 1 1 1 1 1 1 1 0.012340161883704872 1 1 1 1 0.0088717994997869407 1 1 1 1 1 1 1 1 1 0.010031506833620883 1 1 1 0.011082400079836184 1 1 1 1 1 1 1 1 1 1 1 1 1 1 1 1 1 0.01730242554422803 1 1 1 1 1 1 1 1 1 1 0.012843238974514989 1 1 1 1 1 1 1 1 1 1 1 0.011708978707751493 1 1 1 1 1 1 1 1 1 1 1 1 1 1 1 0.010401984726794803 1 1 1 1 0.019630614232944106 1 0.010908345236224087 1 1 1 1 1 1 1 1 1 1 1 1 1 1 0.0076962846997632173 0.0098493357421906708 1 1 1 1 1 0.0099348586130167879 1 0.010838140223558466 1 1 1 1 0.0087837124759315779 1 1 1 1 1 1 1 1 1 1 1 1 0.010310825696107835 1 1 1 1 1 1 1 1 1 1 1 1 1 1 1 1 1 1 0.010328464706266149 1 1 1 1 1 0.010296957872645273 1 1 1 1 1 1 1 1 1 1 1 1 1 1 1 1 1 1 1 1 1 1 0.010557318152665774 1 1 1 1 1 1 1 1 1 1 1 1 1 1 1 1 1 1 0.01003929641125384 1 1 0.010013441805263035 1 1 1 1 1 1 0.011772894043720655 1 1 1 0.011359215402929008 1 1 1 0.0099660600506492267 1 1 1 1 0.0086716981484704133 1 1 0.0086698240786956052 1 1 0.010092595215580896 1 0.010001205378209643 1 1 1 0.0089551944150343607 1 0.0099702358043320949 1 1 0.010624355095474408 1 0.0091554123963039306 1 1 1 1 1 1 1 1 0.0086403620769900605 1 1 0.008565884032246944 1 1 0.011657685472537637 1 1 1 0.0097997942455424272 0.011374344350797908 1 1 1 1 1 1 1 1 1 0.010549219019342349 1 1 1 1 1 1 1 1 1 1 1 1 1 1 1 1 1 1 1 1 0.010488601671666438 1 1 1 1 1 1 1 0.011276745257502243 1 0.0086255815404775102 1 1 1 1 0.0095293509164579709 1 1 1 1 1 1 1 1 1 1 1 1 1 1 1 1 1 1 1 1 1 1 1 0.010260510329126428 1 1 1 1 1 0.013585187184090984 1 1 1 1 1 0.0066935504276543923 1 1 0.010497004319346382 1 0.015217583223764774 1 0.0083229426381072249 1 1 1 1 1 1 1 1 1 1 1 0.0096710154653113882 1 0.0053230305951882315 0.011987116171176119 1 1 1 1 1 0.002428622244302573 1 0.010002093348130689 0.014993920008189467 0.0077606980215615823 1 1 1 1 0.015931240930870564 1 0.015784266374529062 1 0.013981758526864329 0.010851485348813326 1 1 0.014784137853560277 0.014411121039703679 1 0.0040253985087386202 1 0.010799854766895382 1 1 0.0040572012036543606 1 1 1 1 1 1 1 1 1 1 1 1 1 1 0.001663111371831609 1 1 1 1 1 0.014039748970748642 1 0.012183524840408261 1 0.010072344799333832 1 0.010027629895877457 1 1 0.010011219626111567 1 0.008551617861909791 1 1 1 1 1 1 1 1 0.0093789710108900942 1 1 1 1 1 1 1 0.013476287419800895 1 1 1 1 1 1 0.013898156994214934 1 0.0086308631759996236 1 1 0.006021899885967151 1 1 0.0097749657425205 1 1 1 1 1 0.0089752415805821658 1 1 0.003750054840396061 1 1 0.0099994458496847367 1 1 1 0.0076148903443344204 1 1 1 1 1 1 1 1 4.3112796145605703e-10 0.0084042468136096386 1 1 1 0.015671893973715514 1 0.0077006431284685727 1 1 1 0.015058814290354853 1 1 1 1 0.004319141262055997 0.015411900981860309 0.014002539986565067 1 1 1 0.0048264006992243431 1 0.015057366089271084 0.011398828126356494 1 1 1 1 0.012396662525470906 1 1 1 0.01188674635025945 1 1 0.0099320763211859769 0.011577295505414418 1 1 1 1 0.0099885795822803394 1 1 1 1 0.010292042926585254 0.011018791278843403 1 1 1 0.0107816105936701 0.010434910242292969 1 1 0.026742708892353906 1 1 1 1 1 1 0.0099996096960657636 1 1 0.013977377127426579 1 1 1 0.01550033168471807 1 1 0.0078332309183870887 1 1 0.0093909659009441884 1 1 1 1 1 1 1 1 1 1 1 1 1 1 1 0.004992844905483268 1 1 0.010040994205886132 0.017182280772704717 1 1 1 0.0072929979936037712 1 1 1 0.0089923021948008532 1 1 0.015845225965882021 1 1 1 1 1 1 1 1 1 0.0069560936303835787 1 1 1 0.021336708634551057 1 1 1 1 1 1 1 1 0.018640262997002867 0.012931370603481112 1 1 1 0.010873826265242591 1 1 1 1 1 1 1 1 0.0094494591263241876 1 1 1 1 1 1 1 1 0.015246496792480054 1 1 1 0.015862875477722936 1 1 0.0069408050575044192 1 1 1 1 1 1 1 1 1 1 1 1 1 1 1.6722753320985717e-09 1 1 1 1 1 1 1 1 1 1 1 1 1 0.0041163093911403461 0.0051626987448559099 1 1 1 1 1 0.0024490497312010216 1 0.0042978376019526636 0.018178306835689037 -4.8429721691278793e-10 1 0.025530415187644317 1 1 1 1 1 1 0.010457897092868144 0.01118329400978077 1 1 1 1 0.014066126687575498 1 0.019831492525627364 1 1 1 1 1 0.010036056514509112 1 1 1 1 1 1 1 1 1 0.0097731435605207667 1 1 1 1 0.0096251772940354335 1 1 0.0099080760750544072 1 1 1 1 1 1 1 1 1 1 0.010943572851609898 1 1 1 1 1 1 1 1 0.011200786343052174 1 1 1 0.013739447293994154 1 0.0099697072486283136 1 1 1 1 1 1 1 1 1 1 1 0.011639201662048876 1 0.0030214370672404459 0.0126123458261507 1 0.010048415575056173 1 1 1 1 0.016572128590829072 1 1 1 1 0.010046027303140546 1 1 1 1 1 1 1 1 1 1 1 1 1 1 1 0.0096128149539630378 1 1 1 1 1 1 1 0.024870903507199955 1 1 0.0099274391266933344 1 1 0.0089064033777908544 1 0.0095787503579972642 1 1 1 1 0.016298166353300458 2.8333095765387117e-09 1 1 1 1 1 1 1 0.014814267847732397 1 1 1 1 1 -4.3805867197543868e-09 1 1 1 1 1 1 1 1 1 1 1 0.011215636581378615 1 1 1 0.010311257610547362 1 1 1 1 1 1 0.0089099508152803777 0.0098741536480635977 1 1 1 0.0024894010166064233 1 1 1 1 1 1 1 1 1 0.024520615942642692 1 1 0.023547452824882697 1 1 1 1 0.015586351791648335 1 1 1 1 0.016046430990842978 1 0.01052972995439411 1 0.0094519793431267138 1 0.017512105613341485 1 1 1 1 0.0070698559925916893 1 1 0.0095480288065222935 1 1 0.015331311893252462 1 0.011385428906149625 1 1 1 0.0058394706828372965 0.020461422280885596 1 0.012463979824649987 1 5.8424789433492164e-09 1 1 1 1 0.010617102993135542 1 1 1 1 1 0.0089668988920728991 1 1 1 1 1 1 1 1 1 1 1 1 1 1 1 1 1 1 1 1 1 1 1 1 1 0.010118810437070962 1 1 1 1 1 1 1 1 0.0077660646763383703 1 1 1 1 0.007279658570136998 1 1 0.0027945670012514117 1 1 1 1 1 1 1 1 1 1 1 1 1 1 1 1 1 0.014490016219460292 1 0.013104179780483874 1 0.0093186922871307115 1 1 1 1 1 1 1 1 1 1 1 1 1 1 1 0.015889406502236608 0.010174319772404607 1 1 1 1 1 1 1 1 1 1 1 1 1 1 1 1 1 1 1 1 1 1 1 1 1 1 1 1 1 1 1 1 1 1 1 1 1 1 1 1 1 1 1 1 1 1 0.0097132456934008633 1 1 1 1 1 1 1 1 0.017559705568759999 1 1 1 1 1 1 1 1 1 1 0.010310254739577661 1 1 1 0.017594408206684051 1 1 0.0098189212507130957 1 1 1 1 1 0.010991998987680248 1 1 1 1 1 1 1 1 1 1 1 1 1 1 1 1 1 1 1 1 1 1 1 1 1 1 1 1 1 1 1 1 1 1 1 1 1 1 1 1 1 1 1 1 1 1 1 1 1 1 1 0.011074281231657854 1 1 1 1 1 1 1 1 1 1 1 1 1 1 1 1 1 0.0095088327203967371 1 1 1 1 1 1 1 1 1 1 1 1 1 1 1 1 1 1 1 1 1 1 1 1 1 1 1 1 1 1 1 1 1 1 1 1 1 1 1 1 1 1 1 1 1 1 1 1 1 1 1 1 1 1 1 1 1 1 1 1 1 1 1 1 1 1 1 1 1 0.010790118028168308 1 1 1 0.0077335191598416307 1 0.01016051474430945 1 1 0.0050420868529582122 1 1 0.004523122109501683 1 1 1 0.014577920355215428 1 0.0075907004521222239 0.0025051395315708394 0.010096053345470217 1 1 1 0.0084266176650691308 1 1 1 0.0063317662550264314 1 1 1 1 1 1 0.0083668594869127089 1 1 0.0077976606297196719 0.0090440184422431041 0.013112072614279158 1 1 0.0064781428606191654 1 0.0099911671348213594 1 1 1 1 1 1 1 1 0.002729907751006018 1 1 1 0.010003323647931427 0.016344066012492831 1 1 1 1 0.0067687662969064949 1 1 1 0.010094428837082519 1 1 1 1 0.010483327719166604 1 1 1 1 0.0096879469257629691 1 1 1 1 1 1 1 1 1 1 1 0.0088981158341620431 1 1 
</DataArray>
</CellData>
</Piece>
</UnstructuredGrid>
</VTKFile>
