<?xml version="1.0"?>
<VTKFile type="UnstructuredGrid" version="0.1" byte_order="LittleEndian">
<UnstructuredGrid>
<Piece NumberOfPoints="31898" NumberOfCells="11152">
<Points>
<DataArray type="Float64" NumberOfComponents="3" format="ascii">
-0.5 -0.5 0 -0.47620991077874902 -0.44978878706170539 0 -0.49999999999999473 -0.42132396840504388 0 -0.5 -0.5 0 -0.47160970827802529 -0.4793630013852106 0 -0.47620991077874902 -0.44978878706170539 0 -0.5 -0.5 0 -0.47160970827802529 -0.4793630013852106 0 -0.44860394795025399 -0.5 0 -0.47160970827802529 -0.4793630013852106 0 -0.44860394795025399 -0.5 0 -0.4490820238307246 -0.45820516232899983 0 -0.44860394795025399 -0.5 0 -0.4490820238307246 -0.45820516232899983 0 -0.42881687682924802 -0.47781464288736519 0 -0.4490820238307246 -0.45820516232899983 0 -0.45555437223955858 -0.42914059360647611 0 -0.4490820238307246 -0.45820516232899983 0 -0.45555437223955858 -0.42914059360647611 0 -0.43867285131603428 -0.4271457417558665 0 -0.4490820238307246 -0.45820516232899983 0 -0.43867285131603428 -0.4271457417558665 0 -0.4263356171060747 -0.44269880333887462 0 -0.47160970827802529 -0.4793630013852106 0 -0.4490820238307246 -0.45820516232899983 0 -0.47620991077874902 -0.44978878706170539 0 -0.4490820238307246 -0.45820516232899983 0 -0.47620991077874902 -0.44978878706170539 0 -0.45555437223955858 -0.42914059360647611 0 -0.47620991077874902 -0.44978878706170539 0 -0.48101336032419229 -0.41069999664450008 0 -0.45555437223955858 -0.42914059360647611 0 -0.47620991077874902 -0.44978878706170539 0 -0.49999999999999473 -0.42132396840504388 0 -0.48101336032419229 -0.41069999664450008 0 -0.49999999999999473 -0.42132396840504388 0 -0.48101336032419229 -0.41069999664450008 0 -0.5 -0.393886241813306 0 -0.49999999999999473 -0.42132396840504388 0 -0.48101336032419229 -0.41069999664450008 0 -0.5 -0.393886241813306 0 -0.47854472220918332 -0.38978458738689759 0 -0.48422759779560409 -0.37130120630367158 0 -0.5 -0.393886241813306 0 -0.5 -0.36644851522156802 0 -0.48422759779560409 -0.37130120630367158 0 -0.48101336032419229 -0.41069999664450008 0 -0.5 -0.393886241813306 0 -0.47854472220918332 -0.38978458738689759 0 -0.48101336032419229 -0.41069999664450008 0 -0.47854472220918332 -0.38978458738689759 0 -0.46202672064839212 -0.40007602488395211 0 -0.48101336032419229 -0.41069999664450008 0 -0.46202672064839212 -0.40007602488395211 0 -0.47854472220918332 -0.38978458738689759 0 -0.46725442735267431 -0.37660061361585562 0 -0.46202672064839212 -0.40007602488395211 0 -0.47854472220918332 -0.38978458738689759 0 -0.46725442735267431 -0.37660061361585562 0 -0.48422759779560409 -0.37130120630367158 0 -0.46725442735267431 -0.37660061361585562 0 -0.46202672064839212 -0.40007602488395211 0 -0.46725442735267431 -0.37660061361585562 0 -0.45645674801697989 -0.38644133236760531 0 -0.46202672064839212 -0.40007602488395211 0 -0.46725442735267431 -0.37660061361585562 0 -0.45645674801697989 -0.38644133236760531 0 -0.4540003998136638 -0.37455519391687309 0 -0.45645674801697989 -0.38644133236760531 0 -0.46202672064839212 -0.40007602488395211 0 -0.44257020456291563 -0.38918913383950271 0 -0.46202672064839212 -0.40007602488395211 0 -0.44257020456291563 -0.38918913383950271 0 -0.44727608925983742 -0.41095911152778891 0 -0.46202672064839212 -0.40007602488395211 0 -0.44257020456291563 -0.38918913383950271 0 -0.44257020456291563 -0.38918913383950271 0 -0.44727608925983742 -0.41095911152778891 0 -0.43479358559901082 -0.4041454901736512 0 -0.44257020456291563 -0.38918913383950271 0 -0.4540003998136638 -0.37455519391687309 0 -0.44172858264042247 -0.37082207246888088 0 -0.45645674801697989 -0.38644133236760531 0 -0.44257020456291563 -0.38918913383950271 0 -0.4540003998136638 -0.37455519391687309 0 -0.46202672064839212 -0.40007602488395211 0 -0.45555437223955858 -0.42914059360647611 0 -0.44727608925983742 -0.41095911152778891 0 -0.46202672064839212 -0.40007602488395211 0 -0.45555437223955858 -0.42914059360647611 0 -0.48101336032419229 -0.41069999664450008 0 -0.46202672064839212 -0.40007602488395211 0 -0.45555437223955858 -0.42914059360647611 0 -0.44727608925983742 -0.41095911152778891 0 -0.43867285131603428 -0.4271457417558665 0 -0.43676601469929588 -0.41441201227470881 0 -0.44727608925983742 -0.41095911152778891 0 -0.43676601469929588 -0.41441201227470881 0 -0.43479358559901082 -0.4041454901736512 0 -0.45555437223955858 -0.42914059360647611 0 -0.44727608925983742 -0.41095911152778891 0 -0.43867285131603428 -0.4271457417558665 0 -0.43867285131603428 -0.4271457417558665 0 -0.42681803064840879 -0.42717069814352421 0 -0.4263356171060747 -0.44269880333887462 0 -0.42681803064840879 -0.42717069814352421 0 -0.41531815884496182 -0.42985383783075998 0 -0.4263356171060747 -0.44269880333887462 0 -0.42681803064840879 -0.42717069814352421 0 -0.42624289495594048 -0.42089725947505818 0 -0.42083332353326591 -0.42146747131641099 0 -0.42681803064840879 -0.42717069814352421 0 -0.43096994786351572 -0.41951492446283251 0 -0.42624289495594048 -0.42089725947505818 0 -0.43867285131603428 -0.4271457417558665 0 -0.42681803064840879 -0.42717069814352421 0 -0.43096994786351572 -0.41951492446283251 0 -0.43867285131603428 -0.4271457417558665 0 -0.43676601469929588 -0.41441201227470881 0 -0.43096994786351572 -0.41951492446283251 0 -0.43676601469929588 -0.41441201227470881 0 -0.43096994786351572 -0.41951492446283251 0 -0.42907264086257813 -0.41311715872526122 0 -0.43676601469929588 -0.41441201227470881 0 -0.42907264086257813 -0.41311715872526122 0 -0.43479358559901082 -0.4041454901736512 0 -0.42907264086257813 -0.41311715872526122 0 -0.43479358559901082 -0.4041454901736512 0 -0.42460885511582858 -0.40417321677700252 0 -0.42907264086257813 -0.41311715872526122 0 -0.41997834854398469 -0.41180534796019508 0 -0.42907264086257813 -0.41311715872526122 0 -0.42635027777857132 -0.41543594397746519 0 -0.41997834854398469 -0.41180534796019508 0 -0.42907264086257813 -0.41311715872526122 0 -0.41997834854398469 -0.41180534796019508 0 -0.42460885511582858 -0.40417321677700252 0 -0.42635027777857132 -0.41543594397746519 0 -0.41997834854398469 -0.41180534796019508 0 -0.42635027777857132 -0.41543594397746519 0 -0.42083332353326591 -0.42146747131641099 0 -0.41997834854398469 -0.41180534796019508 0 -0.43096994786351572 -0.41951492446283251 0 -0.42624289495594048 -0.42089725947505818 0 -0.42635027777857132 -0.41543594397746519 0 -0.43096994786351572 -0.41951492446283251 0 -0.42907264086257813 -0.41311715872526122 0 -0.42635027777857132 -0.41543594397746519 0 -0.42624289495594048 -0.42089725947505818 0 -0.42635027777857132 -0.41543594397746519 0 -0.42083332353326591 -0.42146747131641099 0 -0.42083332353326591 -0.42146747131641099 0 -0.41997834854398469 -0.41180534796019508 0 -0.40992282953163789 -0.42011435591993562 0 -0.41997834854398469 -0.41180534796019508 0 -0.39756877647335259 -0.40857286797681719 0 -0.41997834854398469 -0.41180534796019508 0 -0.40992282953163789 -0.42011435591993562 0 -0.39756877647335259 -0.40857286797681719 0 -0.40992282953163789 -0.42011435591993562 0 -0.41531815884496182 -0.42985383783075998 0 -0.39591554026262499 -0.42887225451549271 0 -0.41531815884496182 -0.42985383783075998 0 -0.39591554026262499 -0.42887225451549271 0 -0.41160927495564159 -0.44339431233754628 0 -0.42083332353326591 -0.42146747131641099 0 -0.40992282953163789 -0.42011435591993562 0 -0.41531815884496182 -0.42985383783075998 0 -0.42681803064840879 -0.42717069814352421 0 -0.42083332353326591 -0.42146747131641099 0 -0.41531815884496182 -0.42985383783075998 0 -0.44257020456291563 -0.38918913383950271 0 -0.42311368847744002 -0.37830224279505142 0 -0.42594061475171041 -0.39368797999533162 0 -0.44257020456291563 -0.38918913383950271 0 -0.42311368847744002 -0.37830224279505142 0 -0.44172858264042247 -0.37082207246888088 0 -0.44257020456291563 -0.38918913383950271 0 -0.42311368847744002 -0.37830224279505142 0 -0.42311368847744002 -0.37830224279505142 0 -0.42594061475171041 -0.39368797999533162 0 -0.416587075656149 -0.38785930376960043 0 -0.44257020456291563 -0.38918913383950271 0 -0.42594061475171041 -0.39368797999533162 0 -0.43479358559901082 -0.4041454901736512 0 -0.42594061475171041 -0.39368797999533162 0 -0.43479358559901082 -0.4041454901736512 0 -0.42460885511582858 -0.40417321677700252 0 -0.41997834854398469 -0.41180534796019508 0 -0.41325908582185972 -0.39811010703057192 0 -0.39770572831670092 -0.39911486077581648 0 -0.41997834854398469 -0.41180534796019508 0 -0.39770572831670092 -0.39911486077581648 0 -0.42594061475171041 -0.39368797999533162 0 -0.42460885511582858 -0.40417321677700252 0 -0.41325908582185972 -0.39811010703057192 0 -0.41997834854398469 -0.41180534796019508 0 -0.42460885511582858 -0.40417321677700252 0 -0.41325908582185972 -0.39811010703057192 0 -0.42594061475171041 -0.39368797999533162 0 -0.41325908582185972 -0.39811010703057192 0 -0.416587075656149 -0.38785930376960043 0 -0.41325908582185972 -0.39811010703057192 0 -0.416587075656149 -0.38785930376960043 0 -0.40403491357358612 -0.38133688525744702 0 -0.42311368847744002 -0.37830224279505142 0 -0.40403491357358612 -0.38133688525744702 0 -0.40365717239196519 -0.36741535175059892 0 -0.42311368847744002 -0.37830224279505142 0 -0.416587075656149 -0.38785930376960043 0 -0.40403491357358612 -0.38133688525744702 0 -0.40403491357358612 -0.38133688525744702 0 -0.39190790742475001 -0.38540387676521748 0 -0.39770572831670092 -0.39911486077581648 0 -0.40403491357358612 -0.38133688525744702 0 -0.39190790742475001 -0.38540387676521748 0 -0.3904578797192948 -0.37473938743617019 0 -0.41325908582185972 -0.39811010703057192 0 -0.40403491357358612 -0.38133688525744702 0 -0.39770572831670092 -0.39911486077581648 0 -0.39770572831670092 -0.39911486077581648 0 -0.37543310808941849 -0.38642437359143528 0 -0.39770572831670092 -0.39911486077581648 0 -0.37515920440272033 -0.40534038799344108 0 -0.37543310808941849 -0.38642437359143528 0 -0.39770572831670092 -0.39911486077581648 0 -0.37515920440272033 -0.40534038799344108 0 -0.39756877647335259 -0.40857286797681719 0 -0.37515920440272033 -0.40534038799344108 0 -0.37543310808941849 -0.38642437359143528 0 -0.37543310808941849 -0.38642437359143528 0 -0.3904578797192948 -0.37473938743617019 0 -0.37568304780698558 -0.36916333065311507 0 -0.39190790742475001 -0.38540387676521748 0 -0.37543310808941849 -0.38642437359143528 0 -0.3904578797192948 -0.37473938743617019 0 -0.37543310808941849 -0.38642437359143528 0 -0.37568304780698558 -0.36916333065311507 0 -0.39190790742475001 -0.38540387676521748 0 -0.39770572831670092 -0.39911486077581648 0 -0.37543310808941849 -0.38642437359143528 0 -0.41997834854398469 -0.41180534796019508 0 -0.39770572831670092 -0.39911486077581648 0 -0.39756877647335259 -0.40857286797681719 0 -0.40992282953163789 -0.42011435591993562 0 -0.39591554026262499 -0.42887225451549271 0 -0.39756877647335259 -0.40857286797681719 0 -0.37515920440272033 -0.40534038799344108 0 -0.39591554026262499 -0.42887225451549271 0 -0.39756877647335259 -0.40857286797681719 0 -0.37515920440272033 -0.40534038799344108 0 -0.39756877647335259 -0.40857286797681719 0 -0.37515920440272033 -0.40534038799344108 0 -0.39591554026262499 -0.42887225451549271 0 -0.37472313619600889 -0.43545561783144832 0 -0.39591554026262499 -0.42887225451549271 0 -0.39301703415267508 -0.44654444244683272 0 -0.37472313619600889 -0.43545561783144832 0 -0.39301703415267508 -0.44654444244683272 0 -0.37428706798929601 -0.46557084766945539 0 -0.37472313619600889 -0.43545561783144832 0 -0.39591554026262499 -0.42887225451549271 0 -0.39301703415267508 -0.44654444244683272 0 -0.41160927495564159 -0.44339431233754628 0 -0.39301703415267508 -0.44654444244683272 0 -0.40396056051613372 -0.45751466911048011 0 -0.41160927495564159 -0.44339431233754628 0 -0.40396056051613372 -0.45751466911048011 0 -0.39245383412573559 -0.47875733455523922 0 -0.41207507163844148 -0.46917161410542801 0 -0.40396056051613372 -0.45751466911048011 0 -0.38912381425271458 -0.46154275838996711 0 -0.39245383412573559 -0.47875733455523922 0 -0.40396056051613372 -0.45751466911048011 0 -0.39245383412573559 -0.47875733455523922 0 -0.40396056051613372 -0.45751466911048011 0 -0.40649676728151513 -0.45682610390212369 0 -0.40396056051613372 -0.45751466911048011 0 -0.38912381425271458 -0.46154275838996711 0 -0.39301703415267508 -0.44654444244683272 0 -0.40396056051613372 -0.45751466911048011 0 -0.38912381425271458 -0.46154275838996711 0 -0.39301703415267508 -0.44654444244683272 0 -0.38912381425271458 -0.46154275838996711 0 -0.37428706798929601 -0.46557084766945539 0 -0.38912381425271458 -0.46154275838996711 0 -0.37428706798929601 -0.46557084766945539 0 -0.38912381425271458 -0.46154275838996711 0 -0.38378714202547332 -0.47159002408209011 0 -0.37428706798929601 -0.46557084766945539 0 -0.38378714202547332 -0.47159002408209011 0 -0.39245383412573559 -0.47875733455523922 0 -0.37411677223754131 -0.47733161267270968 0 -0.39245383412573559 -0.47875733455523922 0 -0.37240076261097882 -0.48974555046165519 0 -0.37411677223754131 -0.47733161267270968 0 -0.38378714202547332 -0.47159002408209011 0 -0.37411677223754131 -0.47733161267270968 0 -0.37428706798929601 -0.46557084766945539 0 -0.38912381425271458 -0.46154275838996711 0 -0.38378714202547332 -0.47159002408209011 0 -0.39245383412573559 -0.47875733455523922 0 -0.38094710773533791 -0.49999999999999839 0 -0.39245383412573559 -0.47875733455523922 0 -0.38094710773533791 -0.49999999999999839 0 -0.39245383412573559 -0.47875733455523922 0 -0.37240076261097882 -0.48974555046165519 0 -0.38094710773533791 -0.49999999999999839 0 -0.39245383412573559 -0.47875733455523922 0 -0.40997732063196057 -0.5 0 -0.39245383412573559 -0.47875733455523922 0 -0.41207507163844148 -0.46917161410542801 0 -0.40997732063196057 -0.5 0 -0.41207507163844148 -0.46917161410542801 0 -0.40997732063196057 -0.5 0 -0.42881687682924802 -0.47781464288736519 0 -0.44860394795025399 -0.5 0 -0.40997732063196057 -0.5 0 -0.42881687682924802 -0.47781464288736519 0 -0.41207507163844148 -0.46917161410542801 0 -0.42881687682924802 -0.47781464288736519 0 -0.42627766738448791 -0.46032764904509182 0 -0.4490820238307246 -0.45820516232899983 0 -0.42881687682924802 -0.47781464288736519 0 -0.42627766738448791 -0.46032764904509182 0 -0.4490820238307246 -0.45820516232899983 0 -0.42627766738448791 -0.46032764904509182 0 -0.4263356171060747 -0.44269880333887462 0 -0.42627766738448791 -0.46032764904509182 0 -0.4263356171060747 -0.44269880333887462 0 -0.41655419253802572 -0.45404861160063659 0 -0.4263356171060747 -0.44269880333887462 0 -0.41160927495564159 -0.44339431233754628 0 -0.41655419253802572 -0.45404861160063659 0 -0.41531815884496182 -0.42985383783075998 0 -0.4263356171060747 -0.44269880333887462 0 -0.41160927495564159 -0.44339431233754628 0 -0.40396056051613372 -0.45751466911048011 0 -0.41160927495564159 -0.44339431233754628 0 -0.40649676728151513 -0.45682610390212369 0 -0.41160927495564159 -0.44339431233754628 0 -0.40649676728151513 -0.45682610390212369 0 -0.41655419253802572 -0.45404861160063659 0 -0.40396056051613372 -0.45751466911048011 0 -0.41160927495564159 -0.44339431233754628 0 -0.41207507163844148 -0.46917161410542801 0 -0.40649676728151513 -0.45682610390212369 0 -0.41655419253802572 -0.45404861160063659 0 -0.40396056051613372 -0.45751466911048011 0 -0.41207507163844148 -0.46917161410542801 0 -0.40649676728151513 -0.45682610390212369 0 -0.41207507163844148 -0.46917161410542801 0 -0.42627766738448791 -0.46032764904509182 0 -0.41655419253802572 -0.45404861160063659 0 -0.45662330498375908 -0.25656877445722759 0 -0.43445882011373449 -0.25478651907497341 0 -0.45662330498375908 -0.25656877445722759 0 -0.43445882011373449 -0.25478651907497341 0 -0.45034617445999431 -0.24335722649563979 0 -0.44999384684511368 -0.2755750489792308 0 -0.45662330498375908 -0.25656877445722759 0 -0.43445882011373449 -0.25478651907497341 0 -0.44999384684511368 -0.2755750489792308 0 -0.43077531442077321 -0.27459050524281542 0 -0.43445882011373449 -0.25478651907497341 0 -0.44999384684511368 -0.2755750489792308 0 -0.441361257405879 -0.29303276451920029 0 -0.43077531442077321 -0.27459050524281542 0 -0.44999384684511368 -0.2755750489792308 0 -0.4670541169931961 -0.26846056693166809 0 -0.46910519348062618 -0.28320526693770848 0 -0.44999384684511368 -0.2755750489792308 0 -0.4670541169931961 -0.26846056693166809 0 -0.45662330498375908 -0.25656877445722759 0 -0.45662330498375908 -0.25656877445722759 0 -0.47878778985378329 -0.25835102983948688 0 -0.4670541169931961 -0.26846056693166809 0 -0.45662330498375908 -0.25656877445722759 0 -0.47878778985378329 -0.25835102983948688 0 -0.45662330498375908 -0.25656877445722759 0 -0.47878778985378329 -0.25835102983948688 0 -0.47142395938804471 -0.23802335247430181 0 -0.47878778985378329 -0.25835102983948688 0 -0.5 -0.25669760885461612 0 -0.48361763707807442 -0.27426406281091331 0 -0.47878778985378329 -0.25835102983948688 0 -0.5 -0.25669760885461612 0 -0.4875835208682564 -0.24248539692068891 0 -0.5 -0.25669760885461612 0 -0.48361763707807442 -0.27426406281091331 0 -0.5 -0.28413533544635422 0 -0.4670541169931961 -0.26846056693166809 0 -0.47878778985378329 -0.25835102983948688 0 -0.48361763707807442 -0.27426406281091331 0 -0.4670541169931961 -0.26846056693166809 0 -0.48361763707807442 -0.27426406281091331 0 -0.46910519348062618 -0.28320526693770848 0 -0.46910519348062618 -0.28320526693770848 0 -0.48580896399913942 -0.29193665231809679 0 -0.47164434439118558 -0.29859902487093259 0 -0.48361763707807442 -0.27426406281091331 0 -0.46910519348062618 -0.28320526693770848 0 -0.48580896399913942 -0.29193665231809679 0 -0.5 -0.28413533544635422 0 -0.48580896399913942 -0.29193665231809679 0 -0.5 -0.3115730620380921 0 -0.48361763707807442 -0.27426406281091331 0 -0.5 -0.28413533544635422 0 -0.48580896399913942 -0.29193665231809679 0 -0.48580896399913942 -0.29193665231809679 0 -0.5 -0.3115730620380921 0 -0.48293754746551898 -0.30617437981156609 0 -0.48293754746551898 -0.30617437981156609 0 -0.47164434439118558 -0.29859902487093259 0 -0.47203566342767839 -0.31514771464943409 0 -0.48580896399913942 -0.29193665231809679 0 -0.48293754746551898 -0.30617437981156609 0 -0.47164434439118558 -0.29859902487093259 0 -0.47164434439118558 -0.29859902487093259 0 -0.46096111539772322 -0.3069557537098867 0 -0.47203566342767839 -0.31514771464943409 0 -0.46096111539772322 -0.3069557537098867 0 -0.44739706002137658 -0.30395698434733032 0 -0.45229582611609759 -0.31444164243390338 0 -0.46096111539772322 -0.3069557537098867 0 -0.45682111422556548 -0.29317658806621089 0 -0.44739706002137658 -0.30395698434733032 0 -0.47164434439118558 -0.29859902487093259 0 -0.46096111539772322 -0.3069557537098867 0 -0.45682111422556548 -0.29317658806621089 0 -0.44999384684511368 -0.2755750489792308 0 -0.46910519348062618 -0.28320526693770848 0 -0.45682111422556548 -0.29317658806621089 0 -0.46910519348062618 -0.28320526693770848 0 -0.47164434439118558 -0.29859902487093259 0 -0.45682111422556548 -0.29317658806621089 0 -0.44999384684511368 -0.2755750489792308 0 -0.45682111422556548 -0.29317658806621089 0 -0.441361257405879 -0.29303276451920029 0 -0.45682111422556548 -0.29317658806621089 0 -0.441361257405879 -0.29303276451920029 0 -0.44739706002137658 -0.30395698434733032 0 -0.441361257405879 -0.29303276451920029 0 -0.44739706002137658 -0.30395698434733032 0 -0.43527018611072049 -0.30465000121327751 0 -0.44739706002137658 -0.30395698434733032 0 -0.44024276041750632 -0.31887045497680111 0 -0.43527018611072049 -0.30465000121327751 0 -0.44739706002137658 -0.30395698434733032 0 -0.45229582611609759 -0.31444164243390338 0 -0.44024276041750632 -0.31887045497680111 0 -0.44024276041750632 -0.31887045497680111 0 -0.45653421084860168 -0.32646185290925811 0 -0.44024276041750632 -0.31887045497680111 0 -0.43930980958642257 -0.33554338078202212 0 -0.45653421084860168 -0.32646185290925811 0 -0.45229582611609759 -0.31444164243390338 0 -0.44024276041750632 -0.31887045497680111 0 -0.45653421084860168 -0.32646185290925811 0 -0.43930980958642257 -0.33554338078202212 0 -0.44966367396753332 -0.33841986907325933 0 -0.46855294336124231 -0.32873531729210143 0 -0.43930980958642257 -0.33554338078202212 0 -0.4507851133594416 -0.34910720111649318 0 -0.43930980958642257 -0.33554338078202212 0 -0.44966367396753332 -0.33841986907325933 0 -0.4507851133594416 -0.34910720111649318 0 -0.44966367396753332 -0.33841986907325933 0 -0.46855294336124231 -0.32873531729210143 0 -0.46386644800117471 -0.33586508895417932 0 -0.43930980958642257 -0.33554338078202212 0 -0.46855294336124231 -0.32873531729210143 0 -0.43930980958642257 -0.33554338078202212 0 -0.46855294336124231 -0.32873531729210143 0 -0.45653421084860168 -0.32646185290925811 0 -0.44966367396753332 -0.33841986907325933 0 -0.4586808436472537 -0.3401528003513713 0 -0.45711636988675219 -0.34547487934353349 0 -0.44966367396753332 -0.33841986907325933 0 -0.4586808436472537 -0.3401528003513713 0 -0.46386644800117471 -0.33586508895417932 0 -0.4586808436472537 -0.3401528003513713 0 -0.46472493826860672 -0.34236766697450172 0 -0.45711636988675219 -0.34547487934353349 0 -0.4586808436472537 -0.3401528003513713 0 -0.46472493826860672 -0.34236766697450172 0 -0.46386644800117471 -0.33586508895417932 0 -0.46855294336124231 -0.32873531729210143 0 -0.46207595183026873 -0.31834845619891672 0 -0.47203566342767839 -0.31514771464943409 0 -0.46855294336124231 -0.32873531729210143 0 -0.45653421084860168 -0.32646185290925811 0 -0.46207595183026873 -0.31834845619891672 0 -0.46096111539772322 -0.3069557537098867 0 -0.45229582611609759 -0.31444164243390338 0 -0.46207595183026873 -0.31834845619891672 0 -0.45229582611609759 -0.31444164243390338 0 -0.45653421084860168 -0.32646185290925811 0 -0.46207595183026873 -0.31834845619891672 0 -0.46096111539772322 -0.3069557537098867 0 -0.46207595183026873 -0.31834845619891672 0 -0.47203566342767839 -0.31514771464943409 0 -0.48293754746551898 -0.30617437981156609 0 -0.47203566342767839 -0.31514771464943409 0 -0.47770984076123751 -0.32964979107966252 0 -0.48293754746551898 -0.30617437981156609 0 -0.47770984076123751 -0.32964979107966252 0 -0.48293754746551898 -0.30617437981156609 0 -0.48763303240419292 -0.31981883507337211 0 -0.47770984076123751 -0.32964979107966252 0 -0.46855294336124231 -0.32873531729210143 0 -0.47203566342767839 -0.31514771464943409 0 -0.47770984076123751 -0.32964979107966252 0 -0.5 -0.3115730620380921 0 -0.5 -0.33901078862982997 0 -0.49048543526404831 -0.32960291085151988 0 -0.5 -0.3115730620380921 0 -0.48763303240419292 -0.31981883507337211 0 -0.49048543526404831 -0.32960291085151988 0 -0.5 -0.3115730620380921 0 -0.48293754746551898 -0.30617437981156609 0 -0.48763303240419292 -0.31981883507337211 0 -0.48763303240419292 -0.31981883507337211 0 -0.49048543526404831 -0.32960291085151988 0 -0.47770984076123751 -0.32964979107966252 0 -0.49048543526404831 -0.32960291085151988 0 -0.47770984076123751 -0.32964979107966252 0 -0.48708430315481122 -0.3479620774366432 0 -0.5 -0.33901078862982997 0 -0.49048543526404831 -0.32960291085151988 0 -0.48708430315481122 -0.3479620774366432 0 -0.47770984076123751 -0.32964979107966252 0 -0.47248213405695583 -0.35312520234775913 0 -0.47770984076123751 -0.32964979107966252 0 -0.47248213405695583 -0.35312520234775913 0 -0.48708430315481122 -0.3479620774366432 0 -0.46472493826860672 -0.34236766697450172 0 -0.47770984076123751 -0.32964979107966252 0 -0.47248213405695583 -0.35312520234775913 0 -0.46855294336124231 -0.32873531729210143 0 -0.46386644800117471 -0.33586508895417932 0 -0.47770984076123751 -0.32964979107966252 0 -0.46472493826860672 -0.34236766697450172 0 -0.46386644800117471 -0.33586508895417932 0 -0.47770984076123751 -0.32964979107966252 0 -0.47248213405695583 -0.35312520234775913 0 -0.48708430315481122 -0.3479620774366432 0 -0.48422759779560409 -0.37130120630367158 0 -0.5 -0.33901078862982997 0 -0.48708430315481122 -0.3479620774366432 0 -0.5 -0.36644851522156802 0 -0.48708430315481122 -0.3479620774366432 0 -0.5 -0.36644851522156802 0 -0.48422759779560409 -0.37130120630367158 0 -0.46725442735267431 -0.37660061361585562 0 -0.47248213405695583 -0.35312520234775913 0 -0.48422759779560409 -0.37130120630367158 0 -0.46725442735267431 -0.37660061361585562 0 -0.47248213405695583 -0.35312520234775913 0 -0.46725442735267431 -0.37660061361585562 0 -0.4540003998136638 -0.37455519391687309 0 -0.46226041713245919 -0.36267102145096558 0 -0.46725442735267431 -0.37660061361585562 0 -0.47248213405695583 -0.35312520234775913 0 -0.46226041713245919 -0.36267102145096558 0 -0.4540003998136638 -0.37455519391687309 0 -0.46226041713245919 -0.36267102145096558 0 -0.45167034254705118 -0.36337553476545958 0 -0.47248213405695583 -0.35312520234775913 0 -0.46226041713245919 -0.36267102145096558 0 -0.46130034509645268 -0.35111989715704561 0 -0.46472493826860672 -0.34236766697450172 0 -0.47248213405695583 -0.35312520234775913 0 -0.46130034509645268 -0.35111989715704561 0 -0.46472493826860672 -0.34236766697450172 0 -0.46130034509645268 -0.35111989715704561 0 -0.45711636988675219 -0.34547487934353349 0 -0.46130034509645268 -0.35111989715704561 0 -0.45711636988675219 -0.34547487934353349 0 -0.4507851133594416 -0.34910720111649318 0 -0.46226041713245919 -0.36267102145096558 0 -0.4507851133594416 -0.34910720111649318 0 -0.45167034254705118 -0.36337553476545958 0 -0.46226041713245919 -0.36267102145096558 0 -0.46130034509645268 -0.35111989715704561 0 -0.4507851133594416 -0.34910720111649318 0 -0.46226041713245919 -0.36267102145096558 0 -0.4507851133594416 -0.34910720111649318 0 -0.4507851133594416 -0.34910720111649318 0 -0.44504098357239391 -0.35771747353496869 0 -0.45167034254705118 -0.36337553476545958 0 -0.44966367396753332 -0.33841986907325933 0 -0.45711636988675219 -0.34547487934353349 0 -0.4507851133594416 -0.34910720111649318 0 -0.4507851133594416 -0.34910720111649318 0 -0.44408457896710762 -0.34741130507322732 0 -0.44504098357239391 -0.35771747353496869 0 -0.43930980958642257 -0.33554338078202212 0 -0.4507851133594416 -0.34910720111649318 0 -0.44408457896710762 -0.34741130507322732 0 -0.44408457896710762 -0.34741130507322732 0 -0.43834809566141358 -0.35386966642967582 0 -0.4310745521241639 -0.35060051531725012 0 -0.44408457896710762 -0.34741130507322732 0 -0.43834809566141358 -0.35386966642967582 0 -0.44504098357239391 -0.35771747353496869 0 -0.43834809566141358 -0.35386966642967582 0 -0.44504098357239391 -0.35771747353496869 0 -0.43256408976529492 -0.36260533289695268 0 -0.44504098357239391 -0.35771747353496869 0 -0.44172858264042247 -0.37082207246888088 0 -0.43256408976529492 -0.36260533289695268 0 -0.4540003998136638 -0.37455519391687309 0 -0.44172858264042247 -0.37082207246888088 0 -0.45167034254705118 -0.36337553476545958 0 -0.44504098357239391 -0.35771747353496869 0 -0.44172858264042247 -0.37082207246888088 0 -0.45167034254705118 -0.36337553476545958 0 -0.42311368847744002 -0.37830224279505142 0 -0.44172858264042247 -0.37082207246888088 0 -0.43256408976529492 -0.36260533289695268 0 -0.42311368847744002 -0.37830224279505142 0 -0.43256408976529492 -0.36260533289695268 0 -0.41867380740831611 -0.36398836527224071 0 -0.43256408976529492 -0.36260533289695268 0 -0.42210656065146929 -0.35476551363046099 0 -0.41867380740831611 -0.36398836527224071 0 -0.44408457896710762 -0.34741130507322732 0 -0.4310745521241639 -0.35060051531725012 0 -0.42443636388738298 -0.3390060521705498 0 -0.43834809566141358 -0.35386966642967582 0 -0.43256408976529492 -0.36260533289695268 0 -0.4310745521241639 -0.35060051531725012 0 -0.4310745521241639 -0.35060051531725012 0 -0.42266042161335821 -0.34652378860874011 0 -0.42210656065146929 -0.35476551363046099 0 -0.4310745521241639 -0.35060051531725012 0 -0.42266042161335821 -0.34652378860874011 0 -0.42443636388738298 -0.3390060521705498 0 -0.43256408976529492 -0.36260533289695268 0 -0.4310745521241639 -0.35060051531725012 0 -0.42210656065146929 -0.35476551363046099 0 -0.42210656065146929 -0.35476551363046099 0 -0.41243440171204931 -0.35621682403100541 0 -0.41867380740831611 -0.36398836527224071 0 -0.41243440171204931 -0.35621682403100541 0 -0.40365717239196519 -0.36741535175059892 0 -0.40302160193259851 -0.3439916005776541 0 -0.42210656065146929 -0.35476551363046099 0 -0.41714587076776338 -0.34786779488983011 0 -0.41243440171204931 -0.35621682403100541 0 -0.42266042161335821 -0.34652378860874011 0 -0.42210656065146929 -0.35476551363046099 0 -0.41714587076776338 -0.34786779488983011 0 -0.42266042161335821 -0.34652378860874011 0 -0.41714587076776338 -0.34786779488983011 0 -0.41853876063601031 -0.34037906703560689 0 -0.41714587076776338 -0.34786779488983011 0 -0.41853876063601031 -0.34037906703560689 0 -0.41714587076776338 -0.34786779488983011 0 -0.41243440171204931 -0.35621682403100541 0 -0.40302160193259851 -0.3439916005776541 0 -0.41714587076776338 -0.34786779488983011 0 -0.40302160193259851 -0.3439916005776541 0 -0.41853876063601031 -0.34037906703560689 0 -0.42311368847744002 -0.37830224279505142 0 -0.41867380740831611 -0.36398836527224071 0 -0.40365717239196519 -0.36741535175059892 0 -0.42311368847744002 -0.37830224279505142 0 -0.40365717239196519 -0.36741535175059892 0 -0.41243440171204931 -0.35621682403100541 0 -0.41867380740831611 -0.36398836527224071 0 -0.40365717239196519 -0.36741535175059892 0 -0.40403491357358612 -0.38133688525744702 0 -0.40365717239196519 -0.36741535175059892 0 -0.40403491357358612 -0.38133688525744702 0 -0.40365717239196519 -0.36741535175059892 0 -0.3904578797192948 -0.37473938743617019 0 -0.40365717239196519 -0.36741535175059892 0 -0.38979507995825918 -0.35965881973269581 0 -0.40365717239196519 -0.36741535175059892 0 -0.3904578797192948 -0.37473938743617019 0 -0.38979507995825918 -0.35965881973269581 0 -0.3904578797192948 -0.37473938743617019 0 -0.38979507995825918 -0.35965881973269581 0 -0.37568304780698558 -0.36916333065311507 0 -0.37568304780698558 -0.36916333065311507 0 -0.37593298752455201 -0.35190228771479481 0 -0.38979507995825918 -0.35965881973269581 0 -0.37568304780698558 -0.36916333065311507 0 -0.37593298752455201 -0.35190228771479481 0 -0.38979507995825918 -0.35965881973269581 0 -0.37595629511297179 -0.35029264644438168 0 -0.40302160193259851 -0.3439916005776541 0 -0.37595629511297179 -0.35029264644438168 0 -0.40302160193259851 -0.3439916005776541 0 -0.38842354837557669 -0.33756560667471242 0 -0.37595629511297179 -0.35029264644438168 0 -0.40302160193259851 -0.3439916005776541 0 -0.37595629511297179 -0.35029264644438168 0 -0.37607676276689278 -0.3419730509543204 0 -0.37390838074359528 -0.35076941925389299 0 -0.37595629511297179 -0.35029264644438168 0 -0.37607676276689278 -0.3419730509543204 0 -0.37595629511297179 -0.35029264644438168 0 -0.37593298752455201 -0.35190228771479481 0 -0.37390838074359528 -0.35076941925389299 0 -0.37595629511297179 -0.35029264644438168 0 -0.37593298752455201 -0.35190228771479481 0 -0.38979507995825918 -0.35965881973269581 0 -0.37595629511297179 -0.35029264644438168 0 -0.37593298752455201 -0.35190228771479481 0 -0.38979507995825918 -0.35965881973269581 0 -0.37593298752455201 -0.35190228771479481 0 -0.40365717239196519 -0.36741535175059892 0 -0.40302160193259851 -0.3439916005776541 0 -0.40365717239196519 -0.36741535175059892 0 -0.38979507995825918 -0.35965881973269581 0 -0.40302160193259851 -0.3439916005776541 0 -0.40302160193259851 -0.3439916005776541 0 -0.40263324863316441 -0.32967896077653092 0 -0.40263324863316441 -0.32967896077653092 0 -0.38842354837557669 -0.33756560667471242 0 -0.38442983343225828 -0.32189177462067481 0 -0.40302160193259851 -0.3439916005776541 0 -0.40263324863316441 -0.32967896077653092 0 -0.38842354837557669 -0.33756560667471242 0 -0.37607676276689278 -0.3419730509543204 0 -0.37641717267996733 -0.3184640617331177 0 -0.38842354837557669 -0.33756560667471242 0 -0.37607676276689278 -0.3419730509543204 0 -0.38442983343225828 -0.32189177462067481 0 -0.37607676276689278 -0.3419730509543204 0 -0.38442983343225828 -0.32189177462067481 0 -0.37595629511297179 -0.35029264644438168 0 -0.38842354837557669 -0.33756560667471242 0 -0.37607676276689278 -0.3419730509543204 0 -0.37607676276689278 -0.3419730509543204 0 -0.37641717267996733 -0.3184640617331177 0 -0.38442983343225828 -0.32189177462067481 0 -0.37641717267996733 -0.3184640617331177 0 -0.38442983343225828 -0.32189177462067481 0 -0.3841914044669909 -0.30132118344037401 0 -0.37641717267996733 -0.3184640617331177 0 -0.38442983343225828 -0.32189177462067481 0 -0.40263324863316441 -0.32967896077653092 0 -0.38442983343225828 -0.32189177462067481 0 -0.40185461233875269 -0.30098256284660307 0 -0.40263324863316441 -0.32967896077653092 0 -0.38442983343225828 -0.32189177462067481 0 -0.40263324863316441 -0.32967896077653092 0 -0.40185461233875269 -0.30098256284660307 0 -0.40263324863316441 -0.32967896077653092 0 -0.41242695344044827 -0.31820451366256841 0 -0.40185461233875269 -0.30098256284660307 0 -0.41242695344044827 -0.31820451366256841 0 -0.41920998916455232 -0.33677027649670849 0 -0.42301959421646518 -0.31628833020920039 0 -0.41920998916455232 -0.33677027649670849 0 -0.42301959421646518 -0.31628833020920039 0 -0.41242695344044827 -0.31820451366256841 0 -0.42301959421646518 -0.31628833020920039 0 -0.41541732284930832 -0.30730243798379953 0 -0.40302160193259851 -0.3439916005776541 0 -0.41920998916455232 -0.33677027649670849 0 -0.41853876063601031 -0.34037906703560689 0 -0.40302160193259851 -0.3439916005776541 0 -0.40263324863316441 -0.32967896077653092 0 -0.41920998916455232 -0.33677027649670849 0 -0.40263324863316441 -0.32967896077653092 0 -0.41920998916455232 -0.33677027649670849 0 -0.40263324863316441 -0.32967896077653092 0 -0.41242695344044827 -0.31820451366256841 0 -0.41920998916455232 -0.33677027649670849 0 -0.40302160193259851 -0.3439916005776541 0 -0.41853876063601031 -0.34037906703560689 0 -0.41853876063601031 -0.34037906703560689 0 -0.42443636388738298 -0.3390060521705498 0 -0.41920998916455232 -0.33677027649670849 0 -0.42443636388738298 -0.3390060521705498 0 -0.41920998916455232 -0.33677027649670849 0 -0.41853876063601031 -0.34037906703560689 0 -0.42443636388738298 -0.3390060521705498 0 -0.41920998916455232 -0.33677027649670849 0 -0.41853876063601031 -0.34037906703560689 0 -0.43930980958642257 -0.33554338078202212 0 -0.44408457896710762 -0.34741130507322732 0 -0.42443636388738298 -0.3390060521705498 0 -0.43930980958642257 -0.33554338078202212 0 -0.42443636388738298 -0.3390060521705498 0 -0.42301959421646518 -0.31628833020920039 0 -0.41920998916455232 -0.33677027649670849 0 -0.42443636388738298 -0.3390060521705498 0 -0.42301959421646518 -0.31628833020920039 0 -0.44408457896710762 -0.34741130507322732 0 -0.42443636388738298 -0.3390060521705498 0 -0.42266042161335821 -0.34652378860874011 0 -0.41853876063601031 -0.34037906703560689 0 -0.42443636388738298 -0.3390060521705498 0 -0.43930980958642257 -0.33554338078202212 0 -0.42443636388738298 -0.3390060521705498 0 -0.43930980958642257 -0.33554338078202212 0 -0.42301959421646518 -0.31628833020920039 0 -0.44024276041750632 -0.31887045497680111 0 -0.42395130998641067 -0.31127905704434472 0 -0.44024276041750632 -0.31887045497680111 0 -0.43930980958642257 -0.33554338078202212 0 -0.42301959421646518 -0.31628833020920039 0 -0.44024276041750632 -0.31887045497680111 0 -0.42301959421646518 -0.31628833020920039 0 -0.42395130998641067 -0.31127905704434472 0 -0.42301959421646518 -0.31628833020920039 0 -0.42395130998641067 -0.31127905704434472 0 -0.42395130998641067 -0.31127905704434472 0 -0.42709180872781188 -0.29439449141065738 0 -0.44024276041750632 -0.31887045497680111 0 -0.42395130998641067 -0.31127905704434472 0 -0.43527018611072049 -0.30465000121327751 0 -0.42395130998641067 -0.31127905704434472 0 -0.42709180872781188 -0.29439449141065738 0 -0.41541732284930832 -0.30730243798379953 0 -0.42395130998641067 -0.31127905704434472 0 -0.43527018611072049 -0.30465000121327751 0 -0.42709180872781188 -0.29439449141065738 0 -0.441361257405879 -0.29303276451920029 0 -0.43527018611072049 -0.30465000121327751 0 -0.42709180872781188 -0.29439449141065738 0 -0.42709180872781188 -0.29439449141065738 0 -0.43077531442077321 -0.27459050524281542 0 -0.42709180872781188 -0.29439449141065738 0 -0.41684225135067149 -0.28376244362903152 0 -0.43077531442077321 -0.27459050524281542 0 -0.441361257405879 -0.29303276451920029 0 -0.42709180872781188 -0.29439449141065738 0 -0.441361257405879 -0.29303276451920029 0 -0.42709180872781188 -0.29439449141065738 0 -0.43077531442077321 -0.27459050524281542 0 -0.42709180872781188 -0.29439449141065738 0 -0.41684225135067149 -0.28376244362903152 0 -0.40618483967714292 -0.29638963380315841 0 -0.42709180872781188 -0.29439449141065738 0 -0.40618483967714292 -0.29638963380315841 0 -0.41684225135067149 -0.28376244362903152 0 -0.40690107601488551 -0.28490397733270861 0 -0.40618483967714292 -0.29638963380315841 0 -0.41541732284930832 -0.30730243798379953 0 -0.40185461233875269 -0.30098256284660307 0 -0.40618483967714292 -0.29638963380315841 0 -0.42709180872781188 -0.29439449141065738 0 -0.41541732284930832 -0.30730243798379953 0 -0.40618483967714292 -0.29638963380315841 0 -0.41541732284930832 -0.30730243798379953 0 -0.40618483967714292 -0.29638963380315841 0 -0.41242695344044827 -0.31820451366256841 0 -0.41541732284930832 -0.30730243798379953 0 -0.40185461233875269 -0.30098256284660307 0 -0.41541732284930832 -0.30730243798379953 0 -0.40185461233875269 -0.30098256284660307 0 -0.42301959421646518 -0.31628833020920039 0 -0.41541732284930832 -0.30730243798379953 0 -0.42395130998641067 -0.31127905704434472 0 -0.41541732284930832 -0.30730243798379953 0 -0.42301959421646518 -0.31628833020920039 0 -0.42395130998641067 -0.31127905704434472 0 -0.41541732284930832 -0.30730243798379953 0 -0.38442983343225828 -0.32189177462067481 0 -0.40185461233875269 -0.30098256284660307 0 -0.39448508010510541 -0.297525044214214 0 -0.40185461233875269 -0.30098256284660307 0 -0.40174149504185092 -0.29681366012781812 0 -0.40618483967714292 -0.29638963380315841 0 -0.40185461233875269 -0.30098256284660307 0 -0.40174149504185092 -0.29681366012781812 0 -0.40185461233875269 -0.30098256284660307 0 -0.39448508010510541 -0.297525044214214 0 -0.40174149504185092 -0.29681366012781812 0 -0.40185461233875269 -0.30098256284660307 0 -0.39448508010510541 -0.297525044214214 0 -0.39448508010510541 -0.297525044214214 0 -0.40174149504185092 -0.29681366012781812 0 -0.37641717267996733 -0.3184640617331177 0 -0.37669606201677502 -0.29920373422444158 0 -0.38442983343225828 -0.32189177462067481 0 -0.39448508010510541 -0.297525044214214 0 -0.38442983343225828 -0.32189177462067481 0 -0.39448508010510541 -0.297525044214214 0 -0.3841914044669909 -0.30132118344037401 0 -0.37641717267996733 -0.3184640617331177 0 -0.3841914044669909 -0.30132118344037401 0 -0.37669606201677502 -0.29920373422444158 0 -0.39448508010510541 -0.297525044214214 0 -0.3841914044669909 -0.30132118344037401 0 -0.37928718982873688 -0.29895646409505849 0 -0.39448508010510541 -0.297525044214214 0 -0.37928718982873688 -0.29895646409505849 0 -0.3841914044669909 -0.30132118344037401 0 -0.37928718982873688 -0.29895646409505849 0 -0.3841914044669909 -0.30132118344037401 0 -0.37928718982873688 -0.29895646409505849 0 -0.37669606201677502 -0.29920373422444158 0 -0.37928718982873688 -0.29895646409505849 0 -0.37669606201677502 -0.29920373422444158 0 -0.37671758341694961 -0.29771744858697219 0 -0.37928718982873688 -0.29895646409505849 0 -0.37671758341694961 -0.29771744858697219 0 -0.37928718982873688 -0.29895646409505849 0 -0.37669606201677502 -0.29920373422444158 0 -0.37669606201677502 -0.29920373422444158 0 -0.37671758341694961 -0.29771744858697219 0 -0.37671758341694961 -0.29771744858697219 0 -0.38607699004493318 -0.28757386461908069 0 -0.38483052758877101 -0.28123782127595193 0 -0.37671758341694961 -0.29771744858697219 0 -0.3770412393053626 -0.27536550612006683 0 -0.37671758341694961 -0.29771744858697219 0 -0.38483052758877101 -0.28123782127595193 0 -0.3770412393053626 -0.27536550612006683 0 -0.37928718982873688 -0.29895646409505849 0 -0.37671758341694961 -0.29771744858697219 0 -0.38467000758835601 -0.29297497791584359 0 -0.37671758341694961 -0.29771744858697219 0 -0.38467000758835601 -0.29297497791584359 0 -0.38607699004493318 -0.28757386461908069 0 -0.39448508010510541 -0.297525044214214 0 -0.37928718982873688 -0.29895646409505849 0 -0.38467000758835601 -0.29297497791584359 0 -0.39448508010510541 -0.297525044214214 0 -0.38467000758835601 -0.29297497791584359 0 -0.39448508010510541 -0.297525044214214 0 -0.38467000758835601 -0.29297497791584359 0 -0.39217701296355612 -0.28987936211692023 0 -0.38467000758835601 -0.29297497791584359 0 -0.38607699004493318 -0.28757386461908069 0 -0.39217701296355612 -0.28987936211692023 0 -0.38607699004493318 -0.28757386461908069 0 -0.39049541959166939 -0.28414526237041138 0 -0.39217701296355612 -0.28987936211692023 0 -0.39049541959166939 -0.28414526237041138 0 -0.39420405367365152 -0.27853706101481662 0 -0.38483052758877101 -0.28123782127595193 0 -0.38607699004493318 -0.28757386461908069 0 -0.39049541959166939 -0.28414526237041138 0 -0.38483052758877101 -0.28123782127595193 0 -0.39597078832761667 -0.28551153658085893 0 -0.40174149504185092 -0.29681366012781812 0 -0.40123596036735593 -0.27818233727432817 0 -0.39049541959166939 -0.28414526237041138 0 -0.39597078832761667 -0.28551153658085893 0 -0.39420405367365152 -0.27853706101481662 0 -0.40174149504185092 -0.29681366012781812 0 -0.40123596036735593 -0.27818233727432817 0 -0.40174149504185092 -0.29681366012781812 0 -0.40322207619149192 -0.29288764445213411 0 -0.40123596036735593 -0.27818233727432817 0 -0.39049541959166939 -0.28414526237041138 0 -0.39597078832761667 -0.28551153658085893 0 -0.39217701296355612 -0.28987936211692023 0 -0.39597078832761667 -0.28551153658085893 0 -0.39217701296355612 -0.28987936211692023 0 -0.40174149504185092 -0.29681366012781812 0 -0.39448508010510541 -0.297525044214214 0 -0.39217701296355612 -0.28987936211692023 0 -0.40174149504185092 -0.29681366012781812 0 -0.40690107601488551 -0.28490397733270861 0 -0.40322207619149192 -0.29288764445213411 0 -0.40618483967714292 -0.29638963380315841 0 -0.40174149504185092 -0.29681366012781812 0 -0.40322207619149192 -0.29288764445213411 0 -0.40618483967714292 -0.29638963380315841 0 -0.40174149504185092 -0.29681366012781812 0 -0.40618483967714292 -0.29638963380315841 0 -0.40322207619149192 -0.29288764445213411 0 -0.40618483967714292 -0.29638963380315841 0 -0.40690107601488551 -0.28490397733270861 0 -0.40322207619149192 -0.29288764445213411 0 -0.40123596036735593 -0.27818233727432817 0 -0.39420405367365152 -0.27853706101481662 0 -0.37710287173325818 -0.2711091198417086 0 -0.40073042569286338 -0.25955101442083811 0 -0.40123596036735593 -0.27818233727432817 0 -0.39420405367365152 -0.27853706101481662 0 -0.40073042569286338 -0.25955101442083811 0 -0.40123596036735593 -0.27818233727432817 0 -0.40073042569286338 -0.25955101442083811 0 -0.40123596036735593 -0.27818233727432817 0 -0.40073042569286338 -0.25955101442083811 0 -0.41341650638623911 -0.27076301679274262 0 -0.39597078832761667 -0.28551153658085893 0 -0.40123596036735593 -0.27818233727432817 0 -0.39420405367365152 -0.27853706101481662 0 -0.39420405367365152 -0.27853706101481662 0 -0.37710287173325818 -0.2711091198417086 0 -0.3770412393053626 -0.27536550612006683 0 -0.39420405367365152 -0.27853706101481662 0 -0.3770412393053626 -0.27536550612006683 0 -0.39420405367365152 -0.27853706101481662 0 -0.38483052758877101 -0.28123782127595193 0 -0.3770412393053626 -0.27536550612006683 0 -0.37710287173325818 -0.2711091198417086 0 -0.3770412393053626 -0.27536550612006683 0 -0.37710287173325818 -0.2711091198417086 0 -0.38543722149146659 -0.25821727905458303 0 -0.40073042569286338 -0.25955101442083811 0 -0.37710287173325818 -0.2711091198417086 0 -0.37747963509906429 -0.24508953120583671 0 -0.37710287173325818 -0.2711091198417086 0 -0.40073042569286338 -0.25955101442083811 0 -0.37710287173325818 -0.2711091198417086 0 -0.38543722149146659 -0.25821727905458303 0 -0.37747963509906429 -0.24508953120583671 0 -0.38543722149146659 -0.25821727905458303 0 -0.3938256931015453 -0.25037754026629511 0 -0.37747963509906429 -0.24508953120583671 0 -0.38543722149146659 -0.25821727905458303 0 -0.3938256931015453 -0.25037754026629511 0 -0.40073042569286338 -0.25955101442083811 0 -0.40073042569286338 -0.25955101442083811 0 -0.40282532782868952 -0.25224285689579767 0 -0.40022281387448849 -0.24084313907701979 0 -0.40073042569286338 -0.25955101442083811 0 -0.40022281387448849 -0.24084313907701979 0 -0.3938256931015453 -0.25037754026629511 0 -0.40073042569286338 -0.25955101442083811 0 -0.40022281387448849 -0.24084313907701979 0 -0.40073042569286338 -0.25955101442083811 0 -0.40282532782868952 -0.25224285689579767 0 -0.41385673751816382 -0.25312989710486528 0 -0.40073042569286338 -0.25955101442083811 0 -0.41385673751816382 -0.25312989710486528 0 -0.40073042569286338 -0.25955101442083811 0 -0.41385673751816382 -0.25312989710486528 0 -0.41341650638623911 -0.27076301679274262 0 -0.41385673751816382 -0.25312989710486528 0 -0.41341650638623911 -0.27076301679274262 0 -0.42312684460972783 -0.26331748455384929 0 -0.41385673751816382 -0.25312989710486528 0 -0.41679144862722167 -0.25169429778568547 0 -0.43445882011373449 -0.25478651907497341 0 -0.40282532782868952 -0.25224285689579767 0 -0.41385673751816382 -0.25312989710486528 0 -0.4086566941719203 -0.24778871483445111 0 -0.40282532782868952 -0.25224285689579767 0 -0.41385673751816382 -0.25312989710486528 0 -0.41385673751816382 -0.25312989710486528 0 -0.41679144862722167 -0.25169429778568547 0 -0.41627810448972868 -0.24641300060905449 0 -0.41385673751816382 -0.25312989710486528 0 -0.41679144862722167 -0.25169429778568547 0 -0.41684225135067149 -0.28376244362903152 0 -0.41341650638623911 -0.27076301679274262 0 -0.43077531442077321 -0.27459050524281542 0 -0.40690107601488551 -0.28490397733270861 0 -0.40123596036735593 -0.27818233727432817 0 -0.41341650638623911 -0.27076301679274262 0 -0.41684225135067149 -0.28376244362903152 0 -0.40690107601488551 -0.28490397733270861 0 -0.41341650638623911 -0.27076301679274262 0 -0.41341650638623911 -0.27076301679274262 0 -0.43077531442077321 -0.27459050524281542 0 -0.42312684460972783 -0.26331748455384929 0 -0.43077531442077321 -0.27459050524281542 0 -0.42312684460972783 -0.26331748455384929 0 -0.43445882011373449 -0.25478651907497341 0 -0.41385673751816382 -0.25312989710486528 0 -0.43445882011373449 -0.25478651907497341 0 -0.43077531442077321 -0.27459050524281542 0 -0.43445882011373449 -0.25478651907497341 0 -0.41385673751816382 -0.25312989710486528 0 -0.42312684460972783 -0.26331748455384929 0 -0.43445882011373449 -0.25478651907497341 0 -0.41679144862722167 -0.25169429778568547 0 -0.43445882011373449 -0.25478651907497341 0 -0.42335340856967768 -0.24893549408922019 0 -0.32580796388430833 -0.26195871891040218 0 -0.34139866608006603 -0.2687790352098644 0 -0.31202674084989918 -0.26335133138269068 0 -0.32580796388430833 -0.26195871891040218 0 -0.33345250408021371 -0.25331871279766999 0 -0.32023222063025569 -0.2489608815952247 0 -0.32580796388430833 -0.26195871891040218 0 -0.31664960680882542 -0.25714232151458272 0 -0.32023222063025569 -0.2489608815952247 0 -0.31664960680882542 -0.25714232151458272 0 -0.30853150187083839 -0.25429835417001312 0 -0.32023222063025569 -0.2489608815952247 0 -0.32580796388430833 -0.26195871891040218 0 -0.31664960680882542 -0.25714232151458272 0 -0.31202674084989918 -0.26335133138269068 0 -0.33223611708196649 -0.27626932861073827 0 -0.31972670239926188 -0.28454160199560091 0 -0.31187737399160442 -0.27618124236115132 0 -0.34139866608006603 -0.2687790352098644 0 -0.31202674084989918 -0.26335133138269068 0 -0.33223611708196649 -0.27626932861073827 0 -0.31202674084989918 -0.26335133138269068 0 -0.3062135479255173 -0.26372173898871692 0 -0.33223611708196649 -0.27626932861073827 0 -0.31187737399160442 -0.27618124236115132 0 -0.3062135479255173 -0.26372173898871692 0 -0.33260241140844943 -0.2743168067351805 0 -0.33223611708196649 -0.27626932861073827 0 -0.31202674084989918 -0.26335133138269068 0 -0.33223611708196649 -0.27626932861073827 0 -0.3062135479255173 -0.26372173898871692 0 -0.33260241140844943 -0.2743168067351805 0 -0.34139866608006603 -0.2687790352098644 0 -0.31202674084989918 -0.26335133138269068 0 -0.33223611708196649 -0.27626932861073827 0 -0.34139866608006603 -0.2687790352098644 0 -0.34951875912658742 -0.28460269103381453 0 -0.33223611708196649 -0.27626932861073827 0 -0.34951875912658742 -0.28460269103381453 0 -0.33260241140844943 -0.2743168067351805 0 -0.33223611708196649 -0.27626932861073827 0 -0.34139866608006603 -0.2687790352098644 0 -0.33260241140844943 -0.2743168067351805 0 -0.33223611708196649 -0.27626932861073827 0 -0.34139866608006603 -0.2687790352098644 0 -0.3363084638556994 -0.26041051377605268 0 -0.34457472137820933 -0.25758558818627408 0 -0.32580796388430833 -0.26195871891040218 0 -0.34139866608006603 -0.2687790352098644 0 -0.3363084638556994 -0.26041051377605268 0 -0.32580796388430833 -0.26195871891040218 0 -0.3363084638556994 -0.26041051377605268 0 -0.33345250408021371 -0.25331871279766999 0 -0.3363084638556994 -0.26041051377605268 0 -0.33345250408021371 -0.25331871279766999 0 -0.34457472137820933 -0.25758558818627408 0 -0.33345250408021371 -0.25331871279766999 0 -0.34457472137820933 -0.25758558818627408 0 -0.34395992200845399 -0.24382677409400949 0 -0.34139866608006603 -0.2687790352098644 0 -0.34457472137820933 -0.25758558818627408 0 -0.35733732661955131 -0.26288598862094092 0 -0.34457472137820933 -0.25758558818627408 0 -0.35872453044413888 -0.25078889886649508 0 -0.34395992200845399 -0.24382677409400949 0 -0.34457472137820933 -0.25758558818627408 0 -0.35733732661955131 -0.26288598862094092 0 -0.35872453044413888 -0.25078889886649508 0 -0.37710287173325818 -0.2711091198417086 0 -0.36828299104124951 -0.26081605551440462 0 -0.37747963509906429 -0.24508953120583671 0 -0.35872453044413888 -0.25078889886649508 0 -0.36828299104124951 -0.26081605551440462 0 -0.37747963509906429 -0.24508953120583671 0 -0.35733732661955131 -0.26288598862094092 0 -0.35872453044413888 -0.25078889886649508 0 -0.36828299104124951 -0.26081605551440462 0 -0.37077059131023282 -0.27420673903703829 0 -0.34951875912658742 -0.28460269103381453 0 -0.37710287173325818 -0.2711091198417086 0 -0.3770412393053626 -0.27536550612006683 0 -0.37077059131023282 -0.27420673903703829 0 -0.3770412393053626 -0.27536550612006683 0 -0.37077059131023282 -0.27420673903703829 0 -0.37710287173325818 -0.2711091198417086 0 -0.36828299104124951 -0.26081605551440462 0 -0.37077059131023282 -0.27420673903703829 0 -0.37710287173325818 -0.2711091198417086 0 -0.37077059131023282 -0.27420673903703829 0 -0.35733732661955131 -0.26288598862094092 0 -0.36828299104124951 -0.26081605551440462 0 -0.37077059131023282 -0.27420673903703829 0 -0.34139866608006603 -0.2687790352098644 0 -0.35733732661955131 -0.26288598862094092 0 -0.37077059131023282 -0.27420673903703829 0 -0.34139866608006603 -0.2687790352098644 0 -0.37077059131023282 -0.27420673903703829 0 -0.34951875912658742 -0.28460269103381453 0 -0.34139866608006603 -0.2687790352098644 0 -0.37077059131023282 -0.27420673903703829 0 -0.34951875912658742 -0.28460269103381453 0 -0.3581763596052473 -0.30097106086504849 0 -0.34010739644885768 -0.2892065328944351 0 -0.34951875912658742 -0.28460269103381453 0 -0.34010739644885768 -0.2892065328944351 0 -0.37671758341694961 -0.29771744858697219 0 -0.37077059131023282 -0.27420673903703829 0 -0.34951875912658742 -0.28460269103381453 0 -0.37671758341694961 -0.29771744858697219 0 -0.34951875912658742 -0.28460269103381453 0 -0.37671758341694961 -0.29771744858697219 0 -0.3770412393053626 -0.27536550612006683 0 -0.37077059131023282 -0.27420673903703829 0 -0.37671758341694961 -0.29771744858697219 0 -0.34951875912658742 -0.28460269103381453 0 -0.3581763596052473 -0.30097106086504849 0 -0.37669606201677502 -0.29920373422444158 0 -0.37671758341694961 -0.29771744858697219 0 -0.3581763596052473 -0.30097106086504849 0 -0.37641717267996733 -0.3184640617331177 0 -0.37669606201677502 -0.29920373422444158 0 -0.36799370156123501 -0.30592930732763762 0 -0.37641717267996733 -0.3184640617331177 0 -0.36799370156123501 -0.30592930732763762 0 -0.35803691493684492 -0.31060122461938489 0 -0.37669606201677502 -0.29920373422444158 0 -0.36799370156123501 -0.30592930732763762 0 -0.3581763596052473 -0.30097106086504849 0 -0.37669606201677502 -0.29920373422444158 0 -0.3581763596052473 -0.30097106086504849 0 -0.36799370156123501 -0.30592930732763762 0 -0.35803691493684492 -0.31060122461938489 0 -0.3581763596052473 -0.30097106086504849 0 -0.35803691493684492 -0.31060122461938489 0 -0.33965665719371979 -0.30273838750565862 0 -0.35803691493684492 -0.31060122461938489 0 -0.33965665719371979 -0.30273838750565862 0 -0.34514704515453298 -0.31300544250539297 0 -0.3581763596052473 -0.30097106086504849 0 -0.33965665719371979 -0.30273838750565862 0 -0.34010739644885768 -0.2892065328944351 0 -0.35803691493684492 -0.31060122461938489 0 -0.3581763596052473 -0.30097106086504849 0 -0.33965665719371979 -0.30273838750565862 0 -0.3581763596052473 -0.30097106086504849 0 -0.33965665719371979 -0.30273838750565862 0 -0.33676996251121621 -0.31158184422573892 0 -0.33965665719371979 -0.30273838750565862 0 -0.34514704515453298 -0.31300544250539297 0 -0.33676996251121621 -0.31158184422573892 0 -0.33965665719371979 -0.30273838750565862 0 -0.32704471803945162 -0.30394193902942662 0 -0.33676996251121621 -0.31158184422573892 0 -0.32594772137393307 -0.30978944971135602 0 -0.32704471803945162 -0.30394193902942662 0 -0.33965665719371979 -0.30273838750565862 0 -0.32704471803945162 -0.30394193902942662 0 -0.32819068517220462 -0.29783339261299951 0 -0.33965665719371979 -0.30273838750565862 0 -0.32704471803945162 -0.30394193902942662 0 -0.32819068517220462 -0.29783339261299951 0 -0.33965665719371979 -0.30273838750565862 0 -0.33223611708196649 -0.27626932861073827 0 -0.32819068517220462 -0.29783339261299951 0 -0.33223611708196649 -0.27626932861073827 0 -0.32819068517220462 -0.29783339261299951 0 -0.34010739644885768 -0.2892065328944351 0 -0.33223611708196649 -0.27626932861073827 0 -0.34951875912658742 -0.28460269103381453 0 -0.34010739644885768 -0.2892065328944351 0 -0.32819068517220462 -0.29783339261299951 0 -0.33965665719371979 -0.30273838750565862 0 -0.34010739644885768 -0.2892065328944351 0 -0.32819068517220462 -0.29783339261299951 0 -0.31972670239926188 -0.28454160199560091 0 -0.31332574866090718 -0.291474364566292 0 -0.32819068517220462 -0.29783339261299951 0 -0.31332574866090718 -0.291474364566292 0 -0.33223611708196649 -0.27626932861073827 0 -0.32819068517220462 -0.29783339261299951 0 -0.31972670239926188 -0.28454160199560091 0 -0.31972670239926188 -0.28454160199560091 0 -0.31332574866090718 -0.291474364566292 0 -0.30937392239009109 -0.28339120160471948 0 -0.31972670239926188 -0.28454160199560091 0 -0.30937392239009109 -0.28339120160471948 0 -0.31187737399160442 -0.27618124236115132 0 -0.31992409361072222 -0.30462145692723192 0 -0.32594772137393307 -0.30978944971135602 0 -0.31307430431717392 -0.31869978567557272 0 -0.31992409361072222 -0.30462145692723192 0 -0.32594772137393307 -0.30978944971135602 0 -0.32594772137393307 -0.30978944971135602 0 -0.32704471803945162 -0.30394193902942662 0 -0.31992409361072222 -0.30462145692723192 0 -0.32594772137393307 -0.30978944971135602 0 -0.32704471803945162 -0.30394193902942662 0 -0.32819068517220462 -0.29783339261299951 0 -0.31332574866090718 -0.291474364566292 0 -0.31992409361072222 -0.30462145692723192 0 -0.32819068517220462 -0.29783339261299951 0 -0.32704471803945162 -0.30394193902942662 0 -0.32819068517220462 -0.29783339261299951 0 -0.31992409361072222 -0.30462145692723192 0 -0.32704471803945162 -0.30394193902942662 0 -0.31992409361072222 -0.30462145692723192 0 -0.32704471803945162 -0.30394193902942662 0 -0.32594772137393307 -0.30978944971135602 0 -0.31307430431717392 -0.31869978567557272 0 -0.32184288384298337 -0.33167017375041419 0 -0.32594772137393307 -0.30978944971135602 0 -0.32184288384298337 -0.33167017375041419 0 -0.32184288384298337 -0.33167017375041419 0 -0.31773804631203251 -0.35355089778947202 0 -0.32184288384298337 -0.33167017375041419 0 -0.34475024534571441 -0.34586667392980902 0 -0.31773804631203251 -0.35355089778947202 0 -0.32184288384298337 -0.33167017375041419 0 -0.34612464597635118 -0.32710031367078812 0 -0.34475024534571441 -0.34586667392980902 0 -0.33676996251121621 -0.31158184422573892 0 -0.32594772137393307 -0.30978944971135602 0 -0.34612464597635118 -0.32710031367078812 0 -0.32594772137393307 -0.30978944971135602 0 -0.34612464597635118 -0.32710031367078812 0 -0.32594772137393307 -0.30978944971135602 0 -0.32184288384298337 -0.33167017375041419 0 -0.34612464597635118 -0.32710031367078812 0 -0.33676996251121621 -0.31158184422573892 0 -0.34514704515453298 -0.31300544250539297 0 -0.34612464597635118 -0.32710031367078812 0 -0.35803691493684492 -0.31060122461938489 0 -0.34514704515453298 -0.31300544250539297 0 -0.34612464597635118 -0.32710031367078812 0 -0.35803691493684492 -0.31060122461938489 0 -0.34612464597635118 -0.32710031367078812 0 -0.35600230731325749 -0.33324145173106873 0 -0.37641717267996733 -0.3184640617331177 0 -0.35803691493684492 -0.31060122461938489 0 -0.37641717267996733 -0.3184640617331177 0 -0.35803691493684492 -0.31060122461938489 0 -0.36719759625642318 -0.33008752154143739 0 -0.35803691493684492 -0.31060122461938489 0 -0.36719759625642318 -0.33008752154143739 0 -0.35600230731325749 -0.33324145173106873 0 -0.37607676276689278 -0.3419730509543204 0 -0.37641717267996733 -0.3184640617331177 0 -0.36719759625642318 -0.33008752154143739 0 -0.37607676276689278 -0.3419730509543204 0 -0.3688763256213185 -0.34309961767568647 0 -0.36719759625642318 -0.33008752154143739 0 -0.36719759625642318 -0.33008752154143739 0 -0.36118874601324108 -0.3436521492952741 0 -0.35600230731325749 -0.33324145173106873 0 -0.3688763256213185 -0.34309961767568647 0 -0.36719759625642318 -0.33008752154143739 0 -0.36118874601324108 -0.3436521492952741 0 -0.34612464597635118 -0.32710031367078812 0 -0.35600230731325749 -0.33324145173106873 0 -0.34475024534571441 -0.34586667392980902 0 -0.36118874601324108 -0.3436521492952741 0 -0.35600230731325749 -0.33324145173106873 0 -0.34475024534571441 -0.34586667392980902 0 -0.36118874601324108 -0.3436521492952741 0 -0.34475024534571441 -0.34586667392980902 0 -0.35925477447714671 -0.35134479444962452 0 -0.34475024534571441 -0.34586667392980902 0 -0.35480891830463612 -0.3592101017575729 0 -0.33937201587241012 -0.36587749477948078 0 -0.34475024534571441 -0.34586667392980902 0 -0.35480891830463612 -0.3592101017575729 0 -0.35925477447714671 -0.35134479444962452 0 -0.36118874601324108 -0.3436521492952741 0 -0.37225797237559449 -0.35115364910559932 0 -0.36118874601324108 -0.3436521492952741 0 -0.35925477447714671 -0.35134479444962452 0 -0.36985982957495511 -0.35171195823109852 0 -0.37568304780698558 -0.36916333065311507 0 -0.37593298752455201 -0.35190228771479481 0 -0.37225797237559449 -0.35115364910559932 0 -0.35480891830463612 -0.3592101017575729 0 -0.35925477447714671 -0.35134479444962452 0 -0.36985982957495511 -0.35171195823109852 0 -0.37607676276689278 -0.3419730509543204 0 -0.3688763256213185 -0.34309961767568647 0 -0.37225797237559449 -0.35115364910559932 0 -0.37607676276689278 -0.3419730509543204 0 -0.37225797237559449 -0.35115364910559932 0 -0.37607676276689278 -0.3419730509543204 0 -0.37390838074359528 -0.35076941925389299 0 -0.37225797237559449 -0.35115364910559932 0 -0.37593298752455201 -0.35190228771479481 0 -0.37390838074359528 -0.35076941925389299 0 -0.37225797237559449 -0.35115364910559932 0 -0.3688763256213185 -0.34309961767568647 0 -0.36118874601324108 -0.3436521492952741 0 -0.37225797237559449 -0.35115364910559932 0 -0.37593298752455201 -0.35190228771479481 0 -0.37390838074359528 -0.35076941925389299 0 -0.36118874601324108 -0.3436521492952741 0 -0.36985982957495511 -0.35171195823109852 0 -0.37225797237559449 -0.35115364910559932 0 -0.37595629511297179 -0.35029264644438168 0 -0.37390838074359528 -0.35076941925389299 0 -0.37390838074359528 -0.35076941925389299 0 -0.37225797237559449 -0.35115364910559932 0 -0.36985982957495511 -0.35171195823109852 0 -0.37225797237559449 -0.35115364910559932 0 -0.37568304780698558 -0.36916333065311507 0 -0.37225797237559449 -0.35115364910559932 0 -0.36100598543278789 -0.37820409176948921 0 -0.35480891830463612 -0.3592101017575729 0 -0.36985982957495511 -0.35171195823109852 0 -0.36100598543278789 -0.37820409176948921 0 -0.36985982957495511 -0.35171195823109852 0 -0.37225797237559449 -0.35115364910559932 0 -0.36100598543278789 -0.37820409176948921 0 -0.37225797237559449 -0.35115364910559932 0 -0.36100598543278789 -0.37820409176948921 0 -0.33937201587241012 -0.36587749477948078 0 -0.36100598543278789 -0.37820409176948921 0 -0.35480891830463612 -0.3592101017575729 0 -0.33937201587241012 -0.36587749477948078 0 -0.36100598543278789 -0.37820409176948921 0 -0.33937201587241012 -0.36587749477948078 0 -0.31773804631203251 -0.35355089778947202 0 -0.33937201587241012 -0.36587749477948078 0 -0.31773804631203251 -0.35355089778947202 0 -0.32803705280137402 -0.37447550275240871 0 -0.34475024534571441 -0.34586667392980902 0 -0.33937201587241012 -0.36587749477948078 0 -0.31773804631203251 -0.35355089778947202 0 -0.31773804631203251 -0.35355089778947202 0 -0.31381007312398762 -0.37448885129246268 0 -0.31773804631203251 -0.35355089778947202 0 -0.31381007312398762 -0.37448885129246268 0 -0.32803705280137402 -0.37447550275240871 0 -0.31381007312398762 -0.37448885129246268 0 -0.29871455833571747 -0.36148408621311728 0 -0.29196992941862432 -0.3825632544476108 0 -0.31773804631203251 -0.35355089778947202 0 -0.31381007312398762 -0.37448885129246268 0 -0.29871455833571747 -0.36148408621311728 0 -0.31773804631203251 -0.35355089778947202 0 -0.29871455833571747 -0.36148408621311728 0 -0.29282778547957722 -0.33935753649529382 0 -0.31773804631203251 -0.35355089778947202 0 -0.29282778547957722 -0.33935753649529382 0 -0.29871455833571747 -0.36148408621311728 0 -0.27675503022224163 -0.36681377825091099 0 -0.29282778547957722 -0.33935753649529382 0 -0.29871455833571747 -0.36148408621311728 0 -0.27675503022224163 -0.36681377825091099 0 -0.29196992941862432 -0.3825632544476108 0 -0.27675503022224163 -0.36681377825091099 0 -0.25757508569408222 -0.36424633604315798 0 -0.26546808025963542 -0.34847395767735678 0 -0.27675503022224163 -0.36681377825091099 0 -0.25757508569408222 -0.36424633604315798 0 -0.25812358553267323 -0.37605355791306738 0 -0.25757508569408222 -0.36424633604315798 0 -0.24839247009954951 -0.37292447016044328 0 -0.24532753696728959 -0.36501789644951049 0 -0.25757508569408222 -0.36424633604315798 0 -0.25812358553267323 -0.37605355791306738 0 -0.24839247009954951 -0.37292447016044328 0 -0.25757508569408222 -0.36424633604315798 0 -0.26546808025963542 -0.34847395767735678 0 -0.24650166737573331 -0.3569693529562265 0 -0.26546808025963542 -0.34847395767735678 0 -0.24650166737573331 -0.3569693529562265 0 -0.24881121389389799 -0.33838995723746451 0 -0.27675503022224163 -0.36681377825091099 0 -0.26546808025963542 -0.34847395767735678 0 -0.29282778547957722 -0.33935753649529382 0 -0.26791752464712137 -0.32516417520111718 0 -0.27544300416693679 -0.31995488319631832 0 -0.29282778547957722 -0.33935753649529382 0 -0.26546808025963542 -0.34847395767735678 0 -0.26791752464712137 -0.32516417520111718 0 -0.29282778547957722 -0.33935753649529382 0 -0.26791752464712137 -0.32516417520111718 0 -0.29282778547957722 -0.33935753649529382 0 -0.26791752464712137 -0.32516417520111718 0 -0.24881121389389799 -0.33838995723746451 0 -0.26546808025963542 -0.34847395767735678 0 -0.26791752464712137 -0.32516417520111718 0 -0.24881121389389799 -0.33838995723746451 0 -0.26791752464712137 -0.32516417520111718 0 -0.24881121389389799 -0.33838995723746451 0 -0.2441082332202735 -0.32380704628422963 0 -0.26791752464712137 -0.32516417520111718 0 -0.2444966906846206 -0.31181945912301329 0 -0.26791752464712137 -0.32516417520111718 0 -0.26963915832665503 -0.30942012505775762 0 -0.2444966906846206 -0.31181945912301329 0 -0.26791752464712137 -0.32516417520111718 0 -0.2441082332202735 -0.32380704628422963 0 -0.2444966906846206 -0.31181945912301329 0 -0.26791752464712137 -0.32516417520111718 0 -0.27544300416693679 -0.31995488319631832 0 -0.26963915832665503 -0.30942012505775762 0 -0.26791752464712137 -0.32516417520111718 0 -0.27544300416693679 -0.31995488319631832 0 -0.27544300416693679 -0.31995488319631832 0 -0.29403167998309421 -0.32125824908992018 0 -0.29478162596868879 -0.30702079099249591 0 -0.27544300416693679 -0.31995488319631832 0 -0.29403167998309421 -0.32125824908992018 0 -0.29282778547957722 -0.33935753649529382 0 -0.31307430431717392 -0.31869978567557272 0 -0.32184288384298337 -0.33167017375041419 0 -0.29282778547957722 -0.33935753649529382 0 -0.32184288384298337 -0.33167017375041419 0 -0.31773804631203251 -0.35355089778947202 0 -0.29282778547957722 -0.33935753649529382 0 -0.31307430431717392 -0.31869978567557272 0 -0.29403167998309421 -0.32125824908992018 0 -0.29282778547957722 -0.33935753649529382 0 -0.31307430431717392 -0.31869978567557272 0 -0.29403167998309421 -0.32125824908992018 0 -0.29478162596868879 -0.30702079099249591 0 -0.31992409361072222 -0.30462145692723192 0 -0.29478162596868879 -0.30702079099249591 0 -0.31992409361072222 -0.30462145692723192 0 -0.31307430431717392 -0.31869978567557272 0 -0.29478162596868879 -0.30702079099249591 0 -0.31992409361072222 -0.30462145692723192 0 -0.30687808727867438 -0.29770175581860719 0 -0.29478162596868879 -0.30702079099249591 0 -0.30687808727867438 -0.29770175581860719 0 -0.29813438661480679 -0.29530641477552327 0 -0.29478162596868879 -0.30702079099249591 0 -0.31992409361072222 -0.30462145692723192 0 -0.2984608121496099 -0.28511533651958437 0 -0.31992409361072222 -0.30462145692723192 0 -0.30687808727867438 -0.29770175581860719 0 -0.2984608121496099 -0.28511533651958437 0 -0.31332574866090718 -0.291474364566292 0 -0.31992409361072222 -0.30462145692723192 0 -0.2984608121496099 -0.28511533651958437 0 -0.31332574866090718 -0.291474364566292 0 -0.30937392239009109 -0.28339120160471948 0 -0.2984608121496099 -0.28511533651958437 0 -0.31332574866090718 -0.291474364566292 0 -0.2984608121496099 -0.28511533651958437 0 -0.30937392239009109 -0.28339120160471948 0 -0.2984608121496099 -0.28511533651958437 0 -0.30347897474907187 -0.279643462580969 0 -0.30687808727867438 -0.29770175581860719 0 -0.29951482580247829 -0.29240083595456018 0 -0.29813438661480679 -0.29530641477552327 0 -0.30687808727867438 -0.29770175581860719 0 -0.2984608121496099 -0.28511533651958437 0 -0.29951482580247829 -0.29240083595456018 0 -0.29951482580247829 -0.29240083595456018 0 -0.29813438661480679 -0.29530641477552327 0 -0.29499124589990039 -0.29073588210889412 0 -0.2984608121496099 -0.28511533651958437 0 -0.29951482580247829 -0.29240083595456018 0 -0.29499124589990039 -0.29073588210889412 0 -0.29499124589990039 -0.29073588210889412 0 -0.29148170063899659 -0.29460773718781319 0 -0.28586576089235322 -0.28577101837165192 0 -0.29813438661480679 -0.29530641477552327 0 -0.29499124589990039 -0.29073588210889412 0 -0.29148170063899659 -0.29460773718781319 0 -0.2984608121496099 -0.28511533651958437 0 -0.29499124589990039 -0.29073588210889412 0 -0.28586576089235322 -0.28577101837165192 0 -0.29148170063899659 -0.29460773718781319 0 -0.28586576089235322 -0.28577101837165192 0 -0.2798353156189245 -0.29508903771003908 0 -0.29148170063899659 -0.29460773718781319 0 -0.29478162596868879 -0.30702079099249591 0 -0.2798353156189245 -0.29508903771003908 0 -0.29478162596868879 -0.30702079099249591 0 -0.26963915832665503 -0.30942012505775762 0 -0.2798353156189245 -0.29508903771003908 0 -0.29478162596868879 -0.30702079099249591 0 -0.26963915832665503 -0.30942012505775762 0 -0.29813438661480679 -0.29530641477552327 0 -0.29148170063899659 -0.29460773718781319 0 -0.29478162596868879 -0.30702079099249591 0 -0.27544300416693679 -0.31995488319631832 0 -0.29478162596868879 -0.30702079099249591 0 -0.26963915832665503 -0.30942012505775762 0 -0.26963915832665503 -0.30942012505775762 0 -0.26057201890547982 -0.29344093798311832 0 -0.2798353156189245 -0.29508903771003908 0 -0.26963915832665503 -0.30942012505775762 0 -0.2444966906846206 -0.31181945912301329 0 -0.26963915832665503 -0.30942012505775762 0 -0.26057201890547982 -0.29344093798311832 0 -0.2444966906846206 -0.31181945912301329 0 -0.26057201890547982 -0.29344093798311832 0 -0.27108878797196961 -0.28331686931735522 0 -0.25298377122075039 -0.27518622721876451 0 -0.26057201890547982 -0.29344093798311832 0 -0.25298377122075039 -0.27518622721876451 0 -0.2435111179254994 -0.29490773243705071 0 -0.26057201890547982 -0.29344093798311832 0 -0.27108878797196961 -0.28331686931735522 0 -0.2798353156189245 -0.29508903771003908 0 -0.28586576089235322 -0.28577101837165192 0 -0.27108878797196961 -0.28331686931735522 0 -0.2798353156189245 -0.29508903771003908 0 -0.27108878797196961 -0.28331686931735522 0 -0.27618707322233982 -0.26709712530320262 0 -0.25298377122075039 -0.27518622721876451 0 -0.28586576089235322 -0.28577101837165192 0 -0.27108878797196961 -0.28331686931735522 0 -0.27618707322233982 -0.26709712530320262 0 -0.27618707322233982 -0.26709712530320262 0 -0.25431856302814809 -0.24833495949118861 0 -0.27618707322233982 -0.26709712530320262 0 -0.25298377122075039 -0.27518622721876451 0 -0.25431856302814809 -0.24833495949118861 0 -0.27618707322233982 -0.26709712530320262 0 -0.27309361240676189 -0.24179026653703889 0 -0.25431856302814809 -0.24833495949118861 0 -0.27618707322233982 -0.26709712530320262 0 -0.2907170577323625 -0.25177677077710309 0 -0.27309361240676189 -0.24179026653703889 0 -0.27618707322233982 -0.26709712530320262 0 -0.2907170577323625 -0.25177677077710309 0 -0.29477899871119112 -0.26293378760569941 0 -0.2984608121496099 -0.28511533651958437 0 -0.28586576089235322 -0.28577101837165192 0 -0.27618707322233982 -0.26709712530320262 0 -0.2984608121496099 -0.28511533651958437 0 -0.27618707322233982 -0.26709712530320262 0 -0.27618707322233982 -0.26709712530320262 0 -0.29477899871119112 -0.26293378760569941 0 -0.29948479845841441 -0.27338487519771032 0 -0.2984608121496099 -0.28511533651958437 0 -0.27618707322233982 -0.26709712530320262 0 -0.29948479845841441 -0.27338487519771032 0 -0.29477899871119112 -0.26293378760569941 0 -0.29948479845841441 -0.27338487519771032 0 -0.30156079933714469 -0.26765617134954151 0 -0.30156079933714469 -0.26765617134954151 0 -0.30403476516136241 -0.27459464834518948 0 -0.30588444940973558 -0.27063474712059482 0 -0.29948479845841441 -0.27338487519771032 0 -0.30156079933714469 -0.26765617134954151 0 -0.30403476516136241 -0.27459464834518948 0 -0.30156079933714469 -0.26765617134954151 0 -0.30588444940973558 -0.27063474712059482 0 -0.3062135479255173 -0.26372173898871692 0 -0.2984608121496099 -0.28511533651958437 0 -0.29948479845841441 -0.27338487519771032 0 -0.30347897474907187 -0.279643462580969 0 -0.29948479845841441 -0.27338487519771032 0 -0.30403476516136241 -0.27459464834518948 0 -0.30347897474907187 -0.279643462580969 0 -0.30937392239009109 -0.28339120160471948 0 -0.30347897474907187 -0.279643462580969 0 -0.31187737399160442 -0.27618124236115132 0 -0.30403476516136241 -0.27459464834518948 0 -0.30347897474907187 -0.279643462580969 0 -0.31187737399160442 -0.27618124236115132 0 -0.30403476516136241 -0.27459464834518948 0 -0.31187737399160442 -0.27618124236115132 0 -0.30588444940973558 -0.27063474712059482 0 -0.31187737399160442 -0.27618124236115132 0 -0.30588444940973558 -0.27063474712059482 0 -0.3062135479255173 -0.26372173898871692 0 -0.31664960680882542 -0.25714232151458272 0 -0.31202674084989918 -0.26335133138269068 0 -0.30853150187083839 -0.25429835417001312 0 -0.2907170577323625 -0.25177677077710309 0 -0.29477899871119112 -0.26293378760569941 0 -0.30853150187083839 -0.25429835417001312 0 -0.31202674084989918 -0.26335133138269068 0 -0.3062135479255173 -0.26372173898871692 0 -0.30853150187083839 -0.25429835417001312 0 -0.29477899871119112 -0.26293378760569941 0 -0.30156079933714469 -0.26765617134954151 0 -0.3062135479255173 -0.26372173898871692 0 -0.29477899871119112 -0.26293378760569941 0 -0.3062135479255173 -0.26372173898871692 0 -0.30853150187083839 -0.25429835417001312 0 -0.33709504481289931 -0.46474263175187808 0 -0.33075086723682939 -0.45093918684289991 0 -0.35302422329502631 -0.44785824460859458 0 -0.33709504481289931 -0.46474263175187808 0 -0.33075086723682939 -0.45093918684289991 0 -0.32054712240525829 -0.47546959342145068 0 -0.33075086723682939 -0.45093918684289991 0 -0.34095461206840061 -0.42640878026434909 0 -0.33075086723682939 -0.45093918684289991 0 -0.35302422329502631 -0.44785824460859458 0 -0.34095461206840061 -0.42640878026434909 0 -0.33075086723682939 -0.45093918684289991 0 -0.32054706720266329 -0.44859283512714471 0 -0.3206124180200437 -0.43193612962395289 0 -0.33075086723682939 -0.45093918684289991 0 -0.32054706720266329 -0.44859283512714471 0 -0.31571728338184601 -0.45752087103574601 0 -0.32054706720266329 -0.44859283512714471 0 -0.31571728338184601 -0.45752087103574601 0 -0.30706080135445341 -0.45057148265483188 0 -0.33075086723682939 -0.45093918684289991 0 -0.32054712240525829 -0.47546959342145068 0 -0.33075086723682939 -0.45093918684289991 0 -0.31571728338184601 -0.45752087103574601 0 -0.32054712240525829 -0.47546959342145068 0 -0.32054712240525829 -0.47546959342145068 0 -0.32750579650535672 -0.48798687004089669 0 -0.32933965142182292 -0.47777380670114528 0 -0.32054712240525829 -0.47546959342145068 0 -0.31034337757368669 -0.50000000000000133 0 -0.32750579650535672 -0.48798687004089669 0 -0.33387795429423722 -0.5 0 -0.31034337757368669 -0.50000000000000133 0 -0.32054712240525829 -0.47546959342145068 0 -0.32750579650535672 -0.48798687004089669 0 -0.31034337757368669 -0.50000000000000133 0 -0.32750579650535672 -0.48798687004089669 0 -0.34342087683177741 -0.48669095008188618 0 -0.33387795429423722 -0.5 0 -0.33709504481289931 -0.46474263175187808 0 -0.32933965142182292 -0.47777380670114528 0 -0.35181335970555933 -0.47167232718529989 0 -0.34342087683177741 -0.48669095008188618 0 -0.32933965142182292 -0.47777380670114528 0 -0.35181335970555933 -0.47167232718529989 0 -0.32750579650535672 -0.48798687004089669 0 -0.34342087683177741 -0.48669095008188618 0 -0.32933965142182292 -0.47777380670114528 0 -0.33709504481289931 -0.46474263175187808 0 -0.32054712240525829 -0.47546959342145068 0 -0.32933965142182292 -0.47777380670114528 0 -0.32933965142182292 -0.47777380670114528 0 -0.35181335970555933 -0.47167232718529989 0 -0.34342087683177741 -0.48669095008188618 0 -0.35181335970555933 -0.47167232718529989 0 -0.35979455825166368 -0.48519290092039941 0 -0.34342087683177741 -0.48669095008188618 0 -0.35741253101478748 -0.5 0 -0.35979455825166368 -0.48519290092039941 0 -0.34342087683177741 -0.48669095008188618 0 -0.33387795429423722 -0.5 0 -0.35741253101478748 -0.5 0 -0.38094710773533791 -0.49999999999999839 0 -0.35741253101478748 -0.5 0 -0.37240076261097882 -0.48974555046165519 0 -0.35741253101478748 -0.5 0 -0.35979455825166368 -0.48519290092039941 0 -0.37240076261097882 -0.48974555046165519 0 -0.35181335970555933 -0.47167232718529989 0 -0.35979455825166368 -0.48519290092039941 0 -0.37411677223754131 -0.47733161267270968 0 -0.35181335970555933 -0.47167232718529989 0 -0.37411677223754131 -0.47733161267270968 0 -0.37428706798929601 -0.46557084766945539 0 -0.35979455825166368 -0.48519290092039941 0 -0.37240076261097882 -0.48974555046165519 0 -0.37411677223754131 -0.47733161267270968 0 -0.37411677223754131 -0.47733161267270968 0 -0.37428706798929601 -0.46557084766945539 0 -0.35181335970555933 -0.47167232718529989 0 -0.37428706798929601 -0.46557084766945539 0 -0.35302422329502631 -0.44785824460859458 0 -0.35181335970555933 -0.47167232718529989 0 -0.37428706798929601 -0.46557084766945539 0 -0.33709504481289931 -0.46474263175187808 0 -0.35181335970555933 -0.47167232718529989 0 -0.35302422329502631 -0.44785824460859458 0 -0.37428706798929601 -0.46557084766945539 0 -0.35302422329502631 -0.44785824460859458 0 -0.37472313619600889 -0.43545561783144832 0 -0.37428706798929601 -0.46557084766945539 0 -0.37472313619600889 -0.43545561783144832 0 -0.35302422329502631 -0.44785824460859458 0 -0.37472313619600889 -0.43545561783144832 0 -0.36076670325611282 -0.42019275678090617 0 -0.37515920440272033 -0.40534038799344108 0 -0.37472313619600889 -0.43545561783144832 0 -0.36076670325611282 -0.42019275678090617 0 -0.37515920440272033 -0.40534038799344108 0 -0.36076670325611282 -0.42019275678090617 0 -0.35115835689997099 -0.40187837368579798 0 -0.37515920440272033 -0.40534038799344108 0 -0.37472313619600889 -0.43545561783144832 0 -0.36076670325611282 -0.42019275678090617 0 -0.35115835689997099 -0.40187837368579798 0 -0.34095461206840061 -0.42640878026434909 0 -0.34815033243380111 -0.40144447968524521 0 -0.35115835689997099 -0.40187837368579798 0 -0.34095461206840061 -0.42640878026434909 0 -0.35115835689997099 -0.40187837368579798 0 -0.34095461206840061 -0.42640878026434909 0 -0.35302422329502631 -0.44785824460859458 0 -0.36076670325611282 -0.42019275678090617 0 -0.34095461206840061 -0.42640878026434909 0 -0.37543310808941849 -0.38642437359143528 0 -0.36100598543278789 -0.37820409176948921 0 -0.35115835689997099 -0.40187837368579798 0 -0.37543310808941849 -0.38642437359143528 0 -0.37568304780698558 -0.36916333065311507 0 -0.36100598543278789 -0.37820409176948921 0 -0.37543310808941849 -0.38642437359143528 0 -0.36100598543278789 -0.37820409176948921 0 -0.37515920440272033 -0.40534038799344108 0 -0.37543310808941849 -0.38642437359143528 0 -0.35115835689997099 -0.40187837368579798 0 -0.37515920440272033 -0.40534038799344108 0 -0.35115835689997099 -0.40187837368579798 0 -0.35115835689997099 -0.40187837368579798 0 -0.34646966066369161 -0.38533898881774881 0 -0.34316085436749 -0.39382471367395527 0 -0.34815033243380111 -0.40144447968524521 0 -0.35115835689997099 -0.40187837368579798 0 -0.34316085436749 -0.39382471367395527 0 -0.34815033243380111 -0.40144447968524521 0 -0.35115835689997099 -0.40187837368579798 0 -0.33937201587241012 -0.36587749477948078 0 -0.36100598543278789 -0.37820409176948921 0 -0.34646966066369161 -0.38533898881774881 0 -0.36100598543278789 -0.37820409176948921 0 -0.35115835689997099 -0.40187837368579798 0 -0.36100598543278789 -0.37820409176948921 0 -0.35115835689997099 -0.40187837368579798 0 -0.34646966066369161 -0.38533898881774881 0 -0.33937201587241012 -0.36587749477948078 0 -0.32803705280137402 -0.37447550275240871 0 -0.34646966066369161 -0.38533898881774881 0 -0.32803705280137402 -0.37447550275240871 0 -0.34646966066369161 -0.38533898881774881 0 -0.32931529664348408 -0.38869437358142001 0 -0.34646966066369161 -0.38533898881774881 0 -0.32931529664348408 -0.38869437358142001 0 -0.34316085436749 -0.39382471367395527 0 -0.34815033243380111 -0.40144447968524521 0 -0.33486919938690762 -0.39884665705885908 0 -0.32944617452305069 -0.41182817437998842 0 -0.32931529664348408 -0.38869437358142001 0 -0.34316085436749 -0.39382471367395527 0 -0.33486919938690762 -0.39884665705885908 0 -0.32931529664348408 -0.38869437358142001 0 -0.33486919938690762 -0.39884665705885908 0 -0.32365381597648563 -0.39942827076698811 0 -0.34815033243380111 -0.40144447968524521 0 -0.34316085436749 -0.39382471367395527 0 -0.33486919938690762 -0.39884665705885908 0 -0.33486919938690762 -0.39884665705885908 0 -0.32365381597648563 -0.39942827076698811 0 -0.32944617452305069 -0.41182817437998842 0 -0.32931529664348408 -0.38869437358142001 0 -0.32365381597648563 -0.39942827076698811 0 -0.30988209993594379 -0.39542680479545339 0 -0.32365381597648563 -0.39942827076698811 0 -0.30595412674790001 -0.41636475829844438 0 -0.30988209993594379 -0.39542680479545339 0 -0.31381007312398762 -0.37448885129246268 0 -0.32931529664348408 -0.38869437358142001 0 -0.30988209993594379 -0.39542680479545339 0 -0.31381007312398762 -0.37448885129246268 0 -0.32803705280137402 -0.37447550275240871 0 -0.32931529664348408 -0.38869437358142001 0 -0.34095461206840061 -0.42640878026434909 0 -0.32944617452305069 -0.41182817437998842 0 -0.3206124180200437 -0.43193612962395289 0 -0.33075086723682939 -0.45093918684289991 0 -0.34095461206840061 -0.42640878026434909 0 -0.3206124180200437 -0.43193612962395289 0 -0.34815033243380111 -0.40144447968524521 0 -0.34095461206840061 -0.42640878026434909 0 -0.32944617452305069 -0.41182817437998842 0 -0.32944617452305069 -0.41182817437998842 0 -0.3206124180200437 -0.43193612962395289 0 -0.30595412674790001 -0.41636475829844438 0 -0.32365381597648563 -0.39942827076698811 0 -0.32944617452305069 -0.41182817437998842 0 -0.30595412674790001 -0.41636475829844438 0 -0.3206124180200437 -0.43193612962395289 0 -0.30595412674790001 -0.41636475829844438 0 -0.29602166034141808 -0.43748304283089118 0 -0.30595412674790001 -0.41636475829844438 0 -0.28680587137917263 -0.41476105187328532 0 -0.29502227998321778 -0.40112933436643161 0 -0.30595412674790001 -0.41636475829844438 0 -0.28680587137917263 -0.41476105187328532 0 -0.29602166034141808 -0.43748304283089118 0 -0.28680587137917263 -0.41476105187328532 0 -0.29602166034141808 -0.43748304283089118 0 -0.27149625348017281 -0.42637325053463759 0 -0.29602166034141808 -0.43748304283089118 0 -0.27149625348017281 -0.42637325053463759 0 -0.29602166034141808 -0.43748304283089118 0 -0.27149625348017281 -0.42637325053463759 0 -0.27906578537949278 -0.44687665772048962 0 -0.31381007312398762 -0.37448885129246268 0 -0.30988209993594379 -0.39542680479545339 0 -0.31381007312398762 -0.37448885129246268 0 -0.30988209993594379 -0.39542680479545339 0 -0.29196992941862432 -0.3825632544476108 0 -0.30595412674790001 -0.41636475829844438 0 -0.30988209993594379 -0.39542680479545339 0 -0.30595412674790001 -0.41636475829844438 0 -0.30988209993594379 -0.39542680479545339 0 -0.29502227998321778 -0.40112933436643161 0 -0.30988209993594379 -0.39542680479545339 0 -0.29502227998321778 -0.40112933436643161 0 -0.29196992941862432 -0.3825632544476108 0 -0.28680587137917263 -0.41476105187328532 0 -0.29502227998321778 -0.40112933436643161 0 -0.2806661672136338 -0.39648987600255969 0 -0.29502227998321778 -0.40112933436643161 0 -0.29196992941862432 -0.3825632544476108 0 -0.2806661672136338 -0.39648987600255969 0 -0.27675503022224163 -0.36681377825091099 0 -0.29196992941862432 -0.3825632544476108 0 -0.26924588117792803 -0.38334910629271668 0 -0.29196992941862432 -0.3825632544476108 0 -0.26924588117792803 -0.38334910629271668 0 -0.2806661672136338 -0.39648987600255969 0 -0.27675503022224163 -0.36681377825091099 0 -0.26924588117792803 -0.38334910629271668 0 -0.25812358553267323 -0.37605355791306738 0 -0.28680587137917263 -0.41476105187328532 0 -0.2806661672136338 -0.39648987600255969 0 -0.26326431180229581 -0.40282557300305732 0 -0.26924588117792803 -0.38334910629271668 0 -0.2806661672136338 -0.39648987600255969 0 -0.26326431180229581 -0.40282557300305732 0 -0.26326431180229581 -0.40282557300305732 0 -0.2504897110532438 -0.38524934403489181 0 -0.24394706363899241 -0.39877073912243299 0 -0.26326431180229581 -0.40282557300305732 0 -0.24697084661892749 -0.41526345823838401 0 -0.24394706363899241 -0.39877073912243299 0 -0.26924588117792803 -0.38334910629271668 0 -0.26326431180229581 -0.40282557300305732 0 -0.2504897110532438 -0.38524934403489181 0 -0.26924588117792803 -0.38334910629271668 0 -0.2504897110532438 -0.38524934403489181 0 -0.25812358553267323 -0.37605355791306738 0 -0.2504897110532438 -0.38524934403489181 0 -0.25812358553267323 -0.37605355791306738 0 -0.24839247009954951 -0.37292447016044328 0 -0.28680587137917263 -0.41476105187328532 0 -0.26326431180229581 -0.40282557300305732 0 -0.27149625348017281 -0.42637325053463759 0 -0.27149625348017281 -0.42637325053463759 0 -0.24697084661892749 -0.41526345823838401 0 -0.26326431180229581 -0.40282557300305732 0 -0.27149625348017281 -0.42637325053463759 0 -0.24697084661892749 -0.41526345823838401 0 -0.27149625348017281 -0.42637325053463759 0 -0.25687425522332558 -0.44642006451091643 0 -0.24697084661892749 -0.41526345823838401 0 -0.25687425522332558 -0.44642006451091643 0 -0.27607931301277078 -0.46657199895299017 0 -0.25409384940020791 -0.47271975939701871 0 -0.25687425522332558 -0.44642006451091643 0 -0.27607931301277078 -0.46657199895299017 0 -0.27906578537949278 -0.44687665772048962 0 -0.27149625348017281 -0.42637325053463759 0 -0.25687425522332558 -0.44642006451091643 0 -0.27906578537949278 -0.44687665772048962 0 -0.29602166034141808 -0.43748304283089118 0 -0.27906578537949278 -0.44687665772048962 0 -0.29968055871002541 -0.46203125713240301 0 -0.27607931301277078 -0.46657199895299017 0 -0.27906578537949278 -0.44687665772048962 0 -0.29968055871002541 -0.46203125713240301 0 -0.31571728338184601 -0.45752087103574601 0 -0.29968055871002541 -0.46203125713240301 0 -0.30706080135445341 -0.45057148265483188 0 -0.31571728338184601 -0.45752087103574601 0 -0.32054712240525829 -0.47546959342145068 0 -0.29968055871002541 -0.46203125713240301 0 -0.32054706720266329 -0.44859283512714471 0 -0.29602166034141808 -0.43748304283089118 0 -0.32054706720266329 -0.44859283512714471 0 -0.3206124180200437 -0.43193612962395289 0 -0.29602166034141808 -0.43748304283089118 0 -0.32054706720266329 -0.44859283512714471 0 -0.29602166034141808 -0.43748304283089118 0 -0.30706080135445341 -0.45057148265483188 0 -0.29602166034141808 -0.43748304283089118 0 -0.29968055871002541 -0.46203125713240301 0 -0.30706080135445341 -0.45057148265483188 0 -0.32054712240525829 -0.47546959342145068 0 -0.31034337757368669 -0.50000000000000133 0 -0.2941570887960146 -0.48201569375099518 0 -0.32054712240525829 -0.47546959342145068 0 -0.29968055871002541 -0.46203125713240301 0 -0.2941570887960146 -0.48201569375099518 0 -0.27607931301277078 -0.46657199895299017 0 -0.29968055871002541 -0.46203125713240301 0 -0.2941570887960146 -0.48201569375099518 0 -0.2941570887960146 -0.48201569375099518 0 -0.28248249767631262 -0.5 0 -0.27039562620846602 -0.48462576079096858 0 -0.31034337757368669 -0.50000000000000133 0 -0.2941570887960146 -0.48201569375099518 0 -0.28248249767631262 -0.5 0 -0.28248249767631262 -0.5 0 -0.27039562620846602 -0.48462576079096858 0 -0.25462161777893849 -0.5 0 -0.27607931301277078 -0.46657199895299017 0 -0.2941570887960146 -0.48201569375099518 0 -0.27039562620846602 -0.48462576079096858 0 -0.27607931301277078 -0.46657199895299017 0 -0.27039562620846602 -0.48462576079096858 0 -0.25409384940020791 -0.47271975939701871 0 -0.27039562620846602 -0.48462576079096858 0 -0.25409384940020791 -0.47271975939701871 0 -0.25462161777893849 -0.5 0 -0.25462161777893849 -0.5 0 -0.23155232774708009 -0.47932355884050398 0 -0.22676073788156451 -0.5 0 -0.25409384940020791 -0.47271975939701871 0 -0.25462161777893849 -0.5 0 -0.23155232774708009 -0.47932355884050398 0 -0.25409384940020791 -0.47271975939701871 0 -0.23155232774708009 -0.47932355884050398 0 -0.2350399564306665 -0.45937717328673289 0 -0.23155232774708009 -0.47932355884050398 0 -0.2350399564306665 -0.45937717328673289 0 -0.2080224731694312 -0.47403962225972662 0 -0.23155232774708009 -0.47932355884050398 0 -0.22676073788156451 -0.5 0 -0.2080224731694312 -0.47403962225972662 0 -0.25687425522332558 -0.44642006451091643 0 -0.2350399564306665 -0.45937717328673289 0 -0.23180750449586429 -0.4343742486430574 0 -0.25687425522332558 -0.44642006451091643 0 -0.25409384940020791 -0.47271975939701871 0 -0.2350399564306665 -0.45937717328673289 0 -0.2350399564306665 -0.45937717328673289 0 -0.21590660946663959 -0.44883644739355771 0 -0.2080224731694312 -0.47403962225972662 0 -0.2350399564306665 -0.45937717328673289 0 -0.21590660946663959 -0.44883644739355771 0 -0.23180750449586429 -0.4343742486430574 0 -0.21590660946663959 -0.44883644739355771 0 -0.1943898331460783 -0.4473597119794826 0 -0.20910912931781811 -0.42543372189632289 0 -0.21590660946663959 -0.44883644739355771 0 -0.1943898331460783 -0.4473597119794826 0 -0.2080224731694312 -0.47403962225972662 0 -0.1943898331460783 -0.4473597119794826 0 -0.2080224731694312 -0.47403962225972662 0 -0.17967053697433849 -0.46928570206264231 0 -0.22676073788156451 -0.5 0 -0.2080224731694312 -0.47403962225972662 0 -0.19889985798419041 -0.5 0 -0.2080224731694312 -0.47403962225972662 0 -0.1821948971586228 -0.48648437486529872 0 -0.17967053697433849 -0.46928570206264231 0 -0.2080224731694312 -0.47403962225972662 0 -0.19889985798419041 -0.5 0 -0.1821948971586228 -0.48648437486529872 0 -0.19889985798419041 -0.5 0 -0.1821948971586228 -0.48648437486529872 0 -0.17103897808681609 -0.49999999999999778 0 -0.1821948971586228 -0.48648437486529872 0 -0.17103897808681609 -0.49999999999999778 0 -0.16495124080259491 -0.49121169214579941 0 -0.17103897808681609 -0.49999999999999778 0 -0.16495124080259491 -0.49121169214579941 0 -0.17103897808681609 -0.49999999999999778 0 -0.16495124080259491 -0.49121169214579941 0 -0.15905149781887321 -0.49999999999999961 0 -0.16495124080259491 -0.49121169214579941 0 -0.15905149781887321 -0.49999999999999961 0 -0.1545750311736096 -0.49062041690426861 0 -0.16495124080259491 -0.49121169214579941 0 -0.15905149781887321 -0.49999999999999961 0 -0.16495124080259491 -0.49121169214579941 0 -0.16530166315622061 -0.47155300009798301 0 -0.17967053697433849 -0.46928570206264231 0 -0.16495124080259491 -0.49121169214579941 0 -0.16530166315622061 -0.47155300009798301 0 -0.15083103946930049 -0.47082765280793248 0 -0.16495124080259491 -0.49121169214579941 0 -0.1545750311736096 -0.49062041690426861 0 -0.15083103946930049 -0.47082765280793248 0 -0.16495124080259491 -0.49121169214579941 0 -0.15083103946930049 -0.47082765280793248 0 -0.16495124080259491 -0.49121169214579941 0 -0.17967053697433849 -0.46928570206264231 0 -0.1821948971586228 -0.48648437486529872 0 -0.16495124080259491 -0.49121169214579941 0 -0.17967053697433849 -0.46928570206264231 0 -0.1943898331460783 -0.4473597119794826 0 -0.17967053697433849 -0.46928570206264231 0 -0.1943898331460783 -0.4473597119794826 0 -0.17967053697433849 -0.46928570206264231 0 -0.1657538353786501 -0.45488695337555668 0 -0.1943898331460783 -0.4473597119794826 0 -0.1657538353786501 -0.45488695337555668 0 -0.1755027511393909 -0.43471579892562301 0 -0.1657538353786501 -0.45488695337555668 0 -0.15761868306950341 -0.43586407366366631 0 -0.1755027511393909 -0.43471579892562301 0 -0.16530166315622061 -0.47155300009798301 0 -0.1657538353786501 -0.45488695337555668 0 -0.15083103946930049 -0.47082765280793248 0 -0.16530166315622061 -0.47155300009798301 0 -0.17967053697433849 -0.46928570206264231 0 -0.1657538353786501 -0.45488695337555668 0 -0.13671083813600751 -0.45044361347006462 0 -0.15083103946930049 -0.47082765280793248 0 -0.13671083813600751 -0.45044361347006462 0 -0.13441782301728619 -0.47175980973682791 0 -0.15083103946930049 -0.47082765280793248 0 -0.1657538353786501 -0.45488695337555668 0 -0.13671083813600751 -0.45044361347006462 0 -0.15083103946930049 -0.47082765280793248 0 -0.13671083813600751 -0.45044361347006462 0 -0.13816776916695811 -0.432543871779144 0 -0.15761868306950341 -0.43586407366366631 0 -0.1657538353786501 -0.45488695337555668 0 -0.13671083813600751 -0.45044361347006462 0 -0.15761868306950341 -0.43586407366366631 0 -0.13671083813600751 -0.45044361347006462 0 -0.13816776916695811 -0.432543871779144 0 -0.1225906368027144 -0.43005957413219659 0 -0.13671083813600751 -0.45044361347006462 0 -0.1225906368027144 -0.43005957413219659 0 -0.13671083813600751 -0.45044361347006462 0 -0.13441782301728619 -0.47175980973682791 0 -0.1201929706126502 -0.46127799294672761 0 -0.13441782301728619 -0.47175980973682791 0 -0.12605423818426559 -0.48707922202292669 0 -0.14429533434837091 -0.48908967660720287 0 -0.13441782301728619 -0.47175980973682791 0 -0.12605423818426559 -0.48707922202292669 0 -0.1201929706126502 -0.46127799294672761 0 -0.1295391708778694 -0.5 0 -0.12605423818426559 -0.48707922202292669 0 -0.14429533434837091 -0.48908967660720287 0 -0.15905149781887321 -0.49999999999999961 0 -0.1295391708778694 -0.5 0 -0.14429533434837091 -0.48908967660720287 0 -0.15905149781887321 -0.49999999999999961 0 -0.14429533434837091 -0.48908967660720287 0 -0.1545750311736096 -0.49062041690426861 0 -0.14429533434837091 -0.48908967660720287 0 -0.1545750311736096 -0.49062041690426861 0 -0.15083103946930049 -0.47082765280793248 0 -0.13441782301728619 -0.47175980973682791 0 -0.14429533434837091 -0.48908967660720287 0 -0.15083103946930049 -0.47082765280793248 0 -0.15345949684661231 -0.4053237642064671 0 -0.15136585988972451 -0.39002590355483568 0 -0.13982663417143551 -0.39933000433158738 0 -0.15136585988972451 -0.39002590355483568 0 -0.1368738238800834 -0.3880397179408614 0 -0.13982663417143551 -0.39933000433158738 0 -0.15345949684661231 -0.4053237642064671 0 -0.13982663417143551 -0.39933000433158738 0 -0.1398029654186671 -0.41064466143528439 0 -0.15136585988972451 -0.39002590355483568 0 -0.1368738238800834 -0.3880397179408614 0 -0.13959568407155781 -0.37291875636350952 0 -0.15136585988972451 -0.39002590355483568 0 -0.15951650330528561 -0.37856285477961621 0 -0.13959568407155781 -0.37291875636350952 0 -0.1368738238800834 -0.3880397179408614 0 -0.12625141541498519 -0.38197991289387551 0 -0.13959568407155781 -0.37291875636350952 0 -0.1368738238800834 -0.3880397179408614 0 -0.12625141541498519 -0.38197991289387551 0 -0.1273295258527142 -0.39594401256049883 0 -0.1368738238800834 -0.3880397179408614 0 -0.1273295258527142 -0.39594401256049883 0 -0.13982663417143551 -0.39933000433158738 0 -0.13982663417143551 -0.39933000433158738 0 -0.1295768038857959 -0.40463739140698729 0 -0.1398029654186671 -0.41064466143528439 0 -0.1273295258527142 -0.39594401256049883 0 -0.13982663417143551 -0.39933000433158738 0 -0.1295768038857959 -0.40463739140698729 0 -0.1273295258527142 -0.39594401256049883 0 -0.1295768038857959 -0.40463739140698729 0 -0.1219584454402414 -0.40406961642135292 0 -0.1295768038857959 -0.40463739140698729 0 -0.1296119374269841 -0.41417592727859581 0 -0.1225700411049412 -0.40994677461386392 0 -0.1296119374269841 -0.41417592727859581 0 -0.12315425937001 -0.41747458531602638 0 -0.1225700411049412 -0.40994677461386392 0 -0.1296119374269841 -0.41417592727859581 0 -0.13713184062407599 -0.42036644340313623 0 -0.12908399078123631 -0.42243277819987513 0 -0.1296119374269841 -0.41417592727859581 0 -0.12908399078123631 -0.42243277819987513 0 -0.12315425937001 -0.41747458531602638 0 -0.1296119374269841 -0.41417592727859581 0 -0.13713184062407599 -0.42036644340313623 0 -0.1398029654186671 -0.41064466143528439 0 -0.1295768038857959 -0.40463739140698729 0 -0.1296119374269841 -0.41417592727859581 0 -0.1398029654186671 -0.41064466143528439 0 -0.12908399078123631 -0.42243277819987513 0 -0.13816776916695811 -0.432543871779144 0 -0.1225906368027144 -0.43005957413219659 0 -0.13713184062407599 -0.42036644340313623 0 -0.12908399078123631 -0.42243277819987513 0 -0.13816776916695811 -0.432543871779144 0 -0.13816776916695811 -0.432543871779144 0 -0.14921107955709881 -0.42003443798493328 0 -0.15761868306950341 -0.43586407366366631 0 -0.13713184062407599 -0.42036644340313623 0 -0.13816776916695811 -0.432543871779144 0 -0.14921107955709881 -0.42003443798493328 0 -0.15345949684661231 -0.4053237642064671 0 -0.1398029654186671 -0.41064466143528439 0 -0.14921107955709881 -0.42003443798493328 0 -0.13713184062407599 -0.42036644340313623 0 -0.1398029654186671 -0.41064466143528439 0 -0.14921107955709881 -0.42003443798493328 0 -0.15345949684661231 -0.4053237642064671 0 -0.14921107955709881 -0.42003443798493328 0 -0.17009787391258249 -0.41611158199907422 0 -0.14921107955709881 -0.42003443798493328 0 -0.17009787391258249 -0.41611158199907422 0 -0.15761868306950341 -0.43586407366366631 0 -0.17009787391258249 -0.41611158199907422 0 -0.15761868306950341 -0.43586407366366631 0 -0.1755027511393909 -0.43471579892562301 0 -0.1943898331460783 -0.4473597119794826 0 -0.1755027511393909 -0.43471579892562301 0 -0.18951413900105801 -0.42212105940109063 0 -0.17009787391258249 -0.41611158199907422 0 -0.1755027511393909 -0.43471579892562301 0 -0.18951413900105801 -0.42212105940109063 0 -0.17009787391258249 -0.41611158199907422 0 -0.18562609472684241 -0.40161550393767448 0 -0.18951413900105801 -0.42212105940109063 0 -0.18562609472684241 -0.40161550393767448 0 -0.16863204450281991 -0.39380366607865908 0 -0.18254917963999329 -0.38971973427100182 0 -0.17009787391258249 -0.41611158199907422 0 -0.18562609472684241 -0.40161550393767448 0 -0.16863204450281991 -0.39380366607865908 0 -0.18562609472684241 -0.40161550393767448 0 -0.18254917963999329 -0.38971973427100182 0 -0.19364364155811911 -0.391297223908462 0 -0.15345949684661231 -0.4053237642064671 0 -0.17009787391258249 -0.41611158199907422 0 -0.16863204450281991 -0.39380366607865908 0 -0.15345949684661231 -0.4053237642064671 0 -0.15136585988972451 -0.39002590355483568 0 -0.16863204450281991 -0.39380366607865908 0 -0.15951650330528561 -0.37856285477961621 0 -0.17625218554490921 -0.38180729220612769 0 -0.1663610822414904 -0.3702523776444529 0 -0.16863204450281991 -0.39380366607865908 0 -0.15951650330528561 -0.37856285477961621 0 -0.17625218554490921 -0.38180729220612769 0 -0.15136585988972451 -0.39002590355483568 0 -0.16863204450281991 -0.39380366607865908 0 -0.15951650330528561 -0.37856285477961621 0 -0.17625218554490921 -0.38180729220612769 0 -0.1663610822414904 -0.3702523776444529 0 -0.18579747934449059 -0.37379744869579251 0 -0.16863204450281991 -0.39380366607865908 0 -0.17625218554490921 -0.38180729220612769 0 -0.18254917963999329 -0.38971973427100182 0 -0.17625218554490921 -0.38180729220612769 0 -0.18254917963999329 -0.38971973427100182 0 -0.18859193186727599 -0.38007498522408562 0 -0.17625218554490921 -0.38180729220612769 0 -0.18859193186727599 -0.38007498522408562 0 -0.18579747934449059 -0.37379744869579251 0 -0.18859193186727599 -0.38007498522408562 0 -0.2014200033848125 -0.37119512976538899 0 -0.18859193186727599 -0.38007498522408562 0 -0.2014200033848125 -0.37119512976538899 0 -0.18579747934449059 -0.37379744869579251 0 -0.18859193186727599 -0.38007498522408562 0 -0.1989719328316337 -0.38216032023399737 0 -0.2014200033848125 -0.37119512976538899 0 -0.1989719328316337 -0.38216032023399737 0 -0.20694960464083431 -0.38128159833907621 0 -0.2014200033848125 -0.37119512976538899 0 -0.1989719328316337 -0.38216032023399737 0 -0.19364364155811911 -0.391297223908462 0 -0.20620014074293039 -0.39180645285032889 0 -0.18859193186727599 -0.38007498522408562 0 -0.1989719328316337 -0.38216032023399737 0 -0.19364364155811911 -0.391297223908462 0 -0.18254917963999329 -0.38971973427100182 0 -0.18859193186727599 -0.38007498522408562 0 -0.19364364155811911 -0.391297223908462 0 -0.18562609472684241 -0.40161550393767448 0 -0.19364364155811911 -0.391297223908462 0 -0.20208872018367391 -0.4070926974887904 0 -0.19364364155811911 -0.391297223908462 0 -0.20620014074293039 -0.39180645285032889 0 -0.20208872018367391 -0.4070926974887904 0 -0.20620014074293039 -0.39180645285032889 0 -0.21479853281951461 -0.38638530273916921 0 -0.22382842548955789 -0.4035077318131633 0 -0.20620014074293039 -0.39180645285032889 0 -0.20208872018367391 -0.4070926974887904 0 -0.22382842548955789 -0.4035077318131633 0 -0.21479853281951461 -0.38638530273916921 0 -0.20694960464083431 -0.38128159833907621 0 -0.21335741342528061 -0.3748607861064962 0 -0.21479853281951461 -0.38638530273916921 0 -0.22412886374227589 -0.38235217247817599 0 -0.21335741342528061 -0.3748607861064962 0 -0.20694960464083431 -0.38128159833907621 0 -0.2014200033848125 -0.37119512976538899 0 -0.21335741342528061 -0.3748607861064962 0 -0.20620014074293039 -0.39180645285032889 0 -0.21479853281951461 -0.38638530273916921 0 -0.20694960464083431 -0.38128159833907621 0 -0.1989719328316337 -0.38216032023399737 0 -0.20620014074293039 -0.39180645285032889 0 -0.20694960464083431 -0.38128159833907621 0 -0.1943898331460783 -0.4473597119794826 0 -0.20910912931781811 -0.42543372189632289 0 -0.1943898331460783 -0.4473597119794826 0 -0.18951413900105801 -0.42212105940109063 0 -0.20910912931781811 -0.42543372189632289 0 -0.18951413900105801 -0.42212105940109063 0 -0.20208872018367391 -0.4070926974887904 0 -0.20910912931781811 -0.42543372189632289 0 -0.18562609472684241 -0.40161550393767448 0 -0.18951413900105801 -0.42212105940109063 0 -0.20208872018367391 -0.4070926974887904 0 -0.20208872018367391 -0.4070926974887904 0 -0.20910912931781811 -0.42543372189632289 0 -0.22382842548955789 -0.4035077318131633 0 -0.20910912931781811 -0.42543372189632289 0 -0.22382842548955789 -0.4035077318131633 0 -0.21590660946663959 -0.44883644739355771 0 -0.20910912931781811 -0.42543372189632289 0 -0.23180750449586429 -0.4343742486430574 0 -0.20910912931781811 -0.42543372189632289 0 -0.23180750449586429 -0.4343742486430574 0 -0.22382842548955789 -0.4035077318131633 0 -0.23180750449586429 -0.4343742486430574 0 -0.24697084661892749 -0.41526345823838401 0 -0.22382842548955789 -0.4035077318131633 0 -0.25687425522332558 -0.44642006451091643 0 -0.23180750449586429 -0.4343742486430574 0 -0.24697084661892749 -0.41526345823838401 0 -0.22412886374227589 -0.38235217247817599 0 -0.2351820232309369 -0.38700758852266848 0 -0.22952037500089251 -0.37311519752493849 0 -0.22412886374227589 -0.38235217247817599 0 -0.22186900287429051 -0.37074082218821958 0 -0.21335741342528061 -0.3748607861064962 0 -0.22412886374227589 -0.38235217247817599 0 -0.22952037500089251 -0.37311519752493849 0 -0.22186900287429051 -0.37074082218821958 0 -0.22382842548955789 -0.4035077318131633 0 -0.24394706363899241 -0.39877073912243299 0 -0.2351820232309369 -0.38700758852266848 0 -0.21479853281951461 -0.38638530273916921 0 -0.22412886374227589 -0.38235217247817599 0 -0.22382842548955789 -0.4035077318131633 0 -0.22412886374227589 -0.38235217247817599 0 -0.22382842548955789 -0.4035077318131633 0 -0.2351820232309369 -0.38700758852266848 0 -0.24697084661892749 -0.41526345823838401 0 -0.22382842548955789 -0.4035077318131633 0 -0.24394706363899241 -0.39877073912243299 0 -0.2504897110532438 -0.38524934403489181 0 -0.24394706363899241 -0.39877073912243299 0 -0.2351820232309369 -0.38700758852266848 0 -0.2504897110532438 -0.38524934403489181 0 -0.2351820232309369 -0.38700758852266848 0 -0.24036284435674521 -0.37772398595485779 0 -0.2351820232309369 -0.38700758852266848 0 -0.24036284435674521 -0.37772398595485779 0 -0.22952037500089251 -0.37311519752493849 0 -0.2504897110532438 -0.38524934403489181 0 -0.24036284435674521 -0.37772398595485779 0 -0.24839247009954951 -0.37292447016044328 0 -0.24839247009954951 -0.37292447016044328 0 -0.24532753696728959 -0.36501789644951049 0 -0.23861636880082099 -0.36955921174380651 0 -0.24036284435674521 -0.37772398595485779 0 -0.24839247009954951 -0.37292447016044328 0 -0.23861636880082099 -0.36955921174380651 0 -0.25757508569408222 -0.36424633604315798 0 -0.24532753696728959 -0.36501789644951049 0 -0.24650166737573331 -0.3569693529562265 0 -0.24532753696728959 -0.36501789644951049 0 -0.24234943749700691 -0.36154613291017651 0 -0.24650166737573331 -0.3569693529562265 0 -0.24532753696728959 -0.36501789644951049 0 -0.24234943749700691 -0.36154613291017651 0 -0.23928568589256061 -0.36455139619594779 0 -0.24234943749700691 -0.36154613291017651 0 -0.23928568589256061 -0.36455139619594779 0 -0.23696933381926599 -0.3585493042599866 0 -0.24532753696728959 -0.36501789644951049 0 -0.23928568589256061 -0.36455139619594779 0 -0.23861636880082099 -0.36955921174380651 0 -0.23928568589256061 -0.36455139619594779 0 -0.23861636880082099 -0.36955921174380651 0 -0.23345080570298909 -0.36409891217005902 0 -0.23928568589256061 -0.36455139619594779 0 -0.23345080570298909 -0.36409891217005902 0 -0.23696933381926599 -0.3585493042599866 0 -0.24036284435674521 -0.37772398595485779 0 -0.23861636880082099 -0.36955921174380651 0 -0.22952037500089251 -0.37311519752493849 0 -0.23345080570298909 -0.36409891217005902 0 -0.22186900287429051 -0.37074082218821958 0 -0.21424807490234879 -0.36231527430669241 0 -0.22952037500089251 -0.37311519752493849 0 -0.23345080570298909 -0.36409891217005902 0 -0.22186900287429051 -0.37074082218821958 0 -0.23696933381926599 -0.3585493042599866 0 -0.21424807490234879 -0.36231527430669241 0 -0.23861636880082099 -0.36955921174380651 0 -0.22952037500089251 -0.37311519752493849 0 -0.23345080570298909 -0.36409891217005902 0 -0.23345080570298909 -0.36409891217005902 0 -0.23696933381926599 -0.3585493042599866 0 -0.21424807490234879 -0.36231527430669241 0 -0.22913587473404851 -0.35200963246311751 0 -0.2097464541822805 -0.33582260124732738 0 -0.22913587473404851 -0.35200963246311751 0 -0.23696933381926599 -0.3585493042599866 0 -0.21424807490234879 -0.36231527430669241 0 -0.22913587473404851 -0.35200963246311751 0 -0.21998707993494029 -0.33959044394559312 0 -0.22913587473404851 -0.35200963246311751 0 -0.21424807490234879 -0.36231527430669241 0 -0.22913587473404851 -0.35200963246311751 0 -0.23696933381926599 -0.3585493042599866 0 -0.22913587473404851 -0.35200963246311751 0 -0.24881121389389799 -0.33838995723746451 0 -0.22913587473404851 -0.35200963246311751 0 -0.23696933381926599 -0.3585493042599866 0 -0.24650166737573331 -0.3569693529562265 0 -0.22913587473404851 -0.35200963246311751 0 -0.24650166737573331 -0.3569693529562265 0 -0.24881121389389799 -0.33838995723746451 0 -0.23696933381926599 -0.3585493042599866 0 -0.24650166737573331 -0.3569693529562265 0 -0.24234943749700691 -0.36154613291017651 0 -0.23696933381926599 -0.3585493042599866 0 -0.24650166737573331 -0.3569693529562265 0 -0.22913587473404851 -0.35200963246311751 0 -0.24881121389389799 -0.33838995723746451 0 -0.2325545649384867 -0.33453283978227571 0 -0.24881121389389799 -0.33838995723746451 0 -0.2441082332202735 -0.32380704628422963 0 -0.2325545649384867 -0.33453283978227571 0 -0.23613058105125781 -0.31890710479075163 0 -0.2279063026952847 -0.3135077128279592 0 -0.2444966906846206 -0.31181945912301329 0 -0.2441082332202735 -0.32380704628422963 0 -0.23498207165859719 -0.32537142019391418 0 -0.23613058105125781 -0.31890710479075163 0 -0.2441082332202735 -0.32380704628422963 0 -0.23498207165859719 -0.32537142019391418 0 -0.2325545649384867 -0.33453283978227571 0 -0.2441082332202735 -0.32380704628422963 0 -0.23613058105125781 -0.31890710479075163 0 -0.2444966906846206 -0.31181945912301329 0 -0.2279063026952847 -0.3135077128279592 0 -0.2193464910840433 -0.31976030368968739 0 -0.21134622408423179 -0.310554889255794 0 -0.23613058105125781 -0.31890710479075163 0 -0.2279063026952847 -0.3135077128279592 0 -0.22829430606921119 -0.32293804105388452 0 -0.23498207165859719 -0.32537142019391418 0 -0.22829430606921119 -0.32293804105388452 0 -0.2325545649384867 -0.33453283978227571 0 -0.23498207165859719 -0.32537142019391418 0 -0.23613058105125781 -0.31890710479075163 0 -0.22829430606921119 -0.32293804105388452 0 -0.22829430606921119 -0.32293804105388452 0 -0.2193464910840433 -0.31976030368968739 0 -0.22209033975117781 -0.32887735541776358 0 -0.2279063026952847 -0.3135077128279592 0 -0.22829430606921119 -0.32293804105388452 0 -0.2193464910840433 -0.31976030368968739 0 -0.22913587473404851 -0.35200963246311751 0 -0.2325545649384867 -0.33453283978227571 0 -0.21998707993494029 -0.33959044394559312 0 -0.22913587473404851 -0.35200963246311751 0 -0.21998707993494029 -0.33959044394559312 0 -0.2097464541822805 -0.33582260124732738 0 -0.22829430606921119 -0.32293804105388452 0 -0.2325545649384867 -0.33453283978227571 0 -0.22209033975117781 -0.32887735541776358 0 -0.2325545649384867 -0.33453283978227571 0 -0.22209033975117781 -0.32887735541776358 0 -0.21998707993494029 -0.33959044394559312 0 -0.21998707993494029 -0.33959044394559312 0 -0.21026925672920721 -0.32756514861737779 0 -0.22209033975117781 -0.32887735541776358 0 -0.21998707993494029 -0.33959044394559312 0 -0.21026925672920721 -0.32756514861737779 0 -0.21998707993494029 -0.33959044394559312 0 -0.2097464541822805 -0.33582260124732738 0 -0.21026925672920721 -0.32756514861737779 0 -0.2097464541822805 -0.33582260124732738 0 -0.21026925672920721 -0.32756514861737779 0 -0.21026925672920721 -0.32756514861737779 0 -0.21134622408423179 -0.310554889255794 0 -0.19267178705524021 -0.30578920503631912 0 -0.21026925672920721 -0.32756514861737779 0 -0.21134622408423179 -0.310554889255794 0 -0.2097464541822805 -0.33582260124732738 0 -0.21026925672920721 -0.32756514861737779 0 -0.19254159852174429 -0.31996122112867409 0 -0.2193464910840433 -0.31976030368968739 0 -0.21026925672920721 -0.32756514861737779 0 -0.21134622408423179 -0.310554889255794 0 -0.2193464910840433 -0.31976030368968739 0 -0.22209033975117781 -0.32887735541776358 0 -0.21026925672920721 -0.32756514861737779 0 -0.2097464541822805 -0.33582260124732738 0 -0.1943588054861482 -0.32297640251143073 0 -0.19254159852174429 -0.31996122112867409 0 -0.21026925672920721 -0.32756514861737779 0 -0.19267178705524021 -0.30578920503631912 0 -0.21026925672920721 -0.32756514861737779 0 -0.19254159852174429 -0.31996122112867409 0 -0.19267178705524021 -0.30578920503631912 0 -0.2097464541822805 -0.33582260124732738 0 -0.19254159852174429 -0.31996122112867409 0 -0.1943588054861482 -0.32297640251143073 0 -0.18737083868624629 -0.33075534874643497 0 -0.18479650728396149 -0.32227615663527998 0 -0.1943588054861482 -0.32297640251143073 0 -0.19254159852174429 -0.31996122112867409 0 -0.1789711567900161 -0.3101302037755338 0 -0.2097464541822805 -0.33582260124732738 0 -0.19466829689393059 -0.33824472710720138 0 -0.19565175395430129 -0.3512554891803924 0 -0.2097464541822805 -0.33582260124732738 0 -0.1943588054861482 -0.32297640251143073 0 -0.19466829689393059 -0.33824472710720138 0 -0.2097464541822805 -0.33582260124732738 0 -0.1943588054861482 -0.32297640251143073 0 -0.1943588054861482 -0.32297640251143073 0 -0.19466829689393059 -0.33824472710720138 0 -0.18737083868624629 -0.33075534874643497 0 -0.19466829689393059 -0.33824472710720138 0 -0.18164424501215659 -0.34621916084723381 0 -0.18737083868624629 -0.33075534874643497 0 -0.19466829689393059 -0.33824472710720138 0 -0.19565175395430129 -0.3512554891803924 0 -0.18164424501215659 -0.34621916084723381 0 -0.20800359978069241 -0.36335027445133922 0 -0.18480326185087809 -0.36719565018674682 0 -0.19565175395430129 -0.3512554891803924 0 -0.20800359978069241 -0.36335027445133922 0 -0.18480326185087809 -0.36719565018674682 0 -0.2014200033848125 -0.37119512976538899 0 -0.18480326185087809 -0.36719565018674682 0 -0.18579747934449059 -0.37379744869579251 0 -0.2014200033848125 -0.37119512976538899 0 -0.20800359978069241 -0.36335027445133922 0 -0.18480326185087809 -0.36719565018674682 0 -0.2014200033848125 -0.37119512976538899 0 -0.20800359978069241 -0.36335027445133922 0 -0.20803809997708481 -0.36661394692190907 0 -0.20800359978069241 -0.36335027445133922 0 -0.20803809997708481 -0.36661394692190907 0 -0.21424807490234879 -0.36231527430669241 0 -0.20800359978069241 -0.36335027445133922 0 -0.20803809997708481 -0.36661394692190907 0 -0.2014200033848125 -0.37119512976538899 0 -0.20803809997708481 -0.36661394692190907 0 -0.21335741342528061 -0.3748607861064962 0 -0.2014200033848125 -0.37119512976538899 0 -0.20803809997708481 -0.36661394692190907 0 -0.20803809997708481 -0.36661394692190907 0 -0.21335741342528061 -0.3748607861064962 0 -0.21424807490234879 -0.36231527430669241 0 -0.22186900287429051 -0.37074082218821958 0 -0.21335741342528061 -0.3748607861064962 0 -0.21424807490234879 -0.36231527430669241 0 -0.20800359978069241 -0.36335027445133922 0 -0.21424807490234879 -0.36231527430669241 0 -0.20803809997708481 -0.36661394692190907 0 -0.21424807490234879 -0.36231527430669241 0 -0.2097464541822805 -0.33582260124732738 0 -0.19565175395430129 -0.3512554891803924 0 -0.20800359978069241 -0.36335027445133922 0 -0.2097464541822805 -0.33582260124732738 0 -0.20800359978069241 -0.36335027445133922 0 -0.2097464541822805 -0.33582260124732738 0 -0.20800359978069241 -0.36335027445133922 0 -0.21424807490234879 -0.36231527430669241 0 -0.22913587473404851 -0.35200963246311751 0 -0.2097464541822805 -0.33582260124732738 0 -0.21424807490234879 -0.36231527430669241 0 -0.2335542019388327 -0.26090262277066528 0 -0.21472073189145299 -0.25725591714607071 0 -0.22837296648480071 -0.23789375384220129 0 -0.2335542019388327 -0.26090262277066528 0 -0.21357196166535461 -0.27540027352014051 0 -0.21472073189145299 -0.25725591714607071 0 -0.25298377122075039 -0.27518622721876451 0 -0.2335542019388327 -0.26090262277066528 0 -0.25431856302814809 -0.24833495949118861 0 -0.25298377122075039 -0.27518622721876451 0 -0.2335542019388327 -0.26090262277066528 0 -0.23093648268818689 -0.28342115129973 0 -0.2335542019388327 -0.26090262277066528 0 -0.23093648268818689 -0.28342115129973 0 -0.21357196166535461 -0.27540027352014051 0 -0.23093648268818689 -0.28342115129973 0 -0.21242319143925911 -0.29354462989421048 0 -0.21357196166535461 -0.27540027352014051 0 -0.23093648268818689 -0.28342115129973 0 -0.2435111179254994 -0.29490773243705071 0 -0.2284599410619414 -0.30268204450860919 0 -0.23093648268818689 -0.28342115129973 0 -0.2284599410619414 -0.30268204450860919 0 -0.21242319143925911 -0.29354462989421048 0 -0.25298377122075039 -0.27518622721876451 0 -0.23093648268818689 -0.28342115129973 0 -0.2435111179254994 -0.29490773243705071 0 -0.2444966906846206 -0.31181945912301329 0 -0.2284599410619414 -0.30268204450860919 0 -0.2435111179254994 -0.29490773243705071 0 -0.2444966906846206 -0.31181945912301329 0 -0.2284599410619414 -0.30268204450860919 0 -0.26057201890547982 -0.29344093798311832 0 -0.2435111179254994 -0.29490773243705071 0 -0.2444966906846206 -0.31181945912301329 0 -0.2279063026952847 -0.3135077128279592 0 -0.2444966906846206 -0.31181945912301329 0 -0.2284599410619414 -0.30268204450860919 0 -0.2284599410619414 -0.30268204450860919 0 -0.21242319143925911 -0.29354462989421048 0 -0.2279063026952847 -0.3135077128279592 0 -0.2284599410619414 -0.30268204450860919 0 -0.21134622408423179 -0.310554889255794 0 -0.2284599410619414 -0.30268204450860919 0 -0.21134622408423179 -0.310554889255794 0 -0.21242319143925911 -0.29354462989421048 0 -0.21134622408423179 -0.310554889255794 0 -0.19267178705524021 -0.30578920503631912 0 -0.21242319143925911 -0.29354462989421048 0 -0.21134622408423179 -0.310554889255794 0 -0.21242319143925911 -0.29354462989421048 0 -0.19267178705524021 -0.30578920503631912 0 -0.19410774352861071 -0.2831088592208712 0 -0.21242319143925911 -0.29354462989421048 0 -0.19410774352861071 -0.2831088592208712 0 -0.21242319143925911 -0.29354462989421048 0 -0.21357196166535461 -0.27540027352014051 0 -0.19410774352861071 -0.2831088592208712 0 -0.21242319143925911 -0.29354462989421048 0 -0.21242319143925911 -0.29354462989421048 0 -0.21357196166535461 -0.27540027352014051 0 -0.21357196166535461 -0.27540027352014051 0 -0.21472073189145299 -0.25725591714607071 0 -0.19410774352861071 -0.2831088592208712 0 -0.21357196166535461 -0.27540027352014051 0 -0.1965391795889786 -0.26204425282134669 0 -0.19410774352861071 -0.2831088592208712 0 -0.1965391795889786 -0.26204425282134669 0 -0.17579229561796161 -0.27267308854753308 0 -0.1965391795889786 -0.26204425282134669 0 -0.20565562739327201 -0.24334207984173631 0 -0.18863044441395099 -0.24733650333174401 0 -0.1965391795889786 -0.26204425282134669 0 -0.18340152769721799 -0.25642831405215172 0 -0.18863044441395099 -0.24733650333174401 0 -0.1965391795889786 -0.26204425282134669 0 -0.21472073189145299 -0.25725591714607071 0 -0.20565562739327201 -0.24334207984173631 0 -0.21357196166535461 -0.27540027352014051 0 -0.1965391795889786 -0.26204425282134669 0 -0.21472073189145299 -0.25725591714607071 0 -0.15747684770731041 -0.26223731787419863 0 -0.16344648285301799 -0.25937253054906129 0 -0.17579229561796161 -0.27267308854753308 0 -0.1593809120407062 -0.25278805690175971 0 -0.16344648285301799 -0.25937253054906129 0 -0.1534429259631987 -0.25724555178864622 0 -0.1593809120407062 -0.25278805690175971 0 -0.16344648285301799 -0.25937253054906129 0 -0.16709258238786229 -0.25188408856254202 0 -0.1593809120407062 -0.25278805690175971 0 -0.16709258238786229 -0.25188408856254202 0 -0.1601832428566283 -0.24550858739866141 0 -0.15747684770731041 -0.26223731787419863 0 -0.16344648285301799 -0.25937253054906129 0 -0.1534429259631987 -0.25724555178864622 0 -0.16344648285301799 -0.25937253054906129 0 -0.1534429259631987 -0.25724555178864622 0 -0.16344648285301799 -0.25937253054906129 0 -0.17379217291466831 -0.25992581321180469 0 -0.17579229561796161 -0.27267308854753308 0 -0.16344648285301799 -0.25937253054906129 0 -0.16709258238786229 -0.25188408856254202 0 -0.17379217291466831 -0.25992581321180469 0 -0.16709258238786229 -0.25188408856254202 0 -0.17679077873490559 -0.25046109420941731 0 -0.17379217291466831 -0.25992581321180469 0 -0.1965391795889786 -0.26204425282134669 0 -0.18340152769721799 -0.25642831405215172 0 -0.17579229561796161 -0.27267308854753308 0 -0.17679077873490559 -0.25046109420941731 0 -0.18340152769721799 -0.25642831405215172 0 -0.17379217291466831 -0.25992581321180469 0 -0.18340152769721799 -0.25642831405215172 0 -0.17379217291466831 -0.25992581321180469 0 -0.17579229561796161 -0.27267308854753308 0 -0.17679077873490559 -0.25046109420941731 0 -0.18340152769721799 -0.25642831405215172 0 -0.18863044441395099 -0.24733650333174401 0 -0.19410774352861071 -0.2831088592208712 0 -0.17579229561796161 -0.27267308854753308 0 -0.17507431738127369 -0.28401326145526029 0 -0.19410774352861071 -0.2831088592208712 0 -0.17579229561796161 -0.27267308854753308 0 -0.15747684770731041 -0.26223731787419863 0 -0.17507431738127369 -0.28401326145526029 0 -0.15747684770731041 -0.26223731787419863 0 -0.17579229561796161 -0.27267308854753308 0 -0.15747684770731041 -0.26223731787419863 0 -0.17579229561796161 -0.27267308854753308 0 -0.17507431738127369 -0.28401326145526029 0 -0.15747684770731041 -0.26223731787419863 0 -0.1596399504195592 -0.27820623095404468 0 -0.17507431738127369 -0.28401326145526029 0 -0.1596399504195592 -0.27820623095404468 0 -0.1624028041075358 -0.29248408411088062 0 -0.1494793968803598 -0.28070198605355251 0 -0.1624028041075358 -0.29248408411088062 0 -0.15973767967650701 -0.30493196891575292 0 -0.15108397830665751 -0.29236825921418419 0 -0.1624028041075358 -0.29248408411088062 0 -0.17507431738127369 -0.28401326145526029 0 -0.17391538329452061 -0.29489800819007239 0 -0.1596399504195592 -0.27820623095404468 0 -0.1624028041075358 -0.29248408411088062 0 -0.17507431738127369 -0.28401326145526029 0 -0.19267178705524021 -0.30578920503631912 0 -0.19410774352861071 -0.2831088592208712 0 -0.17507431738127369 -0.28401326145526029 0 -0.19267178705524021 -0.30578920503631912 0 -0.17507431738127369 -0.28401326145526029 0 -0.17391538329452061 -0.29489800819007239 0 -0.19267178705524021 -0.30578920503631912 0 -0.17507431738127369 -0.28401326145526029 0 -0.17391538329452061 -0.29489800819007239 0 -0.17532621133471249 -0.30426618216820789 0 -0.19254159852174429 -0.31996122112867409 0 -0.19267178705524021 -0.30578920503631912 0 -0.17532621133471249 -0.30426618216820789 0 -0.19267178705524021 -0.30578920503631912 0 -0.17391538329452061 -0.29489800819007239 0 -0.17532621133471249 -0.30426618216820789 0 -0.19254159852174429 -0.31996122112867409 0 -0.17532621133471249 -0.30426618216820789 0 -0.1789711567900161 -0.3101302037755338 0 -0.19254159852174429 -0.31996122112867409 0 -0.17532621133471249 -0.30426618216820789 0 -0.17532621133471249 -0.30426618216820789 0 -0.15973767967650701 -0.30493196891575292 0 -0.16582550601247259 -0.31644195918285489 0 -0.1624028041075358 -0.29248408411088062 0 -0.17532621133471249 -0.30426618216820789 0 -0.15973767967650701 -0.30493196891575292 0 -0.1624028041075358 -0.29248408411088062 0 -0.17532621133471249 -0.30426618216820789 0 -0.1624028041075358 -0.29248408411088062 0 -0.17391538329452061 -0.29489800819007239 0 -0.17532621133471249 -0.30426618216820789 0 -0.144593184228827 -0.30237793828586917 0 -0.15261731536399281 -0.31699983390472031 0 -0.1327552185807534 -0.31482398186879779 0 -0.15973767967650701 -0.30493196891575292 0 -0.144593184228827 -0.30237793828586917 0 -0.15261731536399281 -0.31699983390472031 0 -0.15973767967650701 -0.30493196891575292 0 -0.144593184228827 -0.30237793828586917 0 -0.15108397830665751 -0.29236825921418419 0 -0.144593184228827 -0.30237793828586917 0 -0.1304175251842298 -0.30012492429455973 0 -0.1327552185807534 -0.31482398186879779 0 -0.1304175251842298 -0.30012492429455973 0 -0.1327552185807534 -0.31482398186879779 0 -0.11567190875339491 -0.3081878681979589 0 -0.1304175251842298 -0.30012492429455973 0 -0.13697378053928061 -0.28594316463020741 0 -0.11725087491461519 -0.29108504565108578 0 -0.144593184228827 -0.30237793828586917 0 -0.1304175251842298 -0.30012492429455973 0 -0.13697378053928061 -0.28594316463020741 0 -0.13697378053928061 -0.28594316463020741 0 -0.15108397830665751 -0.29236825921418419 0 -0.1494793968803598 -0.28070198605355251 0 -0.144593184228827 -0.30237793828586917 0 -0.13697378053928061 -0.28594316463020741 0 -0.15108397830665751 -0.29236825921418419 0 -0.1624028041075358 -0.29248408411088062 0 -0.15108397830665751 -0.29236825921418419 0 -0.1494793968803598 -0.28070198605355251 0 -0.1624028041075358 -0.29248408411088062 0 -0.1494793968803598 -0.28070198605355251 0 -0.15747684770731041 -0.26223731787419863 0 -0.1596399504195592 -0.27820623095404468 0 -0.1503927610565664 -0.27179087804580171 0 -0.1596399504195592 -0.27820623095404468 0 -0.1494793968803598 -0.28070198605355251 0 -0.1503927610565664 -0.27179087804580171 0 -0.15747684770731041 -0.26223731787419863 0 -0.1503927610565664 -0.27179087804580171 0 -0.1469785187108 -0.2635474229235048 0 -0.1503927610565664 -0.27179087804580171 0 -0.13966748117377659 -0.26847157538705668 0 -0.1469785187108 -0.2635474229235048 0 -0.1503927610565664 -0.27179087804580171 0 -0.14153524490660671 -0.2763029116229278 0 -0.13966748117377659 -0.26847157538705668 0 -0.1494793968803598 -0.28070198605355251 0 -0.1503927610565664 -0.27179087804580171 0 -0.14153524490660671 -0.2763029116229278 0 -0.13697378053928061 -0.28594316463020741 0 -0.1494793968803598 -0.28070198605355251 0 -0.14153524490660671 -0.2763029116229278 0 -0.13697378053928061 -0.28594316463020741 0 -0.14153524490660671 -0.2763029116229278 0 -0.13219795163187159 -0.27110871778552531 0 -0.13697378053928061 -0.28594316463020741 0 -0.1173011125765811 -0.2721428964285707 0 -0.13697378053928061 -0.28594316463020741 0 -0.13219795163187159 -0.27110871778552531 0 -0.1173011125765811 -0.2721428964285707 0 -0.13219795163187159 -0.27110871778552531 0 -0.1333337708168415 -0.26377523499205202 0 -0.12600056203783161 -0.26301541000095829 0 -0.13219795163187159 -0.27110871778552531 0 -0.12600056203783161 -0.26301541000095829 0 -0.1173011125765811 -0.2721428964285707 0 -0.13219795163187159 -0.27110871778552531 0 -0.13966748117377659 -0.26847157538705668 0 -0.1333337708168415 -0.26377523499205202 0 -0.14153524490660671 -0.2763029116229278 0 -0.13219795163187159 -0.27110871778552531 0 -0.13966748117377659 -0.26847157538705668 0 -0.13966748117377659 -0.26847157538705668 0 -0.13807993829988649 -0.25979154560904222 0 -0.1333337708168415 -0.26377523499205202 0 -0.13807993829988649 -0.25979154560904222 0 -0.1333337708168415 -0.26377523499205202 0 -0.13072292094084129 -0.25648892617767749 0 -0.12600056203783161 -0.26301541000095829 0 -0.13072292094084129 -0.25648892617767749 0 -0.1187556211832122 -0.25814451816493872 0 -0.1333337708168415 -0.26377523499205202 0 -0.12600056203783161 -0.26301541000095829 0 -0.13072292094084129 -0.25648892617767749 0 -0.13072292094084129 -0.25648892617767749 0 -0.13218950310710981 -0.25272660122947088 0 -0.1187556211832122 -0.25814451816493872 0 -0.13072292094084129 -0.25648892617767749 0 -0.13218950310710981 -0.25272660122947088 0 -0.13218950310710981 -0.25272660122947088 0 -0.1459019403517107 -0.25564217047089421 0 -0.13375162957080131 -0.24871916986845621 0 -0.13218950310710981 -0.25272660122947088 0 -0.1459019403517107 -0.25564217047089421 0 -0.13218950310710981 -0.25272660122947088 0 -0.13375162957080131 -0.24871916986845621 0 -0.1459019403517107 -0.25564217047089421 0 -0.13375162957080131 -0.24871916986845621 0 -0.13807993829988649 -0.25979154560904222 0 -0.13218950310710981 -0.25272660122947088 0 -0.1459019403517107 -0.25564217047089421 0 -0.13807993829988649 -0.25979154560904222 0 -0.13072292094084129 -0.25648892617767749 0 -0.13218950310710981 -0.25272660122947088 0 -0.1459019403517107 -0.25564217047089421 0 -0.1534429259631987 -0.25724555178864622 0 -0.1378886282313006 -0.2381062402767252 0 -0.13966748117377659 -0.26847157538705668 0 -0.13807993829988649 -0.25979154560904222 0 -0.1469785187108 -0.2635474229235048 0 -0.13807993829988649 -0.25979154560904222 0 -0.1459019403517107 -0.25564217047089421 0 -0.1469785187108 -0.2635474229235048 0 -0.15747684770731041 -0.26223731787419863 0 -0.1459019403517107 -0.25564217047089421 0 -0.1534429259631987 -0.25724555178864622 0 -0.15747684770731041 -0.26223731787419863 0 -0.1459019403517107 -0.25564217047089421 0 -0.1469785187108 -0.2635474229235048 0 -0.15747684770731041 -0.26223731787419863 0 -0.1459019403517107 -0.25564217047089421 0 -0.15747684770731041 -0.26223731787419863 0 -0.1534429259631987 -0.25724555178864622 0 -0.1593809120407062 -0.25278805690175971 0 -0.1534429259631987 -0.25724555178864622 0 -0.15289321433053751 -0.246830478479277 0 -0.1459019403517107 -0.25564217047089421 0 -0.1534429259631987 -0.25724555178864622 0 -0.17143624801538501 -0.35840063883308271 0 -0.1580141783998408 -0.34710035810185619 0 -0.15489216358121211 -0.36256913283011211 0 -0.17143624801538501 -0.35840063883308271 0 -0.1580141783998408 -0.34710035810185619 0 -0.18164424501215659 -0.34621916084723381 0 -0.17143624801538501 -0.35840063883308271 0 -0.1663610822414904 -0.3702523776444529 0 -0.15489216358121211 -0.36256913283011211 0 -0.15951650330528561 -0.37856285477961621 0 -0.1663610822414904 -0.3702523776444529 0 -0.15489216358121211 -0.36256913283011211 0 -0.17143624801538501 -0.35840063883308271 0 -0.1663610822414904 -0.3702523776444529 0 -0.18480326185087809 -0.36719565018674682 0 -0.1663610822414904 -0.3702523776444529 0 -0.18480326185087809 -0.36719565018674682 0 -0.1663610822414904 -0.3702523776444529 0 -0.18480326185087809 -0.36719565018674682 0 -0.18579747934449059 -0.37379744869579251 0 -0.18480326185087809 -0.36719565018674682 0 -0.18579747934449059 -0.37379744869579251 0 -0.18480326185087809 -0.36719565018674682 0 -0.18164424501215659 -0.34621916084723381 0 -0.19565175395430129 -0.3512554891803924 0 -0.18480326185087809 -0.36719565018674682 0 -0.18164424501215659 -0.34621916084723381 0 -0.17143624801538501 -0.35840063883308271 0 -0.18480326185087809 -0.36719565018674682 0 -0.18164424501215659 -0.34621916084723381 0 -0.18164424501215659 -0.34621916084723381 0 -0.17848522817343529 -0.32524267150772068 0 -0.1629610955137164 -0.33076913941787212 0 -0.18164424501215659 -0.34621916084723381 0 -0.17848522817343529 -0.32524267150772068 0 -0.18164424501215659 -0.34621916084723381 0 -0.18737083868624629 -0.33075534874643497 0 -0.17848522817343529 -0.32524267150772068 0 -0.17532621133471249 -0.30426618216820789 0 -0.17848522817343529 -0.32524267150772068 0 -0.17532621133471249 -0.30426618216820789 0 -0.1789711567900161 -0.3101302037755338 0 -0.17848522817343529 -0.32524267150772068 0 -0.17532621133471249 -0.30426618216820789 0 -0.17848522817343529 -0.32524267150772068 0 -0.16582550601247259 -0.31644195918285489 0 -0.1943588054861482 -0.32297640251143073 0 -0.1789711567900161 -0.3101302037755338 0 -0.18479650728396149 -0.32227615663527998 0 -0.1789711567900161 -0.3101302037755338 0 -0.18479650728396149 -0.32227615663527998 0 -0.17848522817343529 -0.32524267150772068 0 -0.1943588054861482 -0.32297640251143073 0 -0.1789711567900161 -0.3101302037755338 0 -0.18737083868624629 -0.33075534874643497 0 -0.18479650728396149 -0.32227615663527998 0 -0.17848522817343529 -0.32524267150772068 0 -0.17848522817343529 -0.32524267150772068 0 -0.16582550601247259 -0.31644195918285489 0 -0.1629610955137164 -0.33076913941787212 0 -0.16582550601247259 -0.31644195918285489 0 -0.1629610955137164 -0.33076913941787212 0 -0.15261731536399281 -0.31699983390472031 0 -0.15973767967650701 -0.30493196891575292 0 -0.16582550601247259 -0.31644195918285489 0 -0.15261731536399281 -0.31699983390472031 0 -0.1580141783998408 -0.34710035810185619 0 -0.18164424501215659 -0.34621916084723381 0 -0.1629610955137164 -0.33076913941787212 0 -0.1580141783998408 -0.34710035810185619 0 -0.1629610955137164 -0.33076913941787212 0 -0.14559484309128301 -0.3331209990743299 0 -0.14559484309128301 -0.3331209990743299 0 -0.15261731536399281 -0.31699983390472031 0 -0.1327552185807534 -0.31482398186879779 0 -0.1629610955137164 -0.33076913941787212 0 -0.14559484309128301 -0.3331209990743299 0 -0.15261731536399281 -0.31699983390472031 0 -0.14559484309128301 -0.3331209990743299 0 -0.1327552185807534 -0.31482398186879779 0 -0.12678352480283511 -0.3369129194106073 0 -0.14559484309128301 -0.3331209990743299 0 -0.12678352480283511 -0.3369129194106073 0 -0.14043772588655989 -0.35211976174212622 0 -0.12678352480283511 -0.3369129194106073 0 -0.14043772588655989 -0.35211976174212622 0 -0.1203130985899742 -0.35955571918490481 0 -0.1580141783998408 -0.34710035810185619 0 -0.14043772588655989 -0.35211976174212622 0 -0.15489216358121211 -0.36256913283011211 0 -0.1580141783998408 -0.34710035810185619 0 -0.14559484309128301 -0.3331209990743299 0 -0.14043772588655989 -0.35211976174212622 0 -0.14043772588655989 -0.35211976174212622 0 -0.15489216358121211 -0.36256913283011211 0 -0.13959568407155781 -0.37291875636350952 0 -0.15951650330528561 -0.37856285477961621 0 -0.15489216358121211 -0.36256913283011211 0 -0.13959568407155781 -0.37291875636350952 0 -0.12625141541498519 -0.38197991289387551 0 -0.13959568407155781 -0.37291875636350952 0 -0.1203130985899742 -0.35955571918490481 0 -0.14043772588655989 -0.35211976174212622 0 -0.13959568407155781 -0.37291875636350952 0 -0.1203130985899742 -0.35955571918490481 0 -0.1203130985899742 -0.35955571918490481 0 -0.11384267237711319 -0.38219851895920232 0 -0.1203130985899742 -0.35955571918490481 0 -0.10849363524981311 -0.36442991456039969 0 -0.11384267237711319 -0.38219851895920232 0 -0.12625141541498519 -0.38197991289387551 0 -0.1203130985899742 -0.35955571918490481 0 -0.11384267237711319 -0.38219851895920232 0 -0.10849363524981311 -0.36442991456039969 0 -0.096157591159299352 -0.35547454281719221 0 -0.10176491866177829 -0.38015793077534599 0 -0.096157591159299352 -0.35547454281719221 0 -0.10176491866177829 -0.38015793077534599 0 -0.096157591159299352 -0.35547454281719221 0 -0.10176491866177829 -0.38015793077534599 0 -0.085276019388031976 -0.37619188405436782 0 -0.096157591159299352 -0.35547454281719221 0 -0.10964553082547281 -0.34513317088572909 0 -0.090550263656820479 -0.33079115485903843 0 -0.10849363524981311 -0.36442991456039969 0 -0.096157591159299352 -0.35547454281719221 0 -0.10964553082547281 -0.34513317088572909 0 -0.1203130985899742 -0.35955571918490481 0 -0.10849363524981311 -0.36442991456039969 0 -0.10964553082547281 -0.34513317088572909 0 -0.12678352480283511 -0.3369129194106073 0 -0.1203130985899742 -0.35955571918490481 0 -0.10964553082547281 -0.34513317088572909 0 -0.12678352480283511 -0.3369129194106073 0 -0.1203130985899742 -0.35955571918490481 0 -0.12678352480283511 -0.3369129194106073 0 -0.10964553082547281 -0.34513317088572909 0 -0.1112875311940303 -0.32576775904759792 0 -0.1327552185807534 -0.31482398186879779 0 -0.12678352480283511 -0.3369129194106073 0 -0.1112875311940303 -0.32576775904759792 0 -0.1327552185807534 -0.31482398186879779 0 -0.1112875311940303 -0.32576775904759792 0 -0.11567190875339491 -0.3081878681979589 0 -0.1112875311940303 -0.32576775904759792 0 -0.1011365257202933 -0.31403431577096802 0 -0.11567190875339491 -0.3081878681979589 0 -0.1112875311940303 -0.32576775904759792 0 -0.1011365257202933 -0.31403431577096802 0 -0.090550263656820479 -0.33079115485903843 0 -0.10964553082547281 -0.34513317088572909 0 -0.1112875311940303 -0.32576775904759792 0 -0.090550263656820479 -0.33079115485903843 0 -0.096157591159299352 -0.35547454281719221 0 -0.090550263656820479 -0.33079115485903843 0 -0.096157591159299352 -0.35547454281719221 0 -0.090550263656820479 -0.33079115485903843 0 -0.073144777225565616 -0.33606175945158517 0 -0.090550263656820479 -0.33079115485903843 0 -0.084942936154341619 -0.30610776690088481 0 -0.090550263656820479 -0.33079115485903843 0 -0.073144777225565616 -0.33606175945158517 0 -0.084942936154341619 -0.30610776690088481 0 -0.1011365257202933 -0.31403431577096802 0 -0.090550263656820479 -0.33079115485903843 0 -0.084942936154341619 -0.30610776690088481 0 -0.073144777225565616 -0.33606175945158517 0 -0.084942936154341619 -0.30610776690088481 0 -0.060613113796085999 -0.32288269869712272 0 -0.073144777225565616 -0.33606175945158517 0 -0.076755031766953086 -0.35884624094615858 0 -0.063306301319701316 -0.35299520754669739 0 -0.076755031766953086 -0.35884624094615858 0 -0.063306301319701316 -0.35299520754669739 0 -0.065890469742167113 -0.37350781086095058 0 -0.076755031766953086 -0.35884624094615858 0 -0.065890469742167113 -0.37350781086095058 0 -0.085276019388031976 -0.37619188405436782 0 -0.096157591159299352 -0.35547454281719221 0 -0.076755031766953086 -0.35884624094615858 0 -0.085276019388031976 -0.37619188405436782 0 -0.096157591159299352 -0.35547454281719221 0 -0.073144777225565616 -0.33606175945158517 0 -0.076755031766953086 -0.35884624094615858 0 -0.097628444613881649 -0.25834262822693399 0 -0.1173011125765811 -0.2721428964285707 0 -0.097628444613881649 -0.25834262822693399 0 -0.1187556211832122 -0.25814451816493872 0 -0.1098930818979398 -0.24798588601512411 0 -0.13218950310710981 -0.25272660122947088 0 -0.1187556211832122 -0.25814451816493872 0 -0.1098930818979398 -0.24798588601512411 0 -0.097628444613881649 -0.25834262822693399 0 -0.1187556211832122 -0.25814451816493872 0 -0.1173011125765811 -0.2721428964285707 0 -0.13218950310710981 -0.25272660122947088 0 -0.1098930818979398 -0.24798588601512411 0 -0.12600056203783161 -0.26301541000095829 0 -0.1187556211832122 -0.25814451816493872 0 -0.1173011125765811 -0.2721428964285707 0 -0.097628444613881649 -0.25834262822693399 0 -0.1173011125765811 -0.2721428964285707 0 -0.090762408808148426 -0.27102181932101072 0 -0.1173011125765811 -0.2721428964285707 0 -0.096655829275762523 -0.28444542957314378 0 -0.090762408808148426 -0.27102181932101072 0 -0.096655829275762523 -0.28444542957314378 0 -0.10322998884287909 -0.29931702984935987 0 -0.084942936154341619 -0.30610776690088481 0 -0.096655829275762523 -0.28444542957314378 0 -0.11725087491461519 -0.29108504565108578 0 -0.10322998884287909 -0.29931702984935987 0 -0.13697378053928061 -0.28594316463020741 0 -0.1173011125765811 -0.2721428964285707 0 -0.11725087491461519 -0.29108504565108578 0 -0.1173011125765811 -0.2721428964285707 0 -0.096655829275762523 -0.28444542957314378 0 -0.11725087491461519 -0.29108504565108578 0 -0.11725087491461519 -0.29108504565108578 0 -0.11567190875339491 -0.3081878681979589 0 -0.10322998884287909 -0.29931702984935987 0 -0.1304175251842298 -0.30012492429455973 0 -0.11725087491461519 -0.29108504565108578 0 -0.11567190875339491 -0.3081878681979589 0 -0.1011365257202933 -0.31403431577096802 0 -0.10322998884287909 -0.29931702984935987 0 -0.084942936154341619 -0.30610776690088481 0 -0.1011365257202933 -0.31403431577096802 0 -0.11567190875339491 -0.3081878681979589 0 -0.10322998884287909 -0.29931702984935987 0 -0.084942936154341619 -0.30610776690088481 0 -0.066237696895848033 -0.30175990202967712 0 -0.078368201618682937 -0.28822753231137022 0 -0.084942936154341619 -0.30610776690088481 0 -0.066237696895848033 -0.30175990202967712 0 -0.060613113796085999 -0.32288269869712272 0 -0.066237696895848033 -0.30175990202967712 0 -0.078368201618682937 -0.28822753231137022 0 -0.057136779716869042 -0.28712205926022771 0 -0.078368201618682937 -0.28822753231137022 0 -0.072744725061100565 -0.27289296274949931 0 -0.057136779716869042 -0.28712205926022771 0 -0.096655829275762523 -0.28444542957314378 0 -0.084942936154341619 -0.30610776690088481 0 -0.078368201618682937 -0.28822753231137022 0 -0.096655829275762523 -0.28444542957314378 0 -0.078368201618682937 -0.28822753231137022 0 -0.090762408808148426 -0.27102181932101072 0 -0.078368201618682937 -0.28822753231137022 0 -0.090762408808148426 -0.27102181932101072 0 -0.072744725061100565 -0.27289296274949931 0 -0.090762408808148426 -0.27102181932101072 0 -0.072744725061100565 -0.27289296274949931 0 -0.081281336266817772 -0.26097832242812891 0 -0.072744725061100565 -0.27289296274949931 0 -0.067161912638977472 -0.25903173736147111 0 -0.055745381016590281 -0.2682223094504298 0 -0.072744725061100565 -0.27289296274949931 0 -0.067161912638977472 -0.25903173736147111 0 -0.081281336266817772 -0.26097832242812891 0 -0.067161912638977472 -0.25903173736147111 0 -0.081281336266817772 -0.26097832242812891 0 -0.077955776651182085 -0.24454236002529731 0 -0.067161912638977472 -0.25903173736147111 0 -0.056939497423126581 -0.24878681181634871 0 -0.077955776651182085 -0.24454236002529731 0 -0.097628444613881649 -0.25834262822693399 0 -0.081281336266817772 -0.26097832242812891 0 -0.077955776651182085 -0.24454236002529731 0 -0.097628444613881649 -0.25834262822693399 0 -0.090762408808148426 -0.27102181932101072 0 -0.081281336266817772 -0.26097832242812891 0 -0.097628444613881649 -0.25834262822693399 0 -0.077955776651182085 -0.24454236002529731 0 -0.025857267464119819 -0.25506418495113531 0 -0.050191684441297867 -0.2485850187836515 0 -0.034199021844566052 -0.25740496373097072 0 -0.056939497423126581 -0.24878681181634871 0 -0.034199021844566052 -0.25740496373097072 0 -0.041398382443623198 -0.25192549838374201 0 -0.056939497423126581 -0.24878681181634871 0 -0.041398382443623198 -0.25192549838374201 0 -0.025857267464119819 -0.25506418495113531 0 -0.050191684441297867 -0.2485850187836515 0 -0.034199021844566052 -0.25740496373097072 0 -0.048255079716108998 -0.25800015923011232 0 -0.056939497423126581 -0.24878681181634871 0 -0.034199021844566052 -0.25740496373097072 0 -0.041398382443623198 -0.25192549838374201 0 -0.025857267464119819 -0.25506418495113531 0 -0.041398382443623198 -0.25192549838374201 0 -0.025857267464119819 -0.25506418495113531 0 -0.034199021844566052 -0.25740496373097072 0 -0.037307574571523318 -0.26201401924185519 0 -0.024854767991187229 -0.26705994663832661 0 -0.037307574571523318 -0.26201401924185519 0 -0.048255079716108998 -0.25800015923011232 0 -0.046606779304586107 -0.26584835010199509 0 -0.034199021844566052 -0.25740496373097072 0 -0.037307574571523318 -0.26201401924185519 0 -0.048255079716108998 -0.25800015923011232 0 -0.05702546769870083 -0.25851025446459042 0 -0.048255079716108998 -0.25800015923011232 0 -0.056939497423126581 -0.24878681181634871 0 -0.041398382443623198 -0.25192549838374201 0 -0.056939497423126581 -0.24878681181634871 0 -0.067161912638977472 -0.25903173736147111 0 -0.05702546769870083 -0.25851025446459042 0 -0.056939497423126581 -0.24878681181634871 0 -0.067161912638977472 -0.25903173736147111 0 -0.05702546769870083 -0.25851025446459042 0 -0.055745381016590281 -0.2682223094504298 0 -0.05702546769870083 -0.25851025446459042 0 -0.048255079716108998 -0.25800015923011232 0 -0.055745381016590281 -0.2682223094504298 0 -0.048255079716108998 -0.25800015923011232 0 -0.055745381016590281 -0.2682223094504298 0 -0.046606779304586107 -0.26584835010199509 0 -0.055745381016590281 -0.2682223094504298 0 -0.045119081914121867 -0.27515691248558288 0 -0.046606779304586107 -0.26584835010199509 0 -0.055745381016590281 -0.2682223094504298 0 -0.045119081914121867 -0.27515691248558288 0 -0.057136779716869042 -0.28712205926022771 0 -0.072744725061100565 -0.27289296274949931 0 -0.055745381016590281 -0.2682223094504298 0 -0.057136779716869042 -0.28712205926022771 0 -0.037307574571523318 -0.26201401924185519 0 -0.034478529498429812 -0.28951379058442123 0 -0.037307574571523318 -0.26201401924185519 0 -0.034478529498429812 -0.28951379058442123 0 -0.024854767991187229 -0.26705994663832661 0 -0.037307574571523318 -0.26201401924185519 0 -0.045119081914121867 -0.27515691248558288 0 -0.034478529498429812 -0.28951379058442123 0 -0.037307574571523318 -0.26201401924185519 0 -0.045119081914121867 -0.27515691248558288 0 -0.046606779304586107 -0.26584835010199509 0 -0.045119081914121867 -0.27515691248558288 0 -0.034478529498429812 -0.28951379058442123 0 -0.057136779716869042 -0.28712205926022771 0 -0.034478529498429812 -0.28951379058442123 0 -0.057136779716869042 -0.28712205926022771 0 -0.05012745319326059 -0.30445945297878008 0 -0.066237696895848033 -0.30175990202967712 0 -0.05012745319326059 -0.30445945297878008 0 -0.060613113796085999 -0.32288269869712272 0 -0.066237696895848033 -0.30175990202967712 0 -0.057136779716869042 -0.28712205926022771 0 -0.05012745319326059 -0.30445945297878008 0 -0.034478529498429812 -0.28951379058442123 0 -0.05012745319326059 -0.30445945297878008 0 -0.031649484425336299 -0.31701356192698721 0 -0.034478529498429812 -0.28951379058442123 0 -0.031649484425336299 -0.31701356192698721 0 -0.034478529498429812 -0.28951379058442123 0 -0.020284114256294641 -0.29759304008048471 0 -0.031649484425336299 -0.31701356192698721 0 -0.020284114256294641 -0.29759304008048471 0 -0.01007927323019326 -0.3103345258507364 0 -0.031649484425336299 -0.31701356192698721 0 -0.020284114256294641 -0.29759304008048471 0 -0.01007927323019326 -0.3103345258507364 0 -0.0080748459131490501 -0.2914060437848453 0 -0.01007927323019326 -0.3103345258507364 0 -0.0080748459131490501 -0.2914060437848453 0 0.0017563221397047381 -0.2997067901486577 0 -0.020284114256294641 -0.29759304008048471 0 -0.0080748459131490501 -0.2914060437848453 0 -0.017138438214364771 -0.27969727825543328 0 -0.0080748459131490501 -0.2914060437848453 0 -0.002848760243290064 -0.27761611820401882 0 0.0066437179820165657 -0.2861171845936395 0 -0.0080748459131490501 -0.2914060437848453 0 -0.017138438214364771 -0.27969727825543328 0 -0.002848760243290064 -0.27761611820401882 0 -0.034478529498429812 -0.28951379058442123 0 -0.020284114256294641 -0.29759304008048471 0 -0.017138438214364771 -0.27969727825543328 0 -0.034478529498429812 -0.28951379058442123 0 -0.024854767991187229 -0.26705994663832661 0 -0.017138438214364771 -0.27969727825543328 0 -0.024854767991187229 -0.26705994663832661 0 -0.01588915841142927 -0.27169793716392882 0 -0.01145854626600548 -0.26602311564559261 0 -0.024854767991187229 -0.26705994663832661 0 -0.01588915841142927 -0.27169793716392882 0 -0.017138438214364771 -0.27969727825543328 0 -0.017138438214364771 -0.27969727825543328 0 -0.011833725783772399 -0.27375861231724341 0 -0.002848760243290064 -0.27761611820401882 0 -0.01145854626600548 -0.26602311564559261 0 0.01128192931255503 -0.27464126756021451 0 -0.002848760243290064 -0.27761611820401882 0 -0.01145854626600548 -0.26602311564559261 0 0.01128192931255503 -0.27464126756021451 0 -0.01588915841142927 -0.27169793716392882 0 -0.017138438214364771 -0.27969727825543328 0 -0.011833725783772399 -0.27375861231724341 0 -0.011833725783772399 -0.27375861231724341 0 -0.002848760243290064 -0.27761611820401882 0 -0.01145854626600548 -0.26602311564559261 0 -0.01588915841142927 -0.27169793716392882 0 -0.011833725783772399 -0.27375861231724341 0 -0.01145854626600548 -0.26602311564559261 0 -0.01269776775011346 -0.25850600500130039 0 -0.0051360078472848583 -0.25701396995817721 0 0.0057158633005241696 -0.26337829885565528 0 -0.01145854626600548 -0.26602311564559261 0 -0.01269776775011346 -0.25850600500130039 0 0.0057158633005241696 -0.26337829885565528 0 -0.01269776775011346 -0.25850600500130039 0 0.0057158633005241696 -0.26337829885565528 0 -0.0009620894167222515 -0.25496392916579452 0 -0.0051360078472848583 -0.25701396995817721 0 0.0057158633005241696 -0.26337829885565528 0 -0.0071971320314794382 -0.2528457057960789 0 -0.01082738352359053 -0.24876902592697839 0 -0.0029313858115674811 -0.24854412401401971 0 -0.0009620894167222515 -0.25496392916579452 0 -0.0071971320314794382 -0.2528457057960789 0 -0.0029313858115674811 -0.24854412401401971 0 -0.0009620894167222515 -0.25496392916579452 0 -0.0051360078472848583 -0.25701396995817721 0 -0.0071971320314794382 -0.2528457057960789 0 -0.0051360078472848583 -0.25701396995817721 0 -0.0071971320314794382 -0.2528457057960789 0 -0.0094143843739788544 -0.25459574361389747 0 -0.0071971320314794382 -0.2528457057960789 0 -0.0094143843739788544 -0.25459574361389747 0 -0.01082738352359053 -0.24876902592697839 0 -0.01269776775011346 -0.25850600500130039 0 -0.0094143843739788544 -0.25459574361389747 0 -0.01082738352359053 -0.24876902592697839 0 -0.01269776775011346 -0.25850600500130039 0 -0.0051360078472848583 -0.25701396995817721 0 -0.0094143843739788544 -0.25459574361389747 0 -0.01269776775011346 -0.25850600500130039 0 -0.025857267464119819 -0.25506418495113531 0 -0.034199021844566052 -0.25740496373097072 0 -0.01145854626600548 -0.26602311564559261 0 -0.025857267464119819 -0.25506418495113531 0 -0.01269776775011346 -0.25850600500130039 0 -0.025857267464119819 -0.25506418495113531 0 -0.02368513365757598 -0.23851275990414511 0 -0.034199021844566052 -0.25740496373097072 0 -0.024854767991187229 -0.26705994663832661 0 -0.01145854626600548 -0.26602311564559261 0 -0.034199021844566052 -0.25740496373097072 0 -0.01145854626600548 -0.26602311564559261 0 -0.01145854626600548 -0.26602311564559261 0 -0.01269776775011346 -0.25850600500130039 0 -0.025857267464119819 -0.25506418495113531 0 -0.046940286889098168 -0.35955036210978841 0 -0.050269733973634309 -0.3392354021108881 0 -0.02882043935224279 -0.34451333326955308 0 -0.046940286889098168 -0.35955036210978841 0 -0.02882043935224279 -0.34451333326955308 0 -0.026419717968229769 -0.36867473508972981 0 -0.046940286889098168 -0.35955036210978841 0 -0.026419717968229769 -0.36867473508972981 0 -0.046935058978613817 -0.3783756837809118 0 -0.065890469742167113 -0.37350781086095058 0 -0.046940286889098168 -0.35955036210978841 0 -0.046935058978613817 -0.3783756837809118 0 -0.063306301319701316 -0.35299520754669739 0 -0.065890469742167113 -0.37350781086095058 0 -0.046940286889098168 -0.35955036210978841 0 -0.063306301319701316 -0.35299520754669739 0 -0.046940286889098168 -0.35955036210978841 0 -0.050269733973634309 -0.3392354021108881 0 -0.073144777225565616 -0.33606175945158517 0 -0.063306301319701316 -0.35299520754669739 0 -0.050269733973634309 -0.3392354021108881 0 -0.073144777225565616 -0.33606175945158517 0 -0.050269733973634309 -0.3392354021108881 0 -0.060613113796085999 -0.32288269869712272 0 -0.050269733973634309 -0.3392354021108881 0 -0.060613113796085999 -0.32288269869712272 0 -0.031649484425336299 -0.31701356192698721 0 -0.05012745319326059 -0.30445945297878008 0 -0.060613113796085999 -0.32288269869712272 0 -0.031649484425336299 -0.31701356192698721 0 -0.050269733973634309 -0.3392354021108881 0 -0.031649484425336299 -0.31701356192698721 0 -0.02882043935224279 -0.34451333326955308 0 -0.031649484425336299 -0.31701356192698721 0 -0.02882043935224279 -0.34451333326955308 0 -0.031649484425336299 -0.31701356192698721 0 -0.0038616663111063101 -0.33241552487502413 0 -0.02882043935224279 -0.34451333326955308 0 -0.01007927323019326 -0.3103345258507364 0 -0.031649484425336299 -0.31701356192698721 0 -0.0038616663111063101 -0.33241552487502413 0 -0.01007927323019326 -0.3103345258507364 0 -0.0038616663111063101 -0.33241552487502413 0 0.0094652366165251054 -0.31053241408104548 0 -0.0038616663111063101 -0.33241552487502413 0 -0.0043130761299947744 -0.35643483176966217 0 -0.02882043935224279 -0.34451333326955308 0 -0.0043130761299947744 -0.35643483176966217 0 -0.02882043935224279 -0.34451333326955308 0 -0.026419717968229769 -0.36867473508972981 0 -0.0043130761299947744 -0.35643483176966217 0 -0.026419717968229769 -0.36867473508972981 0 -0.0064694903547723136 -0.38059021958606692 0 -0.0064694903547723136 -0.38059021958606692 0 -0.0080625817845775948 -0.40608726553411861 0 -0.026496984295852101 -0.39226102623928111 0 -0.0064694903547723136 -0.38059021958606692 0 -0.0080625817845775948 -0.40608726553411861 0 0.009690974369139977 -0.39295199195252922 0 -0.0080625817845775948 -0.40608726553411861 0 -0.026496984295852101 -0.39226102623928111 0 -0.029852467816379728 -0.41236872525256307 0 -0.026419717968229769 -0.36867473508972981 0 -0.0064694903547723136 -0.38059021958606692 0 -0.026496984295852101 -0.39226102623928111 0 -0.026496984295852101 -0.39226102623928111 0 -0.048213792324517578 -0.39768762776665978 0 -0.046935058978613817 -0.3783756837809118 0 -0.026419717968229769 -0.36867473508972981 0 -0.026496984295852101 -0.39226102623928111 0 -0.046935058978613817 -0.3783756837809118 0 -0.026496984295852101 -0.39226102623928111 0 -0.048213792324517578 -0.39768762776665978 0 -0.029852467816379728 -0.41236872525256307 0 -0.048213792324517578 -0.39768762776665978 0 -0.065379196062645584 -0.39052657147488062 0 -0.06528413140028641 -0.40548789039177052 0 -0.048213792324517578 -0.39768762776665978 0 -0.046935058978613817 -0.3783756837809118 0 -0.065379196062645584 -0.39052657147488062 0 -0.065890469742167113 -0.37350781086095058 0 -0.046935058978613817 -0.3783756837809118 0 -0.065379196062645584 -0.39052657147488062 0 -0.052630130657334448 -0.42871109396582502 0 -0.036803499053157718 -0.43392585985635063 0 -0.055908543568221357 -0.44353945242809251 0 -0.052630130657334448 -0.42871109396582502 0 -0.048282499091199083 -0.41684649723306111 0 -0.065713266975248902 -0.42040157794015642 0 -0.052630130657334448 -0.42871109396582502 0 -0.055908543568221357 -0.44353945242809251 0 -0.077753046024815156 -0.43509142098737241 0 -0.048282499091199083 -0.41684649723306111 0 -0.06528413140028641 -0.40548789039177052 0 -0.065713266975248902 -0.42040157794015642 0 -0.048213792324517578 -0.39768762776665978 0 -0.048282499091199083 -0.41684649723306111 0 -0.06528413140028641 -0.40548789039177052 0 -0.048213792324517578 -0.39768762776665978 0 -0.048282499091199083 -0.41684649723306111 0 -0.029852467816379728 -0.41236872525256307 0 -0.048282499091199083 -0.41684649723306111 0 -0.036803499053157718 -0.43392585985635063 0 -0.029852467816379728 -0.41236872525256307 0 -0.052630130657334448 -0.42871109396582502 0 -0.048282499091199083 -0.41684649723306111 0 -0.036803499053157718 -0.43392585985635063 0 -0.036803499053157718 -0.43392585985635063 0 -0.01686747062211669 -0.42668809062348251 0 -0.022482277956740859 -0.44034230556013138 0 -0.036803499053157718 -0.43392585985635063 0 -0.01686747062211669 -0.42668809062348251 0 -0.029852467816379728 -0.41236872525256307 0 -0.0080625817845775948 -0.40608726553411861 0 -0.01686747062211669 -0.42668809062348251 0 -0.029852467816379728 -0.41236872525256307 0 -0.0080625817845775948 -0.40608726553411861 0 -0.01686747062211669 -0.42668809062348251 0 0.01224976062295041 -0.42183763890738629 0 -0.01686747062211669 -0.42668809062348251 0 -0.008216644178786571 -0.4466179140804285 0 0.01224976062295041 -0.42183763890738629 0 -0.008216644178786571 -0.4466179140804285 0 -0.0021957942935651631 -0.46571035637089769 0 -0.016151777162071251 -0.46269316979172348 0 -0.0021957942935651631 -0.46571035637089769 0 -0.016151777162071251 -0.46269316979172348 0 -0.01292321871024151 -0.47600360382280887 0 -0.008216644178786571 -0.4466179140804285 0 -0.016151777162071251 -0.46269316979172348 0 -0.028753682251359231 -0.45370767630375852 0 -0.016151777162071251 -0.46269316979172348 0 -0.030722049445265721 -0.46513815794063051 0 -0.025757536927686689 -0.47561542944709773 0 -0.016151777162071251 -0.46269316979172348 0 -0.030722049445265721 -0.46513815794063051 0 -0.028753682251359231 -0.45370767630375852 0 -0.036803499053157718 -0.43392585985635063 0 -0.028753682251359231 -0.45370767630375852 0 -0.022482277956740859 -0.44034230556013138 0 -0.01686747062211669 -0.42668809062348251 0 -0.008216644178786571 -0.4466179140804285 0 -0.022482277956740859 -0.44034230556013138 0 -0.008216644178786571 -0.4466179140804285 0 -0.028753682251359231 -0.45370767630375852 0 -0.022482277956740859 -0.44034230556013138 0 -0.011489863113854141 -0.5 0 -0.010144146689038991 -0.48941639725935437 0 0.012735562036971701 -0.48508522326900949 0 -0.010144146689038991 -0.48941639725935437 0 -0.00065605929082254884 -0.47874224407546379 0 -0.01292321871024151 -0.47600360382280887 0 -0.010144146689038991 -0.48941639725935437 0 -0.01292321871024151 -0.47600360382280887 0 -0.022633997898264431 -0.48384402599231691 0 -0.0021957942935651631 -0.46571035637089769 0 -0.00065605929082254884 -0.47874224407546379 0 -0.01292321871024151 -0.47600360382280887 0 -0.016151777162071251 -0.46269316979172348 0 -0.01292321871024151 -0.47600360382280887 0 -0.025757536927686689 -0.47561542944709773 0 -0.025757536927686689 -0.47561542944709773 0 -0.022633997898264431 -0.48384402599231691 0 -0.032724513000240443 -0.48384135401243772 0 -0.01292321871024151 -0.47600360382280887 0 -0.025757536927686689 -0.47561542944709773 0 -0.022633997898264431 -0.48384402599231691 0 -0.011489863113854141 -0.5 0 -0.010144146689038991 -0.48941639725935437 0 -0.033023855415049652 -0.49374757124969931 0 -0.010144146689038991 -0.48941639725935437 0 -0.022633997898264431 -0.48384402599231691 0 -0.033023855415049652 -0.49374757124969931 0 -0.011489863113854141 -0.5 0 -0.041002190054857779 -0.5 0 -0.033023855415049652 -0.49374757124969931 0 -0.010144146689038991 -0.48941639725935437 0 -0.033023855415049652 -0.49374757124969931 0 -0.022633997898264431 -0.48384402599231691 0 -0.033023855415049652 -0.49374757124969931 0 -0.032724513000240443 -0.48384135401243772 0 -0.041002190054857779 -0.5 0 -0.040644419244316249 -0.48874723383863622 0 -0.055758353525359711 -0.48944453406372251 0 -0.041002190054857779 -0.5 0 -0.033023855415049652 -0.49374757124969931 0 -0.040644419244316249 -0.48874723383863622 0 -0.033023855415049652 -0.49374757124969931 0 -0.040644419244316249 -0.48874723383863622 0 -0.032724513000240443 -0.48384135401243772 0 -0.040644419244316249 -0.48874723383863622 0 -0.040713184226073652 -0.47670270986732172 0 -0.055758353525359711 -0.48944453406372251 0 -0.040644419244316249 -0.48874723383863622 0 -0.040713184226073652 -0.47670270986732172 0 -0.032724513000240443 -0.48384135401243772 0 -0.025757536927686689 -0.47561542944709773 0 -0.040713184226073652 -0.47670270986732172 0 -0.032724513000240443 -0.48384135401243772 0 -0.030722049445265721 -0.46513815794063051 0 -0.025757536927686689 -0.47561542944709773 0 -0.040713184226073652 -0.47670270986732172 0 -0.040713184226073652 -0.47670270986732172 0 -0.05604151524233808 -0.47085547185542692 0 -0.042137987481662489 -0.46199998676314519 0 -0.040713184226073652 -0.47670270986732172 0 -0.05604151524233808 -0.47085547185542692 0 -0.055758353525359711 -0.48944453406372251 0 -0.05604151524233808 -0.47085547185542692 0 -0.055758353525359711 -0.48944453406372251 0 -0.068357021366280857 -0.47830767763467641 0 -0.041002190054857779 -0.5 0 -0.055758353525359711 -0.48944453406372251 0 -0.070514516995861642 -0.5 0 -0.036803499053157718 -0.43392585985635063 0 -0.028753682251359231 -0.45370767630375852 0 -0.042591220718736618 -0.44931976272637059 0 -0.036803499053157718 -0.43392585985635063 0 -0.042591220718736618 -0.44931976272637059 0 -0.055908543568221357 -0.44353945242809251 0 -0.028753682251359231 -0.45370767630375852 0 -0.042591220718736618 -0.44931976272637059 0 -0.042137987481662489 -0.46199998676314519 0 -0.030722049445265721 -0.46513815794063051 0 -0.028753682251359231 -0.45370767630375852 0 -0.042137987481662489 -0.46199998676314519 0 -0.030722049445265721 -0.46513815794063051 0 -0.040713184226073652 -0.47670270986732172 0 -0.042137987481662489 -0.46199998676314519 0 -0.042591220718736618 -0.44931976272637059 0 -0.042137987481662489 -0.46199998676314519 0 -0.054601469153056192 -0.45704509188174619 0 -0.05604151524233808 -0.47085547185542692 0 -0.054601469153056192 -0.45704509188174619 0 -0.071896784036839162 -0.45711427830285839 0 -0.05604151524233808 -0.47085547185542692 0 -0.042137987481662489 -0.46199998676314519 0 -0.054601469153056192 -0.45704509188174619 0 -0.054601469153056192 -0.45704509188174619 0 -0.055908543568221357 -0.44353945242809251 0 -0.071896784036839162 -0.45711427830285839 0 -0.042591220718736618 -0.44931976272637059 0 -0.054601469153056192 -0.45704509188174619 0 -0.055908543568221357 -0.44353945242809251 0 -0.055908543568221357 -0.44353945242809251 0 -0.071896784036839162 -0.45711427830285839 0 -0.077753046024815156 -0.43509142098737241 0 -0.071896784036839162 -0.45711427830285839 0 -0.087573937031005744 -0.47412410395137422 0 -0.093954286744555499 -0.45179652052777369 0 -0.087573937031005744 -0.47412410395137422 0 -0.093954286744555499 -0.45179652052777369 0 -0.071896784036839162 -0.45711427830285839 0 -0.093954286744555499 -0.45179652052777369 0 -0.077753046024815156 -0.43509142098737241 0 -0.093954286744555499 -0.45179652052777369 0 -0.10033463645810529 -0.42946893710417328 0 -0.077753046024815156 -0.43509142098737241 0 -0.055758353525359711 -0.48944453406372251 0 -0.070514516995861642 -0.5 0 -0.068357021366280857 -0.47830767763467641 0 -0.05604151524233808 -0.47085547185542692 0 -0.071896784036839162 -0.45711427830285839 0 -0.068357021366280857 -0.47830767763467641 0 -0.071896784036839162 -0.45711427830285839 0 -0.068357021366280857 -0.47830767763467641 0 -0.087573937031005744 -0.47412410395137422 0 -0.070514516995861642 -0.5 0 -0.068357021366280857 -0.47830767763467641 0 -0.087573937031005744 -0.47412410395137422 0 -0.070514516995861642 -0.5 0 -0.087573937031005744 -0.47412410395137422 0 -0.10002684393686551 -0.5 0 -0.087573937031005744 -0.47412410395137422 0 -0.10002684393686551 -0.5 0 -0.10780494223314389 -0.47765854937150709 0 -0.087573937031005744 -0.47412410395137422 0 -0.10780494223314389 -0.47765854937150709 0 -0.1029954147344513 -0.46359439800738522 0 -0.12605423818426559 -0.48707922202292669 0 -0.10780494223314389 -0.47765854937150709 0 -0.1201929706126502 -0.46127799294672761 0 -0.12605423818426559 -0.48707922202292669 0 -0.1201929706126502 -0.46127799294672761 0 -0.12605423818426559 -0.48707922202292669 0 -0.10002684393686551 -0.5 0 -0.10780494223314389 -0.47765854937150709 0 -0.1295391708778694 -0.5 0 -0.12605423818426559 -0.48707922202292669 0 -0.10002684393686551 -0.5 0 -0.093954286744555499 -0.45179652052777369 0 -0.10033463645810529 -0.42946893710417328 0 -0.10636180231815941 -0.44832292249131772 0 -0.11433170304103479 -0.43547676387052858 0 -0.10033463645810529 -0.42946893710417328 0 -0.10636180231815941 -0.44832292249131772 0 -0.093954286744555499 -0.45179652052777369 0 -0.10033463645810529 -0.42946893710417328 0 -0.087573937031005744 -0.47412410395137422 0 -0.093954286744555499 -0.45179652052777369 0 -0.1029954147344513 -0.46359439800738522 0 -0.10636180231815941 -0.44832292249131772 0 -0.093954286744555499 -0.45179652052777369 0 -0.1029954147344513 -0.46359439800738522 0 -0.10780494223314389 -0.47765854937150709 0 -0.1029954147344513 -0.46359439800738522 0 -0.1201929706126502 -0.46127799294672761 0 -0.10636180231815941 -0.44832292249131772 0 -0.1029954147344513 -0.46359439800738522 0 -0.1201929706126502 -0.46127799294672761 0 -0.13671083813600751 -0.45044361347006462 0 -0.1201929706126502 -0.46127799294672761 0 -0.11433170304103479 -0.43547676387052858 0 -0.10636180231815941 -0.44832292249131772 0 -0.1201929706126502 -0.46127799294672761 0 -0.11433170304103479 -0.43547676387052858 0 -0.13671083813600751 -0.45044361347006462 0 -0.1225906368027144 -0.43005957413219659 0 -0.11433170304103479 -0.43547676387052858 0 -0.1201929706126502 -0.46127799294672761 0 -0.11433170304103479 -0.43547676387052858 0 -0.1225906368027144 -0.43005957413219659 0 -0.11433170304103479 -0.43547676387052858 0 -0.10847043546942051 -0.40967553479432928 0 -0.11433170304103479 -0.43547676387052858 0 -0.10847043546942051 -0.40967553479432928 0 -0.12908399078123631 -0.42243277819987513 0 -0.1225906368027144 -0.43005957413219659 0 -0.12315425937001 -0.41747458531602638 0 -0.11433170304103479 -0.43547676387052858 0 -0.10033463645810529 -0.42946893710417328 0 -0.10847043546942051 -0.40967553479432928 0 -0.10033463645810529 -0.42946893710417328 0 -0.094107383989168333 -0.41562629379671062 0 -0.1067149861716557 -0.40714135368057303 0 -0.10033463645810529 -0.42946893710417328 0 -0.1067149861716557 -0.40714135368057303 0 -0.10847043546942051 -0.40967553479432928 0 -0.10033463645810529 -0.42946893710417328 0 -0.1067149861716557 -0.40714135368057303 0 -0.094107383989168333 -0.41562629379671062 0 -0.1067149861716557 -0.40714135368057303 0 -0.093615658715422545 -0.40476526464288082 0 -0.10847043546942051 -0.40967553479432928 0 -0.1105756132387118 -0.40676785322215941 0 -0.1073722461642546 -0.40484131873350049 0 -0.10847043546942051 -0.40967553479432928 0 -0.1073722461642546 -0.40484131873350049 0 -0.1067149861716557 -0.40714135368057303 0 -0.10847043546942051 -0.40967553479432928 0 -0.1073722461642546 -0.40484131873350049 0 -0.1067149861716557 -0.40714135368057303 0 -0.10847043546942051 -0.40967553479432928 0 -0.1225906368027144 -0.43005957413219659 0 -0.1163272184937543 -0.41351727508190028 0 -0.12315425937001 -0.41747458531602638 0 -0.10847043546942051 -0.40967553479432928 0 -0.1125412123036873 -0.40894162881917728 0 -0.1163272184937543 -0.41351727508190028 0 -0.1125412123036873 -0.40894162881917728 0 -0.1105756132387118 -0.40676785322215941 0 -0.1147915820128618 -0.40580585217832088 0 -0.1225906368027144 -0.43005957413219659 0 -0.10847043546942051 -0.40967553479432928 0 -0.1163272184937543 -0.41351727508190028 0 -0.10847043546942051 -0.40967553479432928 0 -0.1125412123036873 -0.40894162881917728 0 -0.1105756132387118 -0.40676785322215941 0 -0.1225906368027144 -0.43005957413219659 0 -0.10847043546942051 -0.40967553479432928 0 -0.1125412123036873 -0.40894162881917728 0 -0.1163272184937543 -0.41351727508190028 0 -0.1147915820128618 -0.40580585217832088 0 -0.1225700411049412 -0.40994677461386392 0 -0.1219584454402414 -0.40406961642135292 0 -0.1147915820128618 -0.40580585217832088 0 -0.1163272184937543 -0.41351727508190028 0 -0.1225700411049412 -0.40994677461386392 0 -0.1147915820128618 -0.40580585217832088 0 -0.1163272184937543 -0.41351727508190028 0 -0.12315425937001 -0.41747458531602638 0 -0.1225700411049412 -0.40994677461386392 0 -0.1273295258527142 -0.39594401256049883 0 -0.1219584454402414 -0.40406961642135292 0 -0.1190781430676657 -0.39944145851713192 0 -0.11305295545189779 -0.39895005080087959 0 -0.11384267237711319 -0.38219851895920232 0 -0.1073722461642546 -0.40484131873350049 0 -0.1295768038857959 -0.40463739140698729 0 -0.1225700411049412 -0.40994677461386392 0 -0.1219584454402414 -0.40406961642135292 0 -0.1182582065806136 -0.392437760624607 0 -0.11305295545189779 -0.39895005080087959 0 -0.11384267237711319 -0.38219851895920232 0 -0.11384267237711319 -0.38219851895920232 0 -0.1073722461642546 -0.40484131873350049 0 -0.1219584454402414 -0.40406961642135292 0 -0.1190781430676657 -0.39944145851713192 0 -0.1147915820128618 -0.40580585217832088 0 -0.1273295258527142 -0.39594401256049883 0 -0.1190781430676657 -0.39944145851713192 0 -0.1182582065806136 -0.392437760624607 0 -0.1190781430676657 -0.39944145851713192 0 -0.1182582065806136 -0.392437760624607 0 -0.11305295545189779 -0.39895005080087959 0 -0.1105756132387118 -0.40676785322215941 0 -0.1114480992169309 -0.40409126873371493 0 -0.1073722461642546 -0.40484131873350049 0 -0.1105756132387118 -0.40676785322215941 0 -0.1114480992169309 -0.40409126873371493 0 -0.1147915820128618 -0.40580585217832088 0 -0.11305295545189779 -0.39895005080087959 0 -0.1114480992169309 -0.40409126873371493 0 -0.1147915820128618 -0.40580585217832088 0 -0.11305295545189779 -0.39895005080087959 0 -0.1114480992169309 -0.40409126873371493 0 -0.1073722461642546 -0.40484131873350049 0 -0.1190781430676657 -0.39944145851713192 0 -0.11305295545189779 -0.39895005080087959 0 -0.1147915820128618 -0.40580585217832088 0 -0.12625141541498519 -0.38197991289387551 0 -0.1182582065806136 -0.392437760624607 0 -0.11384267237711319 -0.38219851895920232 0 -0.12625141541498519 -0.38197991289387551 0 -0.1273295258527142 -0.39594401256049883 0 -0.1182582065806136 -0.392437760624607 0 -0.11384267237711319 -0.38219851895920232 0 -0.10176491866177829 -0.38015793077534599 0 -0.1073722461642546 -0.40484131873350049 0 -0.10176491866177829 -0.38015793077534599 0 -0.095995502779844255 -0.39166661886747001 0 -0.085276019388031976 -0.37619188405436782 0 -0.10849363524981311 -0.36442991456039969 0 -0.11384267237711319 -0.38219851895920232 0 -0.10176491866177829 -0.38015793077534599 0 -0.10176491866177829 -0.38015793077534599 0 -0.1073722461642546 -0.40484131873350049 0 -0.095995502779844255 -0.39166661886747001 0 -0.10176491866177829 -0.38015793077534599 0 -0.1073722461642546 -0.40484131873350049 0 -0.1067149861716557 -0.40714135368057303 0 -0.1073722461642546 -0.40484131873350049 0 -0.095995502779844255 -0.39166661886747001 0 -0.1067149861716557 -0.40714135368057303 0 -0.1073722461642546 -0.40484131873350049 0 -0.1067149861716557 -0.40714135368057303 0 -0.095995502779844255 -0.39166661886747001 0 -0.1067149861716557 -0.40714135368057303 0 -0.095995502779844255 -0.39166661886747001 0 -0.093615658715422545 -0.40476526464288082 0 -0.093615658715422545 -0.40476526464288082 0 -0.081664681120336771 -0.39582842074610342 0 -0.082451352827770552 -0.41163664718976212 0 -0.095995502779844255 -0.39166661886747001 0 -0.093615658715422545 -0.40476526464288082 0 -0.081664681120336771 -0.39582842074610342 0 -0.095995502779844255 -0.39166661886747001 0 -0.081664681120336771 -0.39582842074610342 0 -0.085276019388031976 -0.37619188405436782 0 -0.081664681120336771 -0.39582842074610342 0 -0.085276019388031976 -0.37619188405436782 0 -0.074552591578295357 -0.38401367178407558 0 -0.095995502779844255 -0.39166661886747001 0 -0.085276019388031976 -0.37619188405436782 0 -0.081664681120336771 -0.39582842074610342 0 -0.065379196062645584 -0.39052657147488062 0 -0.074552591578295357 -0.38401367178407558 0 -0.065890469742167113 -0.37350781086095058 0 -0.085276019388031976 -0.37619188405436782 0 -0.074552591578295357 -0.38401367178407558 0 -0.065890469742167113 -0.37350781086095058 0 -0.065379196062645584 -0.39052657147488062 0 -0.074552591578295357 -0.38401367178407558 0 -0.081664681120336771 -0.39582842074610342 0 -0.06528413140028641 -0.40548789039177052 0 -0.082451352827770552 -0.41163664718976212 0 -0.081664681120336771 -0.39582842074610342 0 -0.065379196062645584 -0.39052657147488062 0 -0.06528413140028641 -0.40548789039177052 0 -0.065713266975248902 -0.42040157794015642 0 -0.085028608260126398 -0.42320905853578622 0 -0.082451352827770552 -0.41163664718976212 0 -0.06528413140028641 -0.40548789039177052 0 -0.065713266975248902 -0.42040157794015642 0 -0.082451352827770552 -0.41163664718976212 0 -0.065713266975248902 -0.42040157794015642 0 -0.077753046024815156 -0.43509142098737241 0 -0.085028608260126398 -0.42320905853578622 0 -0.052630130657334448 -0.42871109396582502 0 -0.065713266975248902 -0.42040157794015642 0 -0.077753046024815156 -0.43509142098737241 0 -0.10033463645810529 -0.42946893710417328 0 -0.077753046024815156 -0.43509142098737241 0 -0.085028608260126398 -0.42320905853578622 0 -0.10033463645810529 -0.42946893710417328 0 -0.094107383989168333 -0.41562629379671062 0 -0.085028608260126398 -0.42320905853578622 0 -0.094107383989168333 -0.41562629379671062 0 -0.085028608260126398 -0.42320905853578622 0 -0.082451352827770552 -0.41163664718976212 0 -0.094107383989168333 -0.41562629379671062 0 -0.093615658715422545 -0.40476526464288082 0 -0.082451352827770552 -0.41163664718976212 0 -0.080832567710134945 -0.085265223789800185 0 -0.09573268077664969 -0.090624673380050064 0 -0.094924188455715333 -0.074372309221374736 0 -0.080832567710134945 -0.085265223789800185 0 -0.0944050220014645 -0.1050702242089397 0 -0.09573268077664969 -0.090624673380050064 0 -0.094924188455715333 -0.074372309221374736 0 -0.077079431972146645 -0.050953682142663811 0 -0.080832567710134945 -0.085265223789800185 0 -0.077460787511610923 -0.070469280456870842 0 -0.094924188455715333 -0.074372309221374736 0 -0.077460787511610923 -0.070469280456870842 0 -0.094924188455715333 -0.074372309221374736 0 -0.078535685693175539 -0.061573663464548622 0 -0.080832567710134945 -0.085265223789800185 0 -0.072736864716213656 -0.076885636419884412 0 -0.077460787511610923 -0.070469280456870842 0 -0.072736864716213656 -0.076885636419884412 0 -0.077460787511610923 -0.070469280456870842 0 -0.067174029152377468 -0.071022972744677337 0 -0.077460787511610923 -0.070469280456870842 0 -0.067174029152377468 -0.071022972744677337 0 -0.070308423821052124 -0.061023041189074957 0 -0.077460787511610923 -0.070469280456870842 0 -0.078535685693175539 -0.061573663464548622 0 -0.070308423821052124 -0.061023041189074957 0 -0.067174029152377468 -0.071022972744677337 0 -0.070308423821052124 -0.061023041189074957 0 -0.060830035872249492 -0.064558057335980773 0 -0.072736864716213656 -0.076885636419884412 0 -0.067174029152377468 -0.071022972744677337 0 -0.063732237529271596 -0.080733089011810297 0 -0.067174029152377468 -0.071022972744677337 0 -0.063732237529271596 -0.080733089011810297 0 -0.058000192015007383 -0.073011667883306972 0 -0.080832567710134945 -0.085265223789800185 0 -0.063732237529271596 -0.080733089011810297 0 -0.066023591375222151 -0.09957098179305135 0 -0.080832567710134945 -0.085265223789800185 0 -0.072736864716213656 -0.076885636419884412 0 -0.063732237529271596 -0.080733089011810297 0 -0.066023591375222151 -0.09957098179305135 0 -0.069466171350113709 -0.1135628440840601 0 -0.0944050220014645 -0.1050702242089397 0 -0.066023591375222151 -0.09957098179305135 0 -0.069466171350113709 -0.1135628440840601 0 -0.054384952187449757 -0.110609208962567 0 -0.077516787342341589 -0.1242022911324857 0 -0.069466171350113709 -0.1135628440840601 0 -0.059238207921678762 -0.13024384051707169 0 -0.077516787342341589 -0.1242022911324857 0 -0.093262550211769629 -0.1231040070079162 0 -0.0944050220014645 -0.1050702242089397 0 -0.077516787342341589 -0.1242022911324857 0 -0.069466171350113709 -0.1135628440840601 0 -0.0944050220014645 -0.1050702242089397 0 -0.066023591375222151 -0.09957098179305135 0 -0.0944050220014645 -0.1050702242089397 0 -0.080832567710134945 -0.085265223789800185 0 -0.066023591375222151 -0.09957098179305135 0 -0.0944050220014645 -0.1050702242089397 0 -0.0944050220014645 -0.1050702242089397 0 -0.1071147179002416 -0.1244919901550422 0 -0.11276894493928399 -0.097790936300085646 0 -0.0944050220014645 -0.1050702242089397 0 -0.11276894493928399 -0.097790936300085646 0 -0.09573268077664969 -0.090624673380050064 0 -0.093262550211769629 -0.1231040070079162 0 -0.0944050220014645 -0.1050702242089397 0 -0.1071147179002416 -0.1244919901550422 0 -0.1071147179002416 -0.1244919901550422 0 -0.11276894493928399 -0.097790936300085646 0 -0.1306137014228527 -0.1212095633787966 0 -0.11276894493928399 -0.097790936300085646 0 -0.1306137014228527 -0.1212095633787966 0 -0.112702195828283 -0.076339248342475546 0 -0.13438499311011279 -0.096174695905308166 0 -0.11276894493928399 -0.097790936300085646 0 -0.112702195828283 -0.076339248342475546 0 -0.13438499311011279 -0.096174695905308166 0 -0.11276894493928399 -0.097790936300085646 0 -0.094924188455715333 -0.074372309221374736 0 -0.112702195828283 -0.076339248342475546 0 -0.11276894493928399 -0.097790936300085646 0 -0.094924188455715333 -0.074372309221374736 0 -0.11276894493928399 -0.097790936300085646 0 -0.09573268077664969 -0.090624673380050064 0 -0.094924188455715333 -0.074372309221374736 0 -0.094924188455715333 -0.074372309221374736 0 -0.1026030192468113 -0.064894788769428779 0 -0.112702195828283 -0.076339248342475546 0 -0.094924188455715333 -0.074372309221374736 0 -0.1026030192468113 -0.064894788769428779 0 -0.090333769324138391 -0.059362086744932152 0 -0.1026030192468113 -0.064894788769428779 0 -0.112702195828283 -0.076339248342475546 0 -0.1158705629695205 -0.060236298698018297 0 -0.112702195828283 -0.076339248342475546 0 -0.1158705629695205 -0.060236298698018297 0 -0.13497135686491851 -0.078315161523928284 0 -0.1158705629695205 -0.060236298698018297 0 -0.1150956899200111 -0.045830426672337207 0 -0.1070798181065768 -0.041876824406217303 0 -0.1158705629695205 -0.060236298698018297 0 -0.1150956899200111 -0.045830426672337207 0 -0.12809376798702951 -0.047905065599393698 0 -0.1163329610324388 -0.034474533447810513 0 -0.12530131535501859 -0.034952786400489197 0 -0.12809376798702951 -0.047905065599393698 0 -0.11023593420079281 -0.033339602888773932 0 -0.1150956899200111 -0.045830426672337207 0 -0.12809376798702951 -0.047905065599393698 0 -0.11023593420079281 -0.033339602888773932 0 -0.1163329610324388 -0.034474533447810513 0 -0.12809376798702951 -0.047905065599393698 0 -0.11023593420079281 -0.033339602888773932 0 -0.12809376798702951 -0.047905065599393698 0 -0.1163329610324388 -0.034474533447810513 0 -0.1221370268088495 -0.025998648103035 0 -0.12530131535501859 -0.034952786400489197 0 -0.11023593420079281 -0.033339602888773932 0 -0.1150956899200111 -0.045830426672337207 0 -0.1070798181065768 -0.041876824406217303 0 -0.11023593420079281 -0.033339602888773932 0 -0.1163329610324388 -0.034474533447810513 0 -0.097427134368436918 -0.027820357899848831 0 -0.11023593420079281 -0.033339602888773932 0 -0.1070798181065768 -0.041876824406217303 0 -0.097427134368436918 -0.027820357899848831 0 -0.1070798181065768 -0.041876824406217303 0 -0.096769769074122519 -0.04215743587210824 0 -0.097427134368436918 -0.027820357899848831 0 -0.1158705629695205 -0.060236298698018297 0 -0.1070798181065768 -0.041876824406217303 0 -0.096769769074122519 -0.04215743587210824 0 -0.1026030192468113 -0.064894788769428779 0 -0.1158705629695205 -0.060236298698018297 0 -0.099264754381345577 -0.055060356505970513 0 -0.1158705629695205 -0.060236298698018297 0 -0.096769769074122519 -0.04215743587210824 0 -0.099264754381345577 -0.055060356505970513 0 -0.096769769074122519 -0.04215743587210824 0 -0.099264754381345577 -0.055060356505970513 0 -0.090746651292135133 -0.048651172445365112 0 -0.1158705629695205 -0.060236298698018297 0 -0.096769769074122519 -0.04215743587210824 0 -0.1026030192468113 -0.064894788769428779 0 -0.099264754381345577 -0.055060356505970513 0 -0.090333769324138391 -0.059362086744932152 0 -0.1029392013539359 -0.0085751277431150782 0 -0.12735709500343681 0.004015926865657337 0 -0.1236693299605585 -0.0137973575501921 0 -0.1110604598185659 -0.0207882196779367 0 -0.1029392013539359 -0.0085751277431150782 0 -0.1236693299605585 -0.0137973575501921 0 -0.1029392013539359 -0.0085751277431150782 0 -0.12735709500343681 0.004015926865657337 0 -0.1236693299605585 -0.0137973575501921 0 -0.1110604598185659 -0.0207882196779367 0 -0.1221370268088495 -0.025998648103035 0 -0.1163329610324388 -0.034474533447810513 0 -0.1221370268088495 -0.025998648103035 0 -0.11173939550707281 -0.027270439782157759 0 -0.1110604598185659 -0.0207882196779367 0 -0.1221370268088495 -0.025998648103035 0 -0.11173939550707281 -0.027270439782157759 0 -0.1163329610324388 -0.034474533447810513 0 -0.097427134368436918 -0.027820357899848831 0 -0.1110604598185659 -0.0207882196779367 0 -0.097427134368436918 -0.027820357899848831 0 -0.1029392013539359 -0.0085751277431150782 0 -0.1163329610324388 -0.034474533447810513 0 -0.11173939550707281 -0.027270439782157759 0 -0.097427134368436918 -0.027820357899848831 0 -0.1110604598185659 -0.0207882196779367 0 -0.11173939550707281 -0.027270439782157759 0 -0.097427134368436918 -0.027820357899848831 0 -0.1029392013539359 -0.0085751277431150782 0 -0.086097875964997059 -0.0058870606910941042 0 -0.078521307704434995 -0.021166182351887271 0 -0.1029392013539359 -0.0085751277431150782 0 -0.078521307704434995 -0.021166182351887271 0 -0.1029392013539359 -0.0085751277431150782 0 -0.086097875964997059 -0.0058870606910941042 0 -0.091682611010439896 0.0063963380850077774 0 -0.086097875964997059 -0.0058870606910941042 0 -0.073830544796709738 -0.0078542708917730738 0 -0.078933949510919491 0.00072378658541613432 0 -0.086097875964997059 -0.0058870606910941042 0 -0.078521307704434995 -0.021166182351887271 0 -0.073830544796709738 -0.0078542708917730738 0 -0.097427134368436918 -0.027820357899848831 0 -0.078521307704434995 -0.021166182351887271 0 -0.097427134368436918 -0.027820357899848831 0 -0.078521307704434995 -0.021166182351887271 0 -0.077668975178724509 -0.024078573046198169 0 -0.097427134368436918 -0.027820357899848831 0 -0.1029392013539359 -0.0085751277431150782 0 -0.078521307704434995 -0.021166182351887271 0 -0.078521307704434995 -0.021166182351887271 0 -0.055132092173872667 -0.033226800447327051 0 -0.05822397002114936 -0.01402224463886402 0 -0.078521307704434995 -0.021166182351887271 0 -0.055132092173872667 -0.033226800447327051 0 -0.077668975178724509 -0.024078573046198169 0 -0.075465350998538308 -0.032772608828030472 0 -0.055132092173872667 -0.033226800447327051 0 -0.078521307704434995 -0.021166182351887271 0 -0.077668975178724509 -0.024078573046198169 0 -0.055132092173872667 -0.033226800447327051 0 -0.078521307704434995 -0.021166182351887271 0 -0.05822397002114936 -0.01402224463886402 0 -0.078521307704434995 -0.021166182351887271 0 -0.073830544796709738 -0.0078542708917730738 0 -0.05822397002114936 -0.01402224463886402 0 -0.073830544796709738 -0.0078542708917730738 0 -0.05822397002114936 -0.01402224463886402 0 -0.068462160169621672 0.0025537029525893409 0 -0.073830544796709738 -0.0078542708917730738 0 -0.078933949510919491 0.00072378658541613432 0 -0.068462160169621672 0.0025537029525893409 0 -0.094924188455715333 -0.074372309221374736 0 -0.090333769324138391 -0.059362086744932152 0 -0.077079431972146645 -0.050953682142663811 0 -0.094924188455715333 -0.074372309221374736 0 -0.078535685693175539 -0.061573663464548622 0 -0.077079431972146645 -0.050953682142663811 0 -0.084868245962835154 -0.053326759561897898 0 -0.090333769324138391 -0.059362086744932152 0 -0.077079431972146645 -0.050953682142663811 0 -0.084868245962835154 -0.053326759561897898 0 -0.080876314157704687 -0.04955372347343575 0 -0.082849096915408454 -0.045583035938281863 0 -0.080876314157704687 -0.04955372347343575 0 -0.078708481780428496 -0.048351416250899462 0 -0.082849096915408454 -0.045583035938281863 0 -0.080876314157704687 -0.04955372347343575 0 -0.078708481780428496 -0.048351416250899462 0 -0.077079431972146645 -0.050953682142663811 0 -0.084868245962835154 -0.053326759561897898 0 -0.080876314157704687 -0.04955372347343575 0 -0.077079431972146645 -0.050953682142663811 0 -0.084868245962835154 -0.053326759561897898 0 -0.090746651292135133 -0.048651172445365112 0 -0.082849096915408454 -0.045583035938281863 0 -0.084868245962835154 -0.053326759561897898 0 -0.090333769324138391 -0.059362086744932152 0 -0.090746651292135133 -0.048651172445365112 0 -0.099264754381345577 -0.055060356505970513 0 -0.090333769324138391 -0.059362086744932152 0 -0.090746651292135133 -0.048651172445365112 0 -0.096769769074122519 -0.04215743587210824 0 -0.088481073739883592 -0.043344290748051233 0 -0.083558777677868248 -0.036985518736449702 0 -0.096769769074122519 -0.04215743587210824 0 -0.097427134368436918 -0.027820357899848831 0 -0.077668975178724509 -0.024078573046198169 0 -0.096769769074122519 -0.04215743587210824 0 -0.077668975178724509 -0.024078573046198169 0 -0.083558777677868248 -0.036985518736449702 0 -0.096769769074122519 -0.04215743587210824 0 -0.077668975178724509 -0.024078573046198169 0 -0.090746651292135133 -0.048651172445365112 0 -0.088481073739883592 -0.043344290748051233 0 -0.082849096915408454 -0.045583035938281863 0 -0.096769769074122519 -0.04215743587210824 0 -0.090746651292135133 -0.048651172445365112 0 -0.088481073739883592 -0.043344290748051233 0 -0.077668975178724509 -0.024078573046198169 0 -0.083558777677868248 -0.036985518736449702 0 -0.075465350998538308 -0.032772608828030472 0 -0.083558777677868248 -0.036985518736449702 0 -0.082849096915408454 -0.045583035938281863 0 -0.075062618692292638 -0.040325846155841297 0 -0.088481073739883592 -0.043344290748051233 0 -0.083558777677868248 -0.036985518736449702 0 -0.082849096915408454 -0.045583035938281863 0 -0.082849096915408454 -0.045583035938281863 0 -0.078067002861142085 -0.04575568247049161 0 -0.075062618692292638 -0.040325846155841297 0 -0.078708481780428496 -0.048351416250899462 0 -0.082849096915408454 -0.045583035938281863 0 -0.078067002861142085 -0.04575568247049161 0 -0.075647814056438792 -0.048762431536943832 0 -0.055132092173872667 -0.033226800447327051 0 -0.078067002861142085 -0.04575568247049161 0 -0.075062618692292638 -0.040325846155841297 0 -0.075647814056438792 -0.048762431536943832 0 -0.075062618692292638 -0.040325846155841297 0 -0.075465350998538308 -0.032772608828030472 0 -0.055132092173872667 -0.033226800447327051 0 -0.075647814056438792 -0.048762431536943832 0 -0.061428605263776047 -0.046553119166432878 0 -0.055132092173872667 -0.033226800447327051 0 -0.075062618692292638 -0.040325846155841297 0 -0.075647814056438792 -0.048762431536943832 0 -0.055132092173872667 -0.033226800447327051 0 -0.083558777677868248 -0.036985518736449702 0 -0.075062618692292638 -0.040325846155841297 0 -0.075465350998538308 -0.032772608828030472 0 -0.065722760200719738 -0.052253177456942877 0 -0.075647814056438792 -0.048762431536943832 0 -0.061428605263776047 -0.046553119166432878 0 -0.065722760200719738 -0.052253177456942877 0 -0.07269306068786438 -0.052406879740114577 0 -0.069833853901725543 -0.055329661047837618 0 -0.065722760200719738 -0.052253177456942877 0 -0.07269306068786438 -0.052406879740114577 0 -0.075647814056438792 -0.048762431536943832 0 -0.07269306068786438 -0.052406879740114577 0 -0.073703714626092445 -0.056102563442451223 0 -0.069833853901725543 -0.055329661047837618 0 -0.07269306068786438 -0.052406879740114577 0 -0.077079431972146645 -0.050953682142663811 0 -0.073703714626092445 -0.056102563442451223 0 -0.078708481780428496 -0.048351416250899462 0 -0.077079431972146645 -0.050953682142663811 0 -0.075647814056438792 -0.048762431536943832 0 -0.07269306068786438 -0.052406879740114577 0 -0.077079431972146645 -0.050953682142663811 0 -0.075647814056438792 -0.048762431536943832 0 -0.078708481780428496 -0.048351416250899462 0 -0.078067002861142085 -0.04575568247049161 0 -0.075647814056438792 -0.048762431536943832 0 -0.078535685693175539 -0.061573663464548622 0 -0.073703714626092445 -0.056102563442451223 0 -0.070308423821052124 -0.061023041189074957 0 -0.078535685693175539 -0.061573663464548622 0 -0.077079431972146645 -0.050953682142663811 0 -0.073703714626092445 -0.056102563442451223 0 -0.073703714626092445 -0.056102563442451223 0 -0.070308423821052124 -0.061023041189074957 0 -0.069833853901725543 -0.055329661047837618 0 -0.070308423821052124 -0.061023041189074957 0 -0.064391701294429504 -0.057679717025484439 0 -0.060830035872249492 -0.064558057335980773 0 -0.070308423821052124 -0.061023041189074957 0 -0.069833853901725543 -0.055329661047837618 0 -0.064391701294429504 -0.057679717025484439 0 -0.065722760200719738 -0.052253177456942877 0 -0.069833853901725543 -0.055329661047837618 0 -0.064391701294429504 -0.057679717025484439 0 -0.064391701294429504 -0.057679717025484439 0 -0.055978059279945473 -0.056388284161067823 0 -0.060830035872249492 -0.064558057335980773 0 -0.065722760200719738 -0.052253177456942877 0 -0.064391701294429504 -0.057679717025484439 0 -0.055978059279945473 -0.056388284161067823 0 -0.055978059279945473 -0.056388284161067823 0 -0.041230103293456458 -0.058058117591144771 0 -0.049479852383656611 -0.067543566470139038 0 -0.055978059279945473 -0.056388284161067823 0 -0.049741921456861897 -0.048697412542500033 0 -0.041230103293456458 -0.058058117591144771 0 -0.055978059279945473 -0.056388284161067823 0 -0.049741921456861897 -0.048697412542500033 0 -0.061428605263776047 -0.046553119166432878 0 -0.065722760200719738 -0.052253177456942877 0 -0.055978059279945473 -0.056388284161067823 0 -0.061428605263776047 -0.046553119166432878 0 -0.049741921456861897 -0.048697412542500033 0 -0.061428605263776047 -0.046553119166432878 0 -0.055132092173872667 -0.033226800447327051 0 -0.049741921456861897 -0.048697412542500033 0 -0.055132092173872667 -0.033226800447327051 0 -0.032367863380537598 -0.044965144957206583 0 -0.055132092173872667 -0.033226800447327051 0 -0.032367863380537598 -0.044965144957206583 0 -0.055132092173872667 -0.033226800447327051 0 -0.032367863380537598 -0.044965144957206583 0 -0.031233838643279398 -0.031193199633022049 0 -0.049741921456861897 -0.048697412542500033 0 -0.032367863380537598 -0.044965144957206583 0 -0.041230103293456458 -0.058058117591144771 0 -0.032367863380537598 -0.044965144957206583 0 -0.041230103293456458 -0.058058117591144771 0 -0.026902341230915561 -0.060374551747501753 0 -0.05822397002114936 -0.01402224463886402 0 -0.057836245250817257 0.0062936453779614283 0 -0.044352522143416888 0.0050416822031405977 0 -0.05822397002114936 -0.01402224463886402 0 -0.037926632337863607 -0.0068783069258408786 0 -0.05822397002114936 -0.01402224463886402 0 -0.068462160169621672 0.0025537029525893409 0 -0.057836245250817257 0.0062936453779614283 0 -0.055132092173872667 -0.033226800447327051 0 -0.05822397002114936 -0.01402224463886402 0 -0.036243114184870161 -0.018923029155399909 0 -0.055132092173872667 -0.033226800447327051 0 -0.036243114184870161 -0.018923029155399909 0 -0.031233838643279398 -0.031193199633022049 0 -0.055132092173872667 -0.033226800447327051 0 -0.036243114184870161 -0.018923029155399909 0 -0.05822397002114936 -0.01402224463886402 0 -0.036243114184870161 -0.018923029155399909 0 -0.037926632337863607 -0.0068783069258408786 0 -0.05822397002114936 -0.01402224463886402 0 -0.037926632337863607 -0.0068783069258408786 0 -0.044352522143416888 0.0050416822031405977 0 -0.036243114184870161 -0.018923029155399909 0 -0.037926632337863607 -0.0068783069258408786 0 -0.029121832422534862 -0.0067169982391169078 0 -0.037926632337863607 -0.0068783069258408786 0 -0.029539197120254941 -0.00051038393964639519 0 -0.029121832422534862 -0.0067169982391169078 0 -0.037926632337863607 -0.0068783069258408786 0 -0.029539197120254941 -0.00051038393964639519 0 -0.03614709390981162 0.0015378833132510439 0 -0.037926632337863607 -0.0068783069258408786 0 -0.03614709390981162 0.0015378833132510439 0 -0.044352522143416888 0.0050416822031405977 0 -0.036243114184870161 -0.018923029155399909 0 -0.017354136195868258 -0.0046192578634720229 0 -0.01819617019275287 -0.0061732580868559192 0 -0.036243114184870161 -0.018923029155399909 0 -0.017354136195868258 -0.0046192578634720229 0 -0.029121832422534862 -0.0067169982391169078 0 -0.036243114184870161 -0.018923029155399909 0 -0.01819617019275287 -0.0061732580868559192 0 -0.019637671972121611 -0.02148729346067638 0 -0.036243114184870161 -0.018923029155399909 0 -0.017354136195868258 -0.0046192578634720229 0 -0.017354136195868258 -0.0046192578634720229 0 -0.01819617019275287 -0.0061732580868559192 0 -0.013500839782477779 -0.0058155532537883976 0 -0.017354136195868258 -0.0046192578634720229 0 -0.01819617019275287 -0.0061732580868559192 0 -0.017354136195868258 -0.0046192578634720229 0 -0.024546082273817361 -0.00265401331122534 0 -0.02112675760807068 0.0030512678310729521 0 -0.024546082273817361 -0.00265401331122534 0 -0.029539197120254941 -0.00051038393964639519 0 -0.02112675760807068 0.0030512678310729521 0 -0.017354136195868258 -0.0046192578634720229 0 -0.024546082273817361 -0.00265401331122534 0 -0.029121832422534862 -0.0067169982391169078 0 -0.024546082273817361 -0.00265401331122534 0 -0.029539197120254941 -0.00051038393964639519 0 -0.029121832422534862 -0.0067169982391169078 0 -0.01819617019275287 -0.0061732580868559192 0 -0.019637671972121611 -0.02148729346067638 0 -0.011008321991883009 -0.01057962122923565 0 -0.036243114184870161 -0.018923029155399909 0 -0.019637671972121611 -0.02148729346067638 0 -0.031233838643279398 -0.031193199633022049 0 -0.019637671972121611 -0.02148729346067638 0 -0.031233838643279398 -0.031193199633022049 0 -0.016064986363794779 -0.036441041599790329 0 -0.0077215053668332834 -0.022860670268973711 0 -0.00118246574067416 -0.01324232368796026 0 0.0015263381015913891 -0.033415212413580753 0 -0.0077215053668332834 -0.022860670268973711 0 -0.016064986363794779 -0.036441041599790329 0 0.0015263381015913891 -0.033415212413580753 0 -0.019637671972121611 -0.02148729346067638 0 -0.0077215053668332834 -0.022860670268973711 0 -0.016064986363794779 -0.036441041599790329 0 -0.019637671972121611 -0.02148729346067638 0 -0.0077215053668332834 -0.022860670268973711 0 -0.011008321991883009 -0.01057962122923565 0 -0.011008321991883009 -0.01057962122923565 0 -0.00118246574067416 -0.01324232368796026 0 -0.0072764121498596901 -0.0036325873431357339 0 -0.0077215053668332834 -0.022860670268973711 0 -0.011008321991883009 -0.01057962122923565 0 -0.00118246574067416 -0.01324232368796026 0 -0.00118246574067416 -0.01324232368796026 0 -0.0072764121498596901 -0.0036325873431357339 0 0.0012074066645448821 -0.00065723147797176382 0 -0.0072764121498596901 -0.0036325873431357339 0 -0.013500839782477779 -0.0058155532537883976 0 -0.013607688627124061 -0.00178224205395049 0 -0.011008321991883009 -0.01057962122923565 0 -0.0072764121498596901 -0.0036325873431357339 0 -0.013500839782477779 -0.0058155532537883976 0 -0.01819617019275287 -0.0061732580868559192 0 -0.011008321991883009 -0.01057962122923565 0 -0.013500839782477779 -0.0058155532537883976 0 -0.017354136195868258 -0.0046192578634720229 0 -0.013500839782477779 -0.0058155532537883976 0 -0.013607688627124061 -0.00178224205395049 0 -0.017354136195868258 -0.0046192578634720229 0 -0.013607688627124061 -0.00178224205395049 0 -0.032367863380537598 -0.044965144957206583 0 -0.0096036345872028556 -0.056703489467087059 0 -0.032367863380537598 -0.044965144957206583 0 -0.026902341230915561 -0.060374551747501753 0 -0.0096036345872028556 -0.056703489467087059 0 -0.032367863380537598 -0.044965144957206583 0 -0.031233838643279398 -0.031193199633022049 0 -0.016064986363794779 -0.036441041599790329 0 -0.032367863380537598 -0.044965144957206583 0 -0.016064986363794779 -0.036441041599790329 0 -0.0096036345872028556 -0.056703489467087059 0 -0.0096036345872028556 -0.056703489467087059 0 0.0015263381015913891 -0.033415212413580753 0 -0.016064986363794779 -0.036441041599790329 0 -0.0096036345872028556 -0.056703489467087059 0 0.0015263381015913891 -0.033415212413580753 0 -0.0096036345872028556 -0.056703489467087059 0 0.0015263381015913891 -0.033415212413580753 0 0.007298405735321048 -0.051477207310420908 0 -0.0096036345872028556 -0.056703489467087059 0 0.0052181775422467033 -0.064346337314722044 0 -0.0096036345872028556 -0.056703489467087059 0 -0.0043762627118289626 -0.071729097412358583 0 0.0052181775422467033 -0.064346337314722044 0 -0.0043762627118289626 -0.071729097412358583 0 -0.0092607301227374331 -0.088572496961274561 0 -0.01646375475339092 -0.071057556949349329 0 -0.0096036345872028556 -0.056703489467087059 0 -0.01646375475339092 -0.071057556949349329 0 -0.0096036345872028556 -0.056703489467087059 0 -0.0043762627118289626 -0.071729097412358583 0 -0.01646375475339092 -0.071057556949349329 0 -0.0092607301227374331 -0.088572496961274561 0 -0.00044729776891663488 -0.1011528385718463 0 0.0042106568376920582 -0.081118225430045127 0 -0.0043762627118289626 -0.071729097412358583 0 -0.0092607301227374331 -0.088572496961274561 0 0.0042106568376920582 -0.081118225430045127 0 -0.0092607301227374331 -0.088572496961274561 0 -0.037642160748979789 -0.094071739377162955 0 -0.0092607301227374331 -0.088572496961274561 0 -0.023323874919582349 -0.085411624431610003 0 -0.01646375475339092 -0.071057556949349329 0 -0.0092607301227374331 -0.088572496961274561 0 -0.023323874919582349 -0.085411624431610003 0 -0.037642160748979789 -0.094071739377162955 0 -0.023323874919582349 -0.085411624431610003 0 -0.01646375475339092 -0.071057556949349329 0 -0.023323874919582349 -0.085411624431610003 0 -0.01646375475339092 -0.071057556949349329 0 -0.034846350139989962 -0.07108844977272101 0 -0.026902341230915561 -0.060374551747501753 0 -0.01646375475339092 -0.071057556949349329 0 -0.034846350139989962 -0.07108844977272101 0 -0.026902341230915561 -0.060374551747501753 0 -0.0096036345872028556 -0.056703489467087059 0 -0.01646375475339092 -0.071057556949349329 0 -0.041230103293456458 -0.058058117591144771 0 -0.026902341230915561 -0.060374551747501753 0 -0.034846350139989962 -0.07108844977272101 0 -0.041230103293456458 -0.058058117591144771 0 -0.034846350139989962 -0.07108844977272101 0 -0.049479852383656611 -0.067543566470139038 0 -0.034846350139989962 -0.07108844977272101 0 -0.048784805137481749 -0.081200653853927454 0 -0.049479852383656611 -0.067543566470139038 0 -0.023323874919582349 -0.085411624431610003 0 -0.034846350139989962 -0.07108844977272101 0 -0.036149297736508462 -0.082943116858855345 0 -0.023323874919582349 -0.085411624431610003 0 -0.036149297736508462 -0.082943116858855345 0 -0.037642160748979789 -0.094071739377162955 0 -0.036149297736508462 -0.082943116858855345 0 -0.048784805137481749 -0.081200653853927454 0 -0.037642160748979789 -0.094071739377162955 0 -0.034846350139989962 -0.07108844977272101 0 -0.036149297736508462 -0.082943116858855345 0 -0.048784805137481749 -0.081200653853927454 0 -0.063732237529271596 -0.080733089011810297 0 -0.066023591375222151 -0.09957098179305135 0 -0.048784805137481749 -0.081200653853927454 0 -0.066023591375222151 -0.09957098179305135 0 -0.048784805137481749 -0.081200653853927454 0 -0.037642160748979789 -0.094071739377162955 0 -0.063732237529271596 -0.080733089011810297 0 -0.048784805137481749 -0.081200653853927454 0 -0.058000192015007383 -0.073011667883306972 0 -0.055978059279945473 -0.056388284161067823 0 -0.060830035872249492 -0.064558057335980773 0 -0.049479852383656611 -0.067543566470139038 0 -0.058000192015007383 -0.073011667883306972 0 -0.060830035872249492 -0.064558057335980773 0 -0.049479852383656611 -0.067543566470139038 0 -0.067174029152377468 -0.071022972744677337 0 -0.058000192015007383 -0.073011667883306972 0 -0.060830035872249492 -0.064558057335980773 0 -0.048784805137481749 -0.081200653853927454 0 -0.058000192015007383 -0.073011667883306972 0 -0.049479852383656611 -0.067543566470139038 0 -0.069466171350113709 -0.1135628440840601 0 -0.054384952187449757 -0.110609208962567 0 -0.059238207921678762 -0.13024384051707169 0 -0.054384952187449757 -0.110609208962567 0 -0.059238207921678762 -0.13024384051707169 0 -0.032945469352336033 -0.1293562392835419 0 -0.066023591375222151 -0.09957098179305135 0 -0.054384952187449757 -0.110609208962567 0 -0.037642160748979789 -0.094071739377162955 0 -0.066023591375222151 -0.09957098179305135 0 -0.037642160748979789 -0.094071739377162955 0 -0.054384952187449757 -0.110609208962567 0 -0.037642160748979789 -0.094071739377162955 0 -0.035661083064217503 -0.11124856921529409 0 -0.054384952187449757 -0.110609208962567 0 -0.032945469352336033 -0.1293562392835419 0 -0.054384952187449757 -0.110609208962567 0 -0.035661083064217503 -0.11124856921529409 0 -0.032945469352336033 -0.1293562392835419 0 -0.01767174996810443 -0.1109570892379047 0 -0.012892303975098539 -0.12786221844410239 0 -0.032945469352336033 -0.1293562392835419 0 -0.035661083064217503 -0.11124856921529409 0 -0.01767174996810443 -0.1109570892379047 0 -0.032945469352336033 -0.1293562392835419 0 -0.0092607301227374331 -0.088572496961274561 0 -0.037642160748979789 -0.094071739377162955 0 -0.01767174996810443 -0.1109570892379047 0 -0.037642160748979789 -0.094071739377162955 0 -0.035661083064217503 -0.11124856921529409 0 -0.01767174996810443 -0.1109570892379047 0 -0.01767174996810443 -0.1109570892379047 0 -0.00044729776891663488 -0.1011528385718463 0 0.005085065621477718 -0.1151057880332567 0 -0.0092607301227374331 -0.088572496961274561 0 -0.01767174996810443 -0.1109570892379047 0 -0.00044729776891663488 -0.1011528385718463 0 -0.01767174996810443 -0.1109570892379047 0 -0.012892303975098539 -0.12786221844410239 0 0.005085065621477718 -0.1151057880332567 0 -0.012892303975098539 -0.12786221844410239 0 0.0027021066240326768 -0.1317064378292063 0 0.005085065621477718 -0.1151057880332567 0 -0.011505986517222349 -0.14810326960451681 0 -0.033736789854580403 -0.16402697950055581 0 -0.032945469352336033 -0.1293562392835419 0 -0.012892303975098539 -0.12786221844410239 0 -0.011505986517222349 -0.14810326960451681 0 0.0027021066240326768 -0.1317064378292063 0 -0.011505986517222349 -0.14810326960451681 0 -0.032945469352336033 -0.1293562392835419 0 -0.012892303975098539 -0.12786221844410239 0 -0.011505986517222349 -0.14810326960451681 0 -0.032945469352336033 -0.1293562392835419 0 -0.011505986517222349 -0.14810326960451681 0 0.009933496317892726 -0.16685029992549011 0 -0.011505986517222349 -0.14810326960451681 0 -0.0085976242789068957 -0.177408956520272 0 0.009933496317892726 -0.16685029992549011 0 -0.0085976242789068957 -0.177408956520272 0 -0.003739977245034012 -0.19168309442994089 0 -0.02712874487570623 -0.18796761311505439 0 -0.0085976242789068957 -0.177408956520272 0 -0.003739977245034012 -0.19168309442994089 0 0.0034571977838801569 -0.17702496179755631 0 -0.0085976242789068957 -0.177408956520272 0 -0.02712874487570623 -0.18796761311505439 0 -0.0085976242789068957 -0.177408956520272 0 -0.033736789854580403 -0.16402697950055581 0 -0.02712874487570623 -0.18796761311505439 0 -0.011505986517222349 -0.14810326960451681 0 -0.0085976242789068957 -0.177408956520272 0 -0.033736789854580403 -0.16402697950055581 0 -0.033736789854580403 -0.16402697950055581 0 -0.041678182321736049 -0.18065303021324261 0 -0.02712874487570623 -0.18796761311505439 0 -0.033736789854580403 -0.16402697950055581 0 -0.041678182321736049 -0.18065303021324261 0 -0.060187329084152079 -0.17209125852752319 0 -0.041678182321736049 -0.18065303021324261 0 -0.060187329084152079 -0.17209125852752319 0 -0.045659865472505487 -0.198526269709837 0 -0.060187329084152079 -0.17209125852752319 0 -0.045659865472505487 -0.198526269709837 0 -0.033736789854580403 -0.16402697950055581 0 -0.060187329084152079 -0.17209125852752319 0 -0.051699405537506939 -0.14899167338562519 0 -0.060187329084152079 -0.17209125852752319 0 -0.051699405537506939 -0.14899167338562519 0 -0.072389231474787458 -0.1492400490994332 0 -0.051699405537506939 -0.14899167338562519 0 -0.059238207921678762 -0.13024384051707169 0 -0.072389231474787458 -0.1492400490994332 0 -0.033736789854580403 -0.16402697950055581 0 -0.051699405537506939 -0.14899167338562519 0 -0.032945469352336033 -0.1293562392835419 0 -0.051699405537506939 -0.14899167338562519 0 -0.059238207921678762 -0.13024384051707169 0 -0.032945469352336033 -0.1293562392835419 0 -0.025857267464119819 -0.25506418495113531 0 -0.02368513365757598 -0.23851275990414511 0 -0.036167443228362108 -0.24337299090061551 0 -0.01269776775011346 -0.25850600500130039 0 -0.02368513365757598 -0.23851275990414511 0 -0.01269776775011346 -0.25850600500130039 0 -0.02368513365757598 -0.23851275990414511 0 -0.01082738352359053 -0.24876902592697839 0 -0.02368513365757598 -0.23851275990414511 0 -0.0067432183097289999 -0.239968376336817 0 -0.0090267388034834407 -0.23007068799598671 0 -0.02368513365757598 -0.23851275990414511 0 -0.01082738352359053 -0.24876902592697839 0 -0.0067432183097289999 -0.239968376336817 0 -0.01082738352359053 -0.24876902592697839 0 -0.0029313858115674811 -0.24854412401401971 0 -0.0067432183097289999 -0.239968376336817 0 -0.0029313858115674811 -0.24854412401401971 0 -0.0067432183097289999 -0.239968376336817 0 0.0026199421412959989 -0.2430643023623929 0 -0.0067432183097289999 -0.239968376336817 0 0.0026199421412959989 -0.2430643023623929 0 0.0017465435191736189 -0.23378549097037141 0 -0.0067432183097289999 -0.239968376336817 0 -0.0090267388034834407 -0.23007068799598671 0 0.0017465435191736189 -0.23378549097037141 0 -0.0090267388034834407 -0.23007068799598671 0 -0.00080535468136348092 -0.21995366459000901 0 -0.01839049427805331 -0.2195873775130934 0 -0.0090267388034834407 -0.23007068799598671 0 -0.00080535468136348092 -0.21995366459000901 0 0.0017465435191736189 -0.23378549097037141 0 -0.02368513365757598 -0.23851275990414511 0 -0.0090267388034834407 -0.23007068799598671 0 -0.01839049427805331 -0.2195873775130934 0 -0.02368513365757598 -0.23851275990414511 0 -0.01839049427805331 -0.2195873775130934 0 -0.034672499565036527 -0.2185195148069887 0 -0.02368513365757598 -0.23851275990414511 0 -0.034672499565036527 -0.2185195148069887 0 -0.01839049427805331 -0.2195873775130934 0 -0.027127261386640289 -0.20489204062456881 0 -0.034672499565036527 -0.2185195148069887 0 -0.01839049427805331 -0.2195873775130934 0 -0.027127261386640289 -0.20489204062456881 0 -0.01084996336714465 -0.20584666152463099 0 -0.00080535468136348092 -0.21995366459000901 0 -0.01839049427805331 -0.2195873775130934 0 -0.01084996336714465 -0.20584666152463099 0 -0.00080535468136348092 -0.21995366459000901 0 -0.01084996336714465 -0.20584666152463099 0 0.01016515501406726 -0.20926501301563591 0 -0.01084996336714465 -0.20584666152463099 0 -0.003739977245034012 -0.19168309442994089 0 0.01016515501406726 -0.20926501301563591 0 -0.01084996336714465 -0.20584666152463099 0 -0.003739977245034012 -0.19168309442994089 0 -0.02712874487570623 -0.18796761311505439 0 -0.027127261386640289 -0.20489204062456881 0 -0.01084996336714465 -0.20584666152463099 0 -0.02712874487570623 -0.18796761311505439 0 -0.041678182321736049 -0.18065303021324261 0 -0.02712874487570623 -0.18796761311505439 0 -0.045659865472505487 -0.198526269709837 0 -0.02712874487570623 -0.18796761311505439 0 -0.045659865472505487 -0.198526269709837 0 -0.027127261386640289 -0.20489204062456881 0 -0.02712874487570623 -0.18796761311505439 0 -0.045659865472505487 -0.198526269709837 0 -0.045659865472505487 -0.198526269709837 0 -0.067682806497079445 -0.21107449474949169 0 -0.062708331551170268 -0.19442045911658551 0 -0.060187329084152079 -0.17209125852752319 0 -0.045659865472505487 -0.198526269709837 0 -0.062708331551170268 -0.19442045911658551 0 -0.045659865472505487 -0.198526269709837 0 -0.067682806497079445 -0.21107449474949169 0 -0.045659865472505487 -0.198526269709837 0 -0.054546183461555722 -0.22015285450131489 0 -0.067682806497079445 -0.21107449474949169 0 -0.045659865472505487 -0.198526269709837 0 -0.034672499565036527 -0.2185195148069887 0 -0.054546183461555722 -0.22015285450131489 0 -0.045659865472505487 -0.198526269709837 0 -0.034672499565036527 -0.2185195148069887 0 -0.027127261386640289 -0.20489204062456881 0 -0.045659865472505487 -0.198526269709837 0 -0.034672499565036527 -0.2185195148069887 0 -0.034672499565036527 -0.2185195148069887 0 -0.044145410485190079 -0.23242073182379891 0 -0.054546183461555722 -0.22015285450131489 0 -0.02368513365757598 -0.23851275990414511 0 -0.034672499565036527 -0.2185195148069887 0 -0.044145410485190079 -0.23242073182379891 0 -0.044145410485190079 -0.23242073182379891 0 -0.054546183461555722 -0.22015285450131489 0 -0.061280333386656921 -0.23284462843810469 0 -0.061280333386656921 -0.23284462843810469 0 -0.050191684441297867 -0.2485850187836515 0 -0.071591358857016049 -0.2429226102204386 0 -0.050191684441297867 -0.2485850187836515 0 -0.071591358857016049 -0.2429226102204386 0 -0.056939497423126581 -0.24878681181634871 0 -0.050191684441297867 -0.2485850187836515 0 -0.071591358857016049 -0.2429226102204386 0 -0.044145410485190079 -0.23242073182379891 0 -0.061280333386656921 -0.23284462843810469 0 -0.050191684441297867 -0.2485850187836515 0 -0.041398382443623198 -0.25192549838374201 0 -0.056939497423126581 -0.24878681181634871 0 -0.050191684441297867 -0.2485850187836515 0 -0.044145410485190079 -0.23242073182379891 0 -0.050191684441297867 -0.2485850187836515 0 -0.036167443228362108 -0.24337299090061551 0 -0.02368513365757598 -0.23851275990414511 0 -0.044145410485190079 -0.23242073182379891 0 -0.036167443228362108 -0.24337299090061551 0 -0.025857267464119819 -0.25506418495113531 0 -0.050191684441297867 -0.2485850187836515 0 -0.036167443228362108 -0.24337299090061551 0 -0.097628444613881649 -0.25834262822693399 0 -0.087470553331264578 -0.24262075389877999 0 -0.077955776651182085 -0.24454236002529731 0 -0.087470553331264578 -0.24262075389877999 0 -0.087928467376508473 -0.23859976953689591 0 -0.1005617376665941 -0.23997685579502359 0 -0.087928467376508473 -0.23859976953689591 0 -0.07453604668454375 -0.2421434382925548 0 -0.07383618536286593 -0.22753148747966839 0 -0.087928467376508473 -0.23859976953689591 0 -0.07453604668454375 -0.2421434382925548 0 -0.087928467376508473 -0.23859976953689591 0 -0.077955776651182085 -0.24454236002529731 0 -0.07453604668454375 -0.2421434382925548 0 -0.087470553331264578 -0.24262075389877999 0 -0.087928467376508473 -0.23859976953689591 0 -0.077955776651182085 -0.24454236002529731 0 -0.087470553331264578 -0.24262075389877999 0 -0.077955776651182085 -0.24454236002529731 0 -0.056939497423126581 -0.24878681181634871 0 -0.077955776651182085 -0.24454236002529731 0 -0.071591358857016049 -0.2429226102204386 0 -0.056939497423126581 -0.24878681181634871 0 -0.077955776651182085 -0.24454236002529731 0 -0.077955776651182085 -0.24454236002529731 0 -0.071591358857016049 -0.2429226102204386 0 -0.07453604668454375 -0.2421434382925548 0 -0.077955776651182085 -0.24454236002529731 0 -0.07453604668454375 -0.2421434382925548 0 -0.071591358857016049 -0.2429226102204386 0 -0.07453604668454375 -0.2421434382925548 0 -0.056939497423126581 -0.24878681181634871 0 -0.071591358857016049 -0.2429226102204386 0 -0.061280333386656921 -0.23284462843810469 0 -0.071591358857016049 -0.2429226102204386 0 -0.07453604668454375 -0.2421434382925548 0 -0.061280333386656921 -0.23284462843810469 0 -0.07453604668454375 -0.2421434382925548 0 -0.07383618536286593 -0.22753148747966839 0 -0.089705747521653334 -0.22362271978914661 0 -0.067682806497079445 -0.21107449474949169 0 -0.054546183461555722 -0.22015285450131489 0 -0.061280333386656921 -0.23284462843810469 0 -0.07383618536286593 -0.22753148747966839 0 -0.054546183461555722 -0.22015285450131489 0 -0.07383618536286593 -0.22753148747966839 0 -0.067682806497079445 -0.21107449474949169 0 -0.061280333386656921 -0.23284462843810469 0 -0.07453604668454375 -0.2421434382925548 0 -0.07383618536286593 -0.22753148747966839 0 -0.087928467376508473 -0.23859976953689591 0 -0.07383618536286593 -0.22753148747966839 0 -0.089705747521653334 -0.22362271978914661 0 -0.087928467376508473 -0.23859976953689591 0 -0.089705747521653334 -0.22362271978914661 0 -0.1005617376665941 -0.23997685579502359 0 -0.089705747521653334 -0.22362271978914661 0 -0.067682806497079445 -0.21107449474949169 0 -0.089705747521653334 -0.22362271978914661 0 -0.084027466008495671 -0.20735524824550181 0 -0.09921486728828334 -0.20109800384388701 0 -0.089705747521653334 -0.22362271978914661 0 -0.084027466008495671 -0.20735524824550181 0 -0.067682806497079445 -0.21107449474949169 0 -0.084027466008495671 -0.20735524824550181 0 -0.067682806497079445 -0.21107449474949169 0 -0.079506442726966622 -0.19362577459948219 0 -0.067682806497079445 -0.21107449474949169 0 -0.062708331551170268 -0.19442045911658551 0 -0.079506442726966622 -0.19362577459948219 0 -0.079506442726966622 -0.19362577459948219 0 -0.09921486728828334 -0.20109800384388701 0 -0.089369030920126963 -0.1732707743578942 0 -0.084027466008495671 -0.20735524824550181 0 -0.079506442726966622 -0.19362577459948219 0 -0.09921486728828334 -0.20109800384388701 0 -0.09921486728828334 -0.20109800384388701 0 -0.1156293974943295 -0.1822747327150937 0 -0.1210853022939376 -0.205467400633562 0 -0.1156293974943295 -0.1822747327150937 0 -0.13505851963374399 -0.18906788910329131 0 -0.09921486728828334 -0.20109800384388701 0 -0.1210853022939376 -0.205467400633562 0 -0.1156293974943295 -0.1822747327150937 0 -0.1210853022939376 -0.205467400633562 0 -0.10755849924533691 -0.2178899443088799 0 -0.11989889803527461 -0.22145143588075511 0 -0.1210853022939376 -0.205467400633562 0 -0.11989889803527461 -0.22145143588075511 0 -0.13086176299679239 -0.21746526838305219 0 -0.089705747521653334 -0.22362271978914661 0 -0.09921486728828334 -0.20109800384388701 0 -0.10755849924533691 -0.2178899443088799 0 -0.09921486728828334 -0.20109800384388701 0 -0.1210853022939376 -0.205467400633562 0 -0.10755849924533691 -0.2178899443088799 0 -0.089705747521653334 -0.22362271978914661 0 -0.11172868854622731 -0.23617094482880149 0 -0.1005617376665941 -0.23997685579502359 0 -0.089705747521653334 -0.22362271978914661 0 -0.11172868854622731 -0.23617094482880149 0 -0.089705747521653334 -0.22362271978914661 0 -0.10755849924533691 -0.2178899443088799 0 -0.11172868854622731 -0.23617094482880149 0 -0.11989889803527461 -0.22145143588075511 0 -0.11172868854622731 -0.23617094482880149 0 -0.127825895831608 -0.22987551408160201 0 -0.10755849924533691 -0.2178899443088799 0 -0.11989889803527461 -0.22145143588075511 0 -0.11172868854622731 -0.23617094482880149 0 -0.13218950310710981 -0.25272660122947088 0 -0.1218823470606431 -0.24640061544388489 0 -0.1098930818979398 -0.24798588601512411 0 -0.11172868854622731 -0.23617094482880149 0 -0.13375162957080131 -0.24871916986845621 0 -0.11172868854622731 -0.23617094482880149 0 -0.1218823470606431 -0.24640061544388489 0 -0.13375162957080131 -0.24871916986845621 0 -0.11172868854622731 -0.23617094482880149 0 -0.13375162957080131 -0.24871916986845621 0 -0.127825895831608 -0.22987551408160201 0 -0.11172868854622731 -0.23617094482880149 0 -0.1218823470606431 -0.24640061544388489 0 -0.1098930818979398 -0.24798588601512411 0 -0.097628444613881649 -0.25834262822693399 0 -0.087470553331264578 -0.24262075389877999 0 -0.1098930818979398 -0.24798588601512411 0 -0.087470553331264578 -0.24262075389877999 0 -0.1098930818979398 -0.24798588601512411 0 -0.1005617376665941 -0.23997685579502359 0 -0.087470553331264578 -0.24262075389877999 0 -0.1098930818979398 -0.24798588601512411 0 -0.11172868854622731 -0.23617094482880149 0 -0.1098930818979398 -0.24798588601512411 0 -0.1005617376665941 -0.23997685579502359 0 -0.087470553331264578 -0.24262075389877999 0 -0.1005617376665941 -0.23997685579502359 0 -0.072389231474787458 -0.1492400490994332 0 -0.089369030920126963 -0.1732707743578942 0 -0.096011965921864201 -0.14265464397282879 0 -0.077516787342341589 -0.1242022911324857 0 -0.093262550211769629 -0.1231040070079162 0 -0.096011965921864201 -0.14265464397282879 0 -0.077516787342341589 -0.1242022911324857 0 -0.072389231474787458 -0.1492400490994332 0 -0.096011965921864201 -0.14265464397282879 0 -0.077516787342341589 -0.1242022911324857 0 -0.059238207921678762 -0.13024384051707169 0 -0.072389231474787458 -0.1492400490994332 0 -0.060187329084152079 -0.17209125852752319 0 -0.072389231474787458 -0.1492400490994332 0 -0.089369030920126963 -0.1732707743578942 0 -0.060187329084152079 -0.17209125852752319 0 -0.079506442726966622 -0.19362577459948219 0 -0.089369030920126963 -0.1732707743578942 0 -0.060187329084152079 -0.17209125852752319 0 -0.062708331551170268 -0.19442045911658551 0 -0.079506442726966622 -0.19362577459948219 0 -0.089369030920126963 -0.1732707743578942 0 -0.1107512355661594 -0.16096683979900789 0 -0.096011965921864201 -0.14265464397282879 0 -0.09921486728828334 -0.20109800384388701 0 -0.089369030920126963 -0.1732707743578942 0 -0.1156293974943295 -0.1822747327150937 0 -0.089369030920126963 -0.1732707743578942 0 -0.1156293974943295 -0.1822747327150937 0 -0.1107512355661594 -0.16096683979900789 0 -0.1156293974943295 -0.1822747327150937 0 -0.13204392770037571 -0.1634514615863005 0 -0.1156293974943295 -0.1822747327150937 0 -0.1107512355661594 -0.16096683979900789 0 -0.13204392770037571 -0.1634514615863005 0 -0.1107512355661594 -0.16096683979900789 0 -0.12070185579410091 -0.1431825863629223 0 -0.13204392770037571 -0.1634514615863005 0 -0.1107512355661594 -0.16096683979900789 0 -0.12070185579410091 -0.1431825863629223 0 -0.096011965921864201 -0.14265464397282879 0 -0.1071147179002416 -0.1244919901550422 0 -0.12070185579410091 -0.1431825863629223 0 -0.096011965921864201 -0.14265464397282879 0 -0.093262550211769629 -0.1231040070079162 0 -0.1071147179002416 -0.1244919901550422 0 -0.096011965921864201 -0.14265464397282879 0 -0.1071147179002416 -0.1244919901550422 0 -0.12070185579410091 -0.1431825863629223 0 -0.1306137014228527 -0.1212095633787966 0 -0.12070185579410091 -0.1431825863629223 0 -0.14845845790642179 -0.14462819045750719 0 -0.1306137014228527 -0.1212095633787966 0 -0.14845845790642179 -0.14462819045750719 0 -0.1306137014228527 -0.1212095633787966 0 -0.15036797716661271 -0.14243845987679379 0 -0.14845845790642179 -0.14462819045750719 0 -0.1306137014228527 -0.1212095633787966 0 -0.15406265534163929 -0.1294064941378926 0 -0.15036797716661271 -0.14243845987679379 0 -0.1306137014228527 -0.1212095633787966 0 -0.15406265534163929 -0.1294064941378926 0 -0.15036797716661271 -0.14243845987679379 0 -0.1564494690737798 -0.13971242061594299 0 -0.1543278084257422 -0.1453912472931165 0 -0.14845845790642179 -0.14462819045750719 0 -0.15894149653025619 -0.15184230729274609 0 -0.15519343748037609 -0.14309809199123349 0 -0.15036797716661271 -0.14243845987679379 0 -0.1564494690737798 -0.13971242061594299 0 -0.1543278084257422 -0.1453912472931165 0 -0.15519343748037609 -0.14309809199123349 0 -0.15036797716661271 -0.14243845987679379 0 -0.1543278084257422 -0.1453912472931165 0 -0.15036797716661271 -0.14243845987679379 0 -0.14845845790642179 -0.14462819045750719 0 -0.15036797716661271 -0.14243845987679379 0 -0.14845845790642179 -0.14462819045750719 0 -0.12070185579410091 -0.1431825863629223 0 -0.14845845790642179 -0.14462819045750719 0 -0.13204392770037571 -0.1634514615863005 0 -0.14845845790642179 -0.14462819045750719 0 -0.13204392770037571 -0.1634514615863005 0 -0.13204392770037571 -0.1634514615863005 0 -0.1475860696211248 -0.17640031700015249 0 -0.13505851963374399 -0.18906788910329131 0 -0.1156293974943295 -0.1822747327150937 0 -0.13204392770037571 -0.1634514615863005 0 -0.13505851963374399 -0.18906788910329131 0 -0.1475860696211248 -0.17640031700015249 0 -0.1655722477793394 -0.1670875310098065 0 -0.15496537504316019 -0.19429807729602311 0 -0.1475860696211248 -0.17640031700015249 0 -0.13505851963374399 -0.18906788910329131 0 -0.15496537504316019 -0.19429807729602311 0 -0.1475860696211248 -0.17640031700015249 0 -0.14862352044039201 -0.16347018067920821 0 -0.1655722477793394 -0.1670875310098065 0 -0.14845845790642179 -0.14462819045750719 0 -0.13204392770037571 -0.1634514615863005 0 -0.14862352044039201 -0.16347018067920821 0 -0.14845845790642179 -0.14462819045750719 0 -0.14862352044039201 -0.16347018067920821 0 -0.1655722477793394 -0.1670875310098065 0 -0.13204392770037571 -0.1634514615863005 0 -0.1475860696211248 -0.17640031700015249 0 -0.14862352044039201 -0.16347018067920821 0 -0.1655722477793394 -0.1670875310098065 0 -0.1716614177265566 -0.15146656102038991 0 -0.1655722477793394 -0.1670875310098065 0 -0.15894149653025619 -0.15184230729274609 0 -0.1716614177265566 -0.15146656102038991 0 -0.1655722477793394 -0.1670875310098065 0 -0.17557921295501691 -0.18022020591375351 0 -0.1689483943248192 -0.19264195369377959 0 -0.1655722477793394 -0.1670875310098065 0 -0.15496537504316019 -0.19429807729602311 0 -0.1689483943248192 -0.19264195369377959 0 -0.1655722477793394 -0.1670875310098065 0 -0.15496537504316019 -0.19429807729602311 0 -0.1655722477793394 -0.1670875310098065 0 -0.17557921295501691 -0.18022020591375351 0 -0.17557921295501691 -0.18022020591375351 0 -0.18239484980351819 -0.16464781923938721 0 -0.1907059301477185 -0.18468107337543721 0 -0.1655722477793394 -0.1670875310098065 0 -0.17557921295501691 -0.18022020591375351 0 -0.18239484980351819 -0.16464781923938721 0 -0.1655722477793394 -0.1670875310098065 0 -0.18239484980351819 -0.16464781923938721 0 -0.1716614177265566 -0.15146656102038991 0 -0.18239484980351819 -0.16464781923938721 0 -0.1716614177265566 -0.15146656102038991 0 -0.1894311146879058 -0.1465309504005988 0 -0.17775058767377289 -0.13584559103097291 0 -0.1716614177265566 -0.15146656102038991 0 -0.1894311146879058 -0.1465309504005988 0 -0.17775058767377289 -0.13584559103097291 0 -0.1716614177265566 -0.15146656102038991 0 -0.17775058767377289 -0.13584559103097291 0 -0.1894311146879058 -0.1465309504005988 0 -0.17775058767377289 -0.13584559103097291 0 -0.19823449762692411 -0.13229999761030051 0 -0.18534812722118199 -0.1163550958908785 0 -0.17775058767377289 -0.13584559103097291 0 -0.18534812722118199 -0.1163550958908785 0 -0.15406265534163929 -0.1294064941378926 0 -0.16394560233522651 -0.1386698702264933 0 -0.15606779039194271 -0.1160101434681408 0 -0.17775058767377289 -0.13584559103097291 0 -0.16394560233522651 -0.1386698702264933 0 -0.15606779039194271 -0.1160101434681408 0 -0.17775058767377289 -0.13584559103097291 0 -0.15606779039194271 -0.1160101434681408 0 -0.15406265534163929 -0.1294064941378926 0 -0.16394560233522651 -0.1386698702264933 0 -0.1564494690737798 -0.13971242061594299 0 -0.16394560233522651 -0.1386698702264933 0 -0.1564494690737798 -0.13971242061594299 0 -0.15962849525536979 -0.1448502401790808 0 -0.14845845790642179 -0.14462819045750719 0 -0.1655722477793394 -0.1670875310098065 0 -0.14845845790642179 -0.14462819045750719 0 -0.1655722477793394 -0.1670875310098065 0 -0.15894149653025619 -0.15184230729274609 0 -0.15519343748037609 -0.14309809199123349 0 -0.1564494690737798 -0.13971242061594299 0 -0.15962849525536979 -0.1448502401790808 0 -0.1543278084257422 -0.1453912472931165 0 -0.15519343748037609 -0.14309809199123349 0 -0.15962849525536979 -0.1448502401790808 0 -0.1543278084257422 -0.1453912472931165 0 -0.15962849525536979 -0.1448502401790808 0 -0.15894149653025619 -0.15184230729274609 0 -0.15962849525536979 -0.1448502401790808 0 -0.15894149653025619 -0.15184230729274609 0 -0.1716614177265566 -0.15146656102038991 0 -0.17775058767377289 -0.13584559103097291 0 -0.16394560233522651 -0.1386698702264933 0 -0.1716614177265566 -0.15146656102038991 0 -0.16394560233522651 -0.1386698702264933 0 -0.15962849525536979 -0.1448502401790808 0 -0.1716614177265566 -0.15146656102038991 0 -0.1534429259631987 -0.25724555178864622 0 -0.15289321433053751 -0.246830478479277 0 -0.1378886282313006 -0.2381062402767252 0 -0.1534429259631987 -0.25724555178864622 0 -0.1378886282313006 -0.2381062402767252 0 -0.15348527020851541 -0.23913552791147211 0 -0.1378886282313006 -0.2381062402767252 0 -0.15430752157141919 -0.22794821467022949 0 -0.15289321433053751 -0.246830478479277 0 -0.15348527020851541 -0.23913552791147211 0 -0.1601832428566283 -0.24550858739866141 0 -0.15289321433053751 -0.246830478479277 0 -0.15348527020851541 -0.23913552791147211 0 -0.1378886282313006 -0.2381062402767252 0 -0.1459019403517107 -0.25564217047089421 0 -0.13375162957080131 -0.24871916986845621 0 -0.1378886282313006 -0.2381062402767252 0 -0.13375162957080131 -0.24871916986845621 0 -0.1378886282313006 -0.2381062402767252 0 -0.127825895831608 -0.22987551408160201 0 -0.13375162957080131 -0.24871916986845621 0 -0.1378886282313006 -0.2381062402767252 0 -0.13218950310710981 -0.25272660122947088 0 -0.1218823470606431 -0.24640061544388489 0 -0.13375162957080131 -0.24871916986845621 0 -0.127825895831608 -0.22987551408160201 0 -0.14435850230698141 -0.22150862358223991 0 -0.13086176299679239 -0.21746526838305219 0 -0.1378886282313006 -0.2381062402767252 0 -0.127825895831608 -0.22987551408160201 0 -0.14435850230698141 -0.22150862358223991 0 -0.11989889803527461 -0.22145143588075511 0 -0.127825895831608 -0.22987551408160201 0 -0.13086176299679239 -0.21746526838305219 0 -0.1378886282313006 -0.2381062402767252 0 -0.14435850230698141 -0.22150862358223991 0 -0.14435850230698141 -0.22150862358223991 0 -0.15430752157141919 -0.22794821467022949 0 -0.16410544360365359 -0.21493654602220469 0 -0.1378886282313006 -0.2381062402767252 0 -0.14435850230698141 -0.22150862358223991 0 -0.15430752157141919 -0.22794821467022949 0 -0.14435850230698141 -0.22150862358223991 0 -0.15496537504316019 -0.19429807729602311 0 -0.14435850230698141 -0.22150862358223991 0 -0.1373527607074172 -0.20563907323320921 0 -0.15496537504316019 -0.19429807729602311 0 -0.14435850230698141 -0.22150862358223991 0 -0.15496537504316019 -0.19429807729602311 0 -0.16410544360365359 -0.21493654602220469 0 -0.14435850230698141 -0.22150862358223991 0 -0.1373527607074172 -0.20563907323320921 0 -0.13086176299679239 -0.21746526838305219 0 -0.1210853022939376 -0.205467400633562 0 -0.1373527607074172 -0.20563907323320921 0 -0.13086176299679239 -0.21746526838305219 0 -0.1210853022939376 -0.205467400633562 0 -0.1373527607074172 -0.20563907323320921 0 -0.13505851963374399 -0.18906788910329131 0 -0.1373527607074172 -0.20563907323320921 0 -0.13505851963374399 -0.18906788910329131 0 -0.15496537504316019 -0.19429807729602311 0 -0.1689483943248192 -0.19264195369377959 0 -0.17994482166635981 -0.2014366202218163 0 -0.16410544360365359 -0.21493654602220469 0 -0.15496537504316019 -0.19429807729602311 0 -0.1689483943248192 -0.19264195369377959 0 -0.16410544360365359 -0.21493654602220469 0 -0.17557921295501691 -0.18022020591375351 0 -0.1689483943248192 -0.19264195369377959 0 -0.17994482166635981 -0.2014366202218163 0 -0.17557921295501691 -0.18022020591375351 0 -0.17994482166635981 -0.2014366202218163 0 -0.1907059301477185 -0.18468107337543721 0 -0.17994482166635981 -0.2014366202218163 0 -0.1784102433228649 -0.21681777692650089 0 -0.16410544360365359 -0.21493654602220469 0 -0.17994482166635981 -0.2014366202218163 0 -0.18904495760185211 -0.20873870471059999 0 -0.19252771524915421 -0.19930647688205899 0 -0.17994482166635981 -0.2014366202218163 0 -0.1784102433228649 -0.21681777692650089 0 -0.18904495760185211 -0.20873870471059999 0 -0.1784102433228649 -0.21681777692650089 0 -0.19175951728552271 -0.21959172261586679 0 -0.18904495760185211 -0.20873870471059999 0 -0.15430752157141919 -0.22794821467022949 0 -0.16410544360365359 -0.21493654602220469 0 -0.16877954452522659 -0.2255120540677526 0 -0.15430752157141919 -0.22794821467022949 0 -0.16877954452522659 -0.2255120540677526 0 -0.16324537569009509 -0.2357306359809743 0 -0.15348527020851541 -0.23913552791147211 0 -0.15430752157141919 -0.22794821467022949 0 -0.16324537569009509 -0.2357306359809743 0 -0.16877954452522659 -0.2255120540677526 0 -0.17781387366555559 -0.23090770197000129 0 -0.16324537569009509 -0.2357306359809743 0 -0.1784102433228649 -0.21681777692650089 0 -0.16410544360365359 -0.21493654602220469 0 -0.16877954452522659 -0.2255120540677526 0 -0.1784102433228649 -0.21681777692650089 0 -0.16877954452522659 -0.2255120540677526 0 -0.17781387366555559 -0.23090770197000129 0 -0.1784102433228649 -0.21681777692650089 0 -0.17781387366555559 -0.23090770197000129 0 -0.19175951728552271 -0.21959172261586679 0 -0.17781387366555559 -0.23090770197000129 0 -0.1805311654956796 -0.2411950136452527 0 -0.19410287643929239 -0.23312434657521411 0 -0.17781387366555559 -0.23090770197000129 0 -0.1805311654956796 -0.2411950136452527 0 -0.16955513552828311 -0.24305067226283769 0 -0.17679077873490559 -0.25046109420941731 0 -0.1805311654956796 -0.2411950136452527 0 -0.18863044441395099 -0.24733650333174401 0 -0.17679077873490559 -0.25046109420941731 0 -0.1805311654956796 -0.2411950136452527 0 -0.16955513552828311 -0.24305067226283769 0 -0.16709258238786229 -0.25188408856254202 0 -0.17679077873490559 -0.25046109420941731 0 -0.16955513552828311 -0.24305067226283769 0 -0.16709258238786229 -0.25188408856254202 0 -0.16955513552828311 -0.24305067226283769 0 -0.1601832428566283 -0.24550858739866141 0 -0.17781387366555559 -0.23090770197000129 0 -0.16955513552828311 -0.24305067226283769 0 -0.16324537569009509 -0.2357306359809743 0 -0.16955513552828311 -0.24305067226283769 0 -0.16324537569009509 -0.2357306359809743 0 -0.1601832428566283 -0.24550858739866141 0 -0.15348527020851541 -0.23913552791147211 0 -0.16324537569009509 -0.2357306359809743 0 -0.1601832428566283 -0.24550858739866141 0 -0.1593809120407062 -0.25278805690175971 0 -0.15289321433053751 -0.246830478479277 0 -0.1601832428566283 -0.24550858739866141 0 -0.20565562739327201 -0.24334207984173631 0 -0.19410287643929239 -0.23312434657521411 0 -0.21201774175915139 -0.2290986139018284 0 -0.21472073189145299 -0.25725591714607071 0 -0.20565562739327201 -0.24334207984173631 0 -0.22837296648480071 -0.23789375384220129 0 -0.20565562739327201 -0.24334207984173631 0 -0.21201774175915139 -0.2290986139018284 0 -0.22837296648480071 -0.23789375384220129 0 -0.20565562739327201 -0.24334207984173631 0 -0.18863044441395099 -0.24733650333174401 0 -0.19410287643929239 -0.23312434657521411 0 -0.1805311654956796 -0.2411950136452527 0 -0.18863044441395099 -0.24733650333174401 0 -0.19410287643929239 -0.23312434657521411 0 -0.17781387366555559 -0.23090770197000129 0 -0.19410287643929239 -0.23312434657521411 0 -0.19175951728552271 -0.21959172261586679 0 -0.19410287643929239 -0.23312434657521411 0 -0.19175951728552271 -0.21959172261586679 0 -0.20443040571370949 -0.21985141578154491 0 -0.21201774175915139 -0.2290986139018284 0 -0.20443040571370949 -0.21985141578154491 0 -0.22630383013383959 -0.21240708539258099 0 -0.19410287643929239 -0.23312434657521411 0 -0.21201774175915139 -0.2290986139018284 0 -0.20443040571370949 -0.21985141578154491 0 -0.20157622681128409 -0.2075672839719423 0 -0.21557055542943429 -0.1904257004922347 0 -0.22630383013383959 -0.21240708539258099 0 -0.20157622681128409 -0.2075672839719423 0 -0.22630383013383959 -0.21240708539258099 0 -0.20443040571370949 -0.21985141578154491 0 -0.20157622681128409 -0.2075672839719423 0 -0.22630383013383959 -0.21240708539258099 0 -0.19175951728552271 -0.21959172261586679 0 -0.20443040571370949 -0.21985141578154491 0 -0.20157622681128409 -0.2075672839719423 0 -0.19175951728552271 -0.21959172261586679 0 -0.20157622681128409 -0.2075672839719423 0 -0.19175951728552271 -0.21959172261586679 0 -0.18904495760185211 -0.20873870471059999 0 -0.20157622681128409 -0.2075672839719423 0 -0.18904495760185211 -0.20873870471059999 0 -0.20157622681128409 -0.2075672839719423 0 -0.19252771524915421 -0.19930647688205899 0 -0.17994482166635981 -0.2014366202218163 0 -0.19252771524915421 -0.19930647688205899 0 -0.1907059301477185 -0.18468107337543721 0 -0.20157622681128409 -0.2075672839719423 0 -0.19252771524915421 -0.19930647688205899 0 -0.20187756758401409 -0.19506767240709361 0 -0.19252771524915421 -0.19930647688205899 0 -0.20187756758401409 -0.19506767240709361 0 -0.1907059301477185 -0.18468107337543721 0 -0.20157622681128409 -0.2075672839719423 0 -0.21557055542943429 -0.1904257004922347 0 -0.20187756758401409 -0.19506767240709361 0 -0.21557055542943429 -0.1904257004922347 0 -0.2038146335316797 -0.1820121315948606 0 -0.20157622681128409 -0.2075672839719423 0 -0.20187756758401409 -0.19506767240709361 0 -0.21557055542943429 -0.1904257004922347 0 -0.21557055542943429 -0.1904257004922347 0 -0.23533053747689989 -0.1962925907305976 0 -0.22630383013383959 -0.21240708539258099 0 -0.23533053747689989 -0.1962925907305976 0 -0.25103143345639523 -0.21724688681321891 0 -0.25418198431724581 -0.18809916394242601 0 -0.22630383013383959 -0.21240708539258099 0 -0.25103143345639523 -0.21724688681321891 0 -0.23533053747689989 -0.1962925907305976 0 -0.22630383013383959 -0.21240708539258099 0 -0.25103143345639523 -0.21724688681321891 0 -0.21201774175915139 -0.2290986139018284 0 -0.22630383013383959 -0.21240708539258099 0 -0.22837296648480071 -0.23789375384220129 0 -0.22630383013383959 -0.21240708539258099 0 -0.22837296648480071 -0.23789375384220129 0 -0.25103143345639523 -0.21724688681321891 0 -0.22837296648480071 -0.23789375384220129 0 -0.25431856302814809 -0.24833495949118861 0 -0.25103143345639523 -0.21724688681321891 0 -0.2335542019388327 -0.26090262277066528 0 -0.22837296648480071 -0.23789375384220129 0 -0.25431856302814809 -0.24833495949118861 0 -0.20708483324238849 -0.15128624944667929 0 -0.22647357207813959 -0.15205360930679629 0 -0.2195633859389316 -0.1340578990397249 0 -0.20708483324238849 -0.15128624944667929 0 -0.19823449762692411 -0.13229999761030051 0 -0.2195633859389316 -0.1340578990397249 0 -0.19823449762692411 -0.13229999761030051 0 -0.2195633859389316 -0.1340578990397249 0 -0.21022893699736381 -0.1097241998529486 0 -0.17775058767377289 -0.13584559103097291 0 -0.19823449762692411 -0.13229999761030051 0 -0.1894311146879058 -0.1465309504005988 0 -0.20708483324238849 -0.15128624944667929 0 -0.1894311146879058 -0.1465309504005988 0 -0.19351686899232889 -0.15854259719770419 0 -0.20708483324238849 -0.15128624944667929 0 -0.19823449762692411 -0.13229999761030051 0 -0.1894311146879058 -0.1465309504005988 0 -0.20708483324238849 -0.15128624944667929 0 -0.19351686899232889 -0.15854259719770419 0 -0.19880271024428661 -0.17007658736909009 0 -0.18239484980351819 -0.16464781923938721 0 -0.1894311146879058 -0.1465309504005988 0 -0.19351686899232889 -0.15854259719770419 0 -0.18239484980351819 -0.16464781923938721 0 -0.19351686899232889 -0.15854259719770419 0 -0.19880271024428661 -0.17007658736909009 0 -0.18239484980351819 -0.16464781923938721 0 -0.19880271024428661 -0.17007658736909009 0 -0.1907059301477185 -0.18468107337543721 0 -0.19880271024428661 -0.17007658736909009 0 -0.1907059301477185 -0.18468107337543721 0 -0.2038146335316797 -0.1820121315948606 0 -0.20187756758401409 -0.19506767240709361 0 -0.1907059301477185 -0.18468107337543721 0 -0.2038146335316797 -0.1820121315948606 0 -0.21557055542943429 -0.1904257004922347 0 -0.2038146335316797 -0.1820121315948606 0 -0.21355186476225221 -0.16985639920369799 0 -0.19880271024428661 -0.17007658736909009 0 -0.2038146335316797 -0.1820121315948606 0 -0.21355186476225221 -0.16985639920369799 0 -0.20708483324238849 -0.15128624944667929 0 -0.21355186476225221 -0.16985639920369799 0 -0.22647357207813959 -0.15205360930679629 0 -0.20708483324238849 -0.15128624944667929 0 -0.19880271024428661 -0.17007658736909009 0 -0.21355186476225221 -0.16985639920369799 0 -0.22956488404758479 -0.1732841170125273 0 -0.2435592126657353 -0.1561425335328199 0 -0.22647357207813959 -0.15205360930679629 0 -0.21355186476225221 -0.16985639920369799 0 -0.22956488404758479 -0.1732841170125273 0 -0.22647357207813959 -0.15205360930679629 0 -0.21557055542943429 -0.1904257004922347 0 -0.21355186476225221 -0.16985639920369799 0 -0.22956488404758479 -0.1732841170125273 0 -0.21557055542943429 -0.1904257004922347 0 -0.22956488404758479 -0.1732841170125273 0 -0.21557055542943429 -0.1904257004922347 0 -0.23533053747689989 -0.1962925907305976 0 -0.22956488404758479 -0.1732841170125273 0 -0.23533053747689989 -0.1962925907305976 0 -0.22956488404758479 -0.1732841170125273 0 -0.25418198431724581 -0.18809916394242601 0 -0.22956488404758479 -0.1732841170125273 0 -0.25418198431724581 -0.18809916394242601 0 -0.2565438833259911 -0.1687602707777138 0 -0.22956488404758479 -0.1732841170125273 0 -0.2435592126657353 -0.1561425335328199 0 -0.22956488404758479 -0.1732841170125273 0 -0.2435592126657353 -0.1561425335328199 0 -0.2565438833259911 -0.1687602707777138 0 -0.2435592126657353 -0.1561425335328199 0 -0.22647357207813959 -0.15205360930679629 0 -0.2432602079730701 -0.13485583854350039 0 -0.22647357207813959 -0.15205360930679629 0 -0.2195633859389316 -0.1340578990397249 0 -0.2432602079730701 -0.13485583854350039 0 -0.2195633859389316 -0.1340578990397249 0 -0.2432602079730701 -0.13485583854350039 0 -0.23065476516460279 -0.11957242830579699 0 -0.2432602079730701 -0.13485583854350039 0 -0.2499653418643101 -0.1102460646797562 0 -0.23065476516460279 -0.11957242830579699 0 -0.2499653418643101 -0.1102460646797562 0 -0.2308399038819596 -0.1034577205422559 0 -0.23065476516460279 -0.11957242830579699 0 -0.2308399038819596 -0.1034577205422559 0 -0.25308440776240432 -0.086371671251396109 0 -0.2499653418643101 -0.1102460646797562 0 -0.2308399038819596 -0.1034577205422559 0 -0.25308440776240432 -0.086371671251396109 0 -0.2308399038819596 -0.1034577205422559 0 -0.21022893699736381 -0.1097241998529486 0 -0.21520721362926831 -0.098298511723915558 0 -0.2308399038819596 -0.1034577205422559 0 -0.22013457808717909 -0.089221868029860679 0 -0.21520721362926831 -0.098298511723915558 0 -0.2308399038819596 -0.1034577205422559 0 -0.23065476516460279 -0.11957242830579699 0 -0.21022893699736381 -0.1097241998529486 0 -0.2195633859389316 -0.1340578990397249 0 -0.23065476516460279 -0.11957242830579699 0 -0.21022893699736381 -0.1097241998529486 0 -0.2335598957907816 -0.079883889973887123 0 -0.24475965461883589 -0.059498385283178377 0 -0.2582325144520296 -0.070050845257802419 0 -0.2335598957907816 -0.079883889973887123 0 -0.2582325144520296 -0.070050845257802419 0 -0.25308440776240432 -0.086371671251396109 0 -0.2308399038819596 -0.1034577205422559 0 -0.2335598957907816 -0.079883889973887123 0 -0.25308440776240432 -0.086371671251396109 0 -0.2308399038819596 -0.1034577205422559 0 -0.22013457808717909 -0.089221868029860679 0 -0.2335598957907816 -0.079883889973887123 0 -0.22013457808717909 -0.089221868029860679 0 -0.2335598957907816 -0.079883889973887123 0 -0.21963876375789801 -0.077814354495200549 0 -0.2335598957907816 -0.079883889973887123 0 -0.21595644614104051 -0.065738508165203102 0 -0.24475965461883589 -0.059498385283178377 0 -0.21595644614104051 -0.065738508165203102 0 -0.24475965461883589 -0.059498385283178377 0 -0.2335598957907816 -0.079883889973887123 0 -0.21963876375789801 -0.077814354495200549 0 -0.21595644614104051 -0.065738508165203102 0 -0.20438945881064449 -0.068244458930106389 0 -0.21100771399754009 -0.086966924160961745 0 -0.21595644614104051 -0.065738508165203102 0 -0.21100771399754009 -0.086966924160961745 0 -0.20438945881064449 -0.068244458930106389 0 -0.21595644614104051 -0.065738508165203102 0 -0.21100771399754009 -0.086966924160961745 0 -0.21963876375789801 -0.077814354495200549 0 -0.21595644614104051 -0.065738508165203102 0 -0.21100771399754009 -0.086966924160961745 0 -0.20438945881064449 -0.068244458930106389 0 -0.21595644614104051 -0.065738508165203102 0 -0.20438945881064449 -0.068244458930106389 0 -0.21595644614104051 -0.065738508165203102 0 -0.20711132549122371 -0.057203435059411119 0 -0.20438945881064449 -0.068244458930106389 0 -0.21100771399754009 -0.086966924160961745 0 -0.19851231957361129 -0.085310821531315487 0 -0.22013457808717909 -0.089221868029860679 0 -0.21963876375789801 -0.077814354495200549 0 -0.21100771399754009 -0.086966924160961745 0 -0.22013457808717909 -0.089221868029860679 0 -0.21100771399754009 -0.086966924160961745 0 -0.21520721362926831 -0.098298511723915558 0 -0.21100771399754009 -0.086966924160961745 0 -0.19851231957361129 -0.085310821531315487 0 -0.20550431009004061 -0.095676697317907802 0 -0.21100771399754009 -0.086966924160961745 0 -0.21520721362926831 -0.098298511723915558 0 -0.20550431009004061 -0.095676697317907802 0 -0.19851231957361129 -0.085310821531315487 0 -0.18118326058104209 -0.08825419183970401 0 -0.18409944718507371 -0.07264022497537044 0 -0.19851231957361129 -0.085310821531315487 0 -0.19294566676858971 -0.096864600750783431 0 -0.18118326058104209 -0.08825419183970401 0 -0.19851231957361129 -0.085310821531315487 0 -0.20550431009004061 -0.095676697317907802 0 -0.19294566676858971 -0.096864600750783431 0 -0.20438945881064449 -0.068244458930106389 0 -0.19851231957361129 -0.085310821531315487 0 -0.18409944718507371 -0.07264022497537044 0 -0.20438945881064449 -0.068244458930106389 0 -0.18409944718507371 -0.07264022497537044 0 -0.18769526278089041 -0.057829612445021099 0 -0.20438945881064449 -0.068244458930106389 0 -0.18409944718507371 -0.07264022497537044 0 -0.21022893699736381 -0.1097241998529486 0 -0.21520721362926831 -0.098298511723915558 0 -0.20550431009004061 -0.095676697317907802 0 -0.21022893699736381 -0.1097241998529486 0 -0.20550431009004061 -0.095676697317907802 0 -0.19294566676858971 -0.096864600750783431 0 -0.19294566676858971 -0.096864600750783431 0 -0.18534812722118199 -0.1163550958908785 0 -0.21022893699736381 -0.1097241998529486 0 -0.19294566676858971 -0.096864600750783431 0 -0.18534812722118199 -0.1163550958908785 0 -0.19823449762692411 -0.13229999761030051 0 -0.21022893699736381 -0.1097241998529486 0 -0.18534812722118199 -0.1163550958908785 0 -0.18534812722118199 -0.1163550958908785 0 -0.17423934197139679 -0.1017815859784342 0 -0.15606779039194271 -0.1160101434681408 0 -0.17775058767377289 -0.13584559103097291 0 -0.18534812722118199 -0.1163550958908785 0 -0.15606779039194271 -0.1160101434681408 0 -0.16057304666404501 -0.10079887419961479 0 -0.17423934197139679 -0.1017815859784342 0 -0.15606779039194271 -0.1160101434681408 0 -0.16057304666404501 -0.10079887419961479 0 -0.16746185343044401 -0.091445336260546128 0 -0.1570966781871318 -0.090327755750333361 0 -0.16057304666404501 -0.10079887419961479 0 -0.17423934197139679 -0.1017815859784342 0 -0.16746185343044401 -0.091445336260546128 0 -0.17423934197139679 -0.1017815859784342 0 -0.18118326058104209 -0.08825419183970401 0 -0.16746185343044401 -0.091445336260546128 0 -0.19294566676858971 -0.096864600750783431 0 -0.18534812722118199 -0.1163550958908785 0 -0.17423934197139679 -0.1017815859784342 0 -0.19294566676858971 -0.096864600750783431 0 -0.17423934197139679 -0.1017815859784342 0 -0.18118326058104209 -0.08825419183970401 0 -0.18118326058104209 -0.08825419183970401 0 -0.18409944718507371 -0.07264022497537044 0 -0.16915717098214109 -0.081397787743409861 0 -0.18118326058104209 -0.08825419183970401 0 -0.16746185343044401 -0.091445336260546128 0 -0.16915717098214109 -0.081397787743409861 0 -0.18409944718507371 -0.07264022497537044 0 -0.1702117591297739 -0.06777753321031553 0 -0.16380943555950259 -0.077035991020633382 0 -0.18409944718507371 -0.07264022497537044 0 -0.16380943555950259 -0.077035991020633382 0 -0.16915717098214109 -0.081397787743409861 0 -0.18409944718507371 -0.07264022497537044 0 -0.17187825396406881 -0.057945450019426657 0 -0.18769526278089041 -0.057829612445021099 0 -0.18409944718507371 -0.07264022497537044 0 -0.16380943555950259 -0.077035991020633382 0 -0.18409944718507371 -0.07264022497537044 0 -0.1702117591297739 -0.06777753321031553 0 -0.17187825396406881 -0.057945450019426657 0 -0.16380943555950259 -0.077035991020633382 0 -0.16105989981045041 -0.063488466825831633 0 -0.14595160177326619 -0.062470528310013429 0 -0.1702117591297739 -0.06777753321031553 0 -0.16105989981045041 -0.063488466825831633 0 -0.17187825396406881 -0.057945450019426657 0 -0.1702117591297739 -0.06777753321031553 0 -0.16380943555950259 -0.077035991020633382 0 -0.16105989981045041 -0.063488466825831633 0 -0.16380943555950259 -0.077035991020633382 0 -0.16109871639751261 -0.084134952385501949 0 -0.14796844382834351 -0.080467891152587012 0 -0.16746185343044401 -0.091445336260546128 0 -0.16915717098214109 -0.081397787743409861 0 -0.16109871639751261 -0.084134952385501949 0 -0.16380943555950259 -0.077035991020633382 0 -0.16915717098214109 -0.081397787743409861 0 -0.16109871639751261 -0.084134952385501949 0 -0.16380943555950259 -0.077035991020633382 0 -0.16915717098214109 -0.081397787743409861 0 -0.16746185343044401 -0.091445336260546128 0 -0.16109871639751261 -0.084134952385501949 0 -0.1570966781871318 -0.090327755750333361 0 -0.16380943555950259 -0.077035991020633382 0 -0.14796844382834351 -0.080467891152587012 0 -0.14796844382834351 -0.080467891152587012 0 -0.13497135686491851 -0.078315161523928284 0 -0.1484932433812913 -0.094043062253026791 0 -0.1570966781871318 -0.090327755750333361 0 -0.14796844382834351 -0.080467891152587012 0 -0.1484932433812913 -0.094043062253026791 0 -0.16109871639751261 -0.084134952385501949 0 -0.1570966781871318 -0.090327755750333361 0 -0.14796844382834351 -0.080467891152587012 0 -0.16380943555950259 -0.077035991020633382 0 -0.14796844382834351 -0.080467891152587012 0 -0.14595160177326619 -0.062470528310013429 0 -0.16380943555950259 -0.077035991020633382 0 -0.14595160177326619 -0.062470528310013429 0 -0.14796844382834351 -0.080467891152587012 0 -0.13497135686491851 -0.078315161523928284 0 -0.14595160177326619 -0.062470528310013429 0 -0.1158705629695205 -0.060236298698018297 0 -0.13497135686491851 -0.078315161523928284 0 -0.1158705629695205 -0.060236298698018297 0 -0.13497135686491851 -0.078315161523928284 0 -0.13122182239868371 -0.062231763532838429 0 -0.13497135686491851 -0.078315161523928284 0 -0.13122182239868371 -0.062231763532838429 0 -0.14595160177326619 -0.062470528310013429 0 -0.112702195828283 -0.076339248342475546 0 -0.13497135686491851 -0.078315161523928284 0 -0.13438499311011279 -0.096174695905308166 0 -0.13497135686491851 -0.078315161523928284 0 -0.13438499311011279 -0.096174695905308166 0 -0.1484932433812913 -0.094043062253026791 0 -0.11276894493928399 -0.097790936300085646 0 -0.13438499311011279 -0.096174695905308166 0 -0.1306137014228527 -0.1212095633787966 0 -0.13438499311011279 -0.096174695905308166 0 -0.1306137014228527 -0.1212095633787966 0 -0.15606779039194271 -0.1160101434681408 0 -0.15406265534163929 -0.1294064941378926 0 -0.1306137014228527 -0.1212095633787966 0 -0.15606779039194271 -0.1160101434681408 0 -0.13438499311011279 -0.096174695905308166 0 -0.15606779039194271 -0.1160101434681408 0 -0.1484932433812913 -0.094043062253026791 0 -0.16057304666404501 -0.10079887419961479 0 -0.15606779039194271 -0.1160101434681408 0 -0.1484932433812913 -0.094043062253026791 0 -0.13438499311011279 -0.096174695905308166 0 -0.15606779039194271 -0.1160101434681408 0 -0.16057304666404501 -0.10079887419961479 0 -0.1570966781871318 -0.090327755750333361 0 -0.1484932433812913 -0.094043062253026791 0 -0.14513665439653431 -0.02122229521611602 0 -0.15148395360685291 -0.031475856168514699 0 -0.16129500549156001 -0.024264335985147129 0 -0.14513665439653431 -0.02122229521611602 0 -0.1346415055917565 -0.031432898451717602 0 -0.15148395360685291 -0.031475856168514699 0 -0.14513665439653431 -0.02122229521611602 0 -0.15327979458335059 -0.01391829646419882 0 -0.16129500549156001 -0.024264335985147129 0 -0.1412848112475209 -0.008091449167619497 0 -0.15773416148281841 -0.0035868741371463562 0 -0.14801408494475049 0.0031182785745780331 0 -0.15327979458335059 -0.01391829646419882 0 -0.1412848112475209 -0.008091449167619497 0 -0.15773416148281841 -0.0035868741371463562 0 -0.14513665439653431 -0.02122229521611602 0 -0.15327979458335059 -0.01391829646419882 0 -0.1412848112475209 -0.008091449167619497 0 -0.1236693299605585 -0.0137973575501921 0 -0.1412848112475209 -0.008091449167619497 0 -0.12735709500343681 0.004015926865657337 0 -0.1412848112475209 -0.008091449167619497 0 -0.12735709500343681 0.004015926865657337 0 -0.14801408494475049 0.0031182785745780331 0 -0.1236693299605585 -0.0137973575501921 0 -0.1412848112475209 -0.008091449167619497 0 -0.13426109495296229 -0.02049569832685658 0 -0.1236693299605585 -0.0137973575501921 0 -0.1221370268088495 -0.025998648103035 0 -0.13426109495296229 -0.02049569832685658 0 -0.14513665439653431 -0.02122229521611602 0 -0.1412848112475209 -0.008091449167619497 0 -0.13426109495296229 -0.02049569832685658 0 -0.14513665439653431 -0.02122229521611602 0 -0.13426109495296229 -0.02049569832685658 0 -0.1346415055917565 -0.031432898451717602 0 -0.1221370268088495 -0.025998648103035 0 -0.12530131535501859 -0.034952786400489197 0 -0.1346415055917565 -0.031432898451717602 0 -0.1221370268088495 -0.025998648103035 0 -0.13426109495296229 -0.02049569832685658 0 -0.1346415055917565 -0.031432898451717602 0 -0.12530131535501859 -0.034952786400489197 0 -0.1346415055917565 -0.031432898451717602 0 -0.12809376798702951 -0.047905065599393698 0 -0.1346415055917565 -0.031432898451717602 0 -0.12809376798702951 -0.047905065599393698 0 -0.14629371500633531 -0.042796653234188263 0 -0.12809376798702951 -0.047905065599393698 0 -0.14595160177326619 -0.062470528310013429 0 -0.12809376798702951 -0.047905065599393698 0 -0.14595160177326619 -0.062470528310013429 0 -0.14629371500633531 -0.042796653234188263 0 -0.13122182239868371 -0.062231763532838429 0 -0.12809376798702951 -0.047905065599393698 0 -0.14595160177326619 -0.062470528310013429 0 -0.1158705629695205 -0.060236298698018297 0 -0.13122182239868371 -0.062231763532838429 0 -0.12809376798702951 -0.047905065599393698 0 -0.14595160177326619 -0.062470528310013429 0 -0.14629371500633531 -0.042796653234188263 0 -0.15696853651444401 -0.052603520026387289 0 -0.16105989981045041 -0.063488466825831633 0 -0.14595160177326619 -0.062470528310013429 0 -0.15696853651444401 -0.052603520026387289 0 -0.15148395360685291 -0.031475856168514699 0 -0.14629371500633531 -0.042796653234188263 0 -0.16402488563849801 -0.041062174760887443 0 -0.1346415055917565 -0.031432898451717602 0 -0.15148395360685291 -0.031475856168514699 0 -0.14629371500633531 -0.042796653234188263 0 -0.14629371500633531 -0.042796653234188263 0 -0.16402488563849801 -0.041062174760887443 0 -0.15696853651444401 -0.052603520026387289 0 -0.15148395360685291 -0.031475856168514699 0 -0.16402488563849801 -0.041062174760887443 0 -0.16129500549156001 -0.024264335985147129 0 -0.16402488563849801 -0.041062174760887443 0 -0.17409393016306191 -0.030370879776367592 0 -0.16129500549156001 -0.024264335985147129 0 -0.16402488563849801 -0.041062174760887443 0 -0.15696853651444401 -0.052603520026387289 0 -0.17187825396406881 -0.057945450019426657 0 -0.16105989981045041 -0.063488466825831633 0 -0.15696853651444401 -0.052603520026387289 0 -0.17187825396406881 -0.057945450019426657 0 -0.16402488563849801 -0.041062174760887443 0 -0.17187825396406881 -0.057945450019426657 0 -0.18133558272394029 -0.043618149437272283 0 -0.17187825396406881 -0.057945450019426657 0 -0.18133558272394029 -0.043618149437272283 0 -0.18769526278089041 -0.057829612445021099 0 -0.18133558272394029 -0.043618149437272283 0 -0.17409393016306191 -0.030370879776367592 0 -0.18915768363079971 -0.025155098795753519 0 -0.16402488563849801 -0.041062174760887443 0 -0.18133558272394029 -0.043618149437272283 0 -0.17409393016306191 -0.030370879776367592 0 -0.17409393016306191 -0.030370879776367592 0 -0.17549551533112251 -0.014893414490097231 0 -0.18915768363079971 -0.025155098795753519 0 -0.16129500549156001 -0.024264335985147129 0 -0.16350931143073591 -0.01273440345064396 0 -0.17549551533112251 -0.014893414490097231 0 -0.17409393016306191 -0.030370879776367592 0 -0.16129500549156001 -0.024264335985147129 0 -0.17549551533112251 -0.014893414490097231 0 -0.15327979458335059 -0.01391829646419882 0 -0.16129500549156001 -0.024264335985147129 0 -0.16350931143073591 -0.01273440345064396 0 -0.15773416148281841 -0.0035868741371463562 0 -0.16716832075785379 -0.0032078365625175 0 -0.1619193683370386 0.0066468078375689294 0 -0.15773416148281841 -0.0035868741371463562 0 -0.16350931143073591 -0.01273440345064396 0 -0.16716832075785379 -0.0032078365625175 0 -0.15327979458335059 -0.01391829646419882 0 -0.15773416148281841 -0.0035868741371463562 0 -0.16350931143073591 -0.01273440345064396 0 -0.16350931143073591 -0.01273440345064396 0 -0.16716832075785379 -0.0032078365625175 0 -0.17549551533112251 -0.014893414490097231 0 -0.17549551533112251 -0.014893414490097231 0 -0.18154179604087481 -0.0036104187285780349 0 -0.18915768363079971 -0.025155098795753519 0 -0.18154179604087481 -0.0036104187285780349 0 -0.18915768363079971 -0.025155098795753519 0 -0.17549551533112251 -0.014893414490097231 0 -0.17584419881677341 0.0071523107965592754 0 -0.17549551533112251 -0.014893414490097231 0 -0.18154179604087481 -0.0036104187285780349 0 -0.17584419881677341 0.0071523107965592754 0 -0.16716832075785379 -0.0032078365625175 0 -0.17549551533112251 -0.014893414490097231 0 -0.17584419881677341 0.0071523107965592754 0 -0.18154179604087481 -0.0036104187285780349 0 -0.19066530249761049 -0.0041303576494283751 0 -0.18915768363079971 -0.025155098795753519 0 -0.18154179604087481 -0.0036104187285780349 0 -0.19066530249761049 -0.0041303576494283751 0 -0.18717715497560061 0.0062623078557712403 0 -0.19066530249761049 -0.0041303576494283751 0 -0.1989264366345522 -0.0080023544535597537 0 -0.18915768363079971 -0.025155098795753519 0 -0.19066530249761049 -0.0041303576494283751 0 -0.1989264366345522 -0.0080023544535597537 0 -0.1965234412062255 0.0098537758749781944 0 -0.1989264366345522 -0.0080023544535597537 0 -0.2007918169376324 -0.0191738513677071 0 -0.20680177871376751 -0.0119671669755851 0 -0.18915768363079971 -0.025155098795753519 0 -0.2007918169376324 -0.0191738513677071 0 -0.21013076049929519 -0.028334228638799381 0 -0.1989264366345522 -0.0080023544535597537 0 -0.18915768363079971 -0.025155098795753519 0 -0.2007918169376324 -0.0191738513677071 0 -0.2007918169376324 -0.0191738513677071 0 -0.21013076049929519 -0.028334228638799381 0 -0.20680177871376751 -0.0119671669755851 0 -0.21013076049929519 -0.028334228638799381 0 -0.21702438745170211 -0.0043907958627755336 0 -0.21921501925093501 -0.017985606360015789 0 -0.21013076049929519 -0.028334228638799381 0 -0.21702438745170211 -0.0043907958627755336 0 -0.21013076049929519 -0.028334228638799381 0 -0.22271521407306469 -0.037269361340154371 0 -0.21921501925093501 -0.017985606360015789 0 -0.21013076049929519 -0.028334228638799381 0 -0.21702438745170211 -0.0043907958627755336 0 -0.20680177871376751 -0.0119671669755851 0 -0.1989264366345522 -0.0080023544535597537 0 -0.20680177871376751 -0.0119671669755851 0 -0.20713549204565579 6.5395444916274768e-05 0 -0.21702438745170211 -0.0043907958627755336 0 -0.20680177871376751 -0.0119671669755851 0 -0.20713549204565579 6.5395444916274768e-05 0 -0.20438945881064449 -0.068244458930106389 0 -0.1967735712207245 -0.046699778862929052 0 -0.20438945881064449 -0.068244458930106389 0 -0.18769526278089041 -0.057829612445021099 0 -0.1967735712207245 -0.046699778862929052 0 -0.20438945881064449 -0.068244458930106389 0 -0.1967735712207245 -0.046699778862929052 0 -0.20711132549122371 -0.057203435059411119 0 -0.18133558272394029 -0.043618149437272283 0 -0.18769526278089041 -0.057829612445021099 0 -0.1967735712207245 -0.046699778862929052 0 -0.18133558272394029 -0.043618149437272283 0 -0.18915768363079971 -0.025155098795753519 0 -0.1967735712207245 -0.046699778862929052 0 -0.18915768363079971 -0.025155098795753519 0 -0.1967735712207245 -0.046699778862929052 0 -0.18915768363079971 -0.025155098795753519 0 -0.21013076049929519 -0.028334228638799381 0 -0.1967735712207245 -0.046699778862929052 0 -0.21013076049929519 -0.028334228638799381 0 -0.21132582579248671 -0.048130994279405613 0 -0.22271521407306469 -0.037269361340154371 0 -0.21013076049929519 -0.028334228638799381 0 -0.1967735712207245 -0.046699778862929052 0 -0.21132582579248671 -0.048130994279405613 0 -0.21595644614104051 -0.065738508165203102 0 -0.21132582579248671 -0.048130994279405613 0 -0.22271521407306469 -0.037269361340154371 0 -0.21595644614104051 -0.065738508165203102 0 -0.21132582579248671 -0.048130994279405613 0 -0.20711132549122371 -0.057203435059411119 0 -0.1967735712207245 -0.046699778862929052 0 -0.21132582579248671 -0.048130994279405613 0 -0.20711132549122371 -0.057203435059411119 0 -0.21595644614104051 -0.065738508165203102 0 -0.2284172135094342 -0.053659916570315727 0 -0.24475965461883589 -0.059498385283178377 0 -0.21595644614104051 -0.065738508165203102 0 -0.2284172135094342 -0.053659916570315727 0 -0.22271521407306469 -0.037269361340154371 0 -0.21595644614104051 -0.065738508165203102 0 -0.22271521407306469 -0.037269361340154371 0 -0.2284172135094342 -0.053659916570315727 0 -0.22271521407306469 -0.037269361340154371 0 -0.23903543051913109 -0.043198085603962481 0 -0.22271521407306469 -0.037269361340154371 0 -0.23903543051913109 -0.043198085603962481 0 -0.24161885061771041 -0.026720350447010301 0 -0.23903543051913109 -0.043198085603962481 0 -0.24161885061771041 -0.026720350447010301 0 -0.25766621977661042 -0.038842414379153638 0 -0.23903543051913109 -0.043198085603962481 0 -0.24475965461883589 -0.059498385283178377 0 -0.25766621977661042 -0.038842414379153638 0 -0.2284172135094342 -0.053659916570315727 0 -0.23903543051913109 -0.043198085603962481 0 -0.24475965461883589 -0.059498385283178377 0 -0.22947398200509031 -0.0088002145151058891 0 -0.22867745033346079 0.0038692188645070222 0 -0.2401015516947359 0.00075261550232862703 0 -0.21702438745170211 -0.0043907958627755336 0 -0.22947398200509031 -0.0088002145151058891 0 -0.22867745033346079 0.0038692188645070222 0 -0.21702438745170211 -0.0043907958627755336 0 -0.22947398200509031 -0.0088002145151058891 0 -0.21921501925093501 -0.017985606360015789 0 -0.22271521407306469 -0.037269361340154371 0 -0.22947398200509031 -0.0088002145151058891 0 -0.21921501925093501 -0.017985606360015789 0 -0.22271521407306469 -0.037269361340154371 0 -0.22947398200509031 -0.0088002145151058891 0 -0.22271521407306469 -0.037269361340154371 0 -0.22947398200509031 -0.0088002145151058891 0 -0.24161885061771041 -0.026720350447010301 0 -0.22947398200509031 -0.0088002145151058891 0 -0.24161885061771041 -0.026720350447010301 0 -0.2437457614006571 -0.011962382738850049 0 -0.24161885061771041 -0.026720350447010301 0 -0.2437457614006571 -0.011962382738850049 0 -0.2598032925822476 -0.0188915667982569 0 -0.22947398200509031 -0.0088002145151058891 0 -0.2437457614006571 -0.011962382738850049 0 -0.2401015516947359 0.00075261550232862703 0 -0.2437457614006571 -0.011962382738850049 0 -0.25267499080189931 -0.0034516002120552492 0 -0.2401015516947359 0.00075261550232862703 0 -0.25267499080189931 -0.0034516002120552492 0 -0.2598032925822476 -0.0188915667982569 0 -0.26909988492935111 -0.0018655285383734981 0 -0.2437457614006571 -0.011962382738850049 0 -0.25267499080189931 -0.0034516002120552492 0 -0.2598032925822476 -0.0188915667982569 0 -0.2598032925822476 -0.0188915667982569 0 -0.27267419604841259 -0.026924212746328481 0 -0.25766621977661042 -0.038842414379153638 0 -0.24161885061771041 -0.026720350447010301 0 -0.2598032925822476 -0.0188915667982569 0 -0.25766621977661042 -0.038842414379153638 0 -0.2598032925822476 -0.0188915667982569 0 -0.27267419604841259 -0.026924212746328481 0 -0.27804425228895369 -0.016131696666228459 0 -0.27267419604841259 -0.026924212746328481 0 -0.27804425228895369 -0.016131696666228459 0 -0.28378415359151371 -0.031280105512012511 0 -0.27804425228895369 -0.016131696666228459 0 -0.26909988492935111 -0.0018655285383734981 0 -0.2917254884257266 -0.0017566381736345419 0 -0.2598032925822476 -0.0188915667982569 0 -0.27804425228895369 -0.016131696666228459 0 -0.26909988492935111 -0.0018655285383734981 0 -0.27804425228895369 -0.016131696666228459 0 -0.2917254884257266 -0.0017566381736345419 0 -0.2928870998243559 -0.020527937726781 0 -0.27804425228895369 -0.016131696666228459 0 -0.2928870998243559 -0.020527937726781 0 -0.28378415359151371 -0.031280105512012511 0 -0.2928870998243559 -0.020527937726781 0 -0.29943422057661201 -0.032203920876667472 0 -0.28378415359151371 -0.031280105512012511 0 -0.2928870998243559 -0.020527937726781 0 -0.31144738423897378 -0.02126732740536201 0 -0.29943422057661201 -0.032203920876667472 0 -0.31144738423897378 -0.02126732740536201 0 -0.31110423911055801 -0.035316851109560482 0 -0.29943422057661201 -0.032203920876667472 0 -0.2917254884257266 -0.0017566381736345419 0 -0.31144738423897378 -0.02126732740536201 0 -0.31177688145040278 0.0050359958776742568 0 -0.2917254884257266 -0.0017566381736345419 0 -0.2928870998243559 -0.020527937726781 0 -0.31144738423897378 -0.02126732740536201 0 -0.2917254884257266 -0.0017566381736345419 0 -0.31144738423897378 -0.02126732740536201 0 -0.30323190850646392 -0.052883144282766713 0 -0.3023660715744253 -0.047018139519123002 0 -0.29757341552329353 -0.05219957266967655 0 -0.29931176789370939 -0.061629941742321552 0 -0.30659897303184058 -0.057135789817405573 0 -0.30728911182784302 -0.064893595009923935 0 -0.30323190850646392 -0.052883144282766713 0 -0.29931176789370939 -0.061629941742321552 0 -0.30659897303184058 -0.057135789817405573 0 -0.30323190850646392 -0.052883144282766713 0 -0.29757341552329353 -0.05219957266967655 0 -0.29931176789370939 -0.061629941742321552 0 -0.30659897303184058 -0.057135789817405573 0 -0.30728911182784302 -0.064893595009923935 0 -0.31405483352543062 -0.056831087900065053 0 -0.30323190850646392 -0.052883144282766713 0 -0.3023660715744253 -0.047018139519123002 0 -0.31025625293594222 -0.050033124508212908 0 -0.30659897303184058 -0.057135789817405573 0 -0.31025625293594222 -0.050033124508212908 0 -0.31405483352543062 -0.056831087900065053 0 -0.30323190850646392 -0.052883144282766713 0 -0.30659897303184058 -0.057135789817405573 0 -0.31025625293594222 -0.050033124508212908 0 -0.3023660715744253 -0.047018139519123002 0 -0.31110423911055801 -0.035316851109560482 0 -0.29943422057661201 -0.032203920876667472 0 -0.3023660715744253 -0.047018139519123002 0 -0.29943422057661201 -0.032203920876667472 0 -0.29166722635019171 -0.038853801873014321 0 -0.29943422057661201 -0.032203920876667472 0 -0.29166722635019171 -0.038853801873014321 0 -0.28378415359151371 -0.031280105512012511 0 -0.3023660715744253 -0.047018139519123002 0 -0.29166722635019171 -0.038853801873014321 0 -0.28390051605192418 -0.042754285685484159 0 -0.29166722635019171 -0.038853801873014321 0 -0.28378415359151371 -0.031280105512012511 0 -0.28390051605192418 -0.042754285685484159 0 -0.3023660715744253 -0.047018139519123002 0 -0.28390051605192418 -0.042754285685484159 0 -0.27356286309663053 -0.053258262401150697 0 -0.3023660715744253 -0.047018139519123002 0 -0.27356286309663053 -0.053258262401150697 0 -0.29757341552329353 -0.05219957266967655 0 -0.27356286309663053 -0.053258262401150697 0 -0.27532891164284878 -0.069285621960536392 0 -0.29757341552329353 -0.05219957266967655 0 -0.27532891164284878 -0.069285621960536392 0 -0.3023660715744253 -0.047018139519123002 0 -0.29757341552329353 -0.05219957266967655 0 -0.27356286309663053 -0.053258262401150697 0 -0.29757341552329353 -0.05219957266967655 0 -0.29931176789370939 -0.061629941742321552 0 -0.27532891164284878 -0.069285621960536392 0 -0.27267419604841259 -0.026924212746328481 0 -0.27375437843427658 -0.039043607324579933 0 -0.25766621977661042 -0.038842414379153638 0 -0.27356286309663053 -0.053258262401150697 0 -0.27375437843427658 -0.039043607324579933 0 -0.25766621977661042 -0.038842414379153638 0 -0.28378415359151371 -0.031280105512012511 0 -0.28390051605192418 -0.042754285685484159 0 -0.27375437843427658 -0.039043607324579933 0 -0.27267419604841259 -0.026924212746328481 0 -0.28378415359151371 -0.031280105512012511 0 -0.27375437843427658 -0.039043607324579933 0 -0.28390051605192418 -0.042754285685484159 0 -0.27356286309663053 -0.053258262401150697 0 -0.27375437843427658 -0.039043607324579933 0 -0.24475965461883589 -0.059498385283178377 0 -0.27356286309663053 -0.053258262401150697 0 -0.2582325144520296 -0.070050845257802419 0 -0.24475965461883589 -0.059498385283178377 0 -0.27356286309663053 -0.053258262401150697 0 -0.24475965461883589 -0.059498385283178377 0 -0.27356286309663053 -0.053258262401150697 0 -0.25766621977661042 -0.038842414379153638 0 -0.2582325144520296 -0.070050845257802419 0 -0.25308440776240432 -0.086371671251396109 0 -0.27532891164284878 -0.069285621960536392 0 -0.25308440776240432 -0.086371671251396109 0 -0.27532891164284878 -0.069285621960536392 0 -0.25308440776240432 -0.086371671251396109 0 -0.27361062541114611 -0.085405998149086934 0 -0.26907394573302829 -0.10103393024372311 0 -0.27361062541114611 -0.085405998149086934 0 -0.26907394573302829 -0.10103393024372311 0 -0.28494676303449051 -0.09097811142482605 0 -0.25308440776240432 -0.086371671251396109 0 -0.27361062541114611 -0.085405998149086934 0 -0.27532891164284878 -0.069285621960536392 0 -0.27356286309663053 -0.053258262401150697 0 -0.2582325144520296 -0.070050845257802419 0 -0.27532891164284878 -0.069285621960536392 0 -0.27361062541114611 -0.085405998149086934 0 -0.27532891164284878 -0.069285621960536392 0 -0.28561909888295839 -0.079360655864953042 0 -0.2432602079730701 -0.13485583854350039 0 -0.2499653418643101 -0.1102460646797562 0 -0.26490928006600228 -0.12397715003998409 0 -0.2499653418643101 -0.1102460646797562 0 -0.26490928006600228 -0.12397715003998409 0 -0.26907394573302829 -0.10103393024372311 0 -0.2499653418643101 -0.1102460646797562 0 -0.25308440776240432 -0.086371671251396109 0 -0.26907394573302829 -0.10103393024372311 0 -0.26907394573302829 -0.10103393024372311 0 -0.28789548083438649 -0.11161882002010511 0 -0.28494676303449051 -0.09097811142482605 0 -0.26490928006600228 -0.12397715003998409 0 -0.28789548083438649 -0.11161882002010511 0 -0.28428672055728371 -0.13281235115180859 0 -0.26490928006600228 -0.12397715003998409 0 -0.26907394573302829 -0.10103393024372311 0 -0.28789548083438649 -0.11161882002010511 0 -0.28789548083438649 -0.11161882002010511 0 -0.28428672055728371 -0.13281235115180859 0 -0.30877835781368662 -0.12931532841693749 0 -0.28789548083438649 -0.11161882002010511 0 -0.29765529442092259 -0.094840601490837839 0 -0.28494676303449051 -0.09097811142482605 0 -0.30761934067920371 -0.1042503242997595 0 -0.29765529442092259 -0.094840601490837839 0 -0.30832877355579341 -0.086934752854072747 0 -0.30761934067920371 -0.1042503242997595 0 -0.30832877355579341 -0.086934752854072747 0 -0.31968159473222052 -0.091584555267719248 0 -0.28789548083438649 -0.11161882002010511 0 -0.30761934067920371 -0.1042503242997595 0 -0.29765529442092259 -0.094840601490837839 0 -0.28789548083438649 -0.11161882002010511 0 -0.30761934067920371 -0.1042503242997595 0 -0.30877835781368662 -0.12931532841693749 0 -0.29931176789370939 -0.061629941742321552 0 -0.27532891164284878 -0.069285621960536392 0 -0.29568251685582603 -0.071589435967753134 0 -0.27532891164284878 -0.069285621960536392 0 -0.29568251685582603 -0.071589435967753134 0 -0.28561909888295839 -0.079360655864953042 0 -0.29568251685582603 -0.071589435967753134 0 -0.28561909888295839 -0.079360655864953042 0 -0.29849490204505058 -0.081938345925378783 0 -0.27361062541114611 -0.085405998149086934 0 -0.28561909888295839 -0.079360655864953042 0 -0.28494676303449051 -0.09097811142482605 0 -0.29765529442092259 -0.094840601490837839 0 -0.28494676303449051 -0.09097811142482605 0 -0.29849490204505058 -0.081938345925378783 0 -0.28561909888295839 -0.079360655864953042 0 -0.28494676303449051 -0.09097811142482605 0 -0.29849490204505058 -0.081938345925378783 0 -0.29849490204505058 -0.081938345925378783 0 -0.30832877355579341 -0.086934752854072747 0 -0.3066986514807607 -0.074546990101646726 0 -0.29765529442092259 -0.094840601490837839 0 -0.29849490204505058 -0.081938345925378783 0 -0.30832877355579341 -0.086934752854072747 0 -0.30832877355579341 -0.086934752854072747 0 -0.3066986514807607 -0.074546990101646726 0 -0.31636087034116728 -0.076704125898778439 0 -0.3066986514807607 -0.074546990101646726 0 -0.31411021802290889 -0.069356746280106005 0 -0.31636087034116728 -0.076704125898778439 0 -0.29568251685582603 -0.071589435967753134 0 -0.29849490204505058 -0.081938345925378783 0 -0.3066986514807607 -0.074546990101646726 0 -0.29568251685582603 -0.071589435967753134 0 -0.3066986514807607 -0.074546990101646726 0 -0.30728911182784302 -0.064893595009923935 0 -0.29931176789370939 -0.061629941742321552 0 -0.29568251685582603 -0.071589435967753134 0 -0.30728911182784302 -0.064893595009923935 0 -0.3066986514807607 -0.074546990101646726 0 -0.30728911182784302 -0.064893595009923935 0 -0.31411021802290889 -0.069356746280106005 0 -0.30728911182784302 -0.064893595009923935 0 -0.31630436981946819 -0.062936971351065629 0 -0.31411021802290889 -0.069356746280106005 0 -0.31630436981946819 -0.062936971351065629 0 -0.31411021802290889 -0.069356746280106005 0 -0.32389808664530562 -0.067702049039115322 0 -0.31630436981946819 -0.062936971351065629 0 -0.32389808664530562 -0.067702049039115322 0 -0.32481687078849097 -0.058022226865728103 0 -0.32389808664530562 -0.067702049039115322 0 -0.3259684841043719 -0.075020057435826168 0 -0.31636087034116728 -0.076704125898778439 0 -0.31411021802290889 -0.069356746280106005 0 -0.32389808664530562 -0.067702049039115322 0 -0.31636087034116728 -0.076704125898778439 0 -0.30832877355579341 -0.086934752854072747 0 -0.32608803180755441 -0.084321365842938284 0 -0.30832877355579341 -0.086934752854072747 0 -0.31968159473222052 -0.091584555267719248 0 -0.32608803180755441 -0.084321365842938284 0 -0.30832877355579341 -0.086934752854072747 0 -0.31636087034116728 -0.076704125898778439 0 -0.32608803180755441 -0.084321365842938284 0 -0.31968159473222052 -0.091584555267719248 0 -0.32608803180755441 -0.084321365842938284 0 -0.3259684841043719 -0.075020057435826168 0 -0.31636087034116728 -0.076704125898778439 0 -0.32608803180755441 -0.084321365842938284 0 -0.31968159473222052 -0.091584555267719248 0 -0.32608803180755441 -0.084321365842938284 0 -0.34030971713070318 -0.087052614945596102 0 -0.32608803180755441 -0.084321365842938284 0 -0.34030971713070318 -0.087052614945596102 0 -0.34745734249292459 -0.081176736816750444 0 -0.32608803180755441 -0.084321365842938284 0 -0.33752694762346008 -0.07135268896247253 0 -0.34745734249292459 -0.081176736816750444 0 -0.32608803180755441 -0.084321365842938284 0 -0.34745734249292459 -0.081176736816750444 0 -0.33752694762346008 -0.07135268896247253 0 -0.3489658634393657 -0.058384012082006782 0 -0.33645864726091979 -0.05858208772264157 0 -0.33752694762346008 -0.07135268896247253 0 -0.3489658634393657 -0.058384012082006782 0 -0.32389808664530562 -0.067702049039115322 0 -0.33752694762346008 -0.07135268896247253 0 -0.33645864726091979 -0.05858208772264157 0 -0.3259684841043719 -0.075020057435826168 0 -0.32608803180755441 -0.084321365842938284 0 -0.33752694762346008 -0.07135268896247253 0 -0.32608803180755441 -0.084321365842938284 0 -0.33752694762346008 -0.07135268896247253 0 -0.32389808664530562 -0.067702049039115322 0 -0.3259684841043719 -0.075020057435826168 0 -0.33752694762346008 -0.07135268896247253 0 -0.32454403747219479 -0.1081839716812668 0 -0.30877835781368662 -0.12931532841693749 0 -0.30761934067920371 -0.1042503242997595 0 -0.32454403747219479 -0.1081839716812668 0 -0.30877835781368662 -0.12931532841693749 0 -0.32454403747219479 -0.1081839716812668 0 -0.33570809008837621 -0.11845594114356341 0 -0.30877835781368662 -0.12931532841693749 0 -0.30761934067920371 -0.1042503242997595 0 -0.31968159473222052 -0.091584555267719248 0 -0.32454403747219479 -0.1081839716812668 0 -0.34030971713070318 -0.087052614945596102 0 -0.32454403747219479 -0.1081839716812668 0 -0.34278855512837281 -0.1049294584887832 0 -0.31968159473222052 -0.091584555267719248 0 -0.34030971713070318 -0.087052614945596102 0 -0.32454403747219479 -0.1081839716812668 0 -0.34030971713070318 -0.087052614945596102 0 -0.32454403747219479 -0.1081839716812668 0 -0.32454403747219479 -0.1081839716812668 0 -0.34278855512837281 -0.1049294584887832 0 -0.33570809008837621 -0.11845594114356341 0 -0.33570809008837621 -0.11845594114356341 0 -0.35404294059136687 -0.1217835462641018 0 -0.33688620478323589 -0.13358080389391511 0 -0.34278855512837281 -0.1049294584887832 0 -0.35404294059136687 -0.1217835462641018 0 -0.35932798989652742 -0.1047455147758234 0 -0.34278855512837281 -0.1049294584887832 0 -0.33570809008837621 -0.11845594114356341 0 -0.35404294059136687 -0.1217835462641018 0 -0.34278855512837281 -0.1049294584887832 0 -0.35932798989652742 -0.1047455147758234 0 -0.35079718399447979 -0.093651592615473511 0 -0.34030971713070318 -0.087052614945596102 0 -0.34278855512837281 -0.1049294584887832 0 -0.35079718399447979 -0.093651592615473511 0 -0.35932798989652742 -0.1047455147758234 0 -0.35079718399447979 -0.093651592615473511 0 -0.36132419909701757 -0.091459041133748031 0 -0.35932798989652742 -0.1047455147758234 0 -0.37367929427193591 -0.1014825750548952 0 -0.37212838853434238 -0.11808059788504249 0 -0.35932798989652742 -0.1047455147758234 0 -0.37367929427193591 -0.1014825750548952 0 -0.36132419909701757 -0.091459041133748031 0 -0.35404294059136687 -0.1217835462641018 0 -0.37212838853434238 -0.11808059788504249 0 -0.37028068739271691 -0.13083580994494901 0 -0.35404294059136687 -0.1217835462641018 0 -0.35932798989652742 -0.1047455147758234 0 -0.37212838853434238 -0.11808059788504249 0 -0.35069420168351129 -0.07223638641294812 0 -0.34745734249292459 -0.081176736816750444 0 -0.36882665317829499 -0.078032107790563188 0 -0.36882665317829499 -0.078032107790563188 0 -0.3489658634393657 -0.058384012082006782 0 -0.35069420168351129 -0.07223638641294812 0 -0.36882665317829499 -0.078032107790563188 0 -0.3489658634393657 -0.058384012082006782 0 -0.33752694762346008 -0.07135268896247253 0 -0.35069420168351129 -0.07223638641294812 0 -0.3489658634393657 -0.058384012082006782 0 -0.33752694762346008 -0.07135268896247253 0 -0.35069420168351129 -0.07223638641294812 0 -0.34745734249292459 -0.081176736816750444 0 -0.34745734249292459 -0.081176736816750444 0 -0.36882665317829499 -0.078032107790563188 0 -0.34745734249292459 -0.081176736816750444 0 -0.36132419909701757 -0.091459041133748031 0 -0.36882665317829499 -0.078032107790563188 0 -0.34030971713070318 -0.087052614945596102 0 -0.34745734249292459 -0.081176736816750444 0 -0.35079718399447979 -0.093651592615473511 0 -0.34745734249292459 -0.081176736816750444 0 -0.35079718399447979 -0.093651592615473511 0 -0.36132419909701757 -0.091459041133748031 0 -0.37367929427193591 -0.1014825750548952 0 -0.36132419909701757 -0.091459041133748031 0 -0.36882665317829499 -0.078032107790563188 0 -0.36882665317829499 -0.078032107790563188 0 -0.36862349457690058 -0.057461967220355487 0 -0.3489658634393657 -0.058384012082006782 0 -0.36882665317829499 -0.078032107790563188 0 -0.36862349457690058 -0.057461967220355487 0 -0.37947166312044489 -0.067272628224985004 0 -0.36862349457690058 -0.057461967220355487 0 -0.3489658634393657 -0.058384012082006782 0 -0.36066681755822472 -0.045118253717945672 0 -0.36862349457690058 -0.057461967220355487 0 -0.37355784227175309 -0.045246792894939887 0 -0.3815482533063424 -0.052412606119804542 0 -0.36862349457690058 -0.057461967220355487 0 -0.36066681755822472 -0.045118253717945672 0 -0.37355784227175309 -0.045246792894939887 0 -0.3489658634393657 -0.058384012082006782 0 -0.36066681755822472 -0.045118253717945672 0 -0.3489658634393657 -0.058384012082006782 0 -0.34511111307690212 -0.046137334811030092 0 -0.36066681755822472 -0.045118253717945672 0 -0.35304062521722218 -0.036039659744318157 0 -0.3553139768507978 -0.023567241021099371 0 -0.33371347875736079 -0.040226824134751989 0 -0.34511111307690212 -0.046137334811030092 0 -0.35304062521722218 -0.036039659744318157 0 -0.33371347875736079 -0.040226824134751989 0 -0.34511111307690212 -0.046137334811030092 0 -0.35304062521722218 -0.036039659744318157 0 -0.36066681755822472 -0.045118253717945672 0 -0.36066681755822472 -0.045118253717945672 0 -0.37236777167708351 -0.031852495353884333 0 -0.35304062521722218 -0.036039659744318157 0 -0.37236777167708351 -0.031852495353884333 0 -0.35304062521722218 -0.036039659744318157 0 -0.36066681755822472 -0.045118253717945672 0 -0.37236777167708351 -0.031852495353884333 0 -0.36066681755822472 -0.045118253717945672 0 -0.37355784227175309 -0.045246792894939887 0 -0.37236777167708351 -0.031852495353884333 0 -0.37236777167708351 -0.031852495353884333 0 -0.3739022591900184 -0.02415390189740213 0 -0.36770044175442279 -0.02036669541201027 0 -0.37236777167708351 -0.031852495353884333 0 -0.36770044175442279 -0.02036669541201027 0 -0.3553139768507978 -0.023567241021099371 0 -0.36770044175442279 -0.02036669541201027 0 -0.35847393927256738 -0.010652033510738681 0 -0.38297625517291389 -0.017448943304264108 0 -0.35304062521722218 -0.036039659744318157 0 -0.37236777167708351 -0.031852495353884333 0 -0.3553139768507978 -0.023567241021099371 0 -0.3739022591900184 -0.02415390189740213 0 -0.36770044175442279 -0.02036669541201027 0 -0.38297625517291389 -0.017448943304264108 0 -0.36770044175442279 -0.02036669541201027 0 -0.35847393927256738 -0.010652033510738681 0 -0.3553139768507978 -0.023567241021099371 0 -0.35847393927256738 -0.010652033510738681 0 -0.38297625517291389 -0.017448943304264108 0 -0.37278444596104371 -0.0079457960458173115 0 -0.35847393927256738 -0.010652033510738681 0 -0.38297625517291389 -0.017448943304264108 0 -0.37474494217865062 -0.0022388935110706832 0 -0.37278444596104371 -0.0079457960458173115 0 -0.36307869926690151 -0.00068504054922277494 0 -0.37278444596104371 -0.0079457960458173115 0 -0.36307869926690151 -0.00068504054922277494 0 -0.35847393927256738 -0.010652033510738681 0 -0.36307869926690151 -0.00068504054922277494 0 -0.34718119132474479 -0.01384164818341615 0 -0.36064890389212972 0.0125435277679194 0 -0.36307869926690151 -0.00068504054922277494 0 -0.35847393927256738 -0.010652033510738681 0 -0.34718119132474479 -0.01384164818341615 0 -0.34718119132474479 -0.01384164818341615 0 -0.36064890389212972 0.0125435277679194 0 -0.34718119132474479 -0.01384164818341615 0 -0.3553139768507978 -0.023567241021099371 0 -0.33371347875736079 -0.040226824134751989 0 -0.35847393927256738 -0.010652033510738681 0 -0.34718119132474479 -0.01384164818341615 0 -0.3553139768507978 -0.023567241021099371 0 -0.34718119132474479 -0.01384164818341615 0 -0.33035884889608558 -0.02420969997450095 0 -0.33371347875736079 -0.040226824134751989 0 -0.34718119132474479 -0.01384164818341615 0 -0.33371347875736079 -0.040226824134751989 0 -0.34718119132474479 -0.01384164818341615 0 -0.32828291010712762 -0.0049346835118845543 0 -0.34055428987364128 0.0059527955302196532 0 -0.34718119132474479 -0.01384164818341615 0 -0.33035884889608558 -0.02420969997450095 0 -0.32828291010712762 -0.0049346835118845543 0 -0.31144738423897378 -0.02126732740536201 0 -0.32828291010712762 -0.0049346835118845543 0 -0.31177688145040278 0.0050359958776742568 0 -0.31144738423897378 -0.02126732740536201 0 -0.33116928005221918 -0.040778016637091109 0 -0.31144738423897378 -0.02126732740536201 0 -0.33035884889608558 -0.02420969997450095 0 -0.32828291010712762 -0.0049346835118845543 0 -0.31144738423897378 -0.02126732740536201 0 -0.33035884889608558 -0.02420969997450095 0 -0.33116928005221918 -0.040778016637091109 0 -0.3023660715744253 -0.047018139519123002 0 -0.31110423911055801 -0.035316851109560482 0 -0.33116928005221918 -0.040778016637091109 0 -0.3023660715744253 -0.047018139519123002 0 -0.31025625293594222 -0.050033124508212908 0 -0.33116928005221918 -0.040778016637091109 0 -0.3023660715744253 -0.047018139519123002 0 -0.33116928005221918 -0.040778016637091109 0 -0.31144738423897378 -0.02126732740536201 0 -0.31110423911055801 -0.035316851109560482 0 -0.33116928005221918 -0.040778016637091109 0 -0.31025625293594222 -0.050033124508212908 0 -0.31770057673851387 -0.05020147555903863 0 -0.33116928005221918 -0.040778016637091109 0 -0.31025625293594222 -0.050033124508212908 0 -0.31770057673851387 -0.05020147555903863 0 -0.31405483352543062 -0.056831087900065053 0 -0.31770057673851387 -0.05020147555903863 0 -0.31405483352543062 -0.056831087900065053 0 -0.31936567051967829 -0.054711673150449433 0 -0.31630436981946819 -0.062936971351065629 0 -0.31936567051967829 -0.054711673150449433 0 -0.32481687078849097 -0.058022226865728103 0 -0.30728911182784302 -0.064893595009923935 0 -0.31630436981946819 -0.062936971351065629 0 -0.31405483352543062 -0.056831087900065053 0 -0.31630436981946819 -0.062936971351065629 0 -0.31405483352543062 -0.056831087900065053 0 -0.31936567051967829 -0.054711673150449433 0 -0.31770057673851387 -0.05020147555903863 0 -0.32448711316898249 -0.050622394842538963 0 -0.33116928005221918 -0.040778016637091109 0 -0.31936567051967829 -0.054711673150449433 0 -0.32481687078849097 -0.058022226865728103 0 -0.32448711316898249 -0.050622394842538963 0 -0.31770057673851387 -0.05020147555903863 0 -0.31936567051967829 -0.054711673150449433 0 -0.32448711316898249 -0.050622394842538963 0 -0.32481687078849097 -0.058022226865728103 0 -0.32770904195502032 -0.053173566283506987 0 -0.32448711316898249 -0.050622394842538963 0 -0.32770904195502032 -0.053173566283506987 0 -0.32448711316898249 -0.050622394842538963 0 -0.32972533979495861 -0.048040159006195682 0 -0.3489658634393657 -0.058384012082006782 0 -0.34511111307690212 -0.046137334811030092 0 -0.3326728772282519 -0.042265511425067279 0 -0.32972533979495861 -0.048040159006195682 0 -0.33645864726091979 -0.05858208772264157 0 -0.3326728772282519 -0.042265511425067279 0 -0.3489658634393657 -0.058384012082006782 0 -0.3326728772282519 -0.042265511425067279 0 -0.32770904195502032 -0.053173566283506987 0 -0.32972533979495861 -0.048040159006195682 0 -0.33645864726091979 -0.05858208772264157 0 -0.3489658634393657 -0.058384012082006782 0 -0.33645864726091979 -0.05858208772264157 0 -0.3326728772282519 -0.042265511425067279 0 -0.32389808664530562 -0.067702049039115322 0 -0.32481687078849097 -0.058022226865728103 0 -0.33645864726091979 -0.05858208772264157 0 -0.32481687078849097 -0.058022226865728103 0 -0.32770904195502032 -0.053173566283506987 0 -0.33645864726091979 -0.05858208772264157 0 -0.34511111307690212 -0.046137334811030092 0 -0.33371347875736079 -0.040226824134751989 0 -0.3326728772282519 -0.042265511425067279 0 -0.33035884889608558 -0.02420969997450095 0 -0.33116928005221918 -0.040778016637091109 0 -0.33371347875736079 -0.040226824134751989 0 -0.35304062521722218 -0.036039659744318157 0 -0.33371347875736079 -0.040226824134751989 0 -0.32448711316898249 -0.050622394842538963 0 -0.32972533979495861 -0.048040159006195682 0 -0.33116928005221918 -0.040778016637091109 0 -0.33116928005221918 -0.040778016637091109 0 -0.3326728772282519 -0.042265511425067279 0 -0.32972533979495861 -0.048040159006195682 0 -0.3326728772282519 -0.042265511425067279 0 -0.32972533979495861 -0.048040159006195682 0 -0.33116928005221918 -0.040778016637091109 0 -0.3326728772282519 -0.042265511425067279 0 -0.33116928005221918 -0.040778016637091109 0 -0.33371347875736079 -0.040226824134751989 0 -0.33116928005221918 -0.040778016637091109 0 -0.33371347875736079 -0.040226824134751989 0 -0.3326728772282519 -0.042265511425067279 0 -0.33371347875736079 -0.040226824134751989 0 -0.3326728772282519 -0.042265511425067279 0 -0.2907170577323625 -0.25177677077710309 0 -0.30853150187083839 -0.25429835417001312 0 -0.30748271917561598 -0.2431056607245809 0 -0.30748271917561598 -0.2431056607245809 0 -0.3004866401015065 -0.2269264896544945 0 -0.32066485276457768 -0.2334308190911655 0 -0.2907170577323625 -0.25177677077710309 0 -0.30748271917561598 -0.2431056607245809 0 -0.3004866401015065 -0.2269264896544945 0 -0.30853150187083839 -0.25429835417001312 0 -0.30748271917561598 -0.2431056607245809 0 -0.32023222063025569 -0.2489608815952247 0 -0.3004866401015065 -0.2269264896544945 0 -0.27575903677895092 -0.22208668823385669 0 -0.3004866401015065 -0.2269264896544945 0 -0.27309361240676189 -0.24179026653703889 0 -0.27575903677895092 -0.22208668823385669 0 -0.3004866401015065 -0.2269264896544945 0 -0.27575903677895092 -0.22208668823385669 0 -0.29482007196541532 -0.2089319155152673 0 -0.2907170577323625 -0.25177677077710309 0 -0.3004866401015065 -0.2269264896544945 0 -0.27309361240676189 -0.24179026653703889 0 -0.27309361240676189 -0.24179026653703889 0 -0.25431856302814809 -0.24833495949118861 0 -0.25103143345639523 -0.21724688681321891 0 -0.27575903677895092 -0.22208668823385669 0 -0.25103143345639523 -0.21724688681321891 0 -0.27309361240676189 -0.24179026653703889 0 -0.27575903677895092 -0.22208668823385669 0 -0.25103143345639523 -0.21724688681321891 0 -0.27575903677895092 -0.22208668823385669 0 -0.25103143345639523 -0.21724688681321891 0 -0.27708552823660842 -0.19790031786117671 0 -0.25103143345639523 -0.21724688681321891 0 -0.25418198431724581 -0.18809916394242601 0 -0.27708552823660842 -0.19790031786117671 0 -0.27708552823660842 -0.19790031786117671 0 -0.29482007196541532 -0.2089319155152673 0 -0.30195969341908391 -0.19078830755985379 0 -0.29482007196541532 -0.2089319155152673 0 -0.30195969341908391 -0.19078830755985379 0 -0.32674672588845421 -0.2120308859258328 0 -0.3004866401015065 -0.2269264896544945 0 -0.29482007196541532 -0.2089319155152673 0 -0.32674672588845421 -0.2120308859258328 0 -0.27575903677895092 -0.22208668823385669 0 -0.27708552823660842 -0.19790031786117671 0 -0.29482007196541532 -0.2089319155152673 0 -0.30195969341908391 -0.19078830755985379 0 -0.30674796742087651 -0.1684647150882764 0 -0.32123008678095788 -0.18729232698745699 0 -0.30674796742087651 -0.1684647150882764 0 -0.2930126781551784 -0.15044668515260809 0 -0.3206808779707625 -0.15110047818677941 0 -0.27724699849667023 -0.17157804188827869 0 -0.2930126781551784 -0.15044668515260809 0 -0.30674796742087651 -0.1684647150882764 0 -0.27724699849667023 -0.17157804188827869 0 -0.2930126781551784 -0.15044668515260809 0 -0.27708552823660842 -0.19790031786117671 0 -0.30195969341908391 -0.19078830755985379 0 -0.27724699849667023 -0.17157804188827869 0 -0.30195969341908391 -0.19078830755985379 0 -0.30674796742087651 -0.1684647150882764 0 -0.27724699849667023 -0.17157804188827869 0 -0.25418198431724581 -0.18809916394242601 0 -0.27708552823660842 -0.19790031786117671 0 -0.27724699849667023 -0.17157804188827869 0 -0.25418198431724581 -0.18809916394242601 0 -0.2565438833259911 -0.1687602707777138 0 -0.27724699849667023 -0.17157804188827869 0 -0.2435592126657353 -0.1561425335328199 0 -0.2565438833259911 -0.1687602707777138 0 -0.26683780591716472 -0.14870377212940841 0 -0.27724699849667023 -0.17157804188827869 0 -0.26683780591716472 -0.14870377212940841 0 -0.2930126781551784 -0.15044668515260809 0 -0.2565438833259911 -0.1687602707777138 0 -0.27724699849667023 -0.17157804188827869 0 -0.26683780591716472 -0.14870377212940841 0 -0.2435592126657353 -0.1561425335328199 0 -0.2432602079730701 -0.13485583854350039 0 -0.26683780591716472 -0.14870377212940841 0 -0.2432602079730701 -0.13485583854350039 0 -0.26490928006600228 -0.12397715003998409 0 -0.26683780591716472 -0.14870377212940841 0 -0.26490928006600228 -0.12397715003998409 0 -0.26683780591716472 -0.14870377212940841 0 -0.28428672055728371 -0.13281235115180859 0 -0.28428672055728371 -0.13281235115180859 0 -0.2930126781551784 -0.15044668515260809 0 -0.30877835781368662 -0.12931532841693749 0 -0.26683780591716472 -0.14870377212940841 0 -0.28428672055728371 -0.13281235115180859 0 -0.2930126781551784 -0.15044668515260809 0 -0.2930126781551784 -0.15044668515260809 0 -0.30877835781368662 -0.12931532841693749 0 -0.3206808779707625 -0.15110047818677941 0 -0.2930126781551784 -0.15044668515260809 0 -0.30877835781368662 -0.12931532841693749 0 -0.33570809008837621 -0.11845594114356341 0 -0.30877835781368662 -0.12931532841693749 0 -0.33688620478323589 -0.13358080389391511 0 -0.30877835781368662 -0.12931532841693749 0 -0.3206808779707625 -0.15110047818677941 0 -0.33688620478323589 -0.13358080389391511 0 -0.3206808779707625 -0.15110047818677941 0 -0.33688620478323589 -0.13358080389391511 0 -0.34399943231138669 -0.15408109000358611 0 -0.33688620478323589 -0.13358080389391511 0 -0.35929992868189681 -0.1386942596847188 0 -0.35404294059136687 -0.1217835462641018 0 -0.33688620478323589 -0.13358080389391511 0 -0.35929992868189681 -0.1386942596847188 0 -0.35404294059136687 -0.1217835462641018 0 -0.35929992868189681 -0.1386942596847188 0 -0.37028068739271691 -0.13083580994494901 0 -0.35929992868189681 -0.1386942596847188 0 -0.37028068739271691 -0.13083580994494901 0 -0.3804539816512269 -0.14482329966991631 0 -0.35929992868189681 -0.1386942596847188 0 -0.3804539816512269 -0.14482329966991631 0 -0.35929992868189681 -0.1386942596847188 0 -0.3655172116091886 -0.15688196674787641 0 -0.3804539816512269 -0.14482329966991631 0 -0.3655172116091886 -0.15688196674787641 0 -0.3804539816512269 -0.14482329966991631 0 -0.3655172116091886 -0.15688196674787641 0 -0.37839901512320262 -0.15996290040625341 0 -0.3804539816512269 -0.14482329966991631 0 -0.33688620478323589 -0.13358080389391511 0 -0.35929992868189681 -0.1386942596847188 0 -0.34399943231138669 -0.15408109000358611 0 -0.35929992868189681 -0.1386942596847188 0 -0.34399943231138669 -0.15408109000358611 0 -0.3655172116091886 -0.15688196674787641 0 -0.34399943231138669 -0.15408109000358611 0 -0.35323542112630057 -0.1671812377988513 0 -0.3655172116091886 -0.15688196674787641 0 -0.3655172116091886 -0.15688196674787641 0 -0.37378547386561772 -0.17392500984250869 0 -0.37839901512320262 -0.15996290040625341 0 -0.35323542112630057 -0.1671812377988513 0 -0.3655172116091886 -0.15688196674787641 0 -0.37378547386561772 -0.17392500984250869 0 -0.37378547386561772 -0.17392500984250869 0 -0.35240556330307887 -0.18479875362473361 0 -0.36895563931783232 -0.19259611207654981 0 -0.35323542112630057 -0.1671812377988513 0 -0.37378547386561772 -0.17392500984250869 0 -0.35240556330307887 -0.18479875362473361 0 -0.35323542112630057 -0.1671812377988513 0 -0.35240556330307887 -0.18479875362473361 0 -0.33400288196205857 -0.17193246321376471 0 -0.35240556330307887 -0.18479875362473361 0 -0.33400288196205857 -0.17193246321376471 0 -0.33669316521431608 -0.19324526314955739 0 -0.33400288196205857 -0.17193246321376471 0 -0.32123008678095788 -0.18729232698745699 0 -0.33669316521431608 -0.19324526314955739 0 -0.3206808779707625 -0.15110047818677941 0 -0.34399943231138669 -0.15408109000358611 0 -0.33400288196205857 -0.17193246321376471 0 -0.34399943231138669 -0.15408109000358611 0 -0.35323542112630057 -0.1671812377988513 0 -0.33400288196205857 -0.17193246321376471 0 -0.30674796742087651 -0.1684647150882764 0 -0.3206808779707625 -0.15110047818677941 0 -0.33400288196205857 -0.17193246321376471 0 -0.30674796742087651 -0.1684647150882764 0 -0.33400288196205857 -0.17193246321376471 0 -0.32123008678095788 -0.18729232698745699 0 -0.30195969341908391 -0.19078830755985379 0 -0.32123008678095788 -0.18729232698745699 0 -0.32674672588845421 -0.2120308859258328 0 -0.32674672588845421 -0.2120308859258328 0 -0.35024140450074381 -0.20994798342056251 0 -0.32674672588845421 -0.2120308859258328 0 -0.33669316521431608 -0.19324526314955739 0 -0.35024140450074381 -0.20994798342056251 0 -0.32674672588845421 -0.2120308859258328 0 -0.35024140450074381 -0.20994798342056251 0 -0.3377174746324717 -0.2284461722996495 0 -0.32123008678095788 -0.18729232698745699 0 -0.32674672588845421 -0.2120308859258328 0 -0.33669316521431608 -0.19324526314955739 0 -0.35240556330307887 -0.18479875362473361 0 -0.36895563931783232 -0.19259611207654981 0 -0.35024140450074381 -0.20994798342056251 0 -0.35240556330307887 -0.18479875362473361 0 -0.33669316521431608 -0.19324526314955739 0 -0.35024140450074381 -0.20994798342056251 0 -0.36895563931783232 -0.19259611207654981 0 -0.37373608311303341 -0.20786508091529229 0 -0.35024140450074381 -0.20994798342056251 0 -0.37373608311303341 -0.20786508091529229 0 -0.35024140450074381 -0.20994798342056251 0 -0.37373608311303341 -0.20786508091529229 0 -0.35024140450074381 -0.20994798342056251 0 -0.36602803805366552 -0.21914337572849349 0 -0.37373608311303341 -0.20786508091529229 0 -0.36602803805366552 -0.21914337572849349 0 -0.37785639846487218 -0.21906994256996459 0 -0.35024140450074381 -0.20994798342056251 0 -0.357966965356528 -0.23170644806675769 0 -0.3377174746324717 -0.2284461722996495 0 -0.35024140450074381 -0.20994798342056251 0 -0.357966965356528 -0.23170644806675769 0 -0.36602803805366552 -0.21914337572849349 0 -0.357966965356528 -0.23170644806675769 0 -0.36602803805366552 -0.21914337572849349 0 -0.36983275924353248 -0.22875232439276311 0 -0.36602803805366552 -0.21914337572849349 0 -0.36983275924353248 -0.22875232439276311 0 -0.37785639846487218 -0.21906994256996459 0 -0.357966965356528 -0.23170644806675769 0 -0.36983275924353248 -0.22875232439276311 0 -0.37747963509906429 -0.24508953120583671 0 -0.35872453044413888 -0.25078889886649508 0 -0.357966965356528 -0.23170644806675769 0 -0.37747963509906429 -0.24508953120583671 0 -0.357966965356528 -0.23170644806675769 0 -0.34395992200845399 -0.24382677409400949 0 -0.3377174746324717 -0.2284461722996495 0 -0.35872453044413888 -0.25078889886649508 0 -0.357966965356528 -0.23170644806675769 0 -0.34395992200845399 -0.24382677409400949 0 -0.33345250408021371 -0.25331871279766999 0 -0.34395992200845399 -0.24382677409400949 0 -0.33132333615916232 -0.2411148243472106 0 -0.33345250408021371 -0.25331871279766999 0 -0.33132333615916232 -0.2411148243472106 0 -0.32023222063025569 -0.2489608815952247 0 -0.34395992200845399 -0.24382677409400949 0 -0.33132333615916232 -0.2411148243472106 0 -0.3377174746324717 -0.2284461722996495 0 -0.32674672588845421 -0.2120308859258328 0 -0.3377174746324717 -0.2284461722996495 0 -0.32066485276457768 -0.2334308190911655 0 -0.33132333615916232 -0.2411148243472106 0 -0.3377174746324717 -0.2284461722996495 0 -0.32066485276457768 -0.2334308190911655 0 -0.3004866401015065 -0.2269264896544945 0 -0.32674672588845421 -0.2120308859258328 0 -0.32066485276457768 -0.2334308190911655 0 -0.30748271917561598 -0.2431056607245809 0 -0.32066485276457768 -0.2334308190911655 0 -0.32023222063025569 -0.2489608815952247 0 -0.33132333615916232 -0.2411148243472106 0 -0.32066485276457768 -0.2334308190911655 0 -0.32023222063025569 -0.2489608815952247 0 -0.43445882011373449 -0.25478651907497341 0 -0.43806130733353449 -0.23541812032183559 0 -0.43445882011373449 -0.25478651907497341 0 -0.4258852610480256 -0.24284815888716721 0 -0.43806130733353449 -0.23541812032183559 0 -0.4258852610480256 -0.24284815888716721 0 -0.42538833238501789 -0.2333934851751748 0 -0.41698539980062188 -0.23875950084572559 0 -0.43445882011373449 -0.25478651907497341 0 -0.4258852610480256 -0.24284815888716721 0 -0.42335340856967768 -0.24893549408922019 0 -0.4258852610480256 -0.24284815888716721 0 -0.42538833238501789 -0.2333934851751748 0 -0.43806130733353449 -0.23541812032183559 0 -0.43091611572645672 -0.22699763907763329 0 -0.42538833238501789 -0.2333934851751748 0 -0.43806130733353449 -0.23541812032183559 0 -0.43091611572645672 -0.22699763907763329 0 -0.44166379455333399 -0.21604972156869759 0 -0.43806130733353449 -0.23541812032183559 0 -0.43091611572645672 -0.22699763907763329 0 -0.43133498143110582 -0.21921018883561361 0 -0.44166379455333399 -0.21604972156869759 0 -0.43133498143110582 -0.21921018883561361 0 -0.4232485836513401 -0.22477446532261011 0 -0.4232102070061276 -0.21869015764887889 0 -0.43091611572645672 -0.22699763907763329 0 -0.43133498143110582 -0.21921018883561361 0 -0.4232485836513401 -0.22477446532261011 0 -0.43091611572645672 -0.22699763907763329 0 -0.4232485836513401 -0.22477446532261011 0 -0.42538833238501789 -0.2333934851751748 0 -0.4232485836513401 -0.22477446532261011 0 -0.42538833238501789 -0.2333934851751748 0 -0.41731365953457839 -0.2310953018814938 0 -0.4232485836513401 -0.22477446532261011 0 -0.41731365953457839 -0.2310953018814938 0 -0.4121948509493269 -0.2247325638453028 0 -0.41731365953457839 -0.2310953018814938 0 -0.4080561583250083 -0.23272886934204159 0 -0.41698539980062188 -0.23875950084572559 0 -0.4232485836513401 -0.22477446532261011 0 -0.4121948509493269 -0.2247325638453028 0 -0.41685681033243982 -0.21746512418924929 0 -0.4232485836513401 -0.22477446532261011 0 -0.41685681033243982 -0.21746512418924929 0 -0.4232102070061276 -0.21869015764887889 0 -0.4121948509493269 -0.2247325638453028 0 -0.4080561583250083 -0.23272886934204159 0 -0.39971520205611372 -0.2221352637332015 0 -0.4121948509493269 -0.2247325638453028 0 -0.40807454407470489 -0.21592977391801271 0 -0.41685681033243982 -0.21746512418924929 0 -0.4121948509493269 -0.2247325638453028 0 -0.39971520205611372 -0.2221352637332015 0 -0.40807454407470489 -0.21592977391801271 0 -0.41731365953457839 -0.2310953018814938 0 -0.4121948509493269 -0.2247325638453028 0 -0.4080561583250083 -0.23272886934204159 0 -0.4080561583250083 -0.23272886934204159 0 -0.40983148527785651 -0.24118391776602099 0 -0.41698539980062188 -0.23875950084572559 0 -0.42538833238501789 -0.2333934851751748 0 -0.41731365953457839 -0.2310953018814938 0 -0.41698539980062188 -0.23875950084572559 0 -0.40983148527785651 -0.24118391776602099 0 -0.41698539980062188 -0.23875950084572559 0 -0.41627810448972868 -0.24641300060905449 0 -0.4258852610480256 -0.24284815888716721 0 -0.42335340856967768 -0.24893549408922019 0 -0.41627810448972868 -0.24641300060905449 0 -0.4258852610480256 -0.24284815888716721 0 -0.41698539980062188 -0.23875950084572559 0 -0.41627810448972868 -0.24641300060905449 0 -0.41679144862722167 -0.25169429778568547 0 -0.42335340856967768 -0.24893549408922019 0 -0.41627810448972868 -0.24641300060905449 0 -0.41385673751816382 -0.25312989710486528 0 -0.41627810448972868 -0.24641300060905449 0 -0.4086566941719203 -0.24778871483445111 0 -0.40983148527785651 -0.24118391776602099 0 -0.41627810448972868 -0.24641300060905449 0 -0.4086566941719203 -0.24778871483445111 0 -0.40282532782868952 -0.25224285689579767 0 -0.4086566941719203 -0.24778871483445111 0 -0.40022281387448849 -0.24084313907701979 0 -0.40983148527785651 -0.24118391776602099 0 -0.4086566941719203 -0.24778871483445111 0 -0.40022281387448849 -0.24084313907701979 0 -0.4080561583250083 -0.23272886934204159 0 -0.40983148527785651 -0.24118391776602099 0 -0.40022281387448849 -0.24084313907701979 0 -0.40022281387448849 -0.24084313907701979 0 -0.3903832871219331 -0.2411545733314838 0 -0.38772777019650018 -0.2315142496456449 0 -0.3938256931015453 -0.25037754026629511 0 -0.40022281387448849 -0.24084313907701979 0 -0.3903832871219331 -0.2411545733314838 0 -0.3938256931015453 -0.25037754026629511 0 -0.3903832871219331 -0.2411545733314838 0 -0.37747963509906429 -0.24508953120583671 0 -0.3903832871219331 -0.2411545733314838 0 -0.37747963509906429 -0.24508953120583671 0 -0.38772777019650018 -0.2315142496456449 0 -0.37747963509906429 -0.24508953120583671 0 -0.37785639846487218 -0.21906994256996459 0 -0.37747963509906429 -0.24508953120583671 0 -0.37785639846487218 -0.21906994256996459 0 -0.38772777019650018 -0.2315142496456449 0 -0.36983275924353248 -0.22875232439276311 0 -0.37747963509906429 -0.24508953120583671 0 -0.37785639846487218 -0.21906994256996459 0 -0.37785639846487218 -0.21906994256996459 0 -0.38772777019650018 -0.2315142496456449 0 -0.38790285805175961 -0.2167146319195192 0 -0.4080561583250083 -0.23272886934204159 0 -0.40022281387448849 -0.24084313907701979 0 -0.39971520205611372 -0.2221352637332015 0 -0.40022281387448849 -0.24084313907701979 0 -0.39971520205611372 -0.2221352637332015 0 -0.38772777019650018 -0.2315142496456449 0 -0.39971520205611372 -0.2221352637332015 0 -0.38790285805175961 -0.2167146319195192 0 -0.40022281387448849 -0.24084313907701979 0 -0.38772777019650018 -0.2315142496456449 0 -0.39971520205611372 -0.2221352637332015 0 -0.39971520205611372 -0.2221352637332015 0 -0.39723076172532301 -0.205782178410022 0 -0.40807454407470489 -0.21592977391801271 0 -0.39971520205611372 -0.2221352637332015 0 -0.39723076172532301 -0.205782178410022 0 -0.38790285805175961 -0.2167146319195192 0 -0.39723076172532301 -0.205782178410022 0 -0.41303892827123678 -0.21093405469715851 0 -0.40807454407470489 -0.21592977391801271 0 -0.37373608311303341 -0.20786508091529229 0 -0.39723076172532301 -0.205782178410022 0 -0.38370630256805799 -0.1971119561512929 0 -0.37373608311303341 -0.20786508091529229 0 -0.39723076172532301 -0.205782178410022 0 -0.38790285805175961 -0.2167146319195192 0 -0.37373608311303341 -0.20786508091529229 0 -0.39723076172532301 -0.205782178410022 0 -0.37373608311303341 -0.20786508091529229 0 -0.37785639846487218 -0.21906994256996459 0 -0.38790285805175961 -0.2167146319195192 0 -0.36895563931783232 -0.19259611207654981 0 -0.38370630256805799 -0.1971119561512929 0 -0.3831693110633177 -0.1873742460103984 0 -0.36895563931783232 -0.19259611207654981 0 -0.37373608311303341 -0.20786508091529229 0 -0.38370630256805799 -0.1971119561512929 0 -0.38370630256805799 -0.1971119561512929 0 -0.39543971762078378 -0.19194216334420211 0 -0.3831693110633177 -0.1873742460103984 0 -0.39723076172532301 -0.205782178410022 0 -0.38370630256805799 -0.1971119561512929 0 -0.39543971762078378 -0.19194216334420211 0 -0.39723076172532301 -0.205782178410022 0 -0.39543971762078378 -0.19194216334420211 0 -0.40534117689708921 -0.19634387975323889 0 -0.39543971762078378 -0.19194216334420211 0 -0.40534117689708921 -0.19634387975323889 0 -0.40730162077548249 -0.18407395049314179 0 -0.39723076172532301 -0.205782178410022 0 -0.40534117689708921 -0.19634387975323889 0 -0.42072544033761272 -0.20369927590475301 0 -0.42032122747045741 -0.1927313373696285 0 -0.42072544033761272 -0.20369927590475301 0 -0.40730162077548249 -0.18407395049314179 0 -0.42072544033761272 -0.20369927590475301 0 -0.40730162077548249 -0.18407395049314179 0 -0.40534117689708921 -0.19634387975323889 0 -0.42072544033761272 -0.20369927590475301 0 -0.40730162077548249 -0.18407395049314179 0 -0.39723076172532301 -0.205782178410022 0 -0.41303892827123678 -0.21093405469715851 0 -0.42072544033761272 -0.20369927590475301 0 -0.39723076172532301 -0.205782178410022 0 -0.42072544033761272 -0.20369927590475301 0 -0.41303892827123678 -0.21093405469715851 0 -0.40807454407470489 -0.21592977391801271 0 -0.41685681033243982 -0.21746512418924929 0 -0.41303892827123678 -0.21093405469715851 0 -0.41685681033243982 -0.21746512418924929 0 -0.42140045260962489 -0.21331085224804261 0 -0.41685681033243982 -0.21746512418924929 0 -0.42140045260962489 -0.21331085224804261 0 -0.4232102070061276 -0.21869015764887889 0 -0.41303892827123678 -0.21093405469715851 0 -0.42140045260962489 -0.21331085224804261 0 -0.42072544033761272 -0.20369927590475301 0 -0.42512182626149492 -0.2033095177213731 0 -0.43378961613155448 -0.20908682079381441 0 -0.44184138868315109 -0.20247798044170351 0 -0.42072544033761272 -0.20369927590475301 0 -0.42512182626149492 -0.2033095177213731 0 -0.43133498143110582 -0.21921018883561361 0 -0.42072544033761272 -0.20369927590475301 0 -0.42512182626149492 -0.2033095177213731 0 -0.43133498143110582 -0.21921018883561361 0 -0.42512182626149492 -0.2033095177213731 0 -0.43378961613155448 -0.20908682079381441 0 -0.43133498143110582 -0.21921018883561361 0 -0.42140045260962489 -0.21331085224804261 0 -0.4232102070061276 -0.21869015764887889 0 -0.43133498143110582 -0.21921018883561361 0 -0.42072544033761272 -0.20369927590475301 0 -0.43133498143110582 -0.21921018883561361 0 -0.42140045260962489 -0.21331085224804261 0 -0.42072544033761272 -0.20369927590475301 0 -0.43133498143110582 -0.21921018883561361 0 -0.43378961613155448 -0.20908682079381441 0 -0.44166379455333399 -0.21604972156869759 0 -0.42032122747045741 -0.1927313373696285 0 -0.44184138868315109 -0.20247798044170351 0 -0.42032122747045741 -0.1927313373696285 0 -0.43099962817645188 -0.18319011649723049 0 -0.43833565968517207 -0.19112957676178299 0 -0.42032122747045741 -0.1927313373696285 0 -0.42512182626149492 -0.2033095177213731 0 -0.44184138868315109 -0.20247798044170351 0 -0.42032122747045741 -0.1927313373696285 0 -0.43833565968517207 -0.19112957676178299 0 -0.44184138868315109 -0.20247798044170351 0 -0.42032122747045741 -0.1927313373696285 0 -0.42072544033761272 -0.20369927590475301 0 -0.42512182626149492 -0.2033095177213731 0 -0.42549584187692119 -0.17333418479170171 0 -0.43099962817645188 -0.18319011649723049 0 -0.41834400919125792 -0.18158621355319651 0 -0.42032122747045741 -0.1927313373696285 0 -0.43099962817645188 -0.18319011649723049 0 -0.41834400919125792 -0.18158621355319651 0 -0.43099962817645188 -0.18319011649723049 0 -0.43495901877196291 -0.17485617288990979 0 -0.44455133712372419 -0.18300714728765441 0 -0.42549584187692119 -0.17333418479170171 0 -0.43099962817645188 -0.18319011649723049 0 -0.43495901877196291 -0.17485617288990979 0 -0.42549584187692119 -0.17333418479170171 0 -0.43495901877196291 -0.17485617288990979 0 -0.43155613508544272 -0.1669321437644439 0 -0.43495901877196291 -0.17485617288990979 0 -0.43155613508544272 -0.1669321437644439 0 -0.44219215159727421 -0.16781727210851849 0 -0.43155613508544272 -0.1669321437644439 0 -0.43166640735559808 -0.1552039120346444 0 -0.44219215159727421 -0.16781727210851849 0 -0.43155613508544272 -0.1669321437644439 0 -0.4214232379976206 -0.16216052115063159 0 -0.43166640735559808 -0.1552039120346444 0 -0.42549584187692119 -0.17333418479170171 0 -0.43155613508544272 -0.1669321437644439 0 -0.4214232379976206 -0.16216052115063159 0 -0.42549584187692119 -0.17333418479170171 0 -0.4214232379976206 -0.16216052115063159 0 -0.41110577652129249 -0.1670682470007229 0 -0.4214232379976206 -0.16216052115063159 0 -0.41110577652129249 -0.1670682470007229 0 -0.40669002996807779 -0.1495058137550834 0 -0.41110577652129249 -0.1670682470007229 0 -0.41834400919125792 -0.18158621355319651 0 -0.40730162077548249 -0.18407395049314179 0 -0.42549584187692119 -0.17333418479170171 0 -0.41110577652129249 -0.1670682470007229 0 -0.41834400919125792 -0.18158621355319651 0 -0.42032122747045741 -0.1927313373696285 0 -0.41834400919125792 -0.18158621355319651 0 -0.40730162077548249 -0.18407395049314179 0 -0.39543971762078378 -0.19194216334420211 0 -0.40730162077548249 -0.18407395049314179 0 -0.39267839793348491 -0.17927693187167279 0 -0.40730162077548249 -0.18407395049314179 0 -0.39267839793348491 -0.17927693187167279 0 -0.39387780121335469 -0.16444862508152899 0 -0.40730162077548249 -0.18407395049314179 0 -0.39387780121335469 -0.16444862508152899 0 -0.37378547386561772 -0.17392500984250869 0 -0.36895563931783232 -0.19259611207654981 0 -0.3831693110633177 -0.1873742460103984 0 -0.37378547386561772 -0.17392500984250869 0 -0.39267839793348491 -0.17927693187167279 0 -0.3831693110633177 -0.1873742460103984 0 -0.37378547386561772 -0.17392500984250869 0 -0.39267839793348491 -0.17927693187167279 0 -0.39387780121335469 -0.16444862508152899 0 -0.39543971762078378 -0.19194216334420211 0 -0.39267839793348491 -0.17927693187167279 0 -0.3831693110633177 -0.1873742460103984 0 -0.37378547386561772 -0.17392500984250869 0 -0.37839901512320262 -0.15996290040625341 0 -0.39387780121335469 -0.16444862508152899 0 -0.37839901512320262 -0.15996290040625341 0 -0.39387780121335469 -0.16444862508152899 0 -0.3804539816512269 -0.14482329966991631 0 -0.41110577652129249 -0.1670682470007229 0 -0.39387780121335469 -0.16444862508152899 0 -0.40669002996807779 -0.1495058137550834 0 -0.41110577652129249 -0.1670682470007229 0 -0.40730162077548249 -0.18407395049314179 0 -0.39387780121335469 -0.16444862508152899 0 -0.39387780121335469 -0.16444862508152899 0 -0.3804539816512269 -0.14482329966991631 0 -0.40669002996807779 -0.1495058137550834 0 -0.3804539816512269 -0.14482329966991631 0 -0.39647179587780151 -0.13189450107720049 0 -0.40669002996807779 -0.1495058137550834 0 -0.3804539816512269 -0.14482329966991631 0 -0.40669002996807779 -0.1495058137550834 0 -0.39387780121335469 -0.16444862508152899 0 -0.3804539816512269 -0.14482329966991631 0 -0.3804539816512269 -0.14482329966991631 0 -0.38278168804071749 -0.12940228238898679 0 -0.39647179587780151 -0.13189450107720049 0 -0.3804539816512269 -0.14482329966991631 0 -0.39647179587780151 -0.13189450107720049 0 -0.37212838853434238 -0.11808059788504249 0 -0.37028068739271691 -0.13083580994494901 0 -0.38278168804071749 -0.12940228238898679 0 -0.37028068739271691 -0.13083580994494901 0 -0.3804539816512269 -0.14482329966991631 0 -0.38278168804071749 -0.12940228238898679 0 -0.38278168804071749 -0.12940228238898679 0 -0.39647179587780151 -0.13189450107720049 0 -0.39044023874876249 -0.11757149150947201 0 -0.39647179587780151 -0.13189450107720049 0 -0.40828286160401828 -0.1310364195873514 0 -0.40669002996807779 -0.1495058137550834 0 -0.39647179587780151 -0.13189450107720049 0 -0.40828286160401828 -0.1310364195873514 0 -0.41122993917504558 -0.1199812866788818 0 -0.39647179587780151 -0.13189450107720049 0 -0.41122993917504558 -0.1199812866788818 0 -0.40828286160401828 -0.1310364195873514 0 -0.41930562378398423 -0.12797048681614909 0 -0.41122993917504558 -0.1199812866788818 0 -0.41930562378398423 -0.12797048681614909 0 -0.41533589961201212 -0.13938201891822019 0 -0.4273858072007774 -0.14414008567558009 0 -0.40828286160401828 -0.1310364195873514 0 -0.41533589961201212 -0.13938201891822019 0 -0.40669002996807779 -0.1495058137550834 0 -0.40828286160401828 -0.1310364195873514 0 -0.41930562378398423 -0.12797048681614909 0 -0.41533589961201212 -0.13938201891822019 0 -0.40669002996807779 -0.1495058137550834 0 -0.43166640735559808 -0.1552039120346444 0 -0.4214232379976206 -0.16216052115063159 0 -0.40669002996807779 -0.1495058137550834 0 -0.43166640735559808 -0.1552039120346444 0 -0.41533589961201212 -0.13938201891822019 0 -0.40669002996807779 -0.1495058137550834 0 -0.4273858072007774 -0.14414008567558009 0 -0.40669002996807779 -0.1495058137550834 0 -0.4273858072007774 -0.14414008567558009 0 -0.43166640735559808 -0.1552039120346444 0 -0.43166640735559808 -0.1552039120346444 0 -0.43525592456887258 -0.14374997194848471 0 -0.44410307239699631 -0.15282998285397989 0 -0.4273858072007774 -0.14414008567558009 0 -0.43166640735559808 -0.1552039120346444 0 -0.43525592456887258 -0.14374997194848471 0 -0.41930562378398423 -0.12797048681614909 0 -0.43525592456887258 -0.14374997194848471 0 -0.41930562378398423 -0.12797048681614909 0 -0.4273858072007774 -0.14414008567558009 0 -0.43525592456887258 -0.14374997194848471 0 -0.41930562378398423 -0.12797048681614909 0 -0.4273858072007774 -0.14414008567558009 0 -0.41930562378398423 -0.12797048681614909 0 -0.43525592456887258 -0.14374997194848471 0 -0.43389101300267191 -0.13422730327376839 0 -0.41930562378398423 -0.12797048681614909 0 -0.43389101300267191 -0.13422730327376839 0 -0.4149348530849476 -0.1169905694289516 0 -0.43389101300267191 -0.13422730327376839 0 -0.4149348530849476 -0.1169905694289516 0 -0.43389101300267191 -0.13422730327376839 0 -0.43160182387889101 -0.1187955019330571 0 -0.44085253015216358 -0.1237950587173612 0 -0.43389101300267191 -0.13422730327376839 0 -0.44872577578551592 -0.13320174295465559 0 -0.452847172920396 -0.1514640371185853 0 -0.44872577578551592 -0.13320174295465559 0 -0.45896755277767909 -0.12575633132281341 0 -0.45000974795797011 -0.119430952696417 0 -0.44872577578551592 -0.13320174295465559 0 -0.45000974795797011 -0.119430952696417 0 -0.44085253015216358 -0.1237950587173612 0 -0.43389101300267191 -0.13422730327376839 0 -0.44872577578551592 -0.13320174295465559 0 -0.44085253015216358 -0.1237950587173612 0 -0.43525592456887258 -0.14374997194848471 0 -0.43389101300267191 -0.13422730327376839 0 -0.452847172920396 -0.1514640371185853 0 -0.43525592456887258 -0.14374997194848471 0 -0.44410307239699631 -0.15282998285397989 0 -0.452847172920396 -0.1514640371185853 0 -0.44872577578551592 -0.13320174295465559 0 -0.452847172920396 -0.1514640371185853 0 -0.456386085566235 -0.14096643446963419 0 -0.43389101300267191 -0.13422730327376839 0 -0.452847172920396 -0.1514640371185853 0 -0.44410307239699631 -0.15282998285397989 0 -0.452847172920396 -0.1514640371185853 0 -0.45664278474311831 -0.16090201031420531 0 -0.452847172920396 -0.1514640371185853 0 -0.456386085566235 -0.14096643446963419 0 -0.46738274896045578 -0.15003021006820461 0 -0.452847172920396 -0.1514640371185853 0 -0.46738274896045578 -0.15003021006820461 0 -0.45664278474311831 -0.16090201031420531 0 -0.456386085566235 -0.14096643446963419 0 -0.46738274896045578 -0.15003021006820461 0 -0.47200539146090159 -0.13839174763128981 0 -0.456386085566235 -0.14096643446963419 0 -0.47200539146090159 -0.13839174763128981 0 -0.47750202174635031 -0.1215216316744509 0 -0.456386085566235 -0.14096643446963419 0 -0.45896755277767909 -0.12575633132281341 0 -0.47750202174635031 -0.1215216316744509 0 -0.456386085566235 -0.14096643446963419 0 -0.47750202174635031 -0.1215216316744509 0 -0.44872577578551592 -0.13320174295465559 0 -0.456386085566235 -0.14096643446963419 0 -0.45896755277767909 -0.12575633132281341 0 -0.47200539146090159 -0.13839174763128981 0 -0.48675070957056549 -0.14104871431286931 0 -0.47750202174635031 -0.1215216316744509 0 -0.50000000000000011 -0.12648838757554831 0 -0.48675070957056549 -0.14104871431286931 0 -0.5 -0.15043640832747529 0 -0.50000000000000011 -0.12648838757554831 0 -0.48675070957056549 -0.14104871431286931 0 -0.47750202174635031 -0.1215216316744509 0 -0.48675070957056549 -0.14104871431286931 0 -0.5 -0.15043640832747529 0 -0.48062174440056549 -0.15969986187448909 0 -0.46738274896045578 -0.15003021006820461 0 -0.47200539146090159 -0.13839174763128981 0 -0.48675070957056549 -0.14104871431286931 0 -0.48675070957056549 -0.14104871431286931 0 -0.48062174440056549 -0.15969986187448909 0 -0.46738274896045578 -0.15003021006820461 0 -0.48675070957056549 -0.14104871431286931 0 -0.48062174440056549 -0.15969986187448909 0 -0.48062174440056549 -0.15969986187448909 0 -0.46548313673471758 -0.16971310035941381 0 -0.46753260370971428 -0.1600862956540782 0 -0.46738274896045578 -0.15003021006820461 0 -0.48062174440056549 -0.15969986187448909 0 -0.46753260370971428 -0.1600862956540782 0 -0.48062174440056549 -0.15969986187448909 0 -0.47449277923056221 -0.17835100943610771 0 -0.46548313673471758 -0.16971310035941381 0 -0.48062174440056549 -0.15969986187448909 0 -0.47449277923056221 -0.17835100943610771 0 -0.5 -0.15043640832747529 0 -0.48062174440056549 -0.15969986187448909 0 -0.49999999999999828 -0.17438442907940241 0 -0.48062174440056549 -0.15969986187448909 0 -0.49999999999999828 -0.17438442907940241 0 -0.47449277923056221 -0.17835100943610771 0 -0.49999999999999828 -0.17438442907940241 0 -0.47449277923056221 -0.17835100943610771 0 -0.49999999999999828 -0.17438442907940241 0 -0.47449277923056221 -0.17835100943610771 0 -0.48549376880548989 -0.19132810400505559 0 -0.47449277923056221 -0.17835100943610771 0 -0.46892716456320649 -0.19528781647494389 0 -0.47449277923056221 -0.17835100943610771 0 -0.45952205817714309 -0.18067907836188021 0 -0.46892716456320649 -0.19528781647494389 0 -0.45952205817714309 -0.18067907836188021 0 -0.46548313673471758 -0.16971310035941381 0 -0.45289664290439807 -0.17180374819378549 0 -0.47449277923056221 -0.17835100943610771 0 -0.45952205817714309 -0.18067907836188021 0 -0.47449277923056221 -0.17835100943610771 0 -0.45952205817714309 -0.18067907836188021 0 -0.46548313673471758 -0.16971310035941381 0 -0.46548313673471758 -0.16971310035941381 0 -0.46753260370971428 -0.1600862956540782 0 -0.45664278474311831 -0.16090201031420531 0 -0.46738274896045578 -0.15003021006820461 0 -0.46753260370971428 -0.1600862956540782 0 -0.45664278474311831 -0.16090201031420531 0 -0.46548313673471758 -0.16971310035941381 0 -0.45664278474311831 -0.16090201031420531 0 -0.45289664290439807 -0.17180374819378549 0 -0.45664278474311831 -0.16090201031420531 0 -0.45289664290439807 -0.17180374819378549 0 -0.44219215159727421 -0.16781727210851849 0 -0.43166640735559808 -0.1552039120346444 0 -0.45664278474311831 -0.16090201031420531 0 -0.44219215159727421 -0.16781727210851849 0 -0.43166640735559808 -0.1552039120346444 0 -0.45664278474311831 -0.16090201031420531 0 -0.43166640735559808 -0.1552039120346444 0 -0.44410307239699631 -0.15282998285397989 0 -0.45664278474311831 -0.16090201031420531 0 -0.43495901877196291 -0.17485617288990979 0 -0.44219215159727421 -0.16781727210851849 0 -0.44455133712372419 -0.18300714728765441 0 -0.43099962817645188 -0.18319011649723049 0 -0.44455133712372419 -0.18300714728765441 0 -0.43833565968517207 -0.19112957676178299 0 -0.45952205817714309 -0.18067907836188021 0 -0.44455133712372419 -0.18300714728765441 0 -0.45396471697207569 -0.194241302212698 0 -0.45952205817714309 -0.18067907836188021 0 -0.44455133712372419 -0.18300714728765441 0 -0.45952205817714309 -0.18067907836188021 0 -0.45289664290439807 -0.17180374819378549 0 -0.44455133712372419 -0.18300714728765441 0 -0.45289664290439807 -0.17180374819378549 0 -0.44219215159727421 -0.16781727210851849 0 -0.44455133712372419 -0.18300714728765441 0 -0.44455133712372419 -0.18300714728765441 0 -0.43833565968517207 -0.19112957676178299 0 -0.45396471697207569 -0.194241302212698 0 -0.43833565968517207 -0.19112957676178299 0 -0.44184138868315109 -0.20247798044170351 0 -0.45396471697207569 -0.194241302212698 0 -0.44184138868315109 -0.20247798044170351 0 -0.46336154989584488 -0.2122246235137781 0 -0.45396471697207569 -0.194241302212698 0 -0.44184138868315109 -0.20247798044170351 0 -0.46336154989584488 -0.2122246235137781 0 -0.45338394269579491 -0.2190794284651259 0 -0.43378961613155448 -0.20908682079381441 0 -0.44184138868315109 -0.20247798044170351 0 -0.44166379455333399 -0.21604972156869759 0 -0.44184138868315109 -0.20247798044170351 0 -0.44166379455333399 -0.21604972156869759 0 -0.45338394269579491 -0.2190794284651259 0 -0.44184138868315109 -0.20247798044170351 0 -0.46336154989584488 -0.2122246235137781 0 -0.46336154989584488 -0.2122246235137781 0 -0.46892716456320649 -0.19528781647494389 0 -0.46336154989584488 -0.2122246235137781 0 -0.45396471697207569 -0.194241302212698 0 -0.46892716456320649 -0.19528781647494389 0 -0.45952205817714309 -0.18067907836188021 0 -0.45396471697207569 -0.194241302212698 0 -0.46892716456320649 -0.19528781647494389 0 -0.47449277923056221 -0.17835100943610771 0 -0.46892716456320649 -0.19528781647494389 0 -0.48549376880548989 -0.19132810400505559 0 -0.46892716456320649 -0.19528781647494389 0 -0.48549376880548989 -0.19132810400505559 0 -0.47978640147694102 -0.20418872613165631 0 -0.5 -0.20182215567114031 0 -0.48549376880548989 -0.19132810400505559 0 -0.47978640147694102 -0.20418872613165631 0 -0.49999999999999828 -0.17438442907940241 0 -0.5 -0.20182215567114031 0 -0.48549376880548989 -0.19132810400505559 0 -0.5 -0.20182215567114031 0 -0.48114952412016337 -0.22028093099336349 0 -0.49893749834448198 -0.22833723847294871 0 -0.5 -0.20182215567114031 0 -0.47978640147694102 -0.20418872613165631 0 -0.48114952412016337 -0.22028093099336349 0 -0.46336154989584488 -0.2122246235137781 0 -0.48114952412016337 -0.22028093099336349 0 -0.46336154989584488 -0.2122246235137781 0 -0.47978640147694102 -0.20418872613165631 0 -0.48114952412016337 -0.22028093099336349 0 -0.46336154989584488 -0.2122246235137781 0 -0.46892716456320649 -0.19528781647494389 0 -0.47978640147694102 -0.20418872613165631 0 -0.46336154989584488 -0.2122246235137781 0 -0.48114952412016337 -0.22028093099336349 0 -0.46857810181099829 -0.22486784275082261 0 -0.48114952412016337 -0.22028093099336349 0 -0.48798868478634799 -0.231470988200419 0 -0.47142395938804471 -0.23802335247430181 0 -0.48114952412016337 -0.22028093099336349 0 -0.47142395938804471 -0.23802335247430181 0 -0.46857810181099829 -0.22486784275082261 0 -0.48114952412016337 -0.22028093099336349 0 -0.48798868478634799 -0.231470988200419 0 -0.49893749834448198 -0.22833723847294871 0 -0.48114952412016337 -0.22028093099336349 0 -0.49893749834448198 -0.22833723847294871 0 -0.48798868478634799 -0.231470988200419 0 -0.49893749834448198 -0.22833723847294871 0 -0.4875835208682564 -0.24248539692068891 0 -0.5 -0.25669760885461612 0 -0.49893749834448198 -0.22833723847294871 0 -0.4875835208682564 -0.24248539692068891 0 -0.48798868478634799 -0.231470988200419 0 -0.4875835208682564 -0.24248539692068891 0 -0.47142395938804471 -0.23802335247430181 0 -0.47878778985378329 -0.25835102983948688 0 -0.4875835208682564 -0.24248539692068891 0 -0.47142395938804471 -0.23802335247430181 0 -0.45662330498375908 -0.25656877445722759 0 -0.47142395938804471 -0.23802335247430181 0 -0.45034617445999431 -0.24335722649563979 0 -0.47142395938804471 -0.23802335247430181 0 -0.45735065046854989 -0.23051648340969341 0 -0.45034617445999431 -0.24335722649563979 0 -0.46336154989584488 -0.2122246235137781 0 -0.46857810181099829 -0.22486784275082261 0 -0.45735065046854989 -0.23051648340969341 0 -0.46336154989584488 -0.2122246235137781 0 -0.45735065046854989 -0.23051648340969341 0 -0.47142395938804471 -0.23802335247430181 0 -0.46857810181099829 -0.22486784275082261 0 -0.45735065046854989 -0.23051648340969341 0 -0.46336154989584488 -0.2122246235137781 0 -0.45338394269579491 -0.2190794284651259 0 -0.45735065046854989 -0.23051648340969341 0 -0.45338394269579491 -0.2190794284651259 0 -0.45735065046854989 -0.23051648340969341 0 -0.43806130733353449 -0.23541812032183559 0 -0.44166379455333399 -0.21604972156869759 0 -0.43806130733353449 -0.23541812032183559 0 -0.44166379455333399 -0.21604972156869759 0 -0.45338394269579491 -0.2190794284651259 0 -0.43806130733353449 -0.23541812032183559 0 -0.45735065046854989 -0.23051648340969341 0 -0.45034617445999431 -0.24335722649563979 0 -0.43806130733353449 -0.23541812032183559 0 -0.43445882011373449 -0.25478651907497341 0 -0.45034617445999431 -0.24335722649563979 0 -0.43806130733353449 -0.23541812032183559 0 -0.41324955929443102 -0.038374170610562031 0 -0.41005136228565903 -0.05540387285823338 0 -0.42435348212729052 -0.04457483879584373 0 -0.41324955929443102 -0.038374170610562031 0 -0.41005136228565903 -0.05540387285823338 0 -0.39900851660089293 -0.046429079601448257 0 -0.41324955929443102 -0.038374170610562031 0 -0.40747857107326091 -0.02424585309778798 0 -0.40045416304880688 -0.034240371911693122 0 -0.41005136228565903 -0.05540387285823338 0 -0.4246600563061857 -0.059067830999859447 0 -0.41422906440869389 -0.068128229862373102 0 -0.41005136228565903 -0.05540387285823338 0 -0.4246600563061857 -0.059067830999859447 0 -0.42435348212729052 -0.04457483879584373 0 -0.4246600563061857 -0.059067830999859447 0 -0.42435348212729052 -0.04457483879584373 0 -0.43957367317472601 -0.045089571971719818 0 -0.4246600563061857 -0.059067830999859447 0 -0.43957367317472601 -0.045089571971719818 0 -0.44544580640037118 -0.056213229689383748 0 -0.41324955929443102 -0.038374170610562031 0 -0.42435348212729052 -0.04457483879584373 0 -0.42981912379901888 -0.030443092666165631 0 -0.42435348212729052 -0.04457483879584373 0 -0.42981912379901888 -0.030443092666165631 0 -0.43957367317472601 -0.045089571971719818 0 -0.41302196833726168 -0.01226972299954816 0 -0.4392085005598273 -0.024676348383282701 0 -0.42659341977192161 -0.010103830507352861 0 -0.41302196833726168 -0.01226972299954816 0 -0.4392085005598273 -0.024676348383282701 0 -0.42981912379901888 -0.030443092666165631 0 -0.41673372021425997 -0.022240754673565791 0 -0.4392085005598273 -0.024676348383282701 0 -0.41302196833726168 -0.01226972299954816 0 -0.41673372021425997 -0.022240754673565791 0 -0.4392085005598273 -0.024676348383282701 0 -0.43741768347029059 -0.01288367903972009 0 -0.42659341977192161 -0.010103830507352861 0 -0.4392085005598273 -0.024676348383282701 0 -0.4441818909265971 -0.00998157505946092 0 -0.42578104856505677 0.0031949168855625672 0 -0.43741768347029059 -0.01288367903972009 0 -0.4441818909265971 -0.00998157505946092 0 -0.42578104856505677 0.0031949168855625672 0 -0.43741768347029059 -0.01288367903972009 0 -0.42659341977192161 -0.010103830507352861 0 -0.42578104856505677 0.0031949168855625672 0 -0.43741768347029059 -0.01288367903972009 0 -0.42578104856505677 0.0031949168855625672 0 -0.42659341977192161 -0.010103830507352861 0 -0.41753789792717189 -0.0038843189997757009 0 -0.42578104856505677 0.0031949168855625672 0 -0.42659341977192161 -0.010103830507352861 0 -0.41753789792717189 -0.0038843189997757009 0 -0.41302196833726168 -0.01226972299954816 0 -0.41753789792717189 -0.0038843189997757009 0 -0.41302196833726168 -0.01226972299954816 0 -0.40771050441737638 -0.0035262849216432719 0 -0.41753789792717189 -0.0038843189997757009 0 -0.40771050441737638 -0.0035262849216432719 0 -0.41105156913745711 0.0034129409419674369 0 -0.42981912379901888 -0.030443092666165631 0 -0.40747857107326091 -0.02424585309778798 0 -0.41324955929443102 -0.038374170610562031 0 -0.42981912379901888 -0.030443092666165631 0 -0.40747857107326091 -0.02424585309778798 0 -0.42981912379901888 -0.030443092666165631 0 -0.41673372021425997 -0.022240754673565791 0 -0.40747857107326091 -0.02424585309778798 0 -0.41302196833726168 -0.01226972299954816 0 -0.41673372021425997 -0.022240754673565791 0 -0.40747857107326091 -0.02424585309778798 0 -0.41673372021425997 -0.022240754673565791 0 -0.40747857107326091 -0.02424585309778798 0 -0.40747857107326091 -0.02424585309778798 0 -0.38992317137517202 -0.02804917422583518 0 -0.40747857107326091 -0.02424585309778798 0 -0.38992317137517202 -0.02804917422583518 0 -0.38297625517291389 -0.017448943304264108 0 -0.40747857107326091 -0.02424585309778798 0 -0.38992317137517202 -0.02804917422583518 0 -0.40045416304880688 -0.034240371911693122 0 -0.40747857107326091 -0.02424585309778798 0 -0.39567459441968961 -0.012635194689989219 0 -0.38297625517291389 -0.017448943304264108 0 -0.40747857107326091 -0.02424585309778798 0 -0.38297625517291389 -0.017448943304264108 0 -0.41302196833726168 -0.01226972299954816 0 -0.40747857107326091 -0.02424585309778798 0 -0.39567459441968961 -0.012635194689989219 0 -0.41302196833726168 -0.01226972299954816 0 -0.40771050441737638 -0.0035262849216432719 0 -0.38683543611469601 0.0001369023841863784 0 -0.41302196833726168 -0.01226972299954816 0 -0.39567459441968961 -0.012635194689989219 0 -0.38683543611469601 0.0001369023841863784 0 -0.41302196833726168 -0.01226972299954816 0 -0.38683543611469601 0.0001369023841863784 0 -0.40771050441737638 -0.0035262849216432719 0 -0.38683543611469601 0.0001369023841863784 0 -0.40226596945639398 0.0014711925349297271 0 -0.39567459441968961 -0.012635194689989219 0 -0.38502252263107412 -0.0084426060797158468 0 -0.38683543611469601 0.0001369023841863784 0 -0.39567459441968961 -0.012635194689989219 0 -0.38502252263107412 -0.0084426060797158468 0 -0.38297625517291389 -0.017448943304264108 0 -0.38502252263107412 -0.0084426060797158468 0 -0.38009964520605882 -0.0090403485437739461 0 -0.38297625517291389 -0.017448943304264108 0 -0.37278444596104371 -0.0079457960458173115 0 -0.38009964520605882 -0.0090403485437739461 0 -0.38297625517291389 -0.017448943304264108 0 -0.37474494217865062 -0.0022388935110706832 0 -0.38502252263107412 -0.0084426060797158468 0 -0.38683543611469601 0.0001369023841863784 0 -0.37474494217865062 -0.0022388935110706832 0 -0.38502252263107412 -0.0084426060797158468 0 -0.38009964520605882 -0.0090403485437739461 0 -0.37474494217865062 -0.0022388935110706832 0 -0.37278444596104371 -0.0079457960458173115 0 -0.38009964520605882 -0.0090403485437739461 0 -0.37236777167708351 -0.031852495353884333 0 -0.38992317137517202 -0.02804917422583518 0 -0.37990921189048049 -0.023302515363219579 0 -0.37236777167708351 -0.031852495353884333 0 -0.38992317137517202 -0.02804917422583518 0 -0.38992317137517202 -0.02804917422583518 0 -0.38297625517291389 -0.017448943304264108 0 -0.37990921189048049 -0.023302515363219579 0 -0.3739022591900184 -0.02415390189740213 0 -0.38297625517291389 -0.017448943304264108 0 -0.37990921189048049 -0.023302515363219579 0 -0.37236777167708351 -0.031852495353884333 0 -0.3739022591900184 -0.02415390189740213 0 -0.37990921189048049 -0.023302515363219579 0 -0.37236777167708351 -0.031852495353884333 0 -0.37990921189048049 -0.023302515363219579 0 -0.38458287424021398 -0.039388642062709187 0 -0.39900851660089293 -0.046429079601448257 0 -0.3815482533063424 -0.052412606119804542 0 -0.37355784227175309 -0.045246792894939887 0 -0.37236777167708351 -0.031852495353884333 0 -0.38458287424021398 -0.039388642062709187 0 -0.37236777167708351 -0.031852495353884333 0 -0.38992317137517202 -0.02804917422583518 0 -0.38458287424021398 -0.039388642062709187 0 -0.37355784227175309 -0.045246792894939887 0 -0.38458287424021398 -0.039388642062709187 0 -0.3815482533063424 -0.052412606119804542 0 -0.38458287424021398 -0.039388642062709187 0 -0.39900851660089293 -0.046429079601448257 0 -0.40045416304880688 -0.034240371911693122 0 -0.38992317137517202 -0.02804917422583518 0 -0.38458287424021398 -0.039388642062709187 0 -0.40045416304880688 -0.034240371911693122 0 -0.41324955929443102 -0.038374170610562031 0 -0.39900851660089293 -0.046429079601448257 0 -0.40045416304880688 -0.034240371911693122 0 -0.39900851660089293 -0.046429079601448257 0 -0.39626447370361728 -0.06091275685647668 0 -0.3815482533063424 -0.052412606119804542 0 -0.41005136228565903 -0.05540387285823338 0 -0.39626447370361728 -0.06091275685647668 0 -0.40517181862379281 -0.066558370858305557 0 -0.41005136228565903 -0.05540387285823338 0 -0.39900851660089293 -0.046429079601448257 0 -0.39626447370361728 -0.06091275685647668 0 -0.36862349457690058 -0.057461967220355487 0 -0.3815482533063424 -0.052412606119804542 0 -0.37947166312044489 -0.067272628224985004 0 -0.3815482533063424 -0.052412606119804542 0 -0.37947166312044489 -0.067272628224985004 0 -0.39260231949431601 -0.074533368335879327 0 -0.36882665317829499 -0.078032107790563188 0 -0.39260231949431601 -0.074533368335879327 0 -0.39626447370361728 -0.06091275685647668 0 -0.3815482533063424 -0.052412606119804542 0 -0.39260231949431601 -0.074533368335879327 0 -0.3815482533063424 -0.052412606119804542 0 -0.39260231949431601 -0.074533368335879327 0 -0.36882665317829499 -0.078032107790563188 0 -0.37947166312044489 -0.067272628224985004 0 -0.39260231949431601 -0.074533368335879327 0 -0.36882665317829499 -0.078032107790563188 0 -0.39260231949431601 -0.074533368335879327 0 -0.39002829617667018 -0.099006697234722524 0 -0.36882665317829499 -0.078032107790563188 0 -0.39002829617667018 -0.099006697234722524 0 -0.37367929427193591 -0.1014825750548952 0 -0.36882665317829499 -0.078032107790563188 0 -0.39002829617667018 -0.099006697234722524 0 -0.39260231949431601 -0.074533368335879327 0 -0.39002829617667018 -0.099006697234722524 0 -0.39510370691593599 -0.098958215311000047 0 -0.39260231949431601 -0.074533368335879327 0 -0.40274583300482147 -0.094831984843681591 0 -0.39260231949431601 -0.074533368335879327 0 -0.39510370691593599 -0.098958215311000047 0 -0.40274583300482147 -0.094831984843681591 0 -0.40361170428446441 -0.083317353290434007 0 -0.39260231949431601 -0.074533368335879327 0 -0.40274583300482147 -0.094831984843681591 0 -0.40361170428446441 -0.083317353290434007 0 -0.39867569396630093 -0.073639632925658519 0 -0.40696916935602839 -0.074517235882718885 0 -0.39867569396630093 -0.073639632925658519 0 -0.40517181862379281 -0.066558370858305557 0 -0.40696916935602839 -0.074517235882718885 0 -0.39626447370361728 -0.06091275685647668 0 -0.39867569396630093 -0.073639632925658519 0 -0.40517181862379281 -0.066558370858305557 0 -0.39626447370361728 -0.06091275685647668 0 -0.39867569396630093 -0.073639632925658519 0 -0.39260231949431601 -0.074533368335879327 0 -0.40361170428446441 -0.083317353290434007 0 -0.39867569396630093 -0.073639632925658519 0 -0.39260231949431601 -0.074533368335879327 0 -0.39867569396630093 -0.073639632925658519 0 -0.39260231949431601 -0.074533368335879327 0 -0.37212838853434238 -0.11808059788504249 0 -0.38278168804071749 -0.12940228238898679 0 -0.39044023874876249 -0.11757149150947201 0 -0.37367929427193591 -0.1014825750548952 0 -0.37212838853434238 -0.11808059788504249 0 -0.39044023874876249 -0.11757149150947201 0 -0.37367929427193591 -0.1014825750548952 0 -0.39044023874876249 -0.11757149150947201 0 -0.39002829617667018 -0.099006697234722524 0 -0.39510370691593599 -0.098958215311000047 0 -0.40274583300482147 -0.094831984843681591 0 -0.41288934651532883 -0.11513060135148299 0 -0.39002829617667018 -0.099006697234722524 0 -0.39510370691593599 -0.098958215311000047 0 -0.41122993917504558 -0.1199812866788818 0 -0.39510370691593599 -0.098958215311000047 0 -0.41288934651532883 -0.11513060135148299 0 -0.39647179587780151 -0.13189450107720049 0 -0.39044023874876249 -0.11757149150947201 0 -0.41122993917504558 -0.1199812866788818 0 -0.39002829617667018 -0.099006697234722524 0 -0.41122993917504558 -0.1199812866788818 0 -0.39044023874876249 -0.11757149150947201 0 -0.39002829617667018 -0.099006697234722524 0 -0.41122993917504558 -0.1199812866788818 0 -0.39510370691593599 -0.098958215311000047 0 -0.41122993917504558 -0.1199812866788818 0 -0.41288934651532883 -0.11513060135148299 0 -0.41930562378398423 -0.12797048681614909 0 -0.41122993917504558 -0.1199812866788818 0 -0.4149348530849476 -0.1169905694289516 0 -0.41930562378398423 -0.12797048681614909 0 -0.41122993917504558 -0.1199812866788818 0 -0.41930562378398423 -0.12797048681614909 0 -0.4149348530849476 -0.1169905694289516 0 -0.41122993917504558 -0.1199812866788818 0 -0.41288934651532883 -0.11513060135148299 0 -0.4149348530849476 -0.1169905694289516 0 -0.41122993917504558 -0.1199812866788818 0 -0.4149348530849476 -0.1169905694289516 0 -0.41288934651532883 -0.11513060135148299 0 -0.4149348530849476 -0.1169905694289516 0 -0.41288934651532883 -0.11513060135148299 0 -0.4149348530849476 -0.1169905694289516 0 -0.41458672172207622 -0.10427776634057311 0 -0.40274583300482147 -0.094831984843681591 0 -0.41288934651532883 -0.11513060135148299 0 -0.4149348530849476 -0.1169905694289516 0 -0.41458672172207622 -0.10427776634057311 0 -0.43059848591229039 -0.1043464168163742 0 -0.40274583300482147 -0.094831984843681591 0 -0.41288934651532883 -0.11513060135148299 0 -0.41458672172207622 -0.10427776634057311 0 -0.41458672172207622 -0.10427776634057311 0 -0.41348552386521947 -0.090840815536544176 0 -0.43025813067654672 -0.08737754853092726 0 -0.40274583300482147 -0.094831984843681591 0 -0.41458672172207622 -0.10427776634057311 0 -0.41348552386521947 -0.090840815536544176 0 -0.43059848591229039 -0.1043464168163742 0 -0.43025813067654672 -0.08737754853092726 0 -0.44626211873963212 -0.091702264203795431 0 -0.41458672172207622 -0.10427776634057311 0 -0.43059848591229039 -0.1043464168163742 0 -0.43025813067654672 -0.08737754853092726 0 -0.41458672172207622 -0.10427776634057311 0 -0.43025813067654672 -0.08737754853092726 0 -0.4149348530849476 -0.1169905694289516 0 -0.43059848591229039 -0.1043464168163742 0 -0.43160182387889101 -0.1187955019330571 0 -0.4149348530849476 -0.1169905694289516 0 -0.43059848591229039 -0.1043464168163742 0 -0.43389101300267191 -0.13422730327376839 0 -0.4149348530849476 -0.1169905694289516 0 -0.43160182387889101 -0.1187955019330571 0 -0.43059848591229039 -0.1043464168163742 0 -0.43160182387889101 -0.1187955019330571 0 -0.44003429013576911 -0.11331979272890801 0 -0.43160182387889101 -0.1187955019330571 0 -0.44085253015216358 -0.1237950587173612 0 -0.44003429013576911 -0.11331979272890801 0 -0.41422906440869389 -0.068128229862373102 0 -0.41539885585273961 -0.080089681603359497 0 -0.42594434486026628 -0.073522222089585226 0 -0.4246600563061857 -0.059067830999859447 0 -0.41422906440869389 -0.068128229862373102 0 -0.42594434486026628 -0.073522222089585226 0 -0.41005136228565903 -0.05540387285823338 0 -0.40517181862379281 -0.066558370858305557 0 -0.41422906440869389 -0.068128229862373102 0 -0.40517181862379281 -0.066558370858305557 0 -0.41422906440869389 -0.068128229862373102 0 -0.40696916935602839 -0.074517235882718885 0 -0.41422906440869389 -0.068128229862373102 0 -0.40696916935602839 -0.074517235882718885 0 -0.41539885585273961 -0.080089681603359497 0 -0.41348552386521947 -0.090840815536544176 0 -0.41539885585273961 -0.080089681603359497 0 -0.43025813067654672 -0.08737754853092726 0 -0.40361170428446441 -0.083317353290434007 0 -0.41348552386521947 -0.090840815536544176 0 -0.41539885585273961 -0.080089681603359497 0 -0.40361170428446441 -0.083317353290434007 0 -0.40696916935602839 -0.074517235882718885 0 -0.41539885585273961 -0.080089681603359497 0 -0.40361170428446441 -0.083317353290434007 0 -0.40274583300482147 -0.094831984843681591 0 -0.41348552386521947 -0.090840815536544176 0 -0.41539885585273961 -0.080089681603359497 0 -0.43025813067654672 -0.08737754853092726 0 -0.42594434486026628 -0.073522222089585226 0 -0.4246600563061857 -0.059067830999859447 0 -0.44592953963101739 -0.07047733072128165 0 -0.43025813067654672 -0.08737754853092726 0 -0.42594434486026628 -0.073522222089585226 0 -0.44592953963101739 -0.07047733072128165 0 -0.4246600563061857 -0.059067830999859447 0 -0.42594434486026628 -0.073522222089585226 0 -0.44592953963101739 -0.07047733072128165 0 -0.44592953963101739 -0.07047733072128165 0 -0.45893666683642192 -0.056450303318209168 0 -0.44592953963101739 -0.07047733072128165 0 -0.44626211873963212 -0.091702264203795431 0 -0.46192575156697407 -0.079058111591217034 0 -0.43025813067654672 -0.08737754853092726 0 -0.44592953963101739 -0.07047733072128165 0 -0.43025813067654672 -0.08737754853092726 0 -0.44592953963101739 -0.07047733072128165 0 -0.44626211873963212 -0.091702264203795431 0 -0.44626211873963212 -0.091702264203795431 0 -0.46631049206888459 -0.091444160656324658 0 -0.46192575156697407 -0.079058111591217034 0 -0.44626211873963212 -0.091702264203795431 0 -0.46192575156697407 -0.079058111591217034 0 -0.46631049206888459 -0.091444160656324658 0 -0.46192575156697407 -0.079058111591217034 0 -0.47702460168979111 -0.087157524427869615 0 -0.44592953963101739 -0.07047733072128165 0 -0.46192575156697407 -0.079058111591217034 0 -0.45893666683642192 -0.056450303318209168 0 -0.46192575156697407 -0.079058111591217034 0 -0.47491389520024407 -0.068573693827893439 0 -0.45893666683642192 -0.056450303318209168 0 -0.46192575156697407 -0.079058111591217034 0 -0.47491389520024407 -0.068573693827893439 0 -0.44592953963101739 -0.07047733072128165 0 -0.46192575156697407 -0.079058111591217034 0 -0.45000974795797011 -0.119430952696417 0 -0.44085253015216358 -0.1237950587173612 0 -0.44003429013576911 -0.11331979272890801 0 -0.45000974795797011 -0.119430952696417 0 -0.44003429013576911 -0.11331979272890801 0 -0.44926481423485548 -0.10476542824413421 0 -0.43059848591229039 -0.1043464168163742 0 -0.44626211873963212 -0.091702264203795431 0 -0.43059848591229039 -0.1043464168163742 0 -0.44626211873963212 -0.091702264203795431 0 -0.44926481423485548 -0.10476542824413421 0 -0.43059848591229039 -0.1043464168163742 0 -0.44003429013576911 -0.11331979272890801 0 -0.44926481423485548 -0.10476542824413421 0 -0.44626211873963212 -0.091702264203795431 0 -0.44926481423485548 -0.10476542824413421 0 -0.46153012095291662 -0.1019472767233552 0 -0.44626211873963212 -0.091702264203795431 0 -0.46631049206888459 -0.091444160656324658 0 -0.46153012095291662 -0.1019472767233552 0 -0.46631049206888459 -0.091444160656324658 0 -0.46153012095291662 -0.1019472767233552 0 -0.4710589232177344 -0.098453604121520433 0 -0.46153012095291662 -0.1019472767233552 0 -0.46221413283232399 -0.11366089481890911 0 -0.47430793409480421 -0.10627177682285049 0 -0.44926481423485548 -0.10476542824413421 0 -0.46153012095291662 -0.1019472767233552 0 -0.46221413283232399 -0.11366089481890911 0 -0.45896755277767909 -0.12575633132281341 0 -0.46221413283232399 -0.11366089481890911 0 -0.47750202174635031 -0.1215216316744509 0 -0.45000974795797011 -0.119430952696417 0 -0.44926481423485548 -0.10476542824413421 0 -0.46221413283232399 -0.11366089481890911 0 -0.45896755277767909 -0.12575633132281341 0 -0.45000974795797011 -0.119430952696417 0 -0.46221413283232399 -0.11366089481890911 0 -0.47750202174635031 -0.1215216316744509 0 -0.47430793409480421 -0.10627177682285049 0 -0.48673501487359588 -0.1010237797652184 0 -0.46221413283232399 -0.11366089481890911 0 -0.47750202174635031 -0.1215216316744509 0 -0.47430793409480421 -0.10627177682285049 0 -0.47430793409480421 -0.10627177682285049 0 -0.47745372589702628 -0.099742000537211661 0 -0.48673501487359588 -0.1010237797652184 0 -0.46153012095291662 -0.1019472767233552 0 -0.47430793409480421 -0.10627177682285049 0 -0.4710589232177344 -0.098453604121520433 0 -0.46631049206888459 -0.091444160656324658 0 -0.4710589232177344 -0.098453604121520433 0 -0.47771303140197108 -0.093218841439257433 0 -0.47430793409480421 -0.10627177682285049 0 -0.4710589232177344 -0.098453604121520433 0 -0.47745372589702628 -0.099742000537211661 0 -0.4710589232177344 -0.098453604121520433 0 -0.47745372589702628 -0.099742000537211661 0 -0.47771303140197108 -0.093218841439257433 0 -0.47745372589702628 -0.099742000537211661 0 -0.48673501487359588 -0.1010237797652184 0 -0.47771303140197108 -0.093218841439257433 0 -0.48673501487359588 -0.1010237797652184 0 -0.47771303140197108 -0.093218841439257433 0 -0.47702460168979111 -0.087157524427869615 0 -0.47750202174635031 -0.1215216316744509 0 -0.48673501487359588 -0.1010237797652184 0 -0.4986179579264654 -0.1020768288792674 0 -0.48673501487359588 -0.1010237797652184 0 -0.49842317329231273 -0.098636270432611556 0 -0.47702460168979111 -0.087157524427869615 0 -0.48673501487359588 -0.1010237797652184 0 -0.49842317329231273 -0.098636270432611556 0 -0.4986179579264654 -0.1020768288792674 0 -0.49999999999999939 -0.099482120969144883 0 -0.49842317329231273 -0.098636270432611556 0 -0.4986179579264654 -0.1020768288792674 0 -0.49842317329231273 -0.098636270432611556 0 -0.4986179579264654 -0.1020768288792674 0 -0.49999999999999939 -0.099482120969144883 0 -0.49842317329231273 -0.098636270432611556 0 -0.50000000000000011 -0.12648838757554831 0 -0.47750202174635031 -0.1215216316744509 0 -0.4986179579264654 -0.1020768288792674 0 -0.47750202174635031 -0.1215216316744509 0 -0.4986179579264654 -0.1020768288792674 0 -0.47491389520024407 -0.068573693827893439 0 -0.47702460168979111 -0.087157524427869615 0 -0.4847984782487687 -0.075944598732494498 0 -0.47491389520024407 -0.068573693827893439 0 -0.47702460168979111 -0.087157524427869615 0 -0.47967839073812912 -0.064727650616396362 0 -0.4847984782487687 -0.075944598732494498 0 -0.48794163871831331 -0.064119883023254248 0 -0.47967839073812912 -0.064727650616396362 0 -0.47491389520024407 -0.068573693827893439 0 -0.4847984782487687 -0.075944598732494498 0 -0.47967839073812912 -0.064727650616396362 0 -0.47491389520024407 -0.068573693827893439 0 -0.46192575156697407 -0.079058111591217034 0 -0.47702460168979111 -0.087157524427869615 0 -0.46192575156697407 -0.079058111591217034 0 -0.47491389520024407 -0.068573693827893439 0 -0.47702460168979111 -0.087157524427869615 0 -0.46631049206888459 -0.091444160656324658 0 -0.47771303140197108 -0.093218841439257433 0 -0.47702460168979111 -0.087157524427869615 0 -0.47771303140197108 -0.093218841439257433 0 -0.47702460168979111 -0.087157524427869615 0 -0.49842317329231273 -0.098636270432611556 0 -0.49712708577170861 -0.075742961183477536 0 -0.4847984782487687 -0.075944598732494498 0 -0.49999999999999939 -0.099482120969144883 0 -0.49842317329231273 -0.098636270432611556 0 -0.5 -0.078030389970551228 0 -0.49842317329231273 -0.098636270432611556 0 -0.49712708577170861 -0.075742961183477536 0 -0.49842317329231273 -0.098636270432611556 0 -0.5 -0.078030389970551228 0 -0.49712708577170861 -0.075742961183477536 0 -0.49842317329231273 -0.098636270432611556 0 -0.47702460168979111 -0.087157524427869615 0 -0.4847984782487687 -0.075944598732494498 0 -0.49842317329231273 -0.098636270432611556 0 -0.47702460168979111 -0.087157524427869615 0 -0.5 -0.078030389970551228 0 -0.49712708577170861 -0.075742961183477536 0 -0.49999999999999928 -0.056578658971957581 0 -0.49712708577170861 -0.075742961183477536 0 -0.49583099825110311 -0.052849651934343489 0 -0.49712708577170861 -0.075742961183477536 0 -0.48794163871831331 -0.064119883023254248 0 -0.49583099825110311 -0.052849651934343489 0 -0.49712708577170861 -0.075742961183477536 0 -0.4847984782487687 -0.075944598732494498 0 -0.48794163871831331 -0.064119883023254248 0 -0.49712708577170861 -0.075742961183477536 0 -0.49999999999999928 -0.056578658971957581 0 -0.49583099825110311 -0.052849651934343489 0 -0.49583099825110311 -0.052849651934343489 0 -0.47748890114140963 -0.036443372127734748 0 -0.48227324058185622 -0.051334552649559453 0 -0.49999999999999928 -0.056578658971957581 0 -0.49583099825110311 -0.052849651934343489 0 -0.49999999999999928 -0.056578658971957581 0 -0.50000000000000144 -0.053559852644015388 0 -0.49583099825110311 -0.052849651934343489 0 -0.48794163871831331 -0.064119883023254248 0 -0.49583099825110311 -0.052849651934343489 0 -0.48227324058185622 -0.051334552649559453 0 -0.50000000000000144 -0.053559852644015388 0 -0.49583099825110311 -0.052849651934343489 0 -0.48598145264485831 -0.02728491224803695 0 -0.49583099825110311 -0.052849651934343489 0 -0.47748890114140963 -0.036443372127734748 0 -0.48598145264485831 -0.02728491224803695 0 -0.50000000000000144 -0.053559852644015388 0 -0.48598145264485831 -0.02728491224803695 0 -0.50000000000000144 -0.053559852644015388 0 -0.48598145264485831 -0.02728491224803695 0 -0.5 -0.025161366008633609 0 -0.49583099825110311 -0.052849651934343489 0 -0.47748890114140963 -0.036443372127734748 0 -0.47748890114140963 -0.036443372127734748 0 -0.48598145264485831 -0.02728491224803695 0 -0.47748890114140963 -0.036443372127734748 0 -0.47194379404182718 -0.042423275915137587 0 -0.48227324058185622 -0.051334552649559453 0 -0.47748890114140963 -0.036443372127734748 0 -0.47194379404182718 -0.042423275915137587 0 -0.47748890114140963 -0.036443372127734748 0 -0.47194379404182718 -0.042423275915137587 0 -0.47056077858213702 -0.03024644074295027 0 -0.47194379404182718 -0.042423275915137587 0 -0.46539503278239303 -0.037082973767017267 0 -0.47056077858213702 -0.03024644074295027 0 -0.47194379404182718 -0.042423275915137587 0 -0.47056077858213702 -0.03024644074295027 0 -0.47748890114140963 -0.036443372127734748 0 -0.47056077858213702 -0.03024644074295027 0 -0.47748890114140963 -0.036443372127734748 0 -0.47056077858213702 -0.03024644074295027 0 -0.47745882259212458 -0.028728106929589409 0 -0.47967839073812912 -0.064727650616396362 0 -0.47491389520024407 -0.068573693827893439 0 -0.47194379404182718 -0.042423275915137587 0 -0.47967839073812912 -0.064727650616396362 0 -0.47194379404182718 -0.042423275915137587 0 -0.48227324058185622 -0.051334552649559453 0 -0.47491389520024407 -0.068573693827893439 0 -0.47194379404182718 -0.042423275915137587 0 -0.47967839073812912 -0.064727650616396362 0 -0.48794163871831331 -0.064119883023254248 0 -0.48227324058185622 -0.051334552649559453 0 -0.47491389520024407 -0.068573693827893439 0 -0.47194379404182718 -0.042423275915137587 0 -0.45893666683642192 -0.056450303318209168 0 -0.45893666683642192 -0.056450303318209168 0 -0.45743491846808387 -0.04563500224908737 0 -0.44544580640037118 -0.056213229689383748 0 -0.47194379404182718 -0.042423275915137587 0 -0.45893666683642192 -0.056450303318209168 0 -0.45743491846808387 -0.04563500224908737 0 -0.47194379404182718 -0.042423275915137587 0 -0.45893666683642192 -0.056450303318209168 0 -0.46539503278239303 -0.037082973767017267 0 -0.44890774518284438 -0.02927164544362729 0 -0.46539503278239303 -0.037082973767017267 0 -0.45215967652477718 -0.036640332234541717 0 -0.44890774518284438 -0.02927164544362729 0 -0.46539503278239303 -0.037082973767017267 0 -0.44890774518284438 -0.02927164544362729 0 -0.46189821575704781 -0.02986243911986371 0 -0.47194379404182718 -0.042423275915137587 0 -0.46539503278239303 -0.037082973767017267 0 -0.45743491846808387 -0.04563500224908737 0 -0.46539503278239303 -0.037082973767017267 0 -0.46189821575704781 -0.02986243911986371 0 -0.47056077858213702 -0.03024644074295027 0 -0.46539503278239303 -0.037082973767017267 0 -0.45743491846808387 -0.04563500224908737 0 -0.45215967652477718 -0.036640332234541717 0 -0.42981912379901888 -0.030443092666165631 0 -0.45215967652477718 -0.036640332234541717 0 -0.45743491846808387 -0.04563500224908737 0 -0.45215967652477718 -0.036640332234541717 0 -0.43957367317472601 -0.045089571971719818 0 -0.42981912379901888 -0.030443092666165631 0 -0.45215967652477718 -0.036640332234541717 0 -0.43957367317472601 -0.045089571971719818 0 -0.45743491846808387 -0.04563500224908737 0 -0.43957367317472601 -0.045089571971719818 0 -0.44544580640037118 -0.056213229689383748 0 -0.4246600563061857 -0.059067830999859447 0 -0.44592953963101739 -0.07047733072128165 0 -0.44544580640037118 -0.056213229689383748 0 -0.44592953963101739 -0.07047733072128165 0 -0.45893666683642192 -0.056450303318209168 0 -0.44544580640037118 -0.056213229689383748 0 -0.4441818909265971 -0.00998157505946092 0 -0.45588653083934588 0.00041698580085632909 0 -0.44737850259376799 0.0077656591989471307 0 -0.4441818909265971 -0.00998157505946092 0 -0.4570262928383732 -0.018140378997512391 0 -0.45633913854906122 -0.0094275687658610888 0 -0.4441818909265971 -0.00998157505946092 0 -0.45633913854906122 -0.0094275687658610888 0 -0.45588653083934588 0.00041698580085632909 0 -0.43741768347029059 -0.01288367903972009 0 -0.4441818909265971 -0.00998157505946092 0 -0.44890774518284438 -0.02927164544362729 0 -0.42981912379901888 -0.030443092666165631 0 -0.45215967652477718 -0.036640332234541717 0 -0.4392085005598273 -0.024676348383282701 0 -0.4441818909265971 -0.00998157505946092 0 -0.44890774518284438 -0.02927164544362729 0 -0.46258273328813732 -0.023158067004484729 0 -0.43741768347029059 -0.01288367903972009 0 -0.44890774518284438 -0.02927164544362729 0 -0.43741768347029059 -0.01288367903972009 0 -0.4392085005598273 -0.024676348383282701 0 -0.44890774518284438 -0.02927164544362729 0 -0.4392085005598273 -0.024676348383282701 0 -0.44890774518284438 -0.02927164544362729 0 -0.45215967652477718 -0.036640332234541717 0 -0.4392085005598273 -0.024676348383282701 0 -0.44890774518284438 -0.02927164544362729 0 -0.4441818909265971 -0.00998157505946092 0 -0.46258273328813732 -0.023158067004484729 0 -0.46258273328813732 -0.023158067004484729 0 -0.46826183959192841 -0.01000530680732737 0 -0.47056077858213702 -0.03024644074295027 0 -0.4441818909265971 -0.00998157505946092 0 -0.4570262928383732 -0.018140378997512391 0 -0.46258273328813732 -0.023158067004484729 0 -0.4570262928383732 -0.018140378997512391 0 -0.46258273328813732 -0.023158067004484729 0 -0.44890774518284438 -0.02927164544362729 0 -0.46189821575704781 -0.02986243911986371 0 -0.46258273328813732 -0.023158067004484729 0 -0.46258273328813732 -0.023158067004484729 0 -0.47056077858213702 -0.03024644074295027 0 -0.46189821575704781 -0.02986243911986371 0 -0.46258273328813732 -0.023158067004484729 0 -0.47056077858213702 -0.03024644074295027 0 -0.4570262928383732 -0.018140378997512391 0 -0.46258273328813732 -0.023158067004484729 0 -0.46826183959192841 -0.01000530680732737 0 -0.4570262928383732 -0.018140378997512391 0 -0.46826183959192841 -0.01000530680732737 0 -0.45633913854906122 -0.0094275687658610888 0 -0.46826183959192841 -0.01000530680732737 0 -0.45633913854906122 -0.0094275687658610888 0 -0.45588653083934588 0.00041698580085632909 0 -0.46826183959192841 -0.01000530680732737 0 -0.47597217662329228 -0.0085245425598697612 0 -0.4659629006017233 0.010235827128295859 0 -0.46826183959192841 -0.01000530680732737 0 -0.47597217662329228 -0.0085245425598697612 0 -0.47580415800009379 -0.02093770259963601 0 -0.47597217662329228 -0.0085245425598697612 0 -0.48922725890134677 -0.010453537226696331 0 -0.48082517856277007 0.001845263919603602 0 -0.47597217662329228 -0.0085245425598697612 0 -0.47580415800009379 -0.02093770259963601 0 -0.48598145264485831 -0.02728491224803695 0 -0.47597217662329228 -0.0085245425598697612 0 -0.48598145264485831 -0.02728491224803695 0 -0.46826183959192841 -0.01000530680732737 0 -0.47056077858213702 -0.03024644074295027 0 -0.47580415800009379 -0.02093770259963601 0 -0.47597217662329228 -0.0085245425598697612 0 -0.48598145264485831 -0.02728491224803695 0 -0.4893389393206713 -0.02366416211133009 0 -0.46826183959192841 -0.01000530680732737 0 -0.47056077858213702 -0.03024644074295027 0 -0.47056077858213702 -0.03024644074295027 0 -0.47580415800009379 -0.02093770259963601 0 -0.47745882259212458 -0.028728106929589409 0 -0.47580415800009379 -0.02093770259963601 0 -0.47745882259212458 -0.028728106929589409 0 -0.48598145264485831 -0.02728491224803695 0 -0.47748890114140963 -0.036443372127734748 0 -0.47745882259212458 -0.028728106929589409 0 -0.48598145264485831 -0.02728491224803695 0 -0.48598145264485831 -0.02728491224803695 0 -0.4893389393206713 -0.02366416211133009 0 -0.5 -0.025161366008633609 0 -0.48598145264485831 -0.02728491224803695 0 -0.4893389393206713 -0.02366416211133009 0 -0.4893389393206713 -0.02366416211133009 0 -0.5 -0.025161366008633609 0 -0.48922725890134677 -0.010453537226696331 0 -0.48922725890134677 -0.010453537226696331 0 -0.5 0.0032371206267481911 0 -0.48082517856277007 0.001845263919603602 0 -0.5 -0.025161366008633609 0 -0.48922725890134677 -0.010453537226696331 0 -0.5 0.0032371206267481911 0 -0.47597217662329228 -0.0085245425598697612 0 -0.4893389393206713 -0.02366416211133009 0 -0.48922725890134677 -0.010453537226696331 0 -0.5 0.0032371206267481911 0 -0.48596576445654982 0.01457961489688041 0 -0.48082517856277007 0.001845263919603602 0 -0.48596576445654982 0.01457961489688041 0 -0.47541999506787802 0.025418180444172121 0 -0.5 0.031635607262129987 0 -0.5 0.0032371206267481911 0 -0.48596576445654982 0.01457961489688041 0 -0.5 0.031635607262129987 0 -0.48596576445654982 0.01457961489688041 0 -0.47541999506787802 0.025418180444172121 0 -0.47401658579892991 0.013489912392399149 0 -0.47541999506787802 0.025418180444172121 0 -0.46963945276383978 0.01793989872667965 0 -0.47401658579892991 0.013489912392399149 0 -0.47597217662329228 -0.0085245425598697612 0 -0.48082517856277007 0.001845263919603602 0 -0.4659629006017233 0.010235827128295859 0 -0.47401658579892991 0.013489912392399149 0 -0.48082517856277007 0.001845263919603602 0 -0.4659629006017233 0.010235827128295859 0 -0.46963945276383978 0.01793989872667965 0 -0.47401658579892991 0.013489912392399149 0 -0.4659629006017233 0.010235827128295859 0 -0.47597217662329228 -0.0085245425598697612 0 -0.4659629006017233 0.010235827128295859 0 -0.48596576445654982 0.01457961489688041 0 -0.47401658579892991 0.013489912392399149 0 -0.48082517856277007 0.001845263919603602 0 -0.5 0.060034093897511798 0 -0.47816362815030861 0.043832779932641487 0 -0.48068047186290208 0.063626500276227002 0 -0.47541999506787802 0.025418180444172121 0 -0.5 0.031635607262129987 0 -0.47816362815030861 0.043832779932641487 0 -0.5 0.060034093897511798 0 -0.5 0.031635607262129987 0 -0.47816362815030861 0.043832779932641487 0 -0.47541999506787802 0.025418180444172121 0 -0.47816362815030861 0.043832779932641487 0 -0.46442391639916691 0.036471327701905212 0 -0.47816362815030861 0.043832779932641487 0 -0.46119618507356652 0.049359273152949731 0 -0.48068047186290208 0.063626500276227002 0 -0.46119618507356652 0.049359273152949731 0 -0.46103932749027238 0.064238871702306077 0 -0.48068047186290208 0.063626500276227002 0 -0.46119618507356652 0.049359273152949731 0 -0.44286953411296898 0.045255716157198693 0 -0.46103932749027238 0.064238871702306077 0 -0.47816362815030861 0.043832779932641487 0 -0.46119618507356652 0.049359273152949731 0 -0.46442391639916691 0.036471327701905212 0 -0.46119618507356652 0.049359273152949731 0 -0.46442391639916691 0.036471327701905212 0 -0.45082509298125129 0.038608595210277222 0 -0.46442391639916691 0.036471327701905212 0 -0.45082509298125129 0.038608595210277222 0 -0.4583939967914884 0.024422211169287101 0 -0.45082509298125129 0.038608595210277222 0 -0.4583939967914884 0.024422211169287101 0 -0.46119618507356652 0.049359273152949731 0 -0.45082509298125129 0.038608595210277222 0 -0.44286953411296898 0.045255716157198693 0 -0.45082509298125129 0.038608595210277222 0 -0.4405409619944019 0.035432846457562263 0 -0.4458839614772655 0.023387518650519249 0 -0.45082509298125129 0.038608595210277222 0 -0.4405409619944019 0.035432846457562263 0 -0.44286953411296898 0.045255716157198693 0 -0.4405409619944019 0.035432846457562263 0 -0.44286953411296898 0.045255716157198693 0 -0.43229092530358848 0.04451632412921195 0 -0.44286953411296898 0.045255716157198693 0 -0.44282721760043869 0.062046251170956107 0 -0.46103932749027238 0.064238871702306077 0 -0.44286953411296898 0.045255716157198693 0 -0.44282721760043869 0.062046251170956107 0 -0.43188097302969042 0.056955122555226501 0 -0.44286953411296898 0.045255716157198693 0 -0.46103932749027238 0.064238871702306077 0 -0.46826183959192841 -0.01000530680732737 0 -0.45588653083934588 0.00041698580085632909 0 -0.4659629006017233 0.010235827128295859 0 -0.46826183959192841 -0.01000530680732737 0 -0.4659629006017233 0.010235827128295859 0 -0.45609316173783881 0.014082317838893479 0 -0.45588653083934588 0.00041698580085632909 0 -0.4659629006017233 0.010235827128295859 0 -0.46963945276383978 0.01793989872667965 0 -0.4659629006017233 0.010235827128295859 0 -0.4583939967914884 0.024422211169287101 0 -0.4659629006017233 0.010235827128295859 0 -0.4583939967914884 0.024422211169287101 0 -0.47541999506787802 0.025418180444172121 0 -0.46963945276383978 0.01793989872667965 0 -0.4583939967914884 0.024422211169287101 0 -0.47541999506787802 0.025418180444172121 0 -0.46442391639916691 0.036471327701905212 0 -0.4583939967914884 0.024422211169287101 0 -0.45609316173783881 0.014082317838893479 0 -0.4659629006017233 0.010235827128295859 0 -0.4583939967914884 0.024422211169287101 0 -0.45609316173783881 0.014082317838893479 0 -0.4583939967914884 0.024422211169287101 0 -0.4458839614772655 0.023387518650519249 0 -0.45082509298125129 0.038608595210277222 0 -0.4583939967914884 0.024422211169287101 0 -0.4458839614772655 0.023387518650519249 0 -0.4405409619944019 0.035432846457562263 0 -0.4458839614772655 0.023387518650519249 0 -0.43566193494816191 0.02574822372494872 0 -0.4458839614772655 0.023387518650519249 0 -0.4359559447540089 0.01018896392150693 0 -0.43566193494816191 0.02574822372494872 0 -0.4441818909265971 -0.00998157505946092 0 -0.44737850259376799 0.0077656591989471307 0 -0.4359559447540089 0.01018896392150693 0 -0.4458839614772655 0.023387518650519249 0 -0.44737850259376799 0.0077656591989471307 0 -0.4359559447540089 0.01018896392150693 0 -0.45609316173783881 0.014082317838893479 0 -0.4458839614772655 0.023387518650519249 0 -0.44737850259376799 0.0077656591989471307 0 -0.45609316173783881 0.014082317838893479 0 -0.45588653083934588 0.00041698580085632909 0 -0.44737850259376799 0.0077656591989471307 0 -0.4441818909265971 -0.00998157505946092 0 -0.4359559447540089 0.01018896392150693 0 -0.42578104856505677 0.0031949168855625672 0 -0.42578104856505677 0.0031949168855625672 0 -0.41622595309658328 0.016397403714119251 0 -0.42870406893849561 0.019163111370922251 0 -0.4359559447540089 0.01018896392150693 0 -0.42578104856505677 0.0031949168855625672 0 -0.42870406893849561 0.019163111370922251 0 -0.41753789792717189 -0.0038843189997757009 0 -0.42578104856505677 0.0031949168855625672 0 -0.41105156913745711 0.0034129409419674369 0 -0.42578104856505677 0.0031949168855625672 0 -0.40852807671777941 0.0155494406680463 0 -0.41622595309658328 0.016397403714119251 0 -0.42578104856505677 0.0031949168855625672 0 -0.40852807671777941 0.0155494406680463 0 -0.41105156913745711 0.0034129409419674369 0 -0.42578104856505677 0.0031949168855625672 0 -0.40852807671777941 0.0155494406680463 0 -0.42578104856505677 0.0031949168855625672 0 -0.41622595309658328 0.016397403714119251 0 -0.40852807671777941 0.0155494406680463 0 -0.41105156913745711 0.0034129409419674369 0 -0.40262572535869262 0.0089097845909437267 0 -0.40771050441737638 -0.0035262849216432719 0 -0.41105156913745711 0.0034129409419674369 0 -0.40226596945639398 0.0014711925349297271 0 -0.40667085762811028 0.029599890542676258 0 -0.41622595309658328 0.016397403714119251 0 -0.42870406893849561 0.019163111370922251 0 -0.40667085762811028 0.029599890542676258 0 -0.42870406893849561 0.019163111370922251 0 -0.40667085762811028 0.029599890542676258 0 -0.41990433555607742 0.03061685230769556 0 -0.42870406893849561 0.019163111370922251 0 -0.40852807671777941 0.0155494406680463 0 -0.40667085762811028 0.029599890542676258 0 -0.41622595309658328 0.016397403714119251 0 -0.40667085762811028 0.029599890542676258 0 -0.41622595309658328 0.016397403714119251 0 -0.41990433555607742 0.03061685230769556 0 -0.4284463216954002 0.029357354603554459 0 -0.42870406893849561 0.019163111370922251 0 -0.4359559447540089 0.01018896392150693 0 -0.42870406893849561 0.019163111370922251 0 -0.43566193494816191 0.02574822372494872 0 -0.4284463216954002 0.029357354603554459 0 -0.42870406893849561 0.019163111370922251 0 -0.43566193494816191 0.02574822372494872 0 -0.4284463216954002 0.029357354603554459 0 -0.43566193494816191 0.02574822372494872 0 -0.43264023121812112 0.033917661463996759 0 -0.4405409619944019 0.035432846457562263 0 -0.43264023121812112 0.033917661463996759 0 -0.43229092530358848 0.04451632412921195 0 -0.43264023121812112 0.033917661463996759 0 -0.43229092530358848 0.04451632412921195 0 -0.42532103781614489 0.037340924150209003 0 -0.4405409619944019 0.035432846457562263 0 -0.43566193494816191 0.02574822372494872 0 -0.43264023121812112 0.033917661463996759 0 -0.43229092530358848 0.04451632412921195 0 -0.42532103781614489 0.037340924150209003 0 -0.42042490988599091 0.046091327469671317 0 -0.4284463216954002 0.029357354603554459 0 -0.43264023121812112 0.033917661463996759 0 -0.42532103781614489 0.037340924150209003 0 -0.41990433555607742 0.03061685230769556 0 -0.4284463216954002 0.029357354603554459 0 -0.42532103781614489 0.037340924150209003 0 -0.43229092530358848 0.04451632412921195 0 -0.43188097302969042 0.056955122555226501 0 -0.42585725303016408 0.051510102087770737 0 -0.44286953411296898 0.045255716157198693 0 -0.43229092530358848 0.04451632412921195 0 -0.43188097302969042 0.056955122555226501 0 -0.43229092530358848 0.04451632412921195 0 -0.42585725303016408 0.051510102087770737 0 -0.42042490988599091 0.046091327469671317 0 -0.43188097302969042 0.056955122555226501 0 -0.41883220390138681 0.058477634196973202 0 -0.43131469147834472 0.070632617455275076 0 -0.43188097302969042 0.056955122555226501 0 -0.42585725303016408 0.051510102087770737 0 -0.41883220390138681 0.058477634196973202 0 -0.41883220390138681 0.058477634196973202 0 -0.40840220717331749 0.048304634434869917 0 -0.39985653820026013 0.060860810446949978 0 -0.42585725303016408 0.051510102087770737 0 -0.41883220390138681 0.058477634196973202 0 -0.42042490988599091 0.046091327469671317 0 -0.41883220390138681 0.058477634196973202 0 -0.40840220717331749 0.048304634434869917 0 -0.42042490988599091 0.046091327469671317 0 -0.41990433555607742 0.03061685230769556 0 -0.42532103781614489 0.037340924150209003 0 -0.4122967326089878 0.037821593301397609 0 -0.42532103781614489 0.037340924150209003 0 -0.42042490988599091 0.046091327469671317 0 -0.4122967326089878 0.037821593301397609 0 -0.40840220717331749 0.048304634434869917 0 -0.4122967326089878 0.037821593301397609 0 -0.40579981868685489 0.041495006097714962 0 -0.40840220717331749 0.048304634434869917 0 -0.42042490988599091 0.046091327469671317 0 -0.4122967326089878 0.037821593301397609 0 -0.4122967326089878 0.037821593301397609 0 -0.40278544391907911 0.034968452634622761 0 -0.40579981868685489 0.041495006097714962 0 -0.40667085762811028 0.029599890542676258 0 -0.4122967326089878 0.037821593301397609 0 -0.40278544391907911 0.034968452634622761 0 -0.40667085762811028 0.029599890542676258 0 -0.41990433555607742 0.03061685230769556 0 -0.4122967326089878 0.037821593301397609 0 -0.40667085762811028 0.029599890542676258 0 -0.40278544391907911 0.034968452634622761 0 -0.40667085762811028 0.029599890542676258 0 -0.38856614517843069 0.038175802748282091 0 -0.40667085762811028 0.029599890542676258 0 -0.38856614517843069 0.038175802748282091 0 -0.39127510487050182 0.027903964450529759 0 -0.40667085762811028 0.029599890542676258 0 -0.40278544391907911 0.034968452634622761 0 -0.38856614517843069 0.038175802748282091 0 -0.40278544391907911 0.034968452634622761 0 -0.40579981868685489 0.041495006097714962 0 -0.3977250587697031 0.045015474274426849 0 -0.40840220717331749 0.048304634434869917 0 -0.40579981868685489 0.041495006097714962 0 -0.3977250587697031 0.045015474274426849 0 -0.40278544391907911 0.034968452634622761 0 -0.3977250587697031 0.045015474274426849 0 -0.38856614517843069 0.038175802748282091 0 -0.40840220717331749 0.048304634434869917 0 -0.3977250587697031 0.045015474274426849 0 -0.39985653820026013 0.060860810446949978 0 -0.3977250587697031 0.045015474274426849 0 -0.39985653820026013 0.060860810446949978 0 -0.38472691017257071 0.052921849058569698 0 -0.39985653820026013 0.060860810446949978 0 -0.38472691017257071 0.052921849058569698 0 -0.38510762700538009 0.066428587654483159 0 -0.38472691017257071 0.052921849058569698 0 -0.37046143272875132 0.04675171495388801 0 -0.37000681959492809 0.05831264468359916 0 -0.38472691017257071 0.052921849058569698 0 -0.38510762700538009 0.066428587654483159 0 -0.37000681959492809 0.05831264468359916 0 -0.38856614517843069 0.038175802748282091 0 -0.37871402691879819 0.03757115751491092 0 -0.37046143272875132 0.04675171495388801 0 -0.38856614517843069 0.038175802748282091 0 -0.37046143272875132 0.04675171495388801 0 -0.38472691017257071 0.052921849058569698 0 -0.38856614517843069 0.038175802748282091 0 -0.37046143272875132 0.04675171495388801 0 -0.38856614517843069 0.038175802748282091 0 -0.38315308642314733 0.033917821982192238 0 -0.39127510487050182 0.027903964450529759 0 -0.38856614517843069 0.038175802748282091 0 -0.38315308642314733 0.033917821982192238 0 -0.37871402691879819 0.03757115751491092 0 -0.3977250587697031 0.045015474274426849 0 -0.38472691017257071 0.052921849058569698 0 -0.38856614517843069 0.038175802748282091 0 -0.37871402691879819 0.03757115751491092 0 -0.3764786745208083 0.032098692741998169 0 -0.37046143272875132 0.04675171495388801 0 -0.38315308642314733 0.033917821982192238 0 -0.3764786745208083 0.032098692741998169 0 -0.38155727091044611 0.028316364585127811 0 -0.38315308642314733 0.033917821982192238 0 -0.37871402691879819 0.03757115751491092 0 -0.3764786745208083 0.032098692741998169 0 -0.3764786745208083 0.032098692741998169 0 -0.38155727091044611 0.028316364585127811 0 -0.37960108001976323 0.022263106047543741 0 -0.37960108001976323 0.022263106047543741 0 -0.37998819155715241 0.0057865511937031933 0 -0.37123175334181557 0.027162262264614271 0 -0.3764786745208083 0.032098692741998169 0 -0.37960108001976323 0.022263106047543741 0 -0.37123175334181557 0.027162262264614271 0 -0.38155727091044611 0.028316364585127811 0 -0.38533699425949169 0.022674384769296389 0 -0.37960108001976323 0.022263106047543741 0 -0.38155727091044611 0.028316364585127811 0 -0.38533699425949169 0.022674384769296389 0 -0.39127510487050182 0.027903964450529759 0 -0.38315308642314733 0.033917821982192238 0 -0.38155727091044611 0.028316364585127811 0 -0.39127510487050182 0.027903964450529759 0 -0.39054146691731162 0.018060194648231769 0 -0.38533699425949169 0.022674384769296389 0 -0.39127510487050182 0.027903964450529759 0 -0.38533699425949169 0.022674384769296389 0 -0.3837100485794358 0.01682829411504885 0 -0.37960108001976323 0.022263106047543741 0 -0.39054146691731162 0.018060194648231769 0 -0.38533699425949169 0.022674384769296389 0 -0.3837100485794358 0.01682829411504885 0 -0.3837100485794358 0.01682829411504885 0 -0.37960108001976323 0.022263106047543741 0 -0.37998819155715241 0.0057865511937031933 0 -0.37998819155715241 0.0057865511937031933 0 -0.38683543611469601 0.0001369023841863784 0 -0.36064890389212972 0.0125435277679194 0 -0.37998819155715241 0.0057865511937031933 0 -0.38683543611469601 0.0001369023841863784 0 -0.38901012294298121 0.0062908016400105649 0 -0.38683543611469601 0.0001369023841863784 0 -0.38901012294298121 0.0062908016400105649 0 -0.39501457079486157 0.0055715078560810288 0 -0.37998819155715241 0.0057865511937031933 0 -0.38901012294298121 0.0062908016400105649 0 -0.38744744785130802 0.01185902438546781 0 -0.3837100485794358 0.01682829411504885 0 -0.37998819155715241 0.0057865511937031933 0 -0.38744744785130802 0.01185902438546781 0 -0.38901012294298121 0.0062908016400105649 0 -0.38744744785130802 0.01185902438546781 0 -0.39422738021243581 0.01127211946813913 0 -0.39054146691731162 0.018060194648231769 0 -0.3837100485794358 0.01682829411504885 0 -0.38744744785130802 0.01185902438546781 0 -0.39054146691731162 0.018060194648231769 0 -0.39422738021243581 0.01127211946813913 0 -0.39743955081534421 0.016339100765178138 0 -0.39054146691731162 0.018060194648231769 0 -0.38744744785130802 0.01185902438546781 0 -0.39422738021243581 0.01127211946813913 0 -0.39422738021243581 0.01127211946813913 0 -0.39501457079486157 0.0055715078560810288 0 -0.40262572535869262 0.0089097845909437267 0 -0.39422738021243581 0.01127211946813913 0 -0.40262572535869262 0.0089097845909437267 0 -0.39743955081534421 0.016339100765178138 0 -0.38683543611469601 0.0001369023841863784 0 -0.39501457079486157 0.0055715078560810288 0 -0.40226596945639398 0.0014711925349297271 0 -0.38901012294298121 0.0062908016400105649 0 -0.39422738021243581 0.01127211946813913 0 -0.39501457079486157 0.0055715078560810288 0 -0.41105156913745711 0.0034129409419674369 0 -0.40226596945639398 0.0014711925349297271 0 -0.40262572535869262 0.0089097845909437267 0 -0.39501457079486157 0.0055715078560810288 0 -0.40226596945639398 0.0014711925349297271 0 -0.40262572535869262 0.0089097845909437267 0 -0.40852807671777941 0.0155494406680463 0 -0.40262572535869262 0.0089097845909437267 0 -0.39743955081534421 0.016339100765178138 0 -0.40852807671777941 0.0155494406680463 0 -0.39127510487050182 0.027903964450529759 0 -0.40852807671777941 0.0155494406680463 0 -0.40667085762811028 0.029599890542676258 0 -0.39127510487050182 0.027903964450529759 0 -0.40852807671777941 0.0155494406680463 0 -0.39127510487050182 0.027903964450529759 0 -0.39743955081534421 0.016339100765178138 0 -0.39054146691731162 0.018060194648231769 0 -0.39127510487050182 0.027903964450529759 0 -0.39743955081534421 0.016339100765178138 0 -0.39792088922733271 0.1160922105611595 0 -0.40104213778508202 0.092866093853817611 0 -0.41467909406405851 0.1139188519362445 0 -0.39792088922733271 0.1160922105611595 0 -0.3782625711058698 0.101617738696854 0 -0.40104213778508202 0.092866093853817611 0 -0.3782625711058698 0.101617738696854 0 -0.38372255811484618 0.13025780258704611 0 -0.3782625711058698 0.101617738696854 0 -0.38372255811484618 0.13025780258704611 0 -0.36747352968705388 0.12273486311700831 0 -0.39792088922733271 0.1160922105611595 0 -0.3782625711058698 0.101617738696854 0 -0.38372255811484618 0.13025780258704611 0 -0.39792088922733271 0.1160922105611595 0 -0.3782625711058698 0.101617738696854 0 -0.3782625711058698 0.101617738696854 0 -0.40104213778508202 0.092866093853817611 0 -0.37470600383380392 0.082961959162170973 0 -0.39520328107527708 0.075997639864115257 0 -0.40104213778508202 0.092866093853817611 0 -0.37470600383380392 0.082961959162170973 0 -0.3782625711058698 0.101617738696854 0 -0.37470600383380392 0.082961959162170973 0 -0.40104213778508202 0.092866093853817611 0 -0.37470600383380392 0.082961959162170973 0 -0.38510762700538009 0.066428587654483159 0 -0.37000681959492809 0.05831264468359916 0 -0.37470600383380392 0.082961959162170973 0 -0.38510762700538009 0.066428587654483159 0 -0.39520328107527708 0.075997639864115257 0 -0.37470600383380392 0.082961959162170973 0 -0.39985653820026013 0.060860810446949978 0 -0.39520328107527708 0.075997639864115257 0 -0.41322693425173768 0.074694678089132868 0 -0.39985653820026013 0.060860810446949978 0 -0.38510762700538009 0.066428587654483159 0 -0.39520328107527708 0.075997639864115257 0 -0.39520328107527708 0.075997639864115257 0 -0.40104213778508202 0.092866093853817611 0 -0.41322693425173768 0.074694678089132868 0 -0.40104213778508202 0.092866093853817611 0 -0.41322693425173768 0.074694678089132868 0 -0.42957324029363853 0.085693113452461764 0 -0.41883220390138681 0.058477634196973202 0 -0.41322693425173768 0.074694678089132868 0 -0.43131469147834472 0.070632617455275076 0 -0.41883220390138681 0.058477634196973202 0 -0.39985653820026013 0.060860810446949978 0 -0.41322693425173768 0.074694678089132868 0 -0.43131469147834472 0.070632617455275076 0 -0.42957324029363853 0.085693113452461764 0 -0.4470315618909167 0.073148927984774167 0 -0.41322693425173768 0.074694678089132868 0 -0.43131469147834472 0.070632617455275076 0 -0.42957324029363853 0.085693113452461764 0 -0.44282721760043869 0.062046251170956107 0 -0.43188097302969042 0.056955122555226501 0 -0.43131469147834472 0.070632617455275076 0 -0.42957324029363853 0.085693113452461764 0 -0.42737827173636012 0.1027702285454639 0 -0.44343173260412461 0.097571970950778963 0 -0.40104213778508202 0.092866093853817611 0 -0.42737827173636012 0.1027702285454639 0 -0.41467909406405851 0.1139188519362445 0 -0.40104213778508202 0.092866093853817611 0 -0.42737827173636012 0.1027702285454639 0 -0.40104213778508202 0.092866093853817611 0 -0.42957324029363853 0.085693113452461764 0 -0.42737827173636012 0.1027702285454639 0 -0.39792088922733271 0.1160922105611595 0 -0.41467909406405851 0.1139188519362445 0 -0.417579207348795 0.13056668242546571 0 -0.39792088922733271 0.1160922105611595 0 -0.417579207348795 0.13056668242546571 0 -0.41467909406405851 0.1139188519362445 0 -0.42608096723388439 0.1205091241492761 0 -0.417579207348795 0.13056668242546571 0 -0.42737827173636012 0.1027702285454639 0 -0.41467909406405851 0.1139188519362445 0 -0.42608096723388439 0.1205091241492761 0 -0.42737827173636012 0.1027702285454639 0 -0.42608096723388439 0.1205091241492761 0 -0.43826405507869293 0.1195835460605416 0 -0.42608096723388439 0.1205091241492761 0 -0.43826405507869293 0.1195835460605416 0 -0.43293323699752101 0.1317554923945817 0 -0.43826405507869293 0.1195835460605416 0 -0.45371440568763749 0.1126743632371118 0 -0.44901593584904892 0.12912088192892021 0 -0.42737827173636012 0.1027702285454639 0 -0.43826405507869293 0.1195835460605416 0 -0.45371440568763749 0.1126743632371118 0 -0.4523882543875366 0.10983005993361 0 -0.45371440568763749 0.1126743632371118 0 -0.42737827173636012 0.1027702285454639 0 -0.4523882543875366 0.10983005993361 0 -0.44343173260412461 0.097571970950778963 0 -0.42737827173636012 0.1027702285454639 0 -0.4523882543875366 0.10983005993361 0 -0.45371440568763749 0.1126743632371118 0 -0.42737827173636012 0.1027702285454639 0 -0.45371440568763749 0.1126743632371118 0 -0.44343173260412461 0.097571970950778963 0 -0.45084974973894648 0.096020795281878568 0 -0.45306155814551219 0.1028275296158008 0 -0.44343173260412461 0.097571970950778963 0 -0.45084974973894648 0.096020795281878568 0 -0.44733932132275389 0.088290098875458828 0 -0.4523882543875366 0.10983005993361 0 -0.44343173260412461 0.097571970950778963 0 -0.45306155814551219 0.1028275296158008 0 -0.4523882543875366 0.10983005993361 0 -0.45306155814551219 0.1028275296158008 0 -0.45661100561120399 0.109540819014999 0 -0.45306155814551219 0.1028275296158008 0 -0.46084618436187341 0.10490351706993729 0 -0.45661100561120399 0.109540819014999 0 -0.45306155814551219 0.1028275296158008 0 -0.46084618436187341 0.10490351706993729 0 -0.45799439118323759 0.099220837031069903 0 -0.46084618436187341 0.10490351706993729 0 -0.4635407771028337 0.1124237257980706 0 -0.45661100561120399 0.109540819014999 0 -0.45799439118323759 0.099220837031069903 0 -0.46723244863383712 0.097971273043108306 0 -0.45594156200913483 0.091684632610025046 0 -0.45084974973894648 0.096020795281878568 0 -0.45799439118323759 0.099220837031069903 0 -0.45594156200913483 0.091684632610025046 0 -0.45084974973894648 0.096020795281878568 0 -0.45306155814551219 0.1028275296158008 0 -0.45799439118323759 0.099220837031069903 0 -0.46084618436187341 0.10490351706993729 0 -0.45799439118323759 0.099220837031069903 0 -0.46723244863383712 0.097971273043108306 0 -0.46084618436187341 0.10490351706993729 0 -0.46723244863383712 0.097971273043108306 0 -0.46686982756835349 0.1074114054382402 0 -0.46084618436187341 0.10490351706993729 0 -0.46686982756835349 0.1074114054382402 0 -0.4635407771028337 0.1124237257980706 0 -0.45371440568763749 0.1126743632371118 0 -0.46425598871103851 0.13528374379222011 0 -0.4635407771028337 0.1124237257980706 0 -0.45674497769142258 0.1138140594952527 0 -0.46958882025875243 0.12035793204680111 0 -0.46686982756835349 0.1074114054382402 0 -0.4635407771028337 0.1124237257980706 0 -0.47044075898603932 0.11380610730348489 0 -0.4635407771028337 0.1124237257980706 0 -0.46958882025875243 0.12035793204680111 0 -0.47044075898603932 0.11380610730348489 0 -0.45674497769142258 0.1138140594952527 0 -0.45371440568763749 0.1126743632371118 0 -0.46425598871103851 0.13528374379222011 0 -0.45674497769142258 0.1138140594952527 0 -0.46958882025875243 0.12035793204680111 0 -0.46425598871103851 0.13528374379222011 0 -0.4523882543875366 0.10983005993361 0 -0.45661100561120399 0.109540819014999 0 -0.45371440568763749 0.1126743632371118 0 -0.45674497769142258 0.1138140594952527 0 -0.45661100561120399 0.109540819014999 0 -0.45371440568763749 0.1126743632371118 0 -0.45674497769142258 0.1138140594952527 0 -0.45371440568763749 0.1126743632371118 0 -0.4635407771028337 0.1124237257980706 0 -0.45674497769142258 0.1138140594952527 0 -0.45661100561120399 0.109540819014999 0 -0.44282721760043869 0.062046251170956107 0 -0.4470315618909167 0.073148927984774167 0 -0.46103932749027238 0.064238871702306077 0 -0.44282721760043869 0.062046251170956107 0 -0.43131469147834472 0.070632617455275076 0 -0.4470315618909167 0.073148927984774167 0 -0.42957324029363853 0.085693113452461764 0 -0.44343173260412461 0.097571970950778963 0 -0.44733932132275389 0.088290098875458828 0 -0.42957324029363853 0.085693113452461764 0 -0.4470315618909167 0.073148927984774167 0 -0.44733932132275389 0.088290098875458828 0 -0.4470315618909167 0.073148927984774167 0 -0.44733932132275389 0.088290098875458828 0 -0.46047789149500767 0.082617330138573752 0 -0.45084974973894648 0.096020795281878568 0 -0.44733932132275389 0.088290098875458828 0 -0.45594156200913483 0.091684632610025046 0 -0.44733932132275389 0.088290098875458828 0 -0.45594156200913483 0.091684632610025046 0 -0.46047789149500767 0.082617330138573752 0 -0.46723244863383712 0.097971273043108306 0 -0.45594156200913483 0.091684632610025046 0 -0.46047789149500767 0.082617330138573752 0 -0.46047789149500767 0.082617330138573752 0 -0.46103932749027238 0.064238871702306077 0 -0.47920912086757578 0.083222027247413538 0 -0.4470315618909167 0.073148927984774167 0 -0.46047789149500767 0.082617330138573752 0 -0.46103932749027238 0.064238871702306077 0 -0.46103932749027238 0.064238871702306077 0 -0.48068047186290208 0.063626500276227002 0 -0.47920912086757578 0.083222027247413538 0 -0.46103932749027238 0.064238871702306077 0 -0.47920912086757578 0.083222027247413538 0 -0.46723244863383712 0.097971273043108306 0 -0.46047789149500767 0.082617330138573752 0 -0.47920912086757578 0.083222027247413538 0 -0.48068047186290208 0.063626500276227002 0 -0.47920912086757578 0.083222027247413538 0 -0.5 0.088432580532893601 0 -0.47920912086757578 0.083222027247413538 0 -0.49737891424487929 0.102205182792521 0 -0.47920912086757578 0.083222027247413538 0 -0.5 0.088432580532893601 0 -0.49737891424487929 0.102205182792521 0 -0.5 0.060034093897511798 0 -0.48068047186290208 0.063626500276227002 0 -0.5 0.088432580532893601 0 -0.47827810320487629 0.116675775998883 0 -0.48837893466537508 0.1117690854599766 0 -0.4842723158563047 0.1301441798928954 0 -0.47827810320487629 0.116675775998883 0 -0.47512549980118862 0.10796659812409699 0 -0.48837893466537508 0.1117690854599766 0 -0.47827810320487629 0.116675775998883 0 -0.46958882025875243 0.12035793204680111 0 -0.4842723158563047 0.1301441798928954 0 -0.47827810320487629 0.116675775998883 0 -0.47044075898603932 0.11380610730348489 0 -0.47512549980118862 0.10796659812409699 0 -0.46686982756835349 0.1074114054382402 0 -0.47044075898603932 0.11380610730348489 0 -0.47512549980118862 0.10796659812409699 0 -0.47827810320487629 0.116675775998883 0 -0.46958882025875243 0.12035793204680111 0 -0.47044075898603932 0.11380610730348489 0 -0.46723244863383712 0.097971273043108306 0 -0.47512549980118862 0.10796659812409699 0 -0.48162445158666772 0.1005823670901454 0 -0.46723244863383712 0.097971273043108306 0 -0.47920912086757578 0.083222027247413538 0 -0.48162445158666772 0.1005823670901454 0 -0.46723244863383712 0.097971273043108306 0 -0.46686982756835349 0.1074114054382402 0 -0.47512549980118862 0.10796659812409699 0 -0.47512549980118862 0.10796659812409699 0 -0.48162445158666772 0.1005823670901454 0 -0.48837893466537508 0.1117690854599766 0 -0.48162445158666772 0.1005823670901454 0 -0.49737891424487929 0.102205182792521 0 -0.48837893466537508 0.1117690854599766 0 -0.47920912086757578 0.083222027247413538 0 -0.48162445158666772 0.1005823670901454 0 -0.49737891424487929 0.102205182792521 0 -0.5 0.088432580532893601 0 -0.49737891424487929 0.102205182792521 0 -0.5 0.1168310671682755 0 -0.49737891424487929 0.102205182792521 0 -0.5 0.1168310671682755 0 -0.48837893466537508 0.1117690854599766 0 -0.5 0.1168310671682755 0 -0.48837893466537508 0.1117690854599766 0 -0.4842723158563047 0.1301441798928954 0 -0.5 0.1168310671682755 0 -0.4842723158563047 0.1301441798928954 0 -0.5 0.14522955380365729 0 -0.46958882025875243 0.12035793204680111 0 -0.4842723158563047 0.1301441798928954 0 -0.46425598871103851 0.13528374379222011 0 -0.4842723158563047 0.1301441798928954 0 -0.47479757173443998 0.15789312434732811 0 -0.46425598871103851 0.13528374379222011 0 -0.47479757173443998 0.15789312434732811 0 -0.46425598871103851 0.13528374379222011 0 -0.4842723158563047 0.1301441798928954 0 -0.5 0.14522955380365729 0 -0.47479757173443998 0.15789312434732811 0 -0.5 0.14522955380365729 0 -0.49999999999999972 0.17362804043903909 0 -0.47479757173443998 0.15789312434732811 0 -0.49999999999999972 0.17362804043903909 0 -0.47479757173443998 0.15789312434732811 0 -0.49999999999999972 0.17362804043903909 0 -0.49200992699072321 0.1743962810239672 0 -0.47479757173443998 0.15789312434732811 0 -0.48341269367675271 0.17637066895233999 0 -0.49170634683837577 0.1941587336203292 0 -0.49368671912131301 0.1828531969182482 0 -0.49999999999999972 0.17362804043903909 0 -0.5 0.19278741936367841 0 -0.49368671912131301 0.1828531969182482 0 -0.48341269367675271 0.17637066895233999 0 -0.49170634683837577 0.1941587336203292 0 -0.49368671912131301 0.1828531969182482 0 -0.49999999999999972 0.17362804043903909 0 -0.49200992699072321 0.1743962810239672 0 -0.49200992699072321 0.1743962810239672 0 -0.48341269367675271 0.17637066895233999 0 -0.49368671912131301 0.1828531969182482 0 -0.49200992699072321 0.1743962810239672 0 -0.48341269367675271 0.17637066895233999 0 -0.48341269367675271 0.17637066895233999 0 -0.45591042926964898 0.18268667049205081 0 -0.47274380268756999 0.19288508587190861 0 -0.48341269367675271 0.17637066895233999 0 -0.45591042926964898 0.18268667049205081 0 -0.49200992699072321 0.1743962810239672 0 -0.48341269367675271 0.17637066895233999 0 -0.47479757173443998 0.15789312434732811 0 -0.48341269367675271 0.17637066895233999 0 -0.47479757173443998 0.15789312434732811 0 -0.48341269367675271 0.17637066895233999 0 -0.47479757173443998 0.15789312434732811 0 -0.45723956394668003 0.16387676974864759 0 -0.48341269367675271 0.17637066895233999 0 -0.45723956394668003 0.16387676974864759 0 -0.45591042926964898 0.18268667049205081 0 -0.45591042926964898 0.18268667049205081 0 -0.43992511097516529 0.17411109905454999 0 -0.4284081648625454 0.1890026720317621 0 -0.45591042926964898 0.18268667049205081 0 -0.4284081648625454 0.1890026720317621 0 -0.45723956394668003 0.16387676974864759 0 -0.45591042926964898 0.18268667049205081 0 -0.43992511097516529 0.17411109905454999 0 -0.45723956394668003 0.16387676974864759 0 -0.43992511097516529 0.17411109905454999 0 -0.43892522612619872 0.15930650560997939 0 -0.43892522612619872 0.15930650560997939 0 -0.43796764784210812 0.14528805014891141 0 -0.45386540436598038 0.14482430837095511 0 -0.45723956394668003 0.16387676974864759 0 -0.43892522612619872 0.15930650560997939 0 -0.45386540436598038 0.14482430837095511 0 -0.45386540436598038 0.14482430837095511 0 -0.43293323699752101 0.1317554923945817 0 -0.43826405507869293 0.1195835460605416 0 -0.44901593584904892 0.12912088192892021 0 -0.43293323699752101 0.1317554923945817 0 -0.43796764784210812 0.14528805014891141 0 -0.45386540436598038 0.14482430837095511 0 -0.43293323699752101 0.1317554923945817 0 -0.44901593584904892 0.12912088192892021 0 -0.45386540436598038 0.14482430837095511 0 -0.43293323699752101 0.1317554923945817 0 -0.45371440568763749 0.1126743632371118 0 -0.44901593584904892 0.12912088192892021 0 -0.46425598871103851 0.13528374379222011 0 -0.44901593584904892 0.12912088192892021 0 -0.46425598871103851 0.13528374379222011 0 -0.45386540436598038 0.14482430837095511 0 -0.47479757173443998 0.15789312434732811 0 -0.45723956394668003 0.16387676974864759 0 -0.45386540436598038 0.14482430837095511 0 -0.47479757173443998 0.15789312434732811 0 -0.46425598871103851 0.13528374379222011 0 -0.45386540436598038 0.14482430837095511 0 -0.47479757173443998 0.15789312434732811 0 -0.45386540436598038 0.14482430837095511 0 -0.48226153920099157 0.23766317590200001 0 -0.47864167104372218 0.246590621409366 0 -0.48932095354102823 0.25454658797793611 0 -0.47315400564016008 0.2364435414805684 0 -0.47864167104372218 0.246590621409366 0 -0.46938038244821267 0.25133041049185839 0 -0.47315400564016008 0.2364435414805684 0 -0.48226153920099157 0.23766317590200001 0 -0.47864167104372218 0.246590621409366 0 -0.49106398183666961 0.22759324404760359 0 -0.48932095354102823 0.25454658797793611 0 -0.5 0.23810140997737081 0 -0.49106398183666961 0.22759324404760359 0 -0.48932095354102823 0.25454658797793611 0 -0.48226153920099157 0.23766317590200001 0 -0.49106398183666961 0.22759324404760359 0 -0.48932095354102823 0.25454658797793611 0 -0.5 0.23810140997737081 0 -0.49106398183666961 0.22759324404760359 0 -0.50000000000000022 0.21194679828831781 0 -0.49106398183666961 0.22759324404760359 0 -0.47912708394337772 0.2231418845945258 0 -0.48726644121087642 0.21298690825741631 0 -0.48226153920099157 0.23766317590200001 0 -0.49106398183666961 0.22759324404760359 0 -0.47912708394337772 0.2231418845945258 0 -0.47315400564016008 0.2364435414805684 0 -0.48226153920099157 0.23766317590200001 0 -0.47912708394337772 0.2231418845945258 0 -0.47315400564016008 0.2364435414805684 0 -0.47912708394337772 0.2231418845945258 0 -0.46764368341616458 0.22415830119077751 0 -0.47912708394337772 0.2231418845945258 0 -0.47360767850491831 0.20951316246361981 0 -0.46764368341616458 0.22415830119077751 0 -0.47360767850491831 0.20951316246361981 0 -0.48726644121087642 0.21298690825741631 0 -0.49170634683837577 0.1941587336203292 0 -0.47912708394337772 0.2231418845945258 0 -0.47360767850491831 0.20951316246361981 0 -0.48726644121087642 0.21298690825741631 0 -0.49106398183666961 0.22759324404760359 0 -0.50000000000000022 0.21194679828831781 0 -0.48726644121087642 0.21298690825741631 0 -0.50000000000000022 0.21194679828831781 0 -0.48726644121087642 0.21298690825741631 0 -0.49170634683837577 0.1941587336203292 0 -0.50000000000000022 0.21194679828831781 0 -0.49170634683837577 0.1941587336203292 0 -0.50000000000000022 0.21194679828831781 0 -0.5 0.19278741936367841 0 -0.49170634683837577 0.1941587336203292 0 -0.49368671912131301 0.1828531969182482 0 -0.5 0.19278741936367841 0 -0.49170634683837577 0.1941587336203292 0 -0.48341269367675271 0.17637066895233999 0 -0.49170634683837577 0.1941587336203292 0 -0.47274380268756999 0.19288508587190861 0 -0.47360767850491831 0.20951316246361981 0 -0.49170634683837577 0.1941587336203292 0 -0.47274380268756999 0.19288508587190861 0 -0.47360767850491831 0.20951316246361981 0 -0.47274380268756999 0.19288508587190861 0 -0.45820261548712909 0.20353130823034371 0 -0.45591042926964898 0.18268667049205081 0 -0.47274380268756999 0.19288508587190861 0 -0.45820261548712909 0.20353130823034371 0 -0.45591042926964898 0.18268667049205081 0 -0.43516662619925378 0.20614333559983469 0 -0.4284081648625454 0.1890026720317621 0 -0.45591042926964898 0.18268667049205081 0 -0.45820261548712909 0.20353130823034371 0 -0.43516662619925378 0.20614333559983469 0 -0.44192508753596349 0.22328399916790689 0 -0.43516662619925378 0.20614333559983469 0 -0.45032248765871591 0.2151961798839368 0 -0.44192508753596349 0.22328399916790689 0 -0.43516662619925378 0.20614333559983469 0 -0.45032248765871591 0.2151961798839368 0 -0.45820261548712909 0.20353130823034371 0 -0.43516662619925378 0.20614333559983469 0 -0.45032248765871591 0.2151961798839368 0 -0.46109406183397039 0.21551848415653921 0 -0.45620465585954723 0.2251951411450015 0 -0.45032248765871591 0.2151961798839368 0 -0.45820261548712909 0.20353130823034371 0 -0.46109406183397039 0.21551848415653921 0 -0.47360767850491831 0.20951316246361981 0 -0.45820261548712909 0.20353130823034371 0 -0.46109406183397039 0.21551848415653921 0 -0.47360767850491831 0.20951316246361981 0 -0.46109406183397039 0.21551848415653921 0 -0.46764368341616458 0.22415830119077751 0 -0.47315400564016008 0.2364435414805684 0 -0.46764368341616458 0.22415830119077751 0 -0.45925329591452863 0.2407771106774913 0 -0.46764368341616458 0.22415830119077751 0 -0.45620465585954723 0.2251951411450015 0 -0.45925329591452863 0.2407771106774913 0 -0.46109406183397039 0.21551848415653921 0 -0.46764368341616458 0.22415830119077751 0 -0.45620465585954723 0.2251951411450015 0 -0.45032248765871591 0.2151961798839368 0 -0.45620465585954723 0.2251951411450015 0 -0.44192508753596349 0.22328399916790689 0 -0.44192508753596349 0.22328399916790689 0 -0.44062222049055039 0.24203477259657111 0 -0.43146145522804691 0.2313120115293863 0 -0.45620465585954723 0.2251951411450015 0 -0.44062222049055039 0.24203477259657111 0 -0.45620465585954723 0.2251951411450015 0 -0.44192508753596349 0.22328399916790689 0 -0.44062222049055039 0.24203477259657111 0 -0.44062222049055039 0.24203477259657111 0 -0.45046339488490522 0.249057113070103 0 -0.44442574262614493 0.25832327296872359 0 -0.44062222049055039 0.24203477259657111 0 -0.45046339488490522 0.249057113070103 0 -0.45925329591452863 0.2407771106774913 0 -0.45620465585954723 0.2251951411450015 0 -0.44062222049055039 0.24203477259657111 0 -0.45925329591452863 0.2407771106774913 0 -0.45046339488490522 0.249057113070103 0 -0.45925329591452863 0.2407771106774913 0 -0.45807104112411212 0.25534721177055669 0 -0.45925329591452863 0.2407771106774913 0 -0.46938038244821267 0.25133041049185839 0 -0.45807104112411212 0.25534721177055669 0 -0.47315400564016008 0.2364435414805684 0 -0.45925329591452863 0.2407771106774913 0 -0.46938038244821267 0.25133041049185839 0 -0.4198454647722451 0.23985190764030939 0 -0.40081965837488509 0.24074316727492401 0 -0.40585136056822319 0.25674789398696107 0 -0.4198454647722451 0.23985190764030939 0 -0.405480724964072 0.22581663549259839 0 -0.40081965837488509 0.24074316727492401 0 -0.44062222049055039 0.24203477259657111 0 -0.4198454647722451 0.23985190764030939 0 -0.42503978512155383 0.25887440404814072 0 -0.44062222049055039 0.24203477259657111 0 -0.4198454647722451 0.23985190764030939 0 -0.43146145522804691 0.2313120115293863 0 -0.4198454647722451 0.23985190764030939 0 -0.43146145522804691 0.2313120115293863 0 -0.42370673975344808 0.22056464269113771 0 -0.44192508753596349 0.22328399916790689 0 -0.43146145522804691 0.2313120115293863 0 -0.42370673975344808 0.22056464269113771 0 -0.4198454647722451 0.23985190764030939 0 -0.42370673975344808 0.22056464269113771 0 -0.405480724964072 0.22581663549259839 0 -0.42370673975344808 0.22056464269113771 0 -0.40708390191205951 0.20882890034131879 0 -0.405480724964072 0.22581663549259839 0 -0.42370673975344808 0.22056464269113771 0 -0.40708390191205951 0.20882890034131879 0 -0.42107335870595469 0.2022269477122331 0 -0.44192508753596349 0.22328399916790689 0 -0.42370673975344808 0.22056464269113771 0 -0.43516662619925378 0.20614333559983469 0 -0.42370673975344808 0.22056464269113771 0 -0.43516662619925378 0.20614333559983469 0 -0.42107335870595469 0.2022269477122331 0 -0.43516662619925378 0.20614333559983469 0 -0.4284081648625454 0.1890026720317621 0 -0.42107335870595469 0.2022269477122331 0 -0.43516662619925378 0.20614333559983469 0 -0.4284081648625454 0.1890026720317621 0 -0.4284081648625454 0.1890026720317621 0 -0.40915969581062839 0.19342315750049971 0 -0.4284081648625454 0.1890026720317621 0 -0.42107335870595469 0.2022269477122331 0 -0.40915969581062839 0.19342315750049971 0 -0.40708390191205951 0.20882890034131879 0 -0.42107335870595469 0.2022269477122331 0 -0.40915969581062839 0.19342315750049971 0 -0.40708390191205951 0.20882890034131879 0 -0.40915969581062839 0.19342315750049971 0 -0.38991122675871148 0.19784364296923759 0 -0.40915969581062839 0.19342315750049971 0 -0.38991122675871148 0.19784364296923759 0 -0.40915969581062839 0.19342315750049971 0 -0.38991122675871148 0.19784364296923759 0 -0.39569501158598158 0.17813944679546001 0 -0.39158905321283283 0.2136173787495643 0 -0.38435338999826391 0.22831720607051781 0 -0.36414166766971379 0.2074649771098355 0 -0.38991122675871148 0.19784364296923759 0 -0.39158905321283283 0.2136173787495643 0 -0.36414166766971379 0.2074649771098355 0 -0.40708390191205951 0.20882890034131879 0 -0.39158905321283283 0.2136173787495643 0 -0.405480724964072 0.22581663549259839 0 -0.40708390191205951 0.20882890034131879 0 -0.38991122675871148 0.19784364296923759 0 -0.39158905321283283 0.2136173787495643 0 -0.405480724964072 0.22581663549259839 0 -0.38435338999826391 0.22831720607051781 0 -0.40081965837488509 0.24074316727492401 0 -0.39158905321283283 0.2136173787495643 0 -0.405480724964072 0.22581663549259839 0 -0.38435338999826391 0.22831720607051781 0 -0.37619177155740557 0.24036243622333081 0 -0.38790582398472923 0.24962922847932231 0 -0.36318679658289171 0.25196182354824148 0 -0.38435338999826391 0.22831720607051781 0 -0.37619177155740557 0.24036243622333081 0 -0.38790582398472923 0.24962922847932231 0 -0.38435338999826391 0.22831720607051781 0 -0.38790582398472923 0.24962922847932231 0 -0.40081965837488509 0.24074316727492401 0 -0.38790582398472923 0.24962922847932231 0 -0.40081965837488509 0.24074316727492401 0 -0.40585136056822319 0.25674789398696107 0 -0.40926453963391513 0.14045102348790381 0 -0.42614672387873248 0.14526589422012931 0 -0.41883635224822963 0.16472684775983329 0 -0.40926453963391513 0.14045102348790381 0 -0.41883635224822963 0.16472684775983329 0 -0.40926453963391513 0.14045102348790381 0 -0.41883635224822963 0.16472684775983329 0 -0.40029434983296169 0.15790366282291429 0 -0.40926453963391513 0.14045102348790381 0 -0.417579207348795 0.13056668242546571 0 -0.40026410281127539 0.13237877311027449 0 -0.40926453963391513 0.14045102348790381 0 -0.417579207348795 0.13056668242546571 0 -0.42614672387873248 0.14526589422012931 0 -0.417579207348795 0.13056668242546571 0 -0.43293323699752101 0.1317554923945817 0 -0.42614672387873248 0.14526589422012931 0 -0.42608096723388439 0.1205091241492761 0 -0.417579207348795 0.13056668242546571 0 -0.43293323699752101 0.1317554923945817 0 -0.43796764784210812 0.14528805014891141 0 -0.43293323699752101 0.1317554923945817 0 -0.42614672387873248 0.14526589422012931 0 -0.43892522612619872 0.15930650560997939 0 -0.43796764784210812 0.14528805014891141 0 -0.42614672387873248 0.14526589422012931 0 -0.43892522612619872 0.15930650560997939 0 -0.42614672387873248 0.14526589422012931 0 -0.41883635224822963 0.16472684775983329 0 -0.43992511097516529 0.17411109905454999 0 -0.43892522612619872 0.15930650560997939 0 -0.41883635224822963 0.16472684775983329 0 -0.4284081648625454 0.1890026720317621 0 -0.41883635224822963 0.16472684775983329 0 -0.43992511097516529 0.17411109905454999 0 -0.4284081648625454 0.1890026720317621 0 -0.41883635224822963 0.16472684775983329 0 -0.40915969581062839 0.19342315750049971 0 -0.41883635224822963 0.16472684775983329 0 -0.39569501158598158 0.17813944679546001 0 -0.4284081648625454 0.1890026720317621 0 -0.40915969581062839 0.19342315750049971 0 -0.41883635224822963 0.16472684775983329 0 -0.40029434983296169 0.15790366282291429 0 -0.39569501158598158 0.17813944679546001 0 -0.38484252596519369 0.16167484958157691 0 -0.41883635224822963 0.16472684775983329 0 -0.40029434983296169 0.15790366282291429 0 -0.39569501158598158 0.17813944679546001 0 -0.39569501158598158 0.17813944679546001 0 -0.38484252596519369 0.16167484958157691 0 -0.36525228834216061 0.17922160577889321 0 -0.38991122675871148 0.19784364296923759 0 -0.39569501158598158 0.17813944679546001 0 -0.36525228834216061 0.17922160577889321 0 -0.39283331973148827 0.14452614648979731 0 -0.38372255811484618 0.13025780258704611 0 -0.36636290901460722 0.1509782344479508 0 -0.38484252596519369 0.16167484958157691 0 -0.39283331973148827 0.14452614648979731 0 -0.36636290901460722 0.1509782344479508 0 -0.40029434983296169 0.15790366282291429 0 -0.38484252596519369 0.16167484958157691 0 -0.39283331973148827 0.14452614648979731 0 -0.40926453963391513 0.14045102348790381 0 -0.40029434983296169 0.15790366282291429 0 -0.39283331973148827 0.14452614648979731 0 -0.39283331973148827 0.14452614648979731 0 -0.40026410281127539 0.13237877311027449 0 -0.38372255811484618 0.13025780258704611 0 -0.39792088922733271 0.1160922105611595 0 -0.417579207348795 0.13056668242546571 0 -0.40026410281127539 0.13237877311027449 0 -0.39792088922733271 0.1160922105611595 0 -0.40026410281127539 0.13237877311027449 0 -0.38372255811484618 0.13025780258704611 0 -0.40926453963391513 0.14045102348790381 0 -0.39283331973148827 0.14452614648979731 0 -0.40026410281127539 0.13237877311027449 0 -0.38372255811484618 0.13025780258704611 0 -0.36636290901460722 0.1509782344479508 0 -0.36747352968705388 0.12273486311700831 0 -0.36636290901460722 0.1509782344479508 0 -0.36747352968705388 0.12273486311700831 0 -0.35528769071996391 0.12689780186549679 0 -0.36636290901460722 0.1509782344479508 0 -0.36747352968705388 0.12273486311700831 0 -0.35528769071996391 0.12689780186549679 0 -0.33512599087492562 0.1447950320020088 0 -0.35528769071996391 0.12689780186549679 0 -0.35168351666373848 0.14314256241625531 0 -0.33512599087492562 0.1447950320020088 0 -0.35528769071996391 0.12689780186549679 0 -0.33512599087492562 0.1447950320020088 0 -0.34115039425197219 0.12498493974687711 0 -0.35528769071996391 0.12689780186549679 0 -0.35168351666373848 0.14314256241625531 0 -0.36636290901460722 0.1509782344479508 0 -0.35168351666373848 0.14314256241625531 0 -0.36636290901460722 0.1509782344479508 0 -0.34333519974196419 0.16612441953572921 0 -0.38484252596519369 0.16167484958157691 0 -0.36636290901460722 0.1509782344479508 0 -0.36525228834216061 0.17922160577889321 0 -0.36636290901460722 0.1509782344479508 0 -0.36525228834216061 0.17922160577889321 0 -0.36525228834216061 0.17922160577889321 0 -0.34333519974196419 0.16612441953572921 0 -0.34654591437965571 0.19533490523866279 0 -0.36636290901460722 0.1509782344479508 0 -0.36525228834216061 0.17922160577889321 0 -0.34333519974196419 0.16612441953572921 0 -0.34333519974196419 0.16612441953572921 0 -0.31496429102988749 0.16269226213852109 0 -0.33512599087492562 0.1447950320020088 0 -0.34333519974196419 0.16612441953572921 0 -0.34654591437965571 0.19533490523866279 0 -0.32412519241006588 0.1878495682783011 0 -0.31496429102988749 0.16269226213852109 0 -0.32412519241006588 0.1878495682783011 0 -0.34333519974196419 0.16612441953572921 0 -0.31496429102988749 0.16269226213852109 0 -0.32412519241006588 0.1878495682783011 0 -0.31303823693556859 0.17707572181323081 0 -0.31496429102988749 0.16269226213852109 0 -0.32412519241006588 0.1878495682783011 0 -0.31303823693556859 0.17707572181323081 0 -0.32412519241006588 0.1878495682783011 0 -0.3108046026399135 0.18379038091696129 0 -0.31496429102988749 0.16269226213852109 0 -0.31353256245119709 0.1587605055712967 0 -0.31354631638020197 0.13395604467094269 0 -0.33512599087492562 0.1447950320020088 0 -0.3122891553291075 0.14635758184588041 0 -0.31353256245119709 0.1587605055712967 0 -0.33512599087492562 0.1447950320020088 0 -0.3122891553291075 0.14635758184588041 0 -0.31496429102988749 0.16269226213852109 0 -0.31353256245119709 0.1587605055712967 0 -0.33512599087492562 0.1447950320020088 0 -0.31496429102988749 0.16269226213852109 0 -0.33512599087492562 0.1447950320020088 0 -0.31354631638020197 0.13395604467094269 0 -0.32917568526667751 0.12578156900391591 0 -0.33512599087492562 0.1447950320020088 0 -0.31354631638020197 0.13395604467094269 0 -0.32917568526667751 0.12578156900391591 0 -0.32114709127587232 0.11611322513389059 0 -0.32917568526667751 0.12578156900391591 0 -0.33512599087492562 0.1447950320020088 0 -0.34115039425197219 0.12498493974687711 0 -0.35168351666373848 0.14314256241625531 0 -0.34333519974196419 0.16612441953572921 0 -0.33512599087492562 0.1447950320020088 0 -0.36303104699726713 0.23570834844077809 0 -0.34244699517042121 0.23816418055786151 0 -0.36318679658289171 0.25196182354824148 0 -0.34244699517042121 0.23816418055786151 0 -0.36318679658289171 0.25196182354824148 0 -0.33952374355129727 0.25899057541505788 0 -0.37619177155740557 0.24036243622333081 0 -0.36303104699726713 0.23570834844077809 0 -0.36318679658289171 0.25196182354824148 0 -0.38435338999826391 0.22831720607051781 0 -0.37619177155740557 0.24036243622333081 0 -0.36303104699726713 0.23570834844077809 0 -0.38435338999826391 0.22831720607051781 0 -0.36303104699726713 0.23570834844077809 0 -0.36414166766971379 0.2074649771098355 0 -0.36303104699726713 0.23570834844077809 0 -0.36414166766971379 0.2074649771098355 0 -0.36303104699726713 0.23570834844077809 0 -0.35084793517488477 0.2210857468323085 0 -0.34244699517042121 0.23816418055786151 0 -0.36303104699726713 0.23570834844077809 0 -0.35084793517488477 0.2210857468323085 0 -0.36414166766971379 0.2074649771098355 0 -0.35084793517488477 0.2210857468323085 0 -0.36414166766971379 0.2074649771098355 0 -0.34654591437965571 0.19533490523866279 0 -0.36525228834216061 0.17922160577889321 0 -0.36414166766971379 0.2074649771098355 0 -0.38991122675871148 0.19784364296923759 0 -0.36525228834216061 0.17922160577889321 0 -0.36414166766971379 0.2074649771098355 0 -0.36525228834216061 0.17922160577889321 0 -0.36414166766971379 0.2074649771098355 0 -0.34654591437965571 0.19533490523866279 0 -0.32412519241006588 0.1878495682783011 0 -0.33328609379024349 0.2130068744180813 0 -0.34654591437965571 0.19533490523866279 0 -0.32412519241006588 0.1878495682783011 0 -0.33328609379024349 0.2130068744180813 0 -0.32412519241006588 0.1878495682783011 0 -0.33328609379024349 0.2130068744180813 0 -0.31080006153106382 0.20197173666100501 0 -0.32412519241006588 0.1878495682783011 0 -0.31080006153106382 0.20197173666100501 0 -0.3108046026399135 0.18379038091696129 0 -0.33328609379024349 0.2130068744180813 0 -0.31873218963182409 0.22654972870499029 0 -0.31080006153106382 0.20197173666100501 0 -0.35084793517488477 0.2210857468323085 0 -0.34654591437965571 0.19533490523866279 0 -0.33328609379024349 0.2130068744180813 0 -0.35084793517488477 0.2210857468323085 0 -0.33328609379024349 0.2130068744180813 0 -0.34244699517042121 0.23816418055786151 0 -0.33328609379024349 0.2130068744180813 0 -0.34244699517042121 0.23816418055786151 0 -0.33328609379024349 0.2130068744180813 0 -0.31873218963182409 0.22654972870499029 0 -0.34244699517042121 0.23816418055786151 0 -0.31873218963182409 0.22654972870499029 0 -0.32200613725511351 0.24850726385495631 0 -0.34244699517042121 0.23816418055786151 0 -0.31873218963182409 0.22654972870499029 0 -0.32200613725511351 0.24850726385495631 0 -0.30672251365844311 0.23743048015470111 0 -0.32200613725511351 0.24850726385495631 0 -0.34244699517042121 0.23816418055786151 0 -0.33952374355129727 0.25899057541505788 0 -0.29125564533142001 0.24067530578368901 0 -0.30672251365844311 0.23743048015470111 0 -0.30640548876467488 0.25787073169030861 0 -0.32200613725511351 0.24850726385495631 0 -0.30672251365844311 0.23743048015470111 0 -0.30640548876467488 0.25787073169030861 0 -0.29125564533142001 0.24067530578368901 0 -0.30672251365844311 0.23743048015470111 0 -0.29521310730918271 0.21354937073956171 0 -0.31873218963182409 0.22654972870499029 0 -0.30672251365844311 0.23743048015470111 0 -0.29521310730918271 0.21354937073956171 0 -0.29125564533142001 0.24067530578368901 0 -0.29521310730918271 0.21354937073956171 0 -0.29125564533142001 0.24067530578368901 0 -0.29521310730918271 0.21354937073956171 0 -0.27258595833473342 0.22149207507906341 0 -0.29521310730918271 0.21354937073956171 0 -0.28878760701375322 0.1984352968903606 0 -0.27490594785389072 0.20112241201531189 0 -0.31873218963182409 0.22654972870499029 0 -0.29521310730918271 0.21354937073956171 0 -0.31080006153106382 0.20197173666100501 0 -0.29521310730918271 0.21354937073956171 0 -0.29917056928694541 0.1864234356954344 0 -0.29521310730918271 0.21354937073956171 0 -0.31080006153106382 0.20197173666100501 0 -0.29917056928694541 0.1864234356954344 0 -0.31080006153106382 0.20197173666100501 0 -0.3108046026399135 0.18379038091696129 0 -0.29917056928694541 0.1864234356954344 0 -0.28878760701375322 0.1984352968903606 0 -0.29917056928694541 0.1864234356954344 0 -0.28955343229492791 0.1852490896997587 0 -0.29521310730918271 0.21354937073956171 0 -0.28878760701375322 0.1984352968903606 0 -0.29917056928694541 0.1864234356954344 0 -0.28878760701375322 0.1984352968903606 0 -0.27938784373491388 0.18917199981814359 0 -0.28955343229492791 0.1852490896997587 0 -0.27938784373491388 0.18917199981814359 0 -0.27490594785389072 0.20112241201531189 0 -0.26439180367967152 0.18225540552070321 0 -0.28878760701375322 0.1984352968903606 0 -0.27938784373491388 0.18917199981814359 0 -0.27490594785389072 0.20112241201531189 0 -0.27490594785389072 0.20112241201531189 0 -0.25370102580463139 0.2052288024824625 0 -0.26439180367967152 0.18225540552070321 0 -0.25370102580463139 0.2052288024824625 0 -0.26439180367967152 0.18225540552070321 0 -0.23359887481107691 0.1809086922627815 0 -0.27490594785389072 0.20112241201531189 0 -0.25370102580463139 0.2052288024824625 0 -0.27258595833473342 0.22149207507906341 0 -0.29521310730918271 0.21354937073956171 0 -0.27490594785389072 0.20112241201531189 0 -0.27258595833473342 0.22149207507906341 0 -0.29125564533142001 0.24067530578368901 0 -0.27258595833473342 0.22149207507906341 0 -0.26834113505385238 0.23837358332174549 0 -0.27258595833473342 0.22149207507906341 0 -0.25272375818517617 0.22994970808158929 0 -0.26834113505385238 0.23837358332174549 0 -0.25370102580463139 0.2052288024824625 0 -0.27258595833473342 0.22149207507906341 0 -0.25272375818517617 0.22994970808158929 0 -0.25272375818517617 0.22994970808158929 0 -0.25621817608628389 0.2460965770837312 0 -0.26834113505385238 0.23837358332174549 0 -0.25621817608628389 0.2460965770837312 0 -0.26834113505385238 0.23837358332174549 0 -0.26892213733164849 0.25365425058065472 0 -0.29125564533142001 0.24067530578368901 0 -0.26834113505385238 0.23837358332174549 0 -0.26892213733164849 0.25365425058065472 0 -0.29370567785695612 0.15770531643225719 0 -0.28412418886142132 0.16518528890623771 0 -0.28065913062351988 0.14575155473079041 0 -0.30159211447790629 0.14759241864651959 0 -0.29370567785695612 0.15770531643225719 0 -0.28065913062351988 0.14575155473079041 0 -0.29682817834931757 0.13068013418198679 0 -0.30159211447790629 0.14759241864651959 0 -0.28065913062351988 0.14575155473079041 0 -0.29682817834931757 0.13068013418198679 0 -0.28065913062351988 0.14575155473079041 0 -0.28285123447775751 0.1183560919224374 0 -0.31354631638020197 0.13395604467094269 0 -0.29682817834931757 0.13068013418198679 0 -0.30159211447790629 0.14759241864651959 0 -0.31354631638020197 0.13395604467094269 0 -0.3122891553291075 0.14635758184588041 0 -0.30159211447790629 0.14759241864651959 0 -0.31353256245119709 0.1587605055712967 0 -0.3122891553291075 0.14635758184588041 0 -0.30159211447790629 0.14759241864651959 0 -0.31496429102988749 0.16269226213852109 0 -0.31353256245119709 0.1587605055712967 0 -0.30488677357152572 0.1641353808659653 0 -0.30159211447790629 0.14759241864651959 0 -0.30488677357152572 0.1641353808659653 0 -0.29370567785695612 0.15770531643225719 0 -0.31353256245119709 0.1587605055712967 0 -0.30159211447790629 0.14759241864651959 0 -0.30488677357152572 0.1641353808659653 0 -0.31496429102988749 0.16269226213852109 0 -0.30225886166240762 0.17397067591913981 0 -0.31303823693556859 0.17707572181323081 0 -0.31496429102988749 0.16269226213852109 0 -0.30225886166240762 0.17397067591913981 0 -0.31496429102988749 0.16269226213852109 0 -0.30488677357152572 0.1641353808659653 0 -0.30225886166240762 0.17397067591913981 0 -0.30488677357152572 0.1641353808659653 0 -0.30225886166240762 0.17397067591913981 0 -0.29597535979189887 0.1670989905046398 0 -0.30488677357152572 0.1641353808659653 0 -0.29370567785695612 0.15770531643225719 0 -0.29597535979189887 0.1670989905046398 0 -0.31303823693556859 0.17707572181323081 0 -0.3108046026399135 0.18379038091696129 0 -0.30225886166240762 0.17397067591913981 0 -0.30225886166240762 0.17397067591913981 0 -0.29917056928694541 0.1864234356954344 0 -0.28955343229492791 0.1852490896997587 0 -0.3108046026399135 0.18379038091696129 0 -0.30225886166240762 0.17397067591913981 0 -0.29917056928694541 0.1864234356954344 0 -0.30225886166240762 0.17397067591913981 0 -0.28955343229492791 0.1852490896997587 0 -0.30225886166240762 0.17397067591913981 0 -0.28955343229492791 0.1852490896997587 0 -0.29024545837739651 0.173916500811098 0 -0.28955343229492791 0.1852490896997587 0 -0.29024545837739651 0.173916500811098 0 -0.27889874324695868 0.17762520371433099 0 -0.29024545837739651 0.173916500811098 0 -0.28412418886142132 0.16518528890623771 0 -0.27889874324695868 0.17762520371433099 0 -0.27938784373491388 0.18917199981814359 0 -0.28955343229492791 0.1852490896997587 0 -0.27889874324695868 0.17762520371433099 0 -0.29370567785695612 0.15770531643225719 0 -0.29597535979189887 0.1670989905046398 0 -0.28412418886142132 0.16518528890623771 0 -0.30225886166240762 0.17397067591913981 0 -0.29024545837739651 0.173916500811098 0 -0.29597535979189887 0.1670989905046398 0 -0.29024545837739651 0.173916500811098 0 -0.29597535979189887 0.1670989905046398 0 -0.28412418886142132 0.16518528890623771 0 -0.28412418886142132 0.16518528890623771 0 -0.26844272787379447 0.16268744982768751 0 -0.27889874324695868 0.17762520371433099 0 -0.28412418886142132 0.16518528890623771 0 -0.26844272787379447 0.16268744982768751 0 -0.28065913062351988 0.14575155473079041 0 -0.26844272787379447 0.16268744982768751 0 -0.27889874324695868 0.17762520371433099 0 -0.26439180367967152 0.18225540552070321 0 -0.27938784373491388 0.18917199981814359 0 -0.27889874324695868 0.17762520371433099 0 -0.26439180367967152 0.18225540552070321 0 -0.26844272787379447 0.16268744982768751 0 -0.26439180367967152 0.18225540552070321 0 -0.247018622616726 0.15992587597476091 0 -0.26844272787379447 0.16268744982768751 0 -0.25846103874104392 0.14702121199507179 0 -0.247018622616726 0.15992587597476091 0 -0.26844272787379447 0.16268744982768751 0 -0.25846103874104392 0.14702121199507179 0 -0.28065913062351988 0.14575155473079041 0 -0.25846103874104392 0.14702121199507179 0 -0.28065913062351988 0.14575155473079041 0 -0.25922316449870308 0.12628093809151891 0 -0.28065913062351988 0.14575155473079041 0 -0.25922316449870308 0.12628093809151891 0 -0.28285123447775751 0.1183560919224374 0 -0.25846103874104392 0.14702121199507179 0 -0.25922316449870308 0.12628093809151891 0 -0.2369615480924761 0.1404602413506009 0 -0.25922316449870308 0.12628093809151891 0 -0.25136603029008331 0.1103208693098497 0 -0.26687835675477128 0.1014348965859585 0 -0.25136603029008331 0.1103208693098497 0 -0.26687835675477128 0.1014348965859585 0 -0.24377998071086901 0.096378574065869249 0 -0.26687835675477128 0.1014348965859585 0 -0.28737892951993471 0.098967158637655914 0 -0.27569457229827071 0.081243623470509244 0 -0.26687835675477128 0.1014348965859585 0 -0.28285123447775751 0.1183560919224374 0 -0.28737892951993471 0.098967158637655914 0 -0.25922316449870308 0.12628093809151891 0 -0.26687835675477128 0.1014348965859585 0 -0.28285123447775751 0.1183560919224374 0 -0.29682817834931757 0.13068013418198679 0 -0.28285123447775751 0.1183560919224374 0 -0.30549209578720232 0.10774456093924389 0 -0.28285123447775751 0.1183560919224374 0 -0.28737892951993471 0.098967158637655914 0 -0.30549209578720232 0.10774456093924389 0 -0.28737892951993471 0.098967158637655914 0 -0.30549209578720232 0.10774456093924389 0 -0.29743787519420251 0.08153307720754506 0 -0.30549209578720232 0.10774456093924389 0 -0.29743787519420251 0.08153307720754506 0 -0.31354631638020197 0.13395604467094269 0 -0.29682817834931757 0.13068013418198679 0 -0.30549209578720232 0.10774456093924389 0 -0.31354631638020197 0.13395604467094269 0 -0.30549209578720232 0.10774456093924389 0 -0.29926204670725021 0.066629363318123747 0 -0.30931237829482389 0.073252958087475881 0 -0.31697319293959142 0.061410437985649477 0 -0.29926204670725021 0.066629363318123747 0 -0.30931237829482389 0.073252958087475881 0 -0.29743787519420251 0.08153307720754506 0 -0.30549209578720232 0.10774456093924389 0 -0.29743787519420251 0.08153307720754506 0 -0.31312795334666071 0.083579729522452809 0 -0.30931237829482389 0.073252958087475881 0 -0.29743787519420251 0.08153307720754506 0 -0.31312795334666071 0.083579729522452809 0 -0.28737892951993471 0.098967158637655914 0 -0.29743787519420251 0.08153307720754506 0 -0.27569457229827071 0.081243623470509244 0 -0.29743787519420251 0.08153307720754506 0 -0.28743776060402371 0.060458689408765323 0 -0.28938365460120269 0.05532159347584624 0 -0.29743787519420251 0.08153307720754506 0 -0.28938365460120269 0.05532159347584624 0 -0.29926204670725021 0.066629363318123747 0 -0.29743787519420251 0.08153307720754506 0 -0.28938365460120269 0.05532159347584624 0 -0.29743787519420251 0.08153307720754506 0 -0.27569457229827071 0.081243623470509244 0 -0.28743776060402371 0.060458689408765323 0 -0.27569457229827071 0.081243623470509244 0 -0.26257114212692878 0.06573449919026883 0 -0.28743776060402371 0.060458689408765323 0 -0.26257114212692878 0.06573449919026883 0 -0.28743776060402371 0.060458689408765323 0 -0.26687835675477128 0.1014348965859585 0 -0.25261226255175379 0.080423606239198905 0 -0.24377998071086901 0.096378574065869249 0 -0.26687835675477128 0.1014348965859585 0 -0.27569457229827071 0.081243623470509244 0 -0.25261226255175379 0.080423606239198905 0 -0.26257114212692878 0.06573449919026883 0 -0.23770452364983391 0.071010308971772351 0 -0.25261226255175379 0.080423606239198905 0 -0.26257114212692878 0.06573449919026883 0 -0.23770452364983391 0.071010308971772351 0 -0.27569457229827071 0.081243623470509244 0 -0.25261226255175379 0.080423606239198905 0 -0.26257114212692878 0.06573449919026883 0 -0.2522816967992324 0.037264740289820159 0 -0.27263172987273521 0.051913181220590639 0 -0.24906194248509719 0.058488871325365822 0 -0.26257114212692878 0.06573449919026883 0 -0.27263172987273521 0.051913181220590639 0 -0.24906194248509719 0.058488871325365822 0 -0.2522816967992324 0.037264740289820159 0 -0.2684979789729644 0.03593820420606865 0 -0.27263172987273521 0.051913181220590639 0 -0.2684979789729644 0.03593820420606865 0 -0.27263172987273521 0.051913181220590639 0 -0.28132943400820298 0.02911010974414751 0 -0.27263172987273521 0.051913181220590639 0 -0.28132943400820298 0.02911010974414751 0 -0.28938365460120269 0.05532159347584624 0 -0.26257114212692878 0.06573449919026883 0 -0.27263172987273521 0.051913181220590639 0 -0.28743776060402371 0.060458689408765323 0 -0.25267499080189931 -0.0034516002120552492 0 -0.26909988492935111 -0.0018655285383734981 0 -0.25157722050270093 0.012682655753942951 0 -0.26909988492935111 -0.0018655285383734981 0 -0.25157722050270093 0.012682655753942951 0 -0.27200359261247947 0.017754051058092819 0 -0.2522816967992324 0.037264740289820159 0 -0.25157722050270093 0.012682655753942951 0 -0.27200359261247947 0.017754051058092819 0 -0.2522816967992324 0.037264740289820159 0 -0.2684979789729644 0.03593820420606865 0 -0.27200359261247947 0.017754051058092819 0 -0.2522816967992324 0.037264740289820159 0 -0.27200359261247947 0.017754051058092819 0 -0.27200359261247947 0.017754051058092819 0 -0.28831373269731447 0.017122983851404761 0 -0.28132943400820298 0.02911010974414751 0 -0.2684979789729644 0.03593820420606865 0 -0.27200359261247947 0.017754051058092819 0 -0.28132943400820298 0.02911010974414751 0 -0.26909988492935111 -0.0018655285383734981 0 -0.2917254884257266 -0.0017566381736345419 0 -0.27200359261247947 0.017754051058092819 0 -0.2917254884257266 -0.0017566381736345419 0 -0.27200359261247947 0.017754051058092819 0 -0.28831373269731447 0.017122983851404761 0 -0.2917254884257266 -0.0017566381736345419 0 -0.28831373269731447 0.017122983851404761 0 -0.29997880334656019 0.01439552450637107 0 -0.2917254884257266 -0.0017566381736345419 0 -0.27200359261247947 0.017754051058092819 0 -0.28831373269731447 0.017122983851404761 0 -0.29656482898857922 0.02610767777843559 0 -0.29997880334656019 0.01439552450637107 0 -0.28831373269731447 0.017122983851404761 0 -0.28132943400820298 0.02911010974414751 0 -0.29656482898857922 0.02610767777843559 0 -0.28132943400820298 0.02911010974414751 0 -0.29656482898857922 0.02610767777843559 0 -0.29344050585463782 0.03493273697686209 0 -0.29656482898857922 0.02610767777843559 0 -0.31039051656375261 0.022327184027059441 0 -0.30541723396373921 0.038711125382435783 0 -0.31039051656375261 0.022327184027059441 0 -0.30541723396373921 0.038711125382435783 0 -0.32038394146944787 0.031620215762440292 0 -0.29656482898857922 0.02610767777843559 0 -0.31039051656375261 0.022327184027059441 0 -0.29997880334656019 0.01439552450637107 0 -0.31039051656375261 0.022327184027059441 0 -0.31177688145040278 0.0050359958776742568 0 -0.29997880334656019 0.01439552450637107 0 -0.2917254884257266 -0.0017566381736345419 0 -0.31177688145040278 0.0050359958776742568 0 -0.29997880334656019 0.01439552450637107 0 -0.27263172987273521 0.051913181220590639 0 -0.28743776060402371 0.060458689408765323 0 -0.28938365460120269 0.05532159347584624 0 -0.28938365460120269 0.05532159347584624 0 -0.29045052645802971 0.045802035002429492 0 -0.29738278035354182 0.050541329601553678 0 -0.28938365460120269 0.05532159347584624 0 -0.29738278035354182 0.050541329601553678 0 -0.29780899910201009 0.056562827273038227 0 -0.29926204670725021 0.066629363318123747 0 -0.28938365460120269 0.05532159347584624 0 -0.29780899910201009 0.056562827273038227 0 -0.28132943400820298 0.02911010974414751 0 -0.28938365460120269 0.05532159347584624 0 -0.29045052645802971 0.045802035002429492 0 -0.28132943400820298 0.02911010974414751 0 -0.28938365460120269 0.05532159347584624 0 -0.28132943400820298 0.02911010974414751 0 -0.29344050585463782 0.03493273697686209 0 -0.29045052645802971 0.045802035002429492 0 -0.29344050585463782 0.03493273697686209 0 -0.29045052645802971 0.045802035002429492 0 -0.30541723396373921 0.038711125382435783 0 -0.29045052645802971 0.045802035002429492 0 -0.30541723396373921 0.038711125382435783 0 -0.29738278035354182 0.050541329601553678 0 -0.29045052645802971 0.045802035002429492 0 -0.30541723396373921 0.038711125382435783 0 -0.29656482898857922 0.02610767777843559 0 -0.29344050585463782 0.03493273697686209 0 -0.30541723396373921 0.038711125382435783 0 -0.30541723396373921 0.038711125382435783 0 -0.30520751474604563 0.05375902269662923 0 -0.31780711793698518 0.045521831715634557 0 -0.29926204670725021 0.066629363318123747 0 -0.30520751474604563 0.05375902269662923 0 -0.31697319293959142 0.061410437985649477 0 -0.30541723396373921 0.038711125382435783 0 -0.30520751474604563 0.05375902269662923 0 -0.29738278035354182 0.050541329601553678 0 -0.30520751474604563 0.05375902269662923 0 -0.29738278035354182 0.050541329601553678 0 -0.29780899910201009 0.056562827273038227 0 -0.29926204670725021 0.066629363318123747 0 -0.30520751474604563 0.05375902269662923 0 -0.29780899910201009 0.056562827273038227 0 -0.32553678940662539 0.052415823907368687 0 -0.31780711793698518 0.045521831715634557 0 -0.33422422494732851 0.04449049745268327 0 -0.31697319293959142 0.061410437985649477 0 -0.32553678940662539 0.052415823907368687 0 -0.31780711793698518 0.045521831715634557 0 -0.30520751474604563 0.05375902269662923 0 -0.31697319293959142 0.061410437985649477 0 -0.31780711793698518 0.045521831715634557 0 -0.31697319293959142 0.061410437985649477 0 -0.32808937753058609 0.059947696530402161 0 -0.32553678940662539 0.052415823907368687 0 -0.31780711793698518 0.045521831715634557 0 -0.32038394146944787 0.031620215762440292 0 -0.33422422494732851 0.04449049745268327 0 -0.30541723396373921 0.038711125382435783 0 -0.31780711793698518 0.045521831715634557 0 -0.32038394146944787 0.031620215762440292 0 -0.30541723396373921 0.038711125382435783 0 -0.32038394146944787 0.031620215762440292 0 -0.32038394146944787 0.031620215762440292 0 -0.33422422494732851 0.04449049745268327 0 -0.33422422494732851 0.04449049745268327 0 -0.34051642268078958 0.02208187176518148 0 -0.34924074101412461 0.03711639968071382 0 -0.32038394146944787 0.031620215762440292 0 -0.33422422494732851 0.04449049745268327 0 -0.34051642268078958 0.02208187176518148 0 -0.33422422494732851 0.04449049745268327 0 -0.34715076893326918 0.04673829876922056 0 -0.34924074101412461 0.03711639968071382 0 -0.33422422494732851 0.04449049745268327 0 -0.34806450842520742 0.057360779142928031 0 -0.34715076893326918 0.04673829876922056 0 -0.33422422494732851 0.04449049745268327 0 -0.34806450842520742 0.057360779142928031 0 -0.33422422494732851 0.04449049745268327 0 -0.33482930480244999 0.055095026294593591 0 -0.34806450842520742 0.057360779142928031 0 -0.3407399656121517 0.06083029771636933 0 -0.33482930480244999 0.055095026294593591 0 -0.33440717105718593 0.063083878638897639 0 -0.3407399656121517 0.06083029771636933 0 -0.33482930480244999 0.055095026294593591 0 -0.34806450842520742 0.057360779142928031 0 -0.32808937753058609 0.059947696530402161 0 -0.33482930480244999 0.055095026294593591 0 -0.33440717105718593 0.063083878638897639 0 -0.32808937753058609 0.059947696530402161 0 -0.32553678940662539 0.052415823907368687 0 -0.33482930480244999 0.055095026294593591 0 -0.32553678940662539 0.052415823907368687 0 -0.33422422494732851 0.04449049745268327 0 -0.33482930480244999 0.055095026294593591 0 -0.31039051656375261 0.022327184027059441 0 -0.31177688145040278 0.0050359958776742568 0 -0.3261420213634148 0.01391490981329808 0 -0.32828291010712762 -0.0049346835118845543 0 -0.31177688145040278 0.0050359958776742568 0 -0.3261420213634148 0.01391490981329808 0 -0.31039051656375261 0.022327184027059441 0 -0.32038394146944787 0.031620215762440292 0 -0.3261420213634148 0.01391490981329808 0 -0.31039051656375261 0.022327184027059441 0 -0.32038394146944787 0.031620215762440292 0 -0.32038394146944787 0.031620215762440292 0 -0.34051642268078958 0.02208187176518148 0 -0.32038394146944787 0.031620215762440292 0 -0.3261420213634148 0.01391490981329808 0 -0.34051642268078958 0.02208187176518148 0 -0.3261420213634148 0.01391490981329808 0 -0.34051642268078958 0.02208187176518148 0 -0.34055428987364128 0.0059527955302196532 0 -0.32828291010712762 -0.0049346835118845543 0 -0.3261420213634148 0.01391490981329808 0 -0.34055428987364128 0.0059527955302196532 0 -0.34051642268078958 0.02208187176518148 0 -0.34055428987364128 0.0059527955302196532 0 -0.36064890389212972 0.0125435277679194 0 -0.34718119132474479 -0.01384164818341615 0 -0.34055428987364128 0.0059527955302196532 0 -0.36064890389212972 0.0125435277679194 0 -0.34051642268078958 0.02208187176518148 0 -0.36064890389212972 0.0125435277679194 0 -0.34051642268078958 0.02208187176518148 0 -0.35699945364537122 0.027147445145089769 0 -0.34924074101412461 0.03711639968071382 0 -0.34051642268078958 0.02208187176518148 0 -0.35699945364537122 0.027147445145089769 0 -0.36064890389212972 0.0125435277679194 0 -0.35699945364537122 0.027147445145089769 0 -0.36163302121541668 0.029781402687577421 0 -0.35940737946489582 0.035374977024224222 0 -0.37998819155715241 0.0057865511937031933 0 -0.36738966121720701 0.029980518529024301 0 -0.37123175334181557 0.027162262264614271 0 -0.37998819155715241 0.0057865511937031933 0 -0.36738966121720701 0.029980518529024301 0 -0.3645477689834325 0.020181962352102071 0 -0.37998819155715241 0.0057865511937031933 0 -0.36738966121720701 0.029980518529024301 0 -0.36273559053419291 0.026622670051971411 0 -0.36738966121720701 0.029980518529024301 0 -0.3645477689834325 0.020181962352102071 0 -0.35699945364537122 0.027147445145089769 0 -0.36163302121541668 0.029781402687577421 0 -0.36273559053419291 0.026622670051971411 0 -0.35699945364537122 0.027147445145089769 0 -0.36273559053419291 0.026622670051971411 0 -0.3645477689834325 0.020181962352102071 0 -0.36163302121541668 0.029781402687577421 0 -0.36273559053419291 0.026622670051971411 0 -0.36738966121720701 0.029980518529024301 0 -0.35699945364537122 0.027147445145089769 0 -0.3645477689834325 0.020181962352102071 0 -0.36064890389212972 0.0125435277679194 0 -0.3645477689834325 0.020181962352102071 0 -0.36064890389212972 0.0125435277679194 0 -0.37998819155715241 0.0057865511937031933 0 -0.3645477689834325 0.020181962352102071 0 -0.36064890389212972 0.0125435277679194 0 -0.38683543611469601 0.0001369023841863784 0 -0.36064890389212972 0.0125435277679194 0 -0.37474494217865062 -0.0022388935110706832 0 -0.38683543611469601 0.0001369023841863784 0 -0.36064890389212972 0.0125435277679194 0 -0.37474494217865062 -0.0022388935110706832 0 -0.36307869926690151 -0.00068504054922277494 0 -0.36064890389212972 0.0125435277679194 0 -0.35479113087726238 0.05417448586434577 0 -0.34715076893326918 0.04673829876922056 0 -0.35593663516940488 0.04278932274017315 0 -0.35479113087726238 0.05417448586434577 0 -0.35147867423579721 0.06053566178096708 0 -0.3622197730044176 0.060127746183944272 0 -0.35479113087726238 0.05417448586434577 0 -0.35147867423579721 0.06053566178096708 0 -0.35479113087726238 0.05417448586434577 0 -0.34806450842520742 0.057360779142928031 0 -0.35147867423579721 0.06053566178096708 0 -0.35479113087726238 0.05417448586434577 0 -0.34806450842520742 0.057360779142928031 0 -0.34806450842520742 0.057360779142928031 0 -0.35147867423579721 0.06053566178096708 0 -0.3447014191436914 0.063951910484466787 0 -0.34806450842520742 0.057360779142928031 0 -0.35147867423579721 0.06053566178096708 0 -0.3407399656121517 0.06083029771636933 0 -0.34806450842520742 0.057360779142928031 0 -0.3407399656121517 0.06083029771636933 0 -0.34806450842520742 0.057360779142928031 0 -0.3447014191436914 0.063951910484466787 0 -0.35479113087726238 0.05417448586434577 0 -0.34806450842520742 0.057360779142928031 0 -0.34715076893326918 0.04673829876922056 0 -0.34715076893326918 0.04673829876922056 0 -0.34924074101412461 0.03711639968071382 0 -0.35593663516940488 0.04278932274017315 0 -0.36738966121720701 0.029980518529024301 0 -0.35479113087726238 0.05417448586434577 0 -0.35593663516940488 0.04278932274017315 0 -0.35699945364537122 0.027147445145089769 0 -0.34924074101412461 0.03711639968071382 0 -0.35940737946489582 0.035374977024224222 0 -0.34924074101412461 0.03711639968071382 0 -0.35593663516940488 0.04278932274017315 0 -0.35940737946489582 0.035374977024224222 0 -0.36738966121720701 0.029980518529024301 0 -0.35479113087726238 0.05417448586434577 0 -0.36677646394688163 0.041367990420506082 0 -0.37123175334181557 0.027162262264614271 0 -0.37046143272875132 0.04675171495388801 0 -0.36738966121720701 0.029980518529024301 0 -0.35479113087726238 0.05417448586434577 0 -0.37123175334181557 0.027162262264614271 0 -0.36677646394688163 0.041367990420506082 0 -0.37046143272875132 0.04675171495388801 0 -0.3764786745208083 0.032098692741998169 0 -0.37123175334181557 0.027162262264614271 0 -0.37046143272875132 0.04675171495388801 0 -0.36163302121541668 0.029781402687577421 0 -0.36738966121720701 0.029980518529024301 0 -0.35940737946489582 0.035374977024224222 0 -0.36738966121720701 0.029980518529024301 0 -0.35593663516940488 0.04278932274017315 0 -0.35940737946489582 0.035374977024224222 0 -0.36738966121720701 0.029980518529024301 0 -0.37123175334181557 0.027162262264614271 0 -0.36677646394688163 0.041367990420506082 0 -0.36677646394688163 0.041367990420506082 0 -0.37046143272875132 0.04675171495388801 0 -0.36802302346639398 0.047906750352184523 0 -0.36677646394688163 0.041367990420506082 0 -0.36802302346639398 0.047906750352184523 0 -0.37046143272875132 0.04675171495388801 0 -0.37000681959492809 0.05831264468359916 0 -0.36802302346639398 0.047906750352184523 0 -0.37000681959492809 0.05831264468359916 0 -0.37046143272875132 0.04675171495388801 0 -0.36802302346639398 0.047906750352184523 0 -0.37000681959492809 0.05831264468359916 0 -0.37046143272875132 0.04675171495388801 0 -0.36802302346639398 0.047906750352184523 0 -0.35479113087726238 0.05417448586434577 0 -0.36802302346639398 0.047906750352184523 0 -0.35479113087726238 0.05417448586434577 0 -0.36802302346639398 0.047906750352184523 0 -0.3622197730044176 0.060127746183944272 0 -0.35479113087726238 0.05417448586434577 0 -0.36677646394688163 0.041367990420506082 0 -0.36802302346639398 0.047906750352184523 0 -0.36802302346639398 0.047906750352184523 0 -0.3622197730044176 0.060127746183944272 0 -0.37000681959492809 0.05831264468359916 0 -0.35147867423579721 0.06053566178096708 0 -0.36926886504626422 0.077079019973005369 0 -0.3622197730044176 0.060127746183944272 0 -0.37000681959492809 0.05831264468359916 0 -0.36926886504626422 0.077079019973005369 0 -0.37000681959492809 0.05831264468359916 0 -0.36926886504626422 0.077079019973005369 0 -0.37079498002478778 0.078498176574577722 0 -0.36926886504626422 0.077079019973005369 0 -0.34551673285671652 0.071984855543133663 0 -0.36912013352382872 0.080861301107253064 0 -0.37000681959492809 0.05831264468359916 0 -0.37079498002478778 0.078498176574577722 0 -0.37470600383380392 0.082961959162170973 0 -0.35147867423579721 0.06053566178096708 0 -0.3622197730044176 0.060127746183944272 0 -0.36926886504626422 0.077079019973005369 0 -0.37000681959492809 0.05831264468359916 0 -0.37470600383380392 0.082961959162170973 0 -0.37000681959492809 0.05831264468359916 0 -0.36926886504626422 0.077079019973005369 0 -0.36926886504626422 0.077079019973005369 0 -0.37079498002478778 0.078498176574577722 0 -0.34551673285671652 0.071984855543133663 0 -0.34763839367566191 0.079069075487607554 0 -0.36912013352382872 0.080861301107253064 0 -0.34551673285671652 0.071984855543133663 0 -0.36912013352382872 0.080861301107253064 0 -0.35147867423579721 0.06053566178096708 0 -0.36926886504626422 0.077079019973005369 0 -0.34551673285671652 0.071984855543133663 0 -0.34408269824063842 0.074738747125954852 0 -0.34763839367566191 0.079069075487607554 0 -0.34179116264722731 0.080399472229040897 0 -0.34408269824063842 0.074738747125954852 0 -0.34551673285671652 0.071984855543133663 0 -0.34763839367566191 0.079069075487607554 0 -0.34408269824063842 0.074738747125954852 0 -0.34551673285671652 0.071984855543133663 0 -0.35147867423579721 0.06053566178096708 0 -0.34551673285671652 0.071984855543133663 0 -0.3447014191436914 0.063951910484466787 0 -0.35147867423579721 0.06053566178096708 0 -0.34551673285671652 0.071984855543133663 0 -0.34763839367566191 0.079069075487607554 0 -0.36858415035949882 0.094491491786065696 0 -0.34763839367566191 0.079069075487607554 0 -0.36858415035949882 0.094491491786065696 0 -0.35198293914272999 0.094145145766245733 0 -0.34456144318064219 0.08667329674911145 0 -0.34763839367566191 0.079069075487607554 0 -0.35198293914272999 0.094145145766245733 0 -0.34456144318064219 0.08667329674911145 0 -0.35198293914272999 0.094145145766245733 0 -0.34431035454597703 0.093789606507308373 0 -0.34456144318064219 0.08667329674911145 0 -0.34763839367566191 0.079069075487607554 0 -0.34179116264722731 0.080399472229040897 0 -0.3782625711058698 0.101617738696854 0 -0.37470600383380392 0.082961959162170973 0 -0.36858415035949882 0.094491491786065696 0 -0.34763839367566191 0.079069075487607554 0 -0.36912013352382872 0.080861301107253064 0 -0.36858415035949882 0.094491491786065696 0 -0.36926886504626422 0.077079019973005369 0 -0.37079498002478778 0.078498176574577722 0 -0.36912013352382872 0.080861301107253064 0 -0.36926886504626422 0.077079019973005369 0 -0.36912013352382872 0.080861301107253064 0 -0.36912013352382872 0.080861301107253064 0 -0.37470600383380392 0.082961959162170973 0 -0.37079498002478778 0.078498176574577722 0 -0.36912013352382872 0.080861301107253064 0 -0.37470600383380392 0.082961959162170973 0 -0.36912013352382872 0.080861301107253064 0 -0.37470600383380392 0.082961959162170973 0 -0.36858415035949882 0.094491491786065696 0 -0.36912013352382872 0.080861301107253064 0 -0.36858415035949882 0.094491491786065696 0 -0.36858415035949882 0.094491491786065696 0 -0.36747352968705388 0.12273486311700831 0 -0.3782625711058698 0.101617738696854 0 -0.36858415035949882 0.094491491786065696 0 -0.36858415035949882 0.094491491786065696 0 -0.36006702585218792 0.10838608290929221 0 -0.35198293914272999 0.094145145766245733 0 -0.36858415035949882 0.094491491786065696 0 -0.36006702585218792 0.10838608290929221 0 -0.36747352968705388 0.12273486311700831 0 -0.3782625711058698 0.101617738696854 0 -0.36858415035949882 0.094491491786065696 0 -0.36747352968705388 0.12273486311700831 0 -0.36006702585218792 0.10838608290929221 0 -0.36747352968705388 0.12273486311700831 0 -0.35832203275528268 0.1183511860346923 0 -0.35528769071996391 0.12689780186549679 0 -0.36747352968705388 0.12273486311700831 0 -0.35832203275528268 0.1183511860346923 0 -0.35528769071996391 0.12689780186549679 0 -0.35832203275528268 0.1183511860346923 0 -0.35045988476192508 0.115385996246972 0 -0.36006702585218792 0.10838608290929221 0 -0.35832203275528268 0.1183511860346923 0 -0.35045988476192508 0.115385996246972 0 -0.35045988476192508 0.115385996246972 0 -0.34547580274860562 0.10394098399483009 0 -0.33570271963636877 0.11206429961599181 0 -0.35528769071996391 0.12689780186549679 0 -0.35045988476192508 0.115385996246972 0 -0.34115039425197219 0.12498493974687711 0 -0.36006702585218792 0.10838608290929221 0 -0.35198293914272999 0.094145145766245733 0 -0.34547580274860562 0.10394098399483009 0 -0.36006702585218792 0.10838608290929221 0 -0.35045988476192508 0.115385996246972 0 -0.34547580274860562 0.10394098399483009 0 -0.35198293914272999 0.094145145766245733 0 -0.34547580274860562 0.10394098399483009 0 -0.34431035454597703 0.093789606507308373 0 -0.34547580274860562 0.10394098399483009 0 -0.34431035454597703 0.093789606507308373 0 -0.335413749579693 0.097286071719103154 0 -0.34547580274860562 0.10394098399483009 0 -0.335413749579693 0.097286071719103154 0 -0.33570271963636877 0.11206429961599181 0 -0.335413749579693 0.097286071719103154 0 -0.33570271963636877 0.11206429961599181 0 -0.32444247844199348 0.1047035033472971 0 -0.35045988476192508 0.115385996246972 0 -0.34115039425197219 0.12498493974687711 0 -0.33570271963636877 0.11206429961599181 0 -0.32917568526667751 0.12578156900391591 0 -0.33570271963636877 0.11206429961599181 0 -0.32114709127587232 0.11611322513389059 0 -0.32917568526667751 0.12578156900391591 0 -0.34115039425197219 0.12498493974687711 0 -0.33570271963636877 0.11206429961599181 0 -0.31354631638020197 0.13395604467094269 0 -0.30549209578720232 0.10774456093924389 0 -0.32114709127587232 0.11611322513389059 0 -0.30549209578720232 0.10774456093924389 0 -0.32114709127587232 0.11611322513389059 0 -0.32444247844199348 0.1047035033472971 0 -0.33570271963636877 0.11206429961599181 0 -0.32114709127587232 0.11611322513389059 0 -0.32444247844199348 0.1047035033472971 0 -0.30549209578720232 0.10774456093924389 0 -0.32444247844199348 0.1047035033472971 0 -0.32445673593083119 0.090309359328255762 0 -0.30549209578720232 0.10774456093924389 0 -0.32445673593083119 0.090309359328255762 0 -0.31312795334666071 0.083579729522452809 0 -0.335413749579693 0.097286071719103154 0 -0.32444247844199348 0.1047035033472971 0 -0.32445673593083119 0.090309359328255762 0 -0.32445673593083119 0.090309359328255762 0 -0.3275606083710243 0.080211281293741998 0 -0.31312795334666071 0.083579729522452809 0 -0.3275606083710243 0.080211281293741998 0 -0.31312795334666071 0.083579729522452809 0 -0.31976082328641481 0.073112182403608325 0 -0.30931237829482389 0.073252958087475881 0 -0.31312795334666071 0.083579729522452809 0 -0.31976082328641481 0.073112182403608325 0 -0.30931237829482389 0.073252958087475881 0 -0.31697319293959142 0.061410437985649477 0 -0.31976082328641481 0.073112182403608325 0 -0.31697319293959142 0.061410437985649477 0 -0.31976082328641481 0.073112182403608325 0 -0.32886731949388731 0.069155273298144179 0 -0.31697319293959142 0.061410437985649477 0 -0.32808937753058609 0.059947696530402161 0 -0.32886731949388731 0.069155273298144179 0 -0.3275606083710243 0.080211281293741998 0 -0.31976082328641481 0.073112182403608325 0 -0.32886731949388731 0.069155273298144179 0 -0.32886731949388731 0.069155273298144179 0 -0.33770721458858299 0.069047958238937293 0 -0.336378655355973 0.076693290193422539 0 -0.3275606083710243 0.080211281293741998 0 -0.32886731949388731 0.069155273298144179 0 -0.336378655355973 0.076693290193422539 0 -0.33440717105718593 0.063083878638897639 0 -0.32886731949388731 0.069155273298144179 0 -0.33770721458858299 0.069047958238937293 0 -0.32808937753058609 0.059947696530402161 0 -0.33440717105718593 0.063083878638897639 0 -0.32886731949388731 0.069155273298144179 0 -0.3407399656121517 0.06083029771636933 0 -0.33440717105718593 0.063083878638897639 0 -0.33770721458858299 0.069047958238937293 0 -0.3407399656121517 0.06083029771636933 0 -0.3447014191436914 0.063951910484466787 0 -0.33770721458858299 0.069047958238937293 0 -0.34551673285671652 0.071984855543133663 0 -0.3447014191436914 0.063951910484466787 0 -0.33770721458858299 0.069047958238937293 0 -0.34408269824063842 0.074738747125954852 0 -0.33770721458858299 0.069047958238937293 0 -0.336378655355973 0.076693290193422539 0 -0.34408269824063842 0.074738747125954852 0 -0.34551673285671652 0.071984855543133663 0 -0.33770721458858299 0.069047958238937293 0 -0.34551673285671652 0.071984855543133663 0 -0.33770721458858299 0.069047958238937293 0 -0.34408269824063842 0.074738747125954852 0 -0.336378655355973 0.076693290193422539 0 -0.34179116264722731 0.080399472229040897 0 -0.336378655355973 0.076693290193422539 0 -0.34179116264722731 0.080399472229040897 0 -0.33708436589161489 0.085963183755354639 0 -0.34456144318064219 0.08667329674911145 0 -0.34179116264722731 0.080399472229040897 0 -0.33708436589161489 0.085963183755354639 0 -0.34456144318064219 0.08667329674911145 0 -0.34431035454597703 0.093789606507308373 0 -0.33708436589161489 0.085963183755354639 0 -0.34431035454597703 0.093789606507308373 0 -0.335413749579693 0.097286071719103154 0 -0.33708436589161489 0.085963183755354639 0 -0.335413749579693 0.097286071719103154 0 -0.32445673593083119 0.090309359328255762 0 -0.33708436589161489 0.085963183755354639 0 -0.32445673593083119 0.090309359328255762 0 -0.3275606083710243 0.080211281293741998 0 -0.33708436589161489 0.085963183755354639 0 -0.3275606083710243 0.080211281293741998 0 -0.336378655355973 0.076693290193422539 0 -0.33708436589161489 0.085963183755354639 0 -0.38891458820749281 0.47713565504117422 0 -0.42172655890518862 0.5 0 -0.3640375775585698 0.5 0 -0.38891458820749281 0.47713565504117422 0 -0.37103467036260362 0.45695891695805302 0 -0.36943712044780219 0.47475959506207249 0 -0.39694697642853649 0.45370639251272787 0 -0.37103467036260362 0.45695891695805302 0 -0.38891458820749281 0.47713565504117422 0 -0.39694697642853649 0.45370639251272787 0 -0.37103467036260362 0.45695891695805302 0 -0.38249991962136642 0.44345487931465249 0 -0.39694697642853649 0.45370639251272787 0 -0.37103467036260362 0.45695891695805302 0 -0.38249991962136642 0.44345487931465249 0 -0.39694697642853649 0.45370639251272787 0 -0.40464661760035381 0.43350824459614162 0 -0.38891458820749281 0.47713565504117422 0 -0.39694697642853649 0.45370639251272787 0 -0.41631826774707797 0.4711213942969617 0 -0.39694697642853649 0.45370639251272787 0 -0.42285928249446952 0.45045386806740279 0 -0.41631826774707797 0.4711213942969617 0 -0.42285928249446952 0.45045386806740279 0 -0.42501824733507809 0.43459816807542118 0 -0.40464661760035381 0.43350824459614162 0 -0.39694697642853649 0.45370639251272787 0 -0.42285928249446952 0.45045386806740279 0 -0.39694697642853649 0.45370639251272787 0 -0.42285928249446952 0.45045386806740279 0 -0.40464661760035381 0.43350824459614162 0 -0.42285928249446952 0.45045386806740279 0 -0.43521244088076849 0.46107148678855758 0 -0.44877158856040261 0.44720134362207808 0 -0.42285928249446952 0.45045386806740279 0 -0.44877158856040261 0.44720134362207808 0 -0.42285928249446952 0.45045386806740279 0 -0.43592409671607729 0.44045812782560079 0 -0.44877158856040261 0.44720134362207808 0 -0.42285928249446952 0.45045386806740279 0 -0.43592409671607729 0.44045812782560079 0 -0.42501824733507809 0.43459816807542118 0 -0.42285928249446952 0.45045386806740279 0 -0.43521244088076849 0.46107148678855758 0 -0.41631826774707797 0.4711213942969617 0 -0.41631826774707797 0.4711213942969617 0 -0.42172655890518862 0.5 0 -0.43935827984199688 0.47473889959161758 0 -0.43521244088076849 0.46107148678855758 0 -0.41631826774707797 0.4711213942969617 0 -0.43935827984199688 0.47473889959161758 0 -0.38891458820749281 0.47713565504117422 0 -0.41631826774707797 0.4711213942969617 0 -0.42172655890518862 0.5 0 -0.42172655890518862 0.5 0 -0.43935827984199688 0.47473889959161758 0 -0.47784082473980471 0.47626967285504462 0 -0.42172655890518862 0.5 0 -0.5 0.5 0 -0.47784082473980471 0.47626967285504462 0 -0.43935827984199688 0.47473889959161758 0 -0.47784082473980471 0.47626967285504462 0 -0.4487547857598953 0.46184192836472759 0 -0.5 0.5 0 -0.47784082473980471 0.47626967285504462 0 -0.49999999999999589 0.44077113011354369 0 -0.47784082473980471 0.47626967285504462 0 -0.47438579428019922 0.44398623686781052 0 -0.4627013265822788 0.4545376326069438 0 -0.47784082473980471 0.47626967285504462 0 -0.49999999999999589 0.44077113011354369 0 -0.47438579428019922 0.44398623686781052 0 -0.49999999999999589 0.44077113011354369 0 -0.47438579428019922 0.44398623686781052 0 -0.48180565015534738 0.42787197640755792 0 -0.49999999999999589 0.44077113011354369 0 -0.47438579428019922 0.44398623686781052 0 -0.47438579428019922 0.44398623686781052 0 -0.4627013265822788 0.4545376326069438 0 -0.44877158856040261 0.44720134362207808 0 -0.47438579428019922 0.44398623686781052 0 -0.44877158856040261 0.44720134362207808 0 -0.47438579428019922 0.44398623686781052 0 -0.44877158856040261 0.44720134362207808 0 -0.46289485375526918 0.43579199928955081 0 -0.44877158856040261 0.44720134362207808 0 -0.44878504691792248 0.43547483269414872 0 -0.46289485375526918 0.43579199928955081 0 -0.47784082473980471 0.47626967285504462 0 -0.4627013265822788 0.4545376326069438 0 -0.4487547857598953 0.46184192836472759 0 -0.4627013265822788 0.4545376326069438 0 -0.4487547857598953 0.46184192836472759 0 -0.44877158856040261 0.44720134362207808 0 -0.4487547857598953 0.46184192836472759 0 -0.44877158856040261 0.44720134362207808 0 -0.43521244088076849 0.46107148678855758 0 -0.4487547857598953 0.46184192836472759 0 -0.44877158856040261 0.44720134362207808 0 -0.43521244088076849 0.46107148678855758 0 -0.43935827984199688 0.47473889959161758 0 -0.4487547857598953 0.46184192836472759 0 -0.44877158856040261 0.44720134362207808 0 -0.44508566455651338 0.43839632914573512 0 -0.44878504691792248 0.43547483269414872 0 -0.44877158856040261 0.44720134362207808 0 -0.44878504691792248 0.43547483269414872 0 -0.43592409671607729 0.44045812782560079 0 -0.44877158856040261 0.44720134362207808 0 -0.44508566455651338 0.43839632914573512 0 -0.44531233658805403 0.42513554986162888 0 -0.44878504691792248 0.43547483269414872 0 -0.44880957839306629 0.41410011360809668 0 -0.44878504691792248 0.43547483269414872 0 -0.44880957839306629 0.41410011360809668 0 -0.43788570063392329 0.43164093021736671 0 -0.44531233658805403 0.42513554986162888 0 -0.44878504691792248 0.43547483269414872 0 -0.43592409671607729 0.44045812782560079 0 -0.44508566455651338 0.43839632914573512 0 -0.43788570063392329 0.43164093021736671 0 -0.44508566455651338 0.43839632914573512 0 -0.43788570063392329 0.43164093021736671 0 -0.44878504691792248 0.43547483269414872 0 -0.44508566455651338 0.43839632914573512 0 -0.44878504691792248 0.43547483269414872 0 -0.44531233658805403 0.42513554986162888 0 -0.44880957839306629 0.41410011360809668 0 -0.42391867717568832 0.41711337076656618 0 -0.44880957839306629 0.41410011360809668 0 -0.46585669794528167 0.42199291516666237 0 -0.4641229039382897 0.40091036417177778 0 -0.44878504691792248 0.43547483269414872 0 -0.46585669794528167 0.42199291516666237 0 -0.44878504691792248 0.43547483269414872 0 -0.44880957839306629 0.41410011360809668 0 -0.46585669794528167 0.42199291516666237 0 -0.44878504691792248 0.43547483269414872 0 -0.46585669794528167 0.42199291516666237 0 -0.46289485375526918 0.43579199928955081 0 -0.47438579428019922 0.44398623686781052 0 -0.46289485375526918 0.43579199928955081 0 -0.48180565015534738 0.42787197640755792 0 -0.46585669794528167 0.42199291516666237 0 -0.46289485375526918 0.43579199928955081 0 -0.48180565015534738 0.42787197640755792 0 -0.46585669794528167 0.42199291516666237 0 -0.48292834897264081 0.4085109976391762 0 -0.4641229039382897 0.40091036417177778 0 -0.46585669794528167 0.42199291516666237 0 -0.48292834897264081 0.4085109976391762 0 -0.46585669794528167 0.42199291516666237 0 -0.48180565015534738 0.42787197640755792 0 -0.48292834897264081 0.4085109976391762 0 -0.48292834897264081 0.4085109976391762 0 -0.5 0.41790010511261683 0 -0.5 0.39502908011169002 0 -0.48180565015534738 0.42787197640755792 0 -0.48292834897264081 0.4085109976391762 0 -0.5 0.41790010511261683 0 -0.49999999999999589 0.44077113011354369 0 -0.48180565015534738 0.42787197640755792 0 -0.5 0.41790010511261683 0 -0.48850556386005051 0.3766603246979251 0 -0.5 0.39502908011169002 0 -0.47832653283541199 0.38608194873200979 0 -0.48850556386005051 0.3766603246979251 0 -0.5 0.39502908011169002 0 -0.5 0.36887446842263683 0 -0.48292834897264081 0.4085109976391762 0 -0.5 0.39502908011169002 0 -0.47832653283541199 0.38608194873200979 0 -0.48292834897264081 0.4085109976391762 0 -0.5 0.39502908011169002 0 -0.48292834897264081 0.4085109976391762 0 -0.47832653283541199 0.38608194873200979 0 -0.4641229039382897 0.40091036417177778 0 -0.48850556386005051 0.3766603246979251 0 -0.47832653283541199 0.38608194873200979 0 -0.48259334700195489 0.36409898273387958 0 -0.47832653283541199 0.38608194873200979 0 -0.46059005399087027 0.38292215568240928 0 -0.4641229039382897 0.40091036417177778 0 -0.47832653283541199 0.38608194873200979 0 -0.46059005399087027 0.38292215568240928 0 -0.46572599417265398 0.36772482908493609 0 -0.44880957839306629 0.41410011360809668 0 -0.4641229039382897 0.40091036417177778 0 -0.44883410986820999 0.3927253945220448 0 -0.46059005399087027 0.38292215568240928 0 -0.4641229039382897 0.40091036417177778 0 -0.44883410986820999 0.3927253945220448 0 -0.44880957839306629 0.41410011360809668 0 -0.44883410986820999 0.3927253945220448 0 -0.43699833754743561 0.40294499431243458 0 -0.44880957839306629 0.41410011360809668 0 -0.44883410986820999 0.3927253945220448 0 -0.44883410986820999 0.3927253945220448 0 -0.43978391516082421 0.3912231797547942 0 -0.43699833754743561 0.40294499431243458 0 -0.44883410986820999 0.3927253945220448 0 -0.43978391516082421 0.3912231797547942 0 -0.44802713623065987 0.37645115623263098 0 -0.44883410986820999 0.3927253945220448 0 -0.44885864134335329 0.37135067543599282 0 -0.44883410986820999 0.3927253945220448 0 -0.44802713623065987 0.37645115623263098 0 -0.44885864134335329 0.37135067543599282 0 -0.43978391516082421 0.3912231797547942 0 -0.44802713623065987 0.37645115623263098 0 -0.42527607699699133 0.39277117395206662 0 -0.46059005399087027 0.38292215568240928 0 -0.44883410986820999 0.3927253945220448 0 -0.44885864134335329 0.37135067543599282 0 -0.44802713623065987 0.37645115623263098 0 -0.4250431626101242 0.37647010748543319 0 -0.42527607699699133 0.39277117395206662 0 -0.44802713623065987 0.37645115623263098 0 -0.42527607699699133 0.39277117395206662 0 -0.4250431626101242 0.37647010748543319 0 -0.4134887672477453 0.38574914578498593 0 -0.40122768387689522 0.38158953953487368 0 -0.4250431626101242 0.37647010748543319 0 -0.40122768387689522 0.38158953953487368 0 -0.4250431626101242 0.37647010748543319 0 -0.4134887672477453 0.38574914578498593 0 -0.42527607699699133 0.39277117395206662 0 -0.4250431626101242 0.37647010748543319 0 -0.40122768387689522 0.38158953953487368 0 -0.40086489287733429 0.37467411733839928 0 -0.4134887672477453 0.38574914578498593 0 -0.40798835104355652 0.39359067917546098 0 -0.40557429982823212 0.38794008425198068 0 -0.4134887672477453 0.38574914578498593 0 -0.40122768387689522 0.38158953953487368 0 -0.40557429982823212 0.38794008425198068 0 -0.40798835104355652 0.39359067917546098 0 -0.42527607699699133 0.39277117395206662 0 -0.40252501776332311 0.40909119167150271 0 -0.42527607699699133 0.39277117395206662 0 -0.40252501776332311 0.40909119167150271 0 -0.4134887672477453 0.38574914578498593 0 -0.40798835104355652 0.39359067917546098 0 -0.42527607699699133 0.39277117395206662 0 -0.42527607699699133 0.39277117395206662 0 -0.43699833754743561 0.40294499431243458 0 -0.42391867717568832 0.41711337076656618 0 -0.43978391516082421 0.3912231797547942 0 -0.42527607699699133 0.39277117395206662 0 -0.43699833754743561 0.40294499431243458 0 -0.44880957839306629 0.41410011360809668 0 -0.43699833754743561 0.40294499431243458 0 -0.42391867717568832 0.41711337076656618 0 -0.44531233658805403 0.42513554986162888 0 -0.42391867717568832 0.41711337076656618 0 -0.43788570063392329 0.43164093021736671 0 -0.44531233658805403 0.42513554986162888 0 -0.42391867717568832 0.41711337076656618 0 -0.43788570063392329 0.43164093021736671 0 -0.42391867717568832 0.41711337076656618 0 -0.42501824733507809 0.43459816807542118 0 -0.43592409671607729 0.44045812782560079 0 -0.43788570063392329 0.43164093021736671 0 -0.42501824733507809 0.43459816807542118 0 -0.42391867717568832 0.41711337076656618 0 -0.42501824733507809 0.43459816807542118 0 -0.40464661760035381 0.43350824459614162 0 -0.42527607699699133 0.39277117395206662 0 -0.42391867717568832 0.41711337076656618 0 -0.40252501776332311 0.40909119167150271 0 -0.42391867717568832 0.41711337076656618 0 -0.40252501776332311 0.40909119167150271 0 -0.40464661760035381 0.43350824459614162 0 -0.42391867717568832 0.41711337076656618 0 -0.40252501776332311 0.40909119167150271 0 -0.40252501776332311 0.40909119167150271 0 -0.37875820238401509 0.42613984176471847 0 -0.40252501776332311 0.40909119167150271 0 -0.40464661760035381 0.43350824459614162 0 -0.37875820238401509 0.42613984176471847 0 -0.38249991962136642 0.44345487931465249 0 -0.40464661760035381 0.43350824459614162 0 -0.37875820238401509 0.42613984176471847 0 -0.40252501776332311 0.40909119167150271 0 -0.37875820238401509 0.42613984176471847 0 -0.37769092578324193 0.39977892163450779 0 -0.37769092578324193 0.39977892163450779 0 -0.38963770449155072 0.39285491215608792 0 -0.37686086334024771 0.38257038446795849 0 -0.40252501776332311 0.40909119167150271 0 -0.37769092578324193 0.39977892163450779 0 -0.38963770449155072 0.39285491215608792 0 -0.40252501776332311 0.40909119167150271 0 -0.37769092578324193 0.39977892163450779 0 -0.37686086334024771 0.38257038446795849 0 -0.39363670834615189 0.38450398520198442 0 -0.40086489287733429 0.37467411733839928 0 -0.38963770449155072 0.39285491215608792 0 -0.37686086334024771 0.38257038446795849 0 -0.39363670834615189 0.38450398520198442 0 -0.37686086334024771 0.38257038446795849 0 -0.40086489287733429 0.37467411733839928 0 -0.37686086334024771 0.38257038446795849 0 -0.40086489287733429 0.37467411733839928 0 -0.39033592763893787 0.37070590072739279 0 -0.39363670834615189 0.38450398520198442 0 -0.40122768387689522 0.38158953953487368 0 -0.39959239714473138 0.39083097251260251 0 -0.38963770449155072 0.39285491215608792 0 -0.39363670834615189 0.38450398520198442 0 -0.39959239714473138 0.39083097251260251 0 -0.39363670834615189 0.38450398520198442 0 -0.40122768387689522 0.38158953953487368 0 -0.40086489287733429 0.37467411733839928 0 -0.40122768387689522 0.38158953953487368 0 -0.40557429982823212 0.38794008425198068 0 -0.39959239714473138 0.39083097251260251 0 -0.40798835104355652 0.39359067917546098 0 -0.40557429982823212 0.38794008425198068 0 -0.39959239714473138 0.39083097251260251 0 -0.40252501776332311 0.40909119167150271 0 -0.38963770449155072 0.39285491215608792 0 -0.39959239714473138 0.39083097251260251 0 -0.40798835104355652 0.39359067917546098 0 -0.40252501776332311 0.40909119167150271 0 -0.39959239714473138 0.39083097251260251 0 -0.3926828114571661 0.35541775914535301 0 -0.40105078960399698 0.34662517948293931 0 -0.40586906590548888 0.3393029225754271 0 -0.3926828114571661 0.35541775914535301 0 -0.39400561065841477 0.34382680172727831 0 -0.40586906590548888 0.3393029225754271 0 -0.3926828114571661 0.35541775914535301 0 -0.40586906590548888 0.3393029225754271 0 -0.3926828114571661 0.35541775914535301 0 -0.39969836615416421 0.35756427730283669 0 -0.39341808057325789 0.36431669671432632 0 -0.3926828114571661 0.35541775914535301 0 -0.40105078960399698 0.34662517948293931 0 -0.39969836615416421 0.35756427730283669 0 -0.3926828114571661 0.35541775914535301 0 -0.39400561065841477 0.34382680172727831 0 -0.38539473684528258 0.34837828204789067 0 -0.40105078960399698 0.34662517948293931 0 -0.40525205349158999 0.35429039595711992 0 -0.40888688292129022 0.34941903462410451 0 -0.40105078960399698 0.34662517948293931 0 -0.4080564418273247 0.34368885170405422 0 -0.40888688292129022 0.34941903462410451 0 -0.40105078960399698 0.34662517948293931 0 -0.40525205349158999 0.35429039595711992 0 -0.39969836615416421 0.35756427730283669 0 -0.40525205349158999 0.35429039595711992 0 -0.39969836615416421 0.35756427730283669 0 -0.40553625032349627 0.36037170931698131 0 -0.40553625032349627 0.36037170931698131 0 -0.40544017780568847 0.3661562974108753 0 -0.40025021147547779 0.36436392320030081 0 -0.40544017780568847 0.3661562974108753 0 -0.40025021147547779 0.36436392320030081 0 -0.397742957241214 0.36844985128713797 0 -0.39969836615416421 0.35756427730283669 0 -0.40553625032349627 0.36037170931698131 0 -0.40025021147547779 0.36436392320030081 0 -0.40544017780568847 0.3661562974108753 0 -0.40086489287733429 0.37467411733839928 0 -0.397742957241214 0.36844985128713797 0 -0.40086489287733429 0.37467411733839928 0 -0.397742957241214 0.36844985128713797 0 -0.39033592763893787 0.37070590072739279 0 -0.397742957241214 0.36844985128713797 0 -0.39341808057325789 0.36431669671432632 0 -0.39033592763893787 0.37070590072739279 0 -0.39969836615416421 0.35756427730283669 0 -0.40025021147547779 0.36436392320030081 0 -0.39341808057325789 0.36431669671432632 0 -0.40025021147547779 0.36436392320030081 0 -0.397742957241214 0.36844985128713797 0 -0.39341808057325789 0.36431669671432632 0 -0.3926828114571661 0.35541775914535301 0 -0.39341808057325789 0.36431669671432632 0 -0.37949655700884349 0.37153259571527891 0 -0.37949655700884349 0.37153259571527891 0 -0.37823932191431281 0.35548757599615399 0 -0.37024808467873749 0.36543132639488701 0 -0.3926828114571661 0.35541775914535301 0 -0.37949655700884349 0.37153259571527891 0 -0.37823932191431281 0.35548757599615399 0 -0.3926828114571661 0.35541775914535301 0 -0.37949655700884349 0.37153259571527891 0 -0.39341808057325789 0.36431669671432632 0 -0.39033592763893787 0.37070590072739279 0 -0.37949655700884349 0.37153259571527891 0 -0.37686086334024771 0.38257038446795849 0 -0.39033592763893787 0.37070590072739279 0 -0.37949655700884349 0.37153259571527891 0 -0.37823932191431281 0.35548757599615399 0 -0.38539473684528258 0.34837828204789067 0 -0.3787015959315434 0.33902802614693439 0 -0.3926828114571661 0.35541775914535301 0 -0.37823932191431281 0.35548757599615399 0 -0.38539473684528258 0.34837828204789067 0 -0.3787015959315434 0.33902802614693439 0 -0.37816355277066899 0.32985684687273281 0 -0.39158393304450312 0.32769252248945308 0 -0.39400561065841477 0.34382680172727831 0 -0.38539473684528258 0.34837828204789067 0 -0.3787015959315434 0.33902802614693439 0 -0.39158393304450312 0.32769252248945308 0 -0.37442838800096029 0.32044424157556423 0 -0.37816355277066899 0.32985684687273281 0 -0.39158393304450312 0.32769252248945308 0 -0.37442838800096029 0.32044424157556423 0 -0.38613629988198012 0.31665983269396758 0 -0.39158393304450312 0.32769252248945308 0 -0.37442838800096029 0.32044424157556423 0 -0.38613629988198012 0.31665983269396758 0 -0.37442838800096029 0.32044424157556423 0 -0.37415321332832258 0.31386652142517069 0 -0.39158393304450312 0.32769252248945308 0 -0.4039094095666334 0.320812311378052 0 -0.40925887999808552 0.33516025262174892 0 -0.38613629988198012 0.31665983269396758 0 -0.39830358576524327 0.31266849694114901 0 -0.39158393304450312 0.32769252248945308 0 -0.39830358576524327 0.31266849694114901 0 -0.39158393304450312 0.32769252248945308 0 -0.4039094095666334 0.320812311378052 0 -0.39830358576524327 0.31266849694114901 0 -0.4039094095666334 0.320812311378052 0 -0.40826549608127172 0.31275764886218971 0 -0.3787015959315434 0.33902802614693439 0 -0.40777024278950652 0.33697950655941222 0 -0.39158393304450312 0.32769252248945308 0 -0.40925887999808552 0.33516025262174892 0 -0.39158393304450312 0.32769252248945308 0 -0.40777024278950652 0.33697950655941222 0 -0.40925887999808552 0.33516025262174892 0 -0.3787015959315434 0.33902802614693439 0 -0.39158393304450312 0.32769252248945308 0 -0.40777024278950652 0.33697950655941222 0 -0.39400561065841477 0.34382680172727831 0 -0.3787015959315434 0.33902802614693439 0 -0.40777024278950652 0.33697950655941222 0 -0.39400561065841477 0.34382680172727831 0 -0.40586906590548888 0.3393029225754271 0 -0.40777024278950652 0.33697950655941222 0 -0.40105078960399698 0.34662517948293931 0 -0.40586906590548888 0.3393029225754271 0 -0.40105078960399698 0.34662517948293931 0 -0.40586906590548888 0.3393029225754271 0 -0.4080564418273247 0.34368885170405422 0 -0.4080564418273247 0.34368885170405422 0 -0.41125860555200922 0.34134685969384471 0 -0.40895905381070002 0.33957121871677393 0 -0.40586906590548888 0.3393029225754271 0 -0.4080564418273247 0.34368885170405422 0 -0.40895905381070002 0.33957121871677393 0 -0.4080564418273247 0.34368885170405422 0 -0.41125860555200922 0.34134685969384471 0 -0.41366919887348358 0.34576378073699821 0 -0.41125860555200922 0.34134685969384471 0 -0.41273643032526569 0.33662953043248711 0 -0.41433336845197538 0.3415594658204692 0 -0.41125860555200922 0.34134685969384471 0 -0.41433336845197538 0.3415594658204692 0 -0.41366919887348358 0.34576378073699821 0 -0.41125860555200922 0.34134685969384471 0 -0.41273643032526569 0.33662953043248711 0 -0.40895905381070002 0.33957121871677393 0 -0.41273643032526569 0.33662953043248711 0 -0.40777024278950652 0.33697950655941222 0 -0.41273643032526569 0.33662953043248711 0 -0.40895905381070002 0.33957121871677393 0 -0.40777024278950652 0.33697950655941222 0 -0.41273643032526569 0.33662953043248711 0 -0.40777024278950652 0.33697950655941222 0 -0.40925887999808552 0.33516025262174892 0 -0.40777024278950652 0.33697950655941222 0 -0.40925887999808552 0.33516025262174892 0 -0.40586906590548888 0.3393029225754271 0 -0.40895905381070002 0.33957121871677393 0 -0.40777024278950652 0.33697950655941222 0 -0.40586906590548888 0.3393029225754271 0 -0.40777024278950652 0.33697950655941222 0 -0.41273643032526569 0.33662953043248711 0 -0.40925887999808552 0.33516025262174892 0 -0.40925887999808552 0.33516025262174892 0 -0.42024067891477529 0.32173946694831868 0 -0.40925887999808552 0.33516025262174892 0 -0.42071708592719742 0.33131558094746122 0 -0.42024067891477529 0.32173946694831868 0 -0.41273643032526569 0.33662953043248711 0 -0.40925887999808552 0.33516025262174892 0 -0.42071708592719742 0.33131558094746122 0 -0.41273643032526569 0.33662953043248711 0 -0.4199209072431685 0.34318781838679219 0 -0.41433336845197538 0.3415594658204692 0 -0.4199209072431685 0.34318781838679219 0 -0.41433336845197538 0.3415594658204692 0 -0.41366919887348358 0.34576378073699821 0 -0.40925887999808552 0.33516025262174892 0 -0.41892768793075841 0.31754462100172592 0 -0.42141481873501418 0.31567829233095179 0 -0.40925887999808552 0.33516025262174892 0 -0.411263050936583 0.31954773430139438 0 -0.41892768793075841 0.31754462100172592 0 -0.40925887999808552 0.33516025262174892 0 -0.42141481873501418 0.31567829233095179 0 -0.40925887999808552 0.33516025262174892 0 -0.42024067891477529 0.32173946694831868 0 -0.42141481873501418 0.31567829233095179 0 -0.411263050936583 0.31954773430139438 0 -0.40826549608127172 0.31275764886218971 0 -0.41647318301620623 0.31168328686166002 0 -0.4039094095666334 0.320812311378052 0 -0.411263050936583 0.31954773430139438 0 -0.40826549608127172 0.31275764886218971 0 -0.4039094095666334 0.320812311378052 0 -0.40925887999808552 0.33516025262174892 0 -0.411263050936583 0.31954773430139438 0 -0.411263050936583 0.31954773430139438 0 -0.41892768793075841 0.31754462100172592 0 -0.41647318301620623 0.31168328686166002 0 -0.41892768793075841 0.31754462100172592 0 -0.42141481873501418 0.31567829233095179 0 -0.41892768793075841 0.31754462100172592 0 -0.42141481873501418 0.31567829233095179 0 -0.41647318301620623 0.31168328686166002 0 -0.42024067891477529 0.32173946694831868 0 -0.43790895006943947 0.32081412042189511 0 -0.43122247783146522 0.30831868127488848 0 -0.42024067891477529 0.32173946694831868 0 -0.42938605365092247 0.3272194948190838 0 -0.43790895006943947 0.32081412042189511 0 -0.42024067891477529 0.32173946694831868 0 -0.42141481873501418 0.31567829233095179 0 -0.43122247783146522 0.30831868127488848 0 -0.42024067891477529 0.32173946694831868 0 -0.43122247783146522 0.30831868127488848 0 -0.42071708592719742 0.33131558094746122 0 -0.42024067891477529 0.32173946694831868 0 -0.42938605365092247 0.3272194948190838 0 -0.42938605365092247 0.3272194948190838 0 -0.43674098495811231 0.33493788649063261 0 -0.43790895006943947 0.32081412042189511 0 -0.43790895006943947 0.32081412042189511 0 -0.4401847358662575 0.3127477530096977 0 -0.43122247783146522 0.30831868127488848 0 -0.41273643032526569 0.33662953043248711 0 -0.43674098495811231 0.33493788649063261 0 -0.42071708592719742 0.33131558094746122 0 -0.42938605365092247 0.3272194948190838 0 -0.43674098495811231 0.33493788649063261 0 -0.41273643032526569 0.33662953043248711 0 -0.4199209072431685 0.34318781838679219 0 -0.43385085243219867 0.34555045147446217 0 -0.41273643032526569 0.33662953043248711 0 -0.42071708592719742 0.33131558094746122 0 -0.43674098495811231 0.33493788649063261 0 -0.41273643032526569 0.33662953043248711 0 -0.43385085243219867 0.34555045147446217 0 -0.41273643032526569 0.33662953043248711 0 -0.43674098495811231 0.33493788649063261 0 -0.43385085243219867 0.34555045147446217 0 -0.43385085243219867 0.34555045147446217 0 -0.4302486007270056 0.35272204188882378 0 -0.42573384958437638 0.34916959158482058 0 -0.43385085243219867 0.34555045147446217 0 -0.43539550265875948 0.35741731211322858 0 -0.44110397924445488 0.35756373905142852 0 -0.43539550265875948 0.35741731211322858 0 -0.4302486007270056 0.35272204188882378 0 -0.42757171946388478 0.35850981688022993 0 -0.43385085243219867 0.34555045147446217 0 -0.43539550265875948 0.35741731211322858 0 -0.4302486007270056 0.35272204188882378 0 -0.4302486007270056 0.35272204188882378 0 -0.42480748600639012 0.35482075793933809 0 -0.42573384958437638 0.34916959158482058 0 -0.4302486007270056 0.35272204188882378 0 -0.42757171946388478 0.35850981688022993 0 -0.42480748600639012 0.35482075793933809 0 -0.42757171946388478 0.35850981688022993 0 -0.42480748600639012 0.35482075793933809 0 -0.42195212413097077 0.36043988011418487 0 -0.4199209072431685 0.34318781838679219 0 -0.43385085243219867 0.34555045147446217 0 -0.42573384958437638 0.34916959158482058 0 -0.42480748600639012 0.35482075793933809 0 -0.42573384958437638 0.34916959158482058 0 -0.41984140151311927 0.3495668882346864 0 -0.4199209072431685 0.34318781838679219 0 -0.42573384958437638 0.34916959158482058 0 -0.41984140151311927 0.3495668882346864 0 -0.4199209072431685 0.34318781838679219 0 -0.41984140151311927 0.3495668882346864 0 -0.41366919887348358 0.34576378073699821 0 -0.41984140151311927 0.3495668882346864 0 -0.41366919887348358 0.34576378073699821 0 -0.41404230344944593 0.35073751764187411 0 -0.42480748600639012 0.35482075793933809 0 -0.41984140151311927 0.3495668882346864 0 -0.41755863725870102 0.35684421707679032 0 -0.42480748600639012 0.35482075793933809 0 -0.41755863725870102 0.35684421707679032 0 -0.42195212413097077 0.36043988011418487 0 -0.41984140151311927 0.3495668882346864 0 -0.41755863725870102 0.35684421707679032 0 -0.41404230344944593 0.35073751764187411 0 -0.41755863725870102 0.35684421707679032 0 -0.41125051028190041 0.35540848222164118 0 -0.41404230344944593 0.35073751764187411 0 -0.41125051028190041 0.35540848222164118 0 -0.40888688292129022 0.34941903462410451 0 -0.41404230344944593 0.35073751764187411 0 -0.41755863725870102 0.35684421707679032 0 -0.41125051028190041 0.35540848222164118 0 -0.41142088061722581 0.36176204086772412 0 -0.40553625032349627 0.36037170931698131 0 -0.41125051028190041 0.35540848222164118 0 -0.41142088061722581 0.36176204086772412 0 -0.40525205349158999 0.35429039595711992 0 -0.40553625032349627 0.36037170931698131 0 -0.41125051028190041 0.35540848222164118 0 -0.40525205349158999 0.35429039595711992 0 -0.41125051028190041 0.35540848222164118 0 -0.40888688292129022 0.34941903462410451 0 -0.4080564418273247 0.34368885170405422 0 -0.40888688292129022 0.34941903462410451 0 -0.41366919887348358 0.34576378073699821 0 -0.40888688292129022 0.34941903462410451 0 -0.41366919887348358 0.34576378073699821 0 -0.41404230344944593 0.35073751764187411 0 -0.4250431626101242 0.37647010748543319 0 -0.40086489287733429 0.37467411733839928 0 -0.42486892241442098 0.36677785020884007 0 -0.40086489287733429 0.37467411733839928 0 -0.42486892241442098 0.36677785020884007 0 -0.40086489287733429 0.37467411733839928 0 -0.41378193274770297 0.36450427419225789 0 -0.42486892241442098 0.36677785020884007 0 -0.40544017780568847 0.3661562974108753 0 -0.40086489287733429 0.37467411733839928 0 -0.41378193274770297 0.36450427419225789 0 -0.40544017780568847 0.3661562974108753 0 -0.41142088061722581 0.36176204086772412 0 -0.41378193274770297 0.36450427419225789 0 -0.40553625032349627 0.36037170931698131 0 -0.40544017780568847 0.3661562974108753 0 -0.41142088061722581 0.36176204086772412 0 -0.41755863725870102 0.35684421707679032 0 -0.41378193274770297 0.36450427419225789 0 -0.42195212413097077 0.36043988011418487 0 -0.41378193274770297 0.36450427419225789 0 -0.42486892241442098 0.36677785020884007 0 -0.42195212413097077 0.36043988011418487 0 -0.41755863725870102 0.35684421707679032 0 -0.41142088061722581 0.36176204086772412 0 -0.41378193274770297 0.36450427419225789 0 -0.4250431626101242 0.37647010748543319 0 -0.44885864134335329 0.37135067543599282 0 -0.4250431626101242 0.37647010748543319 0 -0.42486892241442098 0.36677785020884007 0 -0.44885864134335329 0.37135067543599282 0 -0.42486892241442098 0.36677785020884007 0 -0.448872951951507 0.35888158307927881 0 -0.43539550265875948 0.35741731211322858 0 -0.42486892241442098 0.36677785020884007 0 -0.44110397924445488 0.35756373905142852 0 -0.43539550265875948 0.35741731211322858 0 -0.42757171946388478 0.35850981688022993 0 -0.42486892241442098 0.36677785020884007 0 -0.42757171946388478 0.35850981688022993 0 -0.42486892241442098 0.36677785020884007 0 -0.42195212413097077 0.36043988011418487 0 -0.42486892241442098 0.36677785020884007 0 -0.44885864134335329 0.37135067543599282 0 -0.448872951951507 0.35888158307927881 0 -0.44802713623065987 0.37645115623263098 0 -0.4250431626101242 0.37647010748543319 0 -0.44885864134335329 0.37135067543599282 0 -0.42486892241442098 0.36677785020884007 0 -0.44110397924445488 0.35756373905142852 0 -0.448872951951507 0.35888158307927881 0 -0.44885864134335329 0.37135067543599282 0 -0.448872951951507 0.35888158307927881 0 -0.44885864134335329 0.37135067543599282 0 -0.448872951951507 0.35888158307927881 0 -0.45634368000688869 0.36512471152292858 0 -0.43385085243219867 0.34555045147446217 0 -0.45496527453913199 0.35447137251643651 0 -0.44889299330712729 0.34242966823447613 0 -0.43385085243219867 0.34555045147446217 0 -0.45496527453913199 0.35447137251643651 0 -0.43385085243219867 0.34555045147446217 0 -0.44887533288597797 0.35680703170406669 0 -0.45496527453913199 0.35447137251643651 0 -0.43385085243219867 0.34555045147446217 0 -0.44110397924445488 0.35756373905142852 0 -0.44887533288597797 0.35680703170406669 0 -0.44110397924445488 0.35756373905142852 0 -0.44887533288597797 0.35680703170406669 0 -0.448872951951507 0.35888158307927881 0 -0.44887533288597797 0.35680703170406669 0 -0.448872951951507 0.35888158307927881 0 -0.44887533288597797 0.35680703170406669 0 -0.448872951951507 0.35888158307927881 0 -0.45496527453913199 0.35447137251643651 0 -0.448872951951507 0.35888158307927881 0 -0.45496527453913199 0.35447137251643651 0 -0.47186707529616939 0.3513175305497272 0 -0.448872951951507 0.35888158307927881 0 -0.47186707529616939 0.3513175305497272 0 -0.448872951951507 0.35888158307927881 0 -0.45634368000688869 0.36512471152292858 0 -0.47186707529616939 0.3513175305497272 0 -0.45911772068334677 0.34536620346235469 0 -0.45496527453913199 0.35447137251643651 0 -0.47186707529616939 0.3513175305497272 0 -0.45911772068334677 0.34536620346235469 0 -0.45496527453913199 0.35447137251643651 0 -0.44889299330712729 0.34242966823447613 0 -0.46572599417265398 0.36772482908493609 0 -0.45634368000688869 0.36512471152292858 0 -0.47186707529616939 0.3513175305497272 0 -0.46059005399087027 0.38292215568240928 0 -0.44885864134335329 0.37135067543599282 0 -0.46572599417265398 0.36772482908493609 0 -0.44885864134335329 0.37135067543599282 0 -0.46572599417265398 0.36772482908493609 0 -0.44885864134335329 0.37135067543599282 0 -0.46572599417265398 0.36772482908493609 0 -0.45634368000688869 0.36512471152292858 0 -0.47832653283541199 0.38608194873200979 0 -0.46572599417265398 0.36772482908493609 0 -0.48259334700195489 0.36409898273387958 0 -0.46572599417265398 0.36772482908493609 0 -0.48259334700195489 0.36409898273387958 0 -0.47186707529616939 0.3513175305497272 0 -0.46572599417265398 0.36772482908493609 0 -0.48259334700195489 0.36409898273387958 0 -0.47186707529616939 0.3513175305497272 0 -0.494861198640831 0.34375347802017348 0 -0.47186707529616939 0.3513175305497272 0 -0.48536711719674469 0.35339641184703091 0 -0.494861198640831 0.34375347802017348 0 -0.48259334700195489 0.36409898273387958 0 -0.47186707529616939 0.3513175305497272 0 -0.48536711719674469 0.35339641184703091 0 -0.48259334700195489 0.36409898273387958 0 -0.49214684784802371 0.35441565608434311 0 -0.48536711719674469 0.35339641184703091 0 -0.49214684784802371 0.35441565608434311 0 -0.5 0.36887446842263683 0 -0.5 0.34271985673358363 0 -0.49214684784802371 0.35441565608434311 0 -0.48536711719674469 0.35339641184703091 0 -0.494861198640831 0.34375347802017348 0 -0.49214684784802371 0.35441565608434311 0 -0.494861198640831 0.34375347802017348 0 -0.5 0.34271985673358363 0 -0.48850556386005051 0.3766603246979251 0 -0.48259334700195489 0.36409898273387958 0 -0.5 0.36887446842263683 0 -0.48259334700195489 0.36409898273387958 0 -0.49214684784802371 0.35441565608434311 0 -0.5 0.36887446842263683 0 -0.485708092488497 0.3189911195031831 0 -0.5 0.31656524504453032 0 -0.48475009422380527 0.3315545986069256 0 -0.485708092488497 0.3189911195031831 0 -0.5 0.31656524504453032 0 -0.48583489694974541 0.30845327583860088 0 -0.5 0.31656524504453032 0 -0.5 0.34271985673358363 0 -0.48475009422380527 0.3315545986069256 0 -0.494861198640831 0.34375347802017348 0 -0.5 0.34271985673358363 0 -0.48475009422380527 0.3315545986069256 0 -0.48475009422380527 0.3315545986069256 0 -0.46074553959095882 0.3332462425487791 0 -0.47186707529616939 0.3513175305497272 0 -0.494861198640831 0.34375347802017348 0 -0.48475009422380527 0.3315545986069256 0 -0.47186707529616939 0.3513175305497272 0 -0.48475009422380527 0.3315545986069256 0 -0.46074553959095882 0.3332462425487791 0 -0.48475009422380527 0.3315545986069256 0 -0.47224737878043732 0.31939135852267558 0 -0.46074553959095882 0.3332462425487791 0 -0.485708092488497 0.3189911195031831 0 -0.48475009422380527 0.3315545986069256 0 -0.47224737878043732 0.31939135852267558 0 -0.485708092488497 0.3189911195031831 0 -0.47224737878043732 0.31939135852267558 0 -0.48583489694974541 0.30845327583860088 0 -0.47224737878043732 0.31939135852267558 0 -0.46258830912673421 0.31343425170936878 0 -0.46074553959095882 0.3332462425487791 0 -0.46258830912673421 0.31343425170936878 0 -0.46074553959095882 0.3332462425487791 0 -0.45107709460752138 0.31557533431346357 0 -0.45911772068334677 0.34536620346235469 0 -0.47186707529616939 0.3513175305497272 0 -0.46074553959095882 0.3332462425487791 0 -0.45911772068334677 0.34536620346235469 0 -0.46074553959095882 0.3332462425487791 0 -0.44889299330712729 0.34242966823447613 0 -0.43674098495811231 0.33493788649063261 0 -0.46074553959095882 0.3332462425487791 0 -0.43674098495811231 0.33493788649063261 0 -0.46074553959095882 0.3332462425487791 0 -0.44889299330712729 0.34242966823447613 0 -0.43674098495811231 0.33493788649063261 0 -0.46074553959095882 0.3332462425487791 0 -0.43790895006943947 0.32081412042189511 0 -0.43674098495811231 0.33493788649063261 0 -0.43385085243219867 0.34555045147446217 0 -0.44889299330712729 0.34242966823447613 0 -0.46074553959095882 0.3332462425487791 0 -0.45107709460752138 0.31557533431346357 0 -0.43790895006943947 0.32081412042189511 0 -0.45107709460752138 0.31557533431346357 0 -0.43790895006943947 0.32081412042189511 0 -0.4401847358662575 0.3127477530096977 0 -0.44444415583193408 0.29216055381020578 0 -0.43122247783146522 0.30831868127488848 0 -0.44810052680614793 0.29565349026271098 0 -0.43122247783146522 0.30831868127488848 0 -0.44368336155109173 0.30649675881006838 0 -0.44810052680614793 0.29565349026271098 0 -0.43122247783146522 0.30831868127488848 0 -0.4401847358662575 0.3127477530096977 0 -0.44368336155109173 0.30649675881006838 0 -0.43122247783146522 0.30831868127488848 0 -0.44444415583193408 0.29216055381020578 0 -0.44810052680614793 0.29565349026271098 0 -0.43122247783146522 0.30831868127488848 0 -0.45107709460752138 0.31557533431346357 0 -0.4401847358662575 0.3127477530096977 0 -0.44368336155109173 0.30649675881006838 0 -0.44368336155109173 0.30649675881006838 0 -0.44996115485610377 0.3015940899144034 0 -0.4551770389262465 0.30483297142504889 0 -0.44368336155109173 0.30649675881006838 0 -0.44996115485610377 0.3015940899144034 0 -0.44810052680614793 0.29565349026271098 0 -0.45288369214092922 0.29939313915978533 0 -0.44996115485610377 0.3015940899144034 0 -0.44810052680614793 0.29565349026271098 0 -0.45288369214092922 0.29939313915978533 0 -0.44996115485610377 0.3015940899144034 0 -0.4551770389262465 0.30483297142504889 0 -0.45107709460752138 0.31557533431346357 0 -0.44368336155109173 0.30649675881006838 0 -0.4551770389262465 0.30483297142504889 0 -0.44702735364695217 0.27675533545947301 0 -0.43422108619098299 0.29621681389521232 0 -0.44444415583193408 0.29216055381020578 0 -0.44702735364695217 0.27675533545947301 0 -0.43422108619098299 0.29621681389521232 0 -0.44702735364695217 0.27675533545947301 0 -0.43274811138672559 0.28469846643612018 0 -0.43422108619098299 0.29621681389521232 0 -0.44810052680614793 0.29565349026271098 0 -0.4493542421043164 0.28919027156790111 0 -0.45395006383388498 0.28587005882998617 0 -0.44444415583193408 0.29216055381020578 0 -0.44810052680614793 0.29565349026271098 0 -0.4493542421043164 0.28919027156790111 0 -0.44444415583193408 0.29216055381020578 0 -0.4493542421043164 0.28919027156790111 0 -0.44702735364695217 0.27675533545947301 0 -0.4493542421043164 0.28919027156790111 0 -0.45395006383388498 0.28587005882998617 0 -0.44702735364695217 0.27675533545947301 0 -0.44810052680614793 0.29565349026271098 0 -0.45395006383388498 0.28587005882998617 0 -0.46497857578083068 0.28298829925053381 0 -0.44810052680614793 0.29565349026271098 0 -0.4593999708052337 0.29480301670676529 0 -0.46497857578083068 0.28298829925053381 0 -0.44810052680614793 0.29565349026271098 0 -0.46497857578083068 0.28298829925053381 0 -0.45288369214092922 0.29939313915978533 0 -0.44810052680614793 0.29565349026271098 0 -0.4593999708052337 0.29480301670676529 0 -0.4593999708052337 0.29480301670676529 0 -0.46827174088950307 0.29409138505043392 0 -0.46497857578083068 0.28298829925053381 0 -0.46258830912673421 0.31343425170936878 0 -0.45107709460752138 0.31557533431346357 0 -0.4551770389262465 0.30483297142504889 0 -0.45288369214092922 0.29939313915978533 0 -0.4593999708052337 0.29480301670676529 0 -0.4551770389262465 0.30483297142504889 0 -0.4593999708052337 0.29480301670676529 0 -0.4551770389262465 0.30483297142504889 0 -0.46625021185001803 0.30380681263807602 0 -0.4593999708052337 0.29480301670676529 0 -0.46827174088950307 0.29409138505043392 0 -0.46625021185001803 0.30380681263807602 0 -0.47224737878043732 0.31939135852267558 0 -0.46258830912673421 0.31343425170936878 0 -0.46625021185001803 0.30380681263807602 0 -0.46258830912673421 0.31343425170936878 0 -0.4551770389262465 0.30483297142504889 0 -0.46625021185001803 0.30380681263807602 0 -0.47551717359816043 0.30301602212345602 0 -0.4769183937012712 0.29196404103452073 0 -0.48583489694974541 0.30845327583860088 0 -0.47224737878043732 0.31939135852267558 0 -0.46625021185001803 0.30380681263807602 0 -0.47551717359816043 0.30301602212345602 0 -0.47224737878043732 0.31939135852267558 0 -0.47551717359816043 0.30301602212345602 0 -0.48583489694974541 0.30845327583860088 0 -0.46827174088950307 0.29409138505043392 0 -0.46625021185001803 0.30380681263807602 0 -0.47551717359816043 0.30301602212345602 0 -0.46827174088950307 0.29409138505043392 0 -0.46497857578083068 0.28298829925053381 0 -0.4769183937012712 0.29196404103452073 0 -0.4769183937012712 0.29196404103452073 0 -0.48757792524538679 0.2814999319082685 0 -0.48583489694974541 0.30845327583860088 0 -0.46827174088950307 0.29409138505043392 0 -0.47551717359816043 0.30301602212345602 0 -0.4769183937012712 0.29196404103452073 0 -0.46497857578083068 0.28298829925053381 0 -0.47783287987075052 0.28169384510791978 0 -0.4769183937012712 0.29196404103452073 0 -0.47783287987075052 0.28169384510791978 0 -0.4769183937012712 0.29196404103452073 0 -0.48757792524538679 0.2814999319082685 0 -0.5 0.29041063335547701 0 -0.48757792524538679 0.2814999319082685 0 -0.48583489694974541 0.30845327583860088 0 -0.48757792524538679 0.2814999319082685 0 -0.48583489694974541 0.30845327583860088 0 -0.5 0.31656524504453032 0 -0.5 0.29041063335547701 0 -0.48583489694974541 0.30845327583860088 0 -0.5 0.23810140997737081 0 -0.5 0.26425602166642381 0 -0.48932095354102823 0.25454658797793611 0 -0.48757792524538679 0.2814999319082685 0 -0.48932095354102823 0.25454658797793611 0 -0.48366697684514259 0.26703881783025729 0 -0.48757792524538679 0.2814999319082685 0 -0.5 0.26425602166642381 0 -0.48932095354102823 0.25454658797793611 0 -0.48757792524538679 0.2814999319082685 0 -0.48932095354102823 0.25454658797793611 0 -0.5 0.29041063335547701 0 -0.48757792524538679 0.2814999319082685 0 -0.5 0.26425602166642381 0 -0.46497857578083068 0.28298829925053381 0 -0.48185662475551339 0.27032310823835648 0 -0.46497857578083068 0.28298829925053381 0 -0.47783287987075052 0.28169384510791978 0 -0.48185662475551339 0.27032310823835648 0 -0.48366697684514259 0.26703881783025729 0 -0.45893043448094739 0.2699305570534084 0 -0.48757792524538679 0.2814999319082685 0 -0.48366697684514259 0.26703881783025729 0 -0.48185662475551339 0.27032310823835648 0 -0.48366697684514259 0.26703881783025729 0 -0.48185662475551339 0.27032310823835648 0 -0.47235815296560851 0.27257019559313889 0 -0.46497857578083068 0.28298829925053381 0 -0.48185662475551339 0.27032310823835648 0 -0.47235815296560851 0.27257019559313889 0 -0.48366697684514259 0.26703881783025729 0 -0.46959483388743167 0.25994315597580908 0 -0.45893043448094739 0.2699305570534084 0 -0.48366697684514259 0.26703881783025729 0 -0.47235815296560851 0.27257019559313889 0 -0.45893043448094739 0.2699305570534084 0 -0.47783287987075052 0.28169384510791978 0 -0.48757792524538679 0.2814999319082685 0 -0.48185662475551339 0.27032310823835648 0 -0.48932095354102823 0.25454658797793611 0 -0.48366697684514259 0.26703881783025729 0 -0.47792533453874358 0.25606878273296479 0 -0.48366697684514259 0.26703881783025729 0 -0.46959483388743167 0.25994315597580908 0 -0.47792533453874358 0.25606878273296479 0 -0.47864167104372218 0.246590621409366 0 -0.48932095354102823 0.25454658797793611 0 -0.47792533453874358 0.25606878273296479 0 -0.47864167104372218 0.246590621409366 0 -0.47792533453874358 0.25606878273296479 0 -0.46938038244821267 0.25133041049185839 0 -0.46959483388743167 0.25994315597580908 0 -0.47792533453874358 0.25606878273296479 0 -0.46938038244821267 0.25133041049185839 0 -0.46959483388743167 0.25994315597580908 0 -0.46938038244821267 0.25133041049185839 0 -0.45807104112411212 0.25534721177055669 0 -0.46959483388743167 0.25994315597580908 0 -0.45807104112411212 0.25534721177055669 0 -0.45893043448094739 0.2699305570534084 0 -0.45807104112411212 0.25534721177055669 0 -0.45893043448094739 0.2699305570534084 0 -0.44442574262614493 0.25832327296872359 0 -0.45395006383388498 0.28587005882998617 0 -0.46497857578083068 0.28298829925053381 0 -0.45893043448094739 0.2699305570534084 0 -0.45395006383388498 0.28587005882998617 0 -0.45893043448094739 0.2699305570534084 0 -0.44702735364695217 0.27675533545947301 0 -0.46497857578083068 0.28298829925053381 0 -0.47235815296560851 0.27257019559313889 0 -0.45893043448094739 0.2699305570534084 0 -0.45893043448094739 0.2699305570534084 0 -0.43419389211675241 0.27282229627655952 0 -0.45893043448094739 0.2699305570534084 0 -0.44442574262614493 0.25832327296872359 0 -0.43419389211675241 0.27282229627655952 0 -0.45893043448094739 0.2699305570534084 0 -0.44702735364695217 0.27675533545947301 0 -0.43419389211675241 0.27282229627655952 0 -0.44702735364695217 0.27675533545947301 0 -0.43419389211675241 0.27282229627655952 0 -0.43274811138672559 0.28469846643612018 0 -0.45046339488490522 0.249057113070103 0 -0.45807104112411212 0.25534721177055669 0 -0.44442574262614493 0.25832327296872359 0 -0.44062222049055039 0.24203477259657111 0 -0.44442574262614493 0.25832327296872359 0 -0.42503978512155383 0.25887440404814072 0 -0.44062222049055039 0.24203477259657111 0 -0.42503978512155383 0.25887440404814072 0 -0.44442574262614493 0.25832327296872359 0 -0.42503978512155383 0.25887440404814072 0 -0.43419389211675241 0.27282229627655952 0 -0.42503978512155383 0.25887440404814072 0 -0.40945734975255721 0.27571403549971041 0 -0.40585136056822319 0.25674789398696107 0 -0.4198454647722451 0.23985190764030939 0 -0.42503978512155383 0.25887440404814072 0 -0.40585136056822319 0.25674789398696107 0 -0.40945734975255721 0.27571403549971041 0 -0.43419389211675241 0.27282229627655952 0 -0.42503978512155383 0.25887440404814072 0 -0.40945734975255721 0.27571403549971041 0 -0.42503978512155383 0.25887440404814072 0 -0.40945734975255721 0.27571403549971041 0 -0.43419389211675241 0.27282229627655952 0 -0.40945734975255721 0.27571403549971041 0 -0.43419389211675241 0.27282229627655952 0 -0.4229835889384117 0.28415291652507912 0 -0.43419389211675241 0.27282229627655952 0 -0.43274811138672559 0.28469846643612018 0 -0.4229835889384117 0.28415291652507912 0 -0.43274811138672559 0.28469846643612018 0 -0.43422108619098299 0.29621681389521232 0 -0.42519236151645012 0.29288975242762622 0 -0.43274811138672559 0.28469846643612018 0 -0.42519236151645012 0.29288975242762622 0 -0.4229835889384117 0.28415291652507912 0 -0.42141481873501418 0.31567829233095179 0 -0.43422108619098299 0.29621681389521232 0 -0.42141481873501418 0.31567829233095179 0 -0.43422108619098299 0.29621681389521232 0 -0.42237726971740519 0.30236741203524931 0 -0.44444415583193408 0.29216055381020578 0 -0.43422108619098299 0.29621681389521232 0 -0.43122247783146522 0.30831868127488848 0 -0.42141481873501418 0.31567829233095179 0 -0.43422108619098299 0.29621681389521232 0 -0.43122247783146522 0.30831868127488848 0 -0.43422108619098299 0.29621681389521232 0 -0.42519236151645012 0.29288975242762622 0 -0.42237726971740519 0.30236741203524931 0 -0.42141481873501418 0.31567829233095179 0 -0.43122247783146522 0.30831868127488848 0 -0.42237726971740519 0.30236741203524931 0 -0.41647318301620623 0.31168328686166002 0 -0.40812109447663159 0.30329838776079099 0 -0.42141481873501418 0.31567829233095179 0 -0.42237726971740519 0.30236741203524931 0 -0.41647318301620623 0.31168328686166002 0 -0.42237726971740519 0.30236741203524931 0 -0.40812109447663159 0.30329838776079099 0 -0.41256551749876041 0.29129965580367562 0 -0.40826549608127172 0.31275764886218971 0 -0.41647318301620623 0.31168328686166002 0 -0.40812109447663159 0.30329838776079099 0 -0.40945734975255721 0.27571403549971041 0 -0.4229835889384117 0.28415291652507912 0 -0.41256551749876041 0.29129965580367562 0 -0.42519236151645012 0.29288975242762622 0 -0.4229835889384117 0.28415291652507912 0 -0.41256551749876041 0.29129965580367562 0 -0.42519236151645012 0.29288975242762622 0 -0.42237726971740519 0.30236741203524931 0 -0.41256551749876041 0.29129965580367562 0 -0.40945734975255721 0.27571403549971041 0 -0.39180528154043992 0.29479027846244049 0 -0.39350738277932218 0.27757861076756318 0 -0.40945734975255721 0.27571403549971041 0 -0.39180528154043992 0.29479027846244049 0 -0.40812109447663159 0.30329838776079099 0 -0.41256551749876041 0.29129965580367562 0 -0.39180528154043992 0.29479027846244049 0 -0.40945734975255721 0.27571403549971041 0 -0.41256551749876041 0.29129965580367562 0 -0.39180528154043992 0.29479027846244049 0 -0.38613629988198012 0.31665983269396758 0 -0.39830358576524327 0.31266849694114901 0 -0.39180528154043992 0.29479027846244049 0 -0.39830358576524327 0.31266849694114901 0 -0.40812109447663159 0.30329838776079099 0 -0.39180528154043992 0.29479027846244049 0 -0.39830358576524327 0.31266849694114901 0 -0.40826549608127172 0.31275764886218971 0 -0.40812109447663159 0.30329838776079099 0 -0.39180528154043992 0.29479027846244049 0 -0.37819889022761238 0.29924868842846319 0 -0.37415321332832258 0.31386652142517069 0 -0.38613629988198012 0.31665983269396758 0 -0.39180528154043992 0.29479027846244049 0 -0.37415321332832258 0.31386652142517069 0 -0.39180528154043992 0.29479027846244049 0 -0.37415321332832258 0.31386652142517069 0 -0.39180528154043992 0.29479027846244049 0 -0.37819889022761238 0.29924868842846319 0 -0.37870614451813112 0.28175948497688769 0 -0.39180528154043992 0.29479027846244049 0 -0.37870614451813112 0.28175948497688769 0 -0.39350738277932218 0.27757861076756318 0 -0.37870614451813112 0.28175948497688769 0 -0.37647038179830861 0.26645711442365799 0 -0.39350738277932218 0.27757861076756318 0 -0.37647038179830861 0.26645711442365799 0 -0.39336972403141229 0.26369738761855421 0 -0.39350738277932218 0.27757861076756318 0 -0.38790582398472923 0.24962922847932231 0 -0.37647038179830861 0.26645711442365799 0 -0.39336972403141229 0.26369738761855421 0 -0.38790582398472923 0.24962922847932231 0 -0.37647038179830861 0.26645711442365799 0 -0.36318679658289171 0.25196182354824148 0 -0.40945734975255721 0.27571403549971041 0 -0.40585136056822319 0.25674789398696107 0 -0.39336972403141229 0.26369738761855421 0 -0.38790582398472923 0.24962922847932231 0 -0.40585136056822319 0.25674789398696107 0 -0.39336972403141229 0.26369738761855421 0 -0.40945734975255721 0.27571403549971041 0 -0.39336972403141229 0.26369738761855421 0 -0.39350738277932218 0.27757861076756318 0 -0.40945734975255721 0.27571403549971041 0 -0.39350738277932218 0.27757861076756318 0 -0.35583614606747688 0.27501819518035592 0 -0.36318679658289171 0.25196182354824148 0 -0.33952374355129727 0.25899057541505788 0 -0.37647038179830861 0.26645711442365799 0 -0.35583614606747688 0.27501819518035592 0 -0.36318679658289171 0.25196182354824148 0 -0.37870614451813112 0.28175948497688769 0 -0.37647038179830861 0.26645711442365799 0 -0.35583614606747688 0.27501819518035592 0 -0.37819889022761238 0.29924868842846319 0 -0.37870614451813112 0.28175948497688769 0 -0.36775571630023218 0.2927315942663431 0 -0.37870614451813112 0.28175948497688769 0 -0.35583614606747688 0.27501819518035592 0 -0.36775571630023218 0.2927315942663431 0 -0.37819889022761238 0.29924868842846319 0 -0.36899777432263853 0.30469822459034263 0 -0.37415321332832258 0.31386652142517069 0 -0.36899777432263853 0.30469822459034263 0 -0.36272901898995358 0.31473918551029578 0 -0.37415321332832258 0.31386652142517069 0 -0.37819889022761238 0.29924868842846319 0 -0.36775571630023218 0.2927315942663431 0 -0.36899777432263853 0.30469822459034263 0 -0.36775571630023218 0.2927315942663431 0 -0.36899777432263853 0.30469822459034263 0 -0.35931620367806588 0.30475084950198522 0 -0.36775571630023218 0.2927315942663431 0 -0.35931620367806588 0.30475084950198522 0 -0.35261706249820868 0.29381533636168528 0 -0.36899777432263853 0.30469822459034263 0 -0.35931620367806588 0.30475084950198522 0 -0.36272901898995358 0.31473918551029578 0 -0.35931620367806588 0.30475084950198522 0 -0.35261706249820868 0.29381533636168528 0 -0.34344143829887858 0.30736403781452232 0 -0.35931620367806588 0.30475084950198522 0 -0.34344143829887858 0.30736403781452232 0 -0.35467675850453528 0.31743756764607989 0 -0.35931620367806588 0.30475084950198522 0 -0.35467675850453528 0.31743756764607989 0 -0.36272901898995358 0.31473918551029578 0 -0.35583614606747688 0.27501819518035592 0 -0.36775571630023218 0.2927315942663431 0 -0.35261706249820868 0.29381533636168528 0 -0.35583614606747688 0.27501819518035592 0 -0.35261706249820868 0.29381533636168528 0 -0.33673580814638959 0.28921200504521999 0 -0.35261706249820868 0.29381533636168528 0 -0.33673580814638959 0.28921200504521999 0 -0.34344143829887858 0.30736403781452232 0 -0.33673580814638959 0.28921200504521999 0 -0.32075162894010661 0.28280614760534989 0 -0.33379142081270979 0.2734424933293601 0 -0.34344143829887858 0.30736403781452232 0 -0.31699951866320542 0.30755322334125379 0 -0.34344143829887858 0.30736403781452232 0 -0.31699951866320542 0.30755322334125379 0 -0.33459812393413729 0.32207732583041709 0 -0.33673580814638959 0.28921200504521999 0 -0.34344143829887858 0.30736403781452232 0 -0.31699951866320542 0.30755322334125379 0 -0.33673580814638959 0.28921200504521999 0 -0.31699951866320542 0.30755322334125379 0 -0.32075162894010661 0.28280614760534989 0 -0.31699951866320542 0.30755322334125379 0 -0.32075162894010661 0.28280614760534989 0 -0.30493521127791462 0.28695781074044469 0 -0.32075162894010661 0.28280614760534989 0 -0.31931282352829687 0.26617321261290411 0 -0.33379142081270979 0.2734424933293601 0 -0.32075162894010661 0.28280614760534989 0 -0.31931282352829687 0.26617321261290411 0 -0.30493521127791462 0.28695781074044469 0 -0.35583614606747688 0.27501819518035592 0 -0.33673580814638959 0.28921200504521999 0 -0.33379142081270979 0.2734424933293601 0 -0.35583614606747688 0.27501819518035592 0 -0.33379142081270979 0.2734424933293601 0 -0.33952374355129727 0.25899057541505788 0 -0.31931282352829687 0.26617321261290411 0 -0.33379142081270979 0.2734424933293601 0 -0.33952374355129727 0.25899057541505788 0 -0.32200613725511351 0.24850726385495631 0 -0.31931282352829687 0.26617321261290411 0 -0.33952374355129727 0.25899057541505788 0 -0.32200613725511351 0.24850726385495631 0 -0.31931282352829687 0.26617321261290411 0 -0.30640548876467488 0.25787073169030861 0 -0.31931282352829687 0.26617321261290411 0 -0.30640548876467488 0.25787073169030861 0 -0.3010630097917536 0.27273037638764702 0 -0.31931282352829687 0.26617321261290411 0 -0.3010630097917536 0.27273037638764702 0 -0.30493521127791462 0.28695781074044469 0 -0.31931282352829687 0.26617321261290411 0 -0.30493521127791462 0.28695781074044469 0 -0.3010630097917536 0.27273037638764702 0 -0.29309283898050847 0.28048055459605348 0 -0.30493521127791462 0.28695781074044469 0 -0.3010630097917536 0.27273037638764702 0 -0.29309283898050847 0.28048055459605348 0 -0.28156868640737281 0.27216957229852412 0 -0.30640548876467488 0.25787073169030861 0 -0.3010630097917536 0.27273037638764702 0 -0.28156868640737281 0.27216957229852412 0 -0.30640548876467488 0.25787073169030861 0 -0.28156868640737281 0.27216957229852412 0 -0.28729818335365731 0.26780124082781631 0 -0.28156868640737281 0.27216957229852412 0 -0.28729818335365731 0.26780124082781631 0 -0.27880962639343299 0.26078065685839158 0 -0.29309283898050847 0.28048055459605348 0 -0.28156868640737281 0.27216957229852412 0 -0.28401529333418091 0.28255904946725641 0 -0.30640548876467488 0.25787073169030861 0 -0.28156868640737281 0.27216957229852412 0 -0.29125564533142001 0.24067530578368901 0 -0.30640548876467488 0.25787073169030861 0 -0.28729818335365731 0.26780124082781631 0 -0.29125564533142001 0.24067530578368901 0 -0.28729818335365731 0.26780124082781631 0 -0.27880962639343299 0.26078065685839158 0 -0.29125564533142001 0.24067530578368901 0 -0.28729818335365731 0.26780124082781631 0 -0.29125564533142001 0.24067530578368901 0 -0.26892213733164849 0.25365425058065472 0 -0.27880962639343299 0.26078065685839158 0 -0.26892213733164849 0.25365425058065472 0 -0.27880962639343299 0.26078065685839158 0 -0.26500347954306669 0.26960291480127369 0 -0.28156868640737281 0.27216957229852412 0 -0.25673188405007052 0.28646841290673969 0 -0.28156868640737281 0.27216957229852412 0 -0.26500347954306669 0.26960291480127369 0 -0.25673188405007052 0.28646841290673969 0 -0.28156868640737281 0.27216957229852412 0 -0.27880962639343299 0.26078065685839158 0 -0.26500347954306669 0.26960291480127369 0 -0.28156868640737281 0.27216957229852412 0 -0.27479408276187339 0.28687287199942368 0 -0.28401529333418091 0.28255904946725641 0 -0.26500347954306669 0.26960291480127369 0 -0.25265925142613249 0.26128234508680298 0 -0.25673188405007052 0.28646841290673969 0 -0.26892213733164849 0.25365425058065472 0 -0.26500347954306669 0.26960291480127369 0 -0.25265925142613249 0.26128234508680298 0 -0.25621817608628389 0.2460965770837312 0 -0.26892213733164849 0.25365425058065472 0 -0.25265925142613249 0.26128234508680298 0 -0.25505401324638421 0.30366623925853881 0 -0.26661761067819428 0.2958317928062858 0 -0.26721257633701828 0.30790943684761429 0 -0.25505401324638421 0.30366623925853881 0 -0.26721257633701828 0.30790943684761429 0 -0.25901197930261888 0.31383205914145501 0 -0.26721257633701828 0.30790943684761429 0 -0.25901197930261888 0.31383205914145501 0 -0.26528599585519008 0.31471464054907522 0 -0.25505401324638421 0.30366623925853881 0 -0.25901197930261888 0.31383205914145501 0 -0.24885494741763489 0.31718848033418301 0 -0.25505401324638421 0.30366623925853881 0 -0.25673188405007052 0.28646841290673969 0 -0.26661761067819428 0.2958317928062858 0 -0.26661761067819428 0.2958317928062858 0 -0.27573637841232751 0.29432500902679382 0 -0.27326763327687947 0.30016750757533939 0 -0.28156868640737281 0.27216957229852412 0 -0.25673188405007052 0.28646841290673969 0 -0.27479408276187339 0.28687287199942368 0 -0.26661761067819428 0.2958317928062858 0 -0.27479408276187339 0.28687287199942368 0 -0.27573637841232751 0.29432500902679382 0 -0.25673188405007052 0.28646841290673969 0 -0.26661761067819428 0.2958317928062858 0 -0.27479408276187339 0.28687287199942368 0 -0.27479408276187339 0.28687287199942368 0 -0.28401529333418091 0.28255904946725641 0 -0.28313816676434478 0.29069510378855717 0 -0.27479408276187339 0.28687287199942368 0 -0.27573637841232751 0.29432500902679382 0 -0.28313816676434478 0.29069510378855717 0 -0.27573637841232751 0.29432500902679382 0 -0.28086439858034518 0.29805776896436298 0 -0.28313816676434478 0.29069510378855717 0 -0.28086439858034518 0.29805776896436298 0 -0.27753065875984329 0.30327410754998058 0 -0.28274061889410179 0.30278083970340541 0 -0.27753065875984329 0.30327410754998058 0 -0.27514776209796898 0.30785266251660498 0 -0.28274061889410179 0.30278083970340541 0 -0.27753065875984329 0.30327410754998058 0 -0.27326763327687947 0.30016750757533939 0 -0.27348155140824082 0.30658246875079598 0 -0.28086439858034518 0.29805776896436298 0 -0.27753065875984329 0.30327410754998058 0 -0.27326763327687947 0.30016750757533939 0 -0.27573637841232751 0.29432500902679382 0 -0.28086439858034518 0.29805776896436298 0 -0.27326763327687947 0.30016750757533939 0 -0.26661761067819428 0.2958317928062858 0 -0.27326763327687947 0.30016750757533939 0 -0.26721257633701828 0.30790943684761429 0 -0.26721257633701828 0.30790943684761429 0 -0.27514776209796898 0.30785266251660498 0 -0.27123720609067609 0.3158529302113221 0 -0.26721257633701828 0.30790943684761429 0 -0.27348155140824082 0.30658246875079598 0 -0.27514776209796898 0.30785266251660498 0 -0.26721257633701828 0.30790943684761429 0 -0.27514776209796898 0.30785266251660498 0 -0.27326763327687947 0.30016750757533939 0 -0.26721257633701828 0.30790943684761429 0 -0.27348155140824082 0.30658246875079598 0 -0.27514776209796898 0.30785266251660498 0 -0.2851872012256097 0.31550597615259851 0 -0.27753065875984329 0.30327410754998058 0 -0.27348155140824082 0.30658246875079598 0 -0.27514776209796898 0.30785266251660498 0 -0.27348155140824082 0.30658246875079598 0 -0.27514776209796898 0.30785266251660498 0 -0.27514776209796898 0.30785266251660498 0 -0.2905575990275322 0.30774240886798532 0 -0.27514776209796898 0.30785266251660498 0 -0.2905575990275322 0.30774240886798532 0 -0.2851872012256097 0.31550597615259851 0 -0.2896026760048197 0.2969772506180926 0 -0.2905575990275322 0.30774240886798532 0 -0.30493521127791462 0.28695781074044469 0 -0.27514776209796898 0.30785266251660498 0 -0.28274061889410179 0.30278083970340541 0 -0.2905575990275322 0.30774240886798532 0 -0.2905575990275322 0.30774240886798532 0 -0.2851872012256097 0.31550597615259851 0 -0.28274061889410179 0.30278083970340541 0 -0.2896026760048197 0.2969772506180926 0 -0.2905575990275322 0.30774240886798532 0 -0.28086439858034518 0.29805776896436298 0 -0.28274061889410179 0.30278083970340541 0 -0.2896026760048197 0.2969772506180926 0 -0.28401529333418091 0.28255904946725641 0 -0.28313816676434478 0.29069510378855717 0 -0.29095683727235372 0.28753395384208091 0 -0.28086439858034518 0.29805776896436298 0 -0.2896026760048197 0.2969772506180926 0 -0.28313816676434478 0.29069510378855717 0 -0.2896026760048197 0.2969772506180926 0 -0.28313816676434478 0.29069510378855717 0 -0.29095683727235372 0.28753395384208091 0 -0.2896026760048197 0.2969772506180926 0 -0.29095683727235372 0.28753395384208091 0 -0.30493521127791462 0.28695781074044469 0 -0.29309283898050847 0.28048055459605348 0 -0.29095683727235372 0.28753395384208091 0 -0.30493521127791462 0.28695781074044469 0 -0.29309283898050847 0.28048055459605348 0 -0.28401529333418091 0.28255904946725641 0 -0.29095683727235372 0.28753395384208091 0 -0.31699951866320542 0.30755322334125379 0 -0.2905575990275322 0.30774240886798532 0 -0.30563014257680821 0.31779627416788381 0 -0.31699951866320542 0.30755322334125379 0 -0.2905575990275322 0.30774240886798532 0 -0.2905575990275322 0.30774240886798532 0 -0.30493521127791462 0.28695781074044469 0 -0.31699951866320542 0.30755322334125379 0 -0.2905575990275322 0.30774240886798532 0 -0.30493521127791462 0.28695781074044469 0 -0.30538608464820588 0.33090408634228141 0 -0.28942706780696309 0.31873813168532672 0 -0.30563014257680821 0.31779627416788381 0 -0.30538608464820588 0.33090408634228141 0 -0.31811651498789978 0.32488887006413791 0 -0.30563014257680821 0.31779627416788381 0 -0.30538608464820588 0.33090408634228141 0 -0.2937791937433501 0.31637108240395312 0 -0.30538608464820588 0.33090408634228141 0 -0.3017933608705089 0.344447887165377 0 -0.32134510148944728 0.34307004099923799 0 -0.30538608464820588 0.33090408634228141 0 -0.29093013722955491 0.33661105704622479 0 -0.3017933608705089 0.344447887165377 0 -0.30538608464820588 0.33090408634228141 0 -0.29093013722955491 0.33661105704622479 0 -0.2885751077852815 0.32830696870384862 0 -0.29093013722955491 0.33661105704622479 0 -0.28224162025157051 0.34582573333151501 0 -0.3017933608705089 0.344447887165377 0 -0.2885751077852815 0.32830696870384862 0 -0.28146834572906437 0.33465123959114113 0 -0.2790455690922089 0.3243844570517187 0 -0.29093013722955491 0.33661105704622479 0 -0.2885751077852815 0.32830696870384862 0 -0.28146834572906437 0.33465123959114113 0 -0.29093013722955491 0.33661105704622479 0 -0.28146834572906437 0.33465123959114113 0 -0.28224162025157051 0.34582573333151501 0 -0.30538608464820588 0.33090408634228141 0 -0.2885751077852815 0.32830696870384862 0 -0.28942706780696309 0.31873813168532672 0 -0.30538608464820588 0.33090408634228141 0 -0.28942706780696309 0.31873813168532672 0 -0.2937791937433501 0.31637108240395312 0 -0.28942706780696309 0.31873813168532672 0 -0.2937791937433501 0.31637108240395312 0 -0.2851872012256097 0.31550597615259851 0 -0.2905575990275322 0.30774240886798532 0 -0.30563014257680821 0.31779627416788381 0 -0.2937791937433501 0.31637108240395312 0 -0.2905575990275322 0.30774240886798532 0 -0.2937791937433501 0.31637108240395312 0 -0.2851872012256097 0.31550597615259851 0 -0.28942706780696309 0.31873813168532672 0 -0.2937791937433501 0.31637108240395312 0 -0.2885751077852815 0.32830696870384862 0 -0.28942706780696309 0.31873813168532672 0 -0.2790455690922089 0.3243844570517187 0 -0.28942706780696309 0.31873813168532672 0 -0.2790455690922089 0.3243844570517187 0 -0.2851872012256097 0.31550597615259851 0 -0.2790455690922089 0.3243844570517187 0 -0.28942706780696309 0.31873813168532672 0 -0.2851872012256097 0.31550597615259851 0 -0.2790455690922089 0.3243844570517187 0 -0.28942706780696309 0.31873813168532672 0 -0.2851872012256097 0.31550597615259851 0 -0.27514776209796898 0.30785266251660498 0 -0.2851872012256097 0.31550597615259851 0 -0.27699557949655113 0.31645322234696882 0 -0.2851872012256097 0.31550597615259851 0 -0.27699557949655113 0.31645322234696882 0 -0.2790455690922089 0.3243844570517187 0 -0.27514776209796898 0.30785266251660498 0 -0.27699557949655113 0.31645322234696882 0 -0.27123720609067609 0.3158529302113221 0 -0.27001263578126711 0.32263717043347712 0 -0.2790455690922089 0.3243844570517187 0 -0.25910260253645218 0.33523110656146687 0 -0.26721257633701828 0.30790943684761429 0 -0.27123720609067609 0.3158529302113221 0 -0.26528599585519008 0.31471464054907522 0 -0.27699557949655113 0.31645322234696882 0 -0.27123720609067609 0.3158529302113221 0 -0.27001263578126711 0.32263717043347712 0 -0.27123720609067609 0.3158529302113221 0 -0.26528599585519008 0.31471464054907522 0 -0.26368222169044719 0.32126413599590953 0 -0.27123720609067609 0.3158529302113221 0 -0.27001263578126711 0.32263717043347712 0 -0.26368222169044719 0.32126413599590953 0 -0.27699557949655113 0.31645322234696882 0 -0.27001263578126711 0.32263717043347712 0 -0.2790455690922089 0.3243844570517187 0 -0.2790455690922089 0.3243844570517187 0 -0.25910260253645218 0.33523110656146687 0 -0.2790455690922089 0.3243844570517187 0 -0.26824012707650141 0.34000504592112352 0 -0.28146834572906437 0.33465123959114113 0 -0.2790455690922089 0.3243844570517187 0 -0.26824012707650141 0.34000504592112352 0 -0.2790455690922089 0.3243844570517187 0 -0.26824012707650141 0.34000504592112352 0 -0.25910260253645218 0.33523110656146687 0 -0.28146834572906437 0.33465123959114113 0 -0.26824012707650141 0.34000504592112352 0 -0.28224162025157051 0.34582573333151501 0 -0.25910260253645218 0.33523110656146687 0 -0.25407523553642281 0.3497448278934856 0 -0.23915963598069589 0.34607775607121571 0 -0.25910260253645218 0.33523110656146687 0 -0.25407523553642281 0.3497448278934856 0 -0.26309588156361569 0.34576168367824162 0 -0.26824012707650141 0.34000504592112352 0 -0.25910260253645218 0.33523110656146687 0 -0.26309588156361569 0.34576168367824162 0 -0.25910260253645218 0.33523110656146687 0 -0.25451497659773847 0.32559442806853028 0 -0.24843663428782739 0.33758714710907461 0 -0.25451497659773847 0.32559442806853028 0 -0.25901197930261888 0.31383205914145501 0 -0.24885494741763489 0.31718848033418301 0 -0.25451497659773847 0.32559442806853028 0 -0.25901197930261888 0.31383205914145501 0 -0.26368222169044719 0.32126413599590953 0 -0.25901197930261888 0.31383205914145501 0 -0.26528599585519008 0.31471464054907522 0 -0.26368222169044719 0.32126413599590953 0 -0.27001263578126711 0.32263717043347712 0 -0.25910260253645218 0.33523110656146687 0 -0.26368222169044719 0.32126413599590953 0 -0.25910260253645218 0.33523110656146687 0 -0.25451497659773847 0.32559442806853028 0 -0.26368222169044719 0.32126413599590953 0 -0.26470209097228098 0.37140351159401941 0 -0.25562758441007077 0.36194187249828802 0 -0.266880351992417 0.3582272519812631 0 -0.26470209097228098 0.37140351159401941 0 -0.25213085833087667 0.37355178257669552 0 -0.25562758441007077 0.36194187249828802 0 -0.25213085833087667 0.37355178257669552 0 -0.25562758441007077 0.36194187249828802 0 -0.24329038266145239 0.36134909741814653 0 -0.25562758441007077 0.36194187249828802 0 -0.25407523553642281 0.3497448278934856 0 -0.24329038266145239 0.36134909741814653 0 -0.25407523553642281 0.3497448278934856 0 -0.26309588156361569 0.34576168367824162 0 -0.266880351992417 0.3582272519812631 0 -0.25562758441007077 0.36194187249828802 0 -0.25407523553642281 0.3497448278934856 0 -0.266880351992417 0.3582272519812631 0 -0.266880351992417 0.3582272519812631 0 -0.27640009279511962 0.35155878343443242 0 -0.28837447244510311 0.36628710188532532 0 -0.26309588156361569 0.34576168367824162 0 -0.266880351992417 0.3582272519812631 0 -0.27640009279511962 0.35155878343443242 0 -0.26824012707650141 0.34000504592112352 0 -0.26309588156361569 0.34576168367824162 0 -0.27640009279511962 0.35155878343443242 0 -0.26824012707650141 0.34000504592112352 0 -0.27640009279511962 0.35155878343443242 0 -0.28224162025157051 0.34582573333151501 0 -0.266880351992417 0.3582272519812631 0 -0.28837447244510311 0.36628710188532532 0 -0.266880351992417 0.3582272519812631 0 -0.28837447244510311 0.36628710188532532 0 -0.27747916353329311 0.37529003384729942 0 -0.26470209097228098 0.37140351159401941 0 -0.266880351992417 0.3582272519812631 0 -0.27747916353329311 0.37529003384729942 0 -0.28837447244510311 0.36628710188532532 0 -0.28714059247178902 0.37543321948423419 0 -0.27747916353329311 0.37529003384729942 0 -0.28837447244510311 0.36628710188532532 0 -0.28956810344150979 0.35324588380912608 0 -0.30292150033679799 0.36018321991941088 0 -0.28837447244510311 0.36628710188532532 0 -0.29874239202075642 0.37528196759933868 0 -0.28714059247178902 0.37543321948423419 0 -0.28224162025157051 0.34582573333151501 0 -0.3017933608705089 0.344447887165377 0 -0.28224162025157051 0.34582573333151501 0 -0.28956810344150979 0.35324588380912608 0 -0.3017933608705089 0.344447887165377 0 -0.27640009279511962 0.35155878343443242 0 -0.28224162025157051 0.34582573333151501 0 -0.28956810344150979 0.35324588380912608 0 -0.27640009279511962 0.35155878343443242 0 -0.28837447244510311 0.36628710188532532 0 -0.28956810344150979 0.35324588380912608 0 -0.3017933608705089 0.344447887165377 0 -0.31193410579265052 0.3536039280541286 0 -0.30292150033679799 0.36018321991941088 0 -0.28956810344150979 0.35324588380912608 0 -0.3017933608705089 0.344447887165377 0 -0.30292150033679799 0.36018321991941088 0 -0.3017933608705089 0.344447887165377 0 -0.32134510148944728 0.34307004099923799 0 -0.3017933608705089 0.344447887165377 0 -0.31193410579265052 0.3536039280541286 0 -0.32134510148944728 0.34307004099923799 0 -0.31193410579265052 0.3536039280541286 0 -0.30292150033679799 0.36018321991941088 0 -0.31340485972314069 0.36375751913665871 0 -0.28837447244510311 0.36628710188532532 0 -0.30292150033679799 0.36018321991941088 0 -0.30986859289778912 0.37434695178938759 0 -0.28837447244510311 0.36628710188532532 0 -0.30986859289778912 0.37434695178938759 0 -0.28837447244510311 0.36628710188532532 0 -0.30986859289778912 0.37434695178938759 0 -0.29874239202075642 0.37528196759933868 0 -0.30292150033679799 0.36018321991941088 0 -0.30986859289778912 0.37434695178938759 0 -0.31340485972314069 0.36375751913665871 0 -0.30986859289778912 0.37434695178938759 0 -0.31340485972314069 0.36375751913665871 0 -0.32167824364597858 0.36970754211250728 0 -0.31340485972314069 0.36375751913665871 0 -0.32243327870136801 0.35950699838777223 0 -0.32167824364597858 0.36970754211250728 0 -0.32243327870136801 0.35950699838777223 0 -0.32167824364597858 0.36970754211250728 0 -0.33132177355711989 0.36851943955526861 0 -0.32167824364597858 0.36970754211250728 0 -0.33132177355711989 0.36851943955526861 0 -0.33136271335047512 0.38240680169344993 0 -0.32243327870136801 0.35950699838777223 0 -0.33132177355711989 0.36851943955526861 0 -0.33989838930305449 0.35721367281084643 0 -0.33132177355711989 0.36851943955526861 0 -0.34304766554360439 0.37232322735168022 0 -0.33136271335047512 0.38240680169344993 0 -0.33132177355711989 0.36851943955526861 0 -0.34304766554360439 0.37232322735168022 0 -0.33989838930305449 0.35721367281084643 0 -0.33989838930305449 0.35721367281084643 0 -0.32134510148944728 0.34307004099923799 0 -0.33989838930305449 0.35721367281084643 0 -0.32134510148944728 0.34307004099923799 0 -0.3500233487104954 0.34104903357308669 0 -0.32243327870136801 0.35950699838777223 0 -0.33989838930305449 0.35721367281084643 0 -0.32134510148944728 0.34307004099923799 0 -0.31193410579265052 0.3536039280541286 0 -0.32243327870136801 0.35950699838777223 0 -0.32134510148944728 0.34307004099923799 0 -0.31193410579265052 0.3536039280541286 0 -0.31340485972314069 0.36375751913665871 0 -0.32243327870136801 0.35950699838777223 0 -0.30538608464820588 0.33090408634228141 0 -0.32134510148944728 0.34307004099923799 0 -0.30538608464820588 0.33090408634228141 0 -0.32134510148944728 0.34307004099923799 0 -0.31811651498789978 0.32488887006413791 0 -0.32134510148944728 0.34307004099923799 0 -0.31811651498789978 0.32488887006413791 0 -0.33459812393413729 0.32207732583041709 0 -0.31699951866320542 0.30755322334125379 0 -0.30563014257680821 0.31779627416788381 0 -0.31811651498789978 0.32488887006413791 0 -0.31699951866320542 0.30755322334125379 0 -0.31811651498789978 0.32488887006413791 0 -0.33459812393413729 0.32207732583041709 0 -0.32134510148944728 0.34307004099923799 0 -0.34342889555096417 0.33131534648734451 0 -0.3500233487104954 0.34104903357308669 0 -0.32134510148944728 0.34307004099923799 0 -0.33459812393413729 0.32207732583041709 0 -0.34342889555096417 0.33131534648734451 0 -0.32134510148944728 0.34307004099923799 0 -0.3500233487104954 0.34104903357308669 0 -0.3500233487104954 0.34104903357308669 0 -0.35650114511620551 0.33294276438790088 0 -0.36794029410566942 0.33226259727897972 0 -0.34342889555096417 0.33131534648734451 0 -0.3500233487104954 0.34104903357308669 0 -0.35650114511620551 0.33294276438790088 0 -0.33459812393413729 0.32207732583041709 0 -0.34342889555096417 0.33131534648734451 0 -0.35467675850453528 0.31743756764607989 0 -0.34344143829887858 0.30736403781452232 0 -0.33459812393413729 0.32207732583041709 0 -0.35467675850453528 0.31743756764607989 0 -0.35650114511620551 0.33294276438790088 0 -0.35467675850453528 0.31743756764607989 0 -0.36272901898995358 0.31473918551029578 0 -0.34342889555096417 0.33131534648734451 0 -0.35650114511620551 0.33294276438790088 0 -0.35467675850453528 0.31743756764607989 0 -0.35650114511620551 0.33294276438790088 0 -0.36272901898995358 0.31473918551029578 0 -0.37415321332832258 0.31386652142517069 0 -0.35650114511620551 0.33294276438790088 0 -0.37415321332832258 0.31386652142517069 0 -0.35650114511620551 0.33294276438790088 0 -0.37442838800096029 0.32044424157556423 0 -0.37415321332832258 0.31386652142517069 0 -0.37816355277066899 0.32985684687273281 0 -0.37442838800096029 0.32044424157556423 0 -0.36794029410566942 0.33226259727897972 0 -0.3787015959315434 0.33902802614693439 0 -0.3500233487104954 0.34104903357308669 0 -0.36794029410566942 0.33226259727897972 0 -0.35650114511620551 0.33294276438790088 0 -0.37442838800096029 0.32044424157556423 0 -0.36794029410566942 0.33226259727897972 0 -0.3787015959315434 0.33902802614693439 0 -0.3500233487104954 0.34104903357308669 0 -0.3787015959315434 0.33902802614693439 0 -0.37816355277066899 0.32985684687273281 0 -0.36794029410566942 0.33226259727897972 0 -0.3787015959315434 0.33902802614693439 0 -0.3500233487104954 0.34104903357308669 0 -0.36501658974902518 0.35367198233662939 0 -0.37823932191431281 0.35548757599615399 0 -0.3787015959315434 0.33902802614693439 0 -0.36501658974902518 0.35367198233662939 0 -0.37823932191431281 0.35548757599615399 0 -0.36501658974902518 0.35367198233662939 0 -0.37024808467873749 0.36543132639488701 0 -0.36501658974902518 0.35367198233662939 0 -0.37024808467873749 0.36543132639488701 0 -0.35845167711666143 0.37135730462245548 0 -0.37949655700884349 0.37153259571527891 0 -0.37024808467873749 0.36543132639488701 0 -0.36758280318953013 0.37627165255961892 0 -0.37024808467873749 0.36543132639488701 0 -0.35845167711666143 0.37135730462245548 0 -0.36758280318953013 0.37627165255961892 0 -0.36501658974902518 0.35367198233662939 0 -0.35845167711666143 0.37135730462245548 0 -0.35334750121980912 0.35582299833575448 0 -0.34304766554360439 0.37232322735168022 0 -0.33989838930305449 0.35721367281084643 0 -0.35845167711666143 0.37135730462245548 0 -0.33989838930305449 0.35721367281084643 0 -0.35845167711666143 0.37135730462245548 0 -0.35334750121980912 0.35582299833575448 0 -0.33989838930305449 0.35721367281084643 0 -0.35845167711666143 0.37135730462245548 0 -0.33989838930305449 0.35721367281084643 0 -0.3500233487104954 0.34104903357308669 0 -0.35334750121980912 0.35582299833575448 0 -0.3500233487104954 0.34104903357308669 0 -0.36501658974902518 0.35367198233662939 0 -0.35334750121980912 0.35582299833575448 0 -0.35285683380316007 0.39046665159751448 0 -0.36027192889352422 0.40897543894708011 0 -0.34270265381785459 0.40768080501023862 0 -0.34304766554360439 0.37232322735168022 0 -0.35845167711666143 0.37135730462245548 0 -0.35285683380316007 0.39046665159751448 0 -0.37686086334024771 0.38257038446795849 0 -0.35285683380316007 0.39046665159751448 0 -0.37686086334024771 0.38257038446795849 0 -0.35285683380316007 0.39046665159751448 0 -0.36758280318953013 0.37627165255961892 0 -0.35845167711666143 0.37135730462245548 0 -0.35285683380316007 0.39046665159751448 0 -0.36758280318953013 0.37627165255961892 0 -0.37686086334024771 0.38257038446795849 0 -0.37949655700884349 0.37153259571527891 0 -0.36758280318953013 0.37627165255961892 0 -0.37769092578324193 0.39977892163450779 0 -0.35285683380316007 0.39046665159751448 0 -0.37769092578324193 0.39977892163450779 0 -0.37686086334024771 0.38257038446795849 0 -0.35285683380316007 0.39046665159751448 0 -0.37769092578324193 0.39977892163450779 0 -0.35285683380316007 0.39046665159751448 0 -0.36027192889352422 0.40897543894708011 0 -0.37875820238401509 0.42613984176471847 0 -0.37769092578324193 0.39977892163450779 0 -0.36027192889352422 0.40897543894708011 0 -0.37875820238401509 0.42613984176471847 0 -0.36027192889352422 0.40897543894708011 0 -0.36048507512927641 0.42545129427310208 0 -0.37875820238401509 0.42613984176471847 0 -0.36048507512927641 0.42545129427310208 0 -0.35499138700470761 0.44318849185793469 0 -0.37875820238401509 0.42613984176471847 0 -0.35499138700470761 0.44318849185793469 0 -0.34691622899781399 0.42161541908905831 0 -0.33223168701086447 0.43660936806356893 0 -0.35499138700470761 0.44318849185793469 0 -0.36048507512927641 0.42545129427310208 0 -0.34691622899781399 0.42161541908905831 0 -0.35499138700470761 0.44318849185793469 0 -0.36027192889352422 0.40897543894708011 0 -0.34691622899781399 0.42161541908905831 0 -0.34270265381785459 0.40768080501023862 0 -0.36027192889352422 0.40897543894708011 0 -0.36048507512927641 0.42545129427310208 0 -0.34691622899781399 0.42161541908905831 0 -0.34270265381785459 0.40768080501023862 0 -0.32841174735063311 0.41773478988879181 0 -0.32505653004414181 0.39961172552874852 0 -0.34691622899781399 0.42161541908905831 0 -0.34270265381785459 0.40768080501023862 0 -0.32841174735063311 0.41773478988879181 0 -0.34691622899781399 0.42161541908905831 0 -0.32841174735063311 0.41773478988879181 0 -0.33223168701086447 0.43660936806356893 0 -0.32841174735063311 0.41773478988879181 0 -0.33223168701086447 0.43660936806356893 0 -0.31148998866141242 0.43181261152586448 0 -0.32841174735063311 0.41773478988879181 0 -0.31441363705571701 0.41408607272300291 0 -0.32505653004414181 0.39961172552874852 0 -0.32841174735063311 0.41773478988879181 0 -0.31441363705571701 0.41408607272300291 0 -0.31148998866141242 0.43181261152586448 0 -0.32505653004414181 0.39961172552874852 0 -0.31219235154091651 0.39185403334122892 0 -0.30619500853749271 0.39725637532293351 0 -0.32505653004414181 0.39961172552874852 0 -0.31778050989885959 0.38527433798844479 0 -0.31219235154091651 0.39185403334122892 0 -0.35285683380316007 0.39046665159751448 0 -0.32505653004414181 0.39961172552874852 0 -0.33136271335047512 0.38240680169344993 0 -0.35285683380316007 0.39046665159751448 0 -0.34270265381785459 0.40768080501023862 0 -0.32505653004414181 0.39961172552874852 0 -0.35285683380316007 0.39046665159751448 0 -0.32505653004414181 0.39961172552874852 0 -0.35285683380316007 0.39046665159751448 0 -0.33136271335047512 0.38240680169344993 0 -0.34304766554360439 0.37232322735168022 0 -0.35285683380316007 0.39046665159751448 0 -0.33136271335047512 0.38240680169344993 0 -0.30986859289778912 0.37434695178938759 0 -0.32167824364597858 0.36970754211250728 0 -0.33136271335047512 0.38240680169344993 0 -0.30986859289778912 0.37434695178938759 0 -0.33136271335047512 0.38240680169344993 0 -0.32505653004414181 0.39961172552874852 0 -0.33136271335047512 0.38240680169344993 0 -0.31778050989885959 0.38527433798844479 0 -0.30986859289778912 0.37434695178938759 0 -0.33136271335047512 0.38240680169344993 0 -0.31778050989885959 0.38527433798844479 0 -0.30986859289778912 0.37434695178938759 0 -0.31778050989885959 0.38527433798844479 0 -0.30574515252343709 0.38648905476423068 0 -0.30986859289778912 0.37434695178938759 0 -0.30574515252343709 0.38648905476423068 0 -0.29874239202075642 0.37528196759933868 0 -0.30574515252343709 0.38648905476423068 0 -0.29874239202075642 0.37528196759933868 0 -0.29146244090030071 0.40289140707507309 0 -0.31778050989885959 0.38527433798844479 0 -0.30574515252343709 0.38648905476423068 0 -0.31219235154091651 0.39185403334122892 0 -0.32505653004414181 0.39961172552874852 0 -0.30619500853749271 0.39725637532293351 0 -0.29725622628512233 0.40875679945997928 0 -0.32505653004414181 0.39961172552874852 0 -0.29725622628512233 0.40875679945997928 0 -0.30574515252343709 0.38648905476423068 0 -0.30619500853749271 0.39725637532293351 0 -0.29146244090030071 0.40289140707507309 0 -0.30574515252343709 0.38648905476423068 0 -0.31219235154091651 0.39185403334122892 0 -0.30619500853749271 0.39725637532293351 0 -0.30619500853749271 0.39725637532293351 0 -0.29146244090030071 0.40289140707507309 0 -0.29725622628512233 0.40875679945997928 0 -0.29146244090030071 0.40289140707507309 0 -0.2882496590958894 0.39023794275143442 0 -0.278827461574497 0.39790462172635238 0 -0.28396634188800352 0.38487377460497352 0 -0.2882496590958894 0.39023794275143442 0 -0.278827461574497 0.39790462172635238 0 -0.29146244090030071 0.40289140707507309 0 -0.278827461574497 0.39790462172635238 0 -0.27940045790464241 0.41220012044695847 0 -0.29874239202075642 0.37528196759933868 0 -0.29146244090030071 0.40289140707507309 0 -0.29874239202075642 0.37528196759933868 0 -0.29146244090030071 0.40289140707507309 0 -0.2882496590958894 0.39023794275143442 0 -0.29874239202075642 0.37528196759933868 0 -0.28396634188800352 0.38487377460497352 0 -0.28714059247178902 0.37543321948423419 0 -0.29874239202075642 0.37528196759933868 0 -0.28396634188800352 0.38487377460497352 0 -0.2882496590958894 0.39023794275143442 0 -0.28396634188800352 0.38487377460497352 0 -0.28714059247178902 0.37543321948423419 0 -0.27747916353329311 0.37529003384729942 0 -0.28396634188800352 0.38487377460497352 0 -0.27747916353329311 0.37529003384729942 0 -0.26775424033426293 0.38456849691175748 0 -0.28396634188800352 0.38487377460497352 0 -0.26775424033426293 0.38456849691175748 0 -0.278827461574497 0.39790462172635238 0 -0.26470209097228098 0.37140351159401941 0 -0.27747916353329311 0.37529003384729942 0 -0.26775424033426293 0.38456849691175748 0 -0.278827461574497 0.39790462172635238 0 -0.26298604578065232 0.3973558675440883 0 -0.2677584473194361 0.40899541659639099 0 -0.26775424033426293 0.38456849691175748 0 -0.278827461574497 0.39790462172635238 0 -0.26298604578065232 0.3973558675440883 0 -0.26298604578065232 0.3973558675440883 0 -0.25152819264859128 0.38883491631829081 0 -0.2490618870264745 0.40647588616764979 0 -0.26298604578065232 0.3973558675440883 0 -0.2677584473194361 0.40899541659639099 0 -0.2490618870264745 0.40647588616764979 0 -0.25213085833087667 0.37355178257669552 0 -0.26775424033426293 0.38456849691175748 0 -0.25152819264859128 0.38883491631829081 0 -0.26775424033426293 0.38456849691175748 0 -0.26298604578065232 0.3973558675440883 0 -0.25152819264859128 0.38883491631829081 0 -0.26470209097228098 0.37140351159401941 0 -0.25213085833087667 0.37355178257669552 0 -0.26775424033426293 0.38456849691175748 0 -0.2572482915111563 0.42152384209731297 0 -0.26330490497154813 0.43976041958731371 0 -0.24092688658692171 0.43286849171069308 0 -0.2572482915111563 0.42152384209731297 0 -0.27163392734069919 0.42205675226444578 0 -0.26330490497154813 0.43976041958731371 0 -0.2572482915111563 0.42152384209731297 0 -0.2677584473194361 0.40899541659639099 0 -0.2490618870264745 0.40647588616764979 0 -0.2572482915111563 0.42152384209731297 0 -0.2677584473194361 0.40899541659639099 0 -0.27163392734069919 0.42205675226444578 0 -0.27940045790464241 0.41220012044695847 0 -0.27163392734069919 0.42205675226444578 0 -0.28418248977984512 0.43050084655080739 0 -0.2677584473194361 0.40899541659639099 0 -0.27940045790464241 0.41220012044695847 0 -0.27163392734069919 0.42205675226444578 0 -0.278827461574497 0.39790462172635238 0 -0.2677584473194361 0.40899541659639099 0 -0.27940045790464241 0.41220012044695847 0 -0.27163392734069919 0.42205675226444578 0 -0.28418248977984512 0.43050084655080739 0 -0.26330490497154813 0.43976041958731371 0 -0.28418248977984512 0.43050084655080739 0 -0.29943060469912958 0.42576946359573847 0 -0.28981068171355151 0.44369098771903792 0 -0.29146244090030071 0.40289140707507309 0 -0.28418248977984512 0.43050084655080739 0 -0.29146244090030071 0.40289140707507309 0 -0.27940045790464241 0.41220012044695847 0 -0.28418248977984512 0.43050084655080739 0 -0.28418248977984512 0.43050084655080739 0 -0.29725622628512233 0.40875679945997928 0 -0.29943060469912958 0.42576946359573847 0 -0.29146244090030071 0.40289140707507309 0 -0.28418248977984512 0.43050084655080739 0 -0.29725622628512233 0.40875679945997928 0 -0.31441363705571701 0.41408607272300291 0 -0.32505653004414181 0.39961172552874852 0 -0.29725622628512233 0.40875679945997928 0 -0.31441363705571701 0.41408607272300291 0 -0.29725622628512233 0.40875679945997928 0 -0.29943060469912958 0.42576946359573847 0 -0.31441363705571701 0.41408607272300291 0 -0.29943060469912958 0.42576946359573847 0 -0.31148998866141242 0.43181261152586448 0 -0.29943060469912958 0.42576946359573847 0 -0.31148998866141242 0.43181261152586448 0 -0.28981068171355151 0.44369098771903792 0 -0.31148998866141242 0.43181261152586448 0 -0.30120616623050861 0.45239726712555162 0 -0.31718999816658727 0.45065056632578487 0 -0.31148998866141242 0.43181261152586448 0 -0.30120616623050861 0.45239726712555162 0 -0.31148998866141242 0.43181261152586448 0 -0.30120616623050861 0.45239726712555162 0 -0.28981068171355151 0.44369098771903792 0 -0.30120616623050861 0.45239726712555162 0 -0.29092234379960469 0.47298192272523881 0 -0.30745775624609217 0.47728579204436761 0 -0.30120616623050861 0.45239726712555162 0 -0.30745775624609217 0.47728579204436761 0 -0.31718999816658727 0.45065056632578487 0 -0.2852957606144535 0.45730244818253718 0 -0.28186649269177161 0.46567885888970018 0 -0.29092234379960469 0.47298192272523881 0 -0.30120616623050861 0.45239726712555162 0 -0.29092234379960469 0.47298192272523881 0 -0.30120616623050861 0.45239726712555162 0 -0.2852957606144535 0.45730244818253718 0 -0.29092234379960469 0.47298192272523881 0 -0.2852957606144535 0.45730244818253718 0 -0.28186649269177161 0.46567885888970018 0 -0.27690253865938408 0.45811028602654041 0 -0.28418248977984512 0.43050084655080739 0 -0.28981068171355151 0.44369098771903792 0 -0.27690253865938408 0.45811028602654041 0 -0.30120616623050861 0.45239726712555162 0 -0.2852957606144535 0.45730244818253718 0 -0.28981068171355151 0.44369098771903792 0 -0.2852957606144535 0.45730244818253718 0 -0.28981068171355151 0.44369098771903792 0 -0.27690253865938408 0.45811028602654041 0 -0.28418248977984512 0.43050084655080739 0 -0.27690253865938408 0.45811028602654041 0 -0.28418248977984512 0.43050084655080739 0 -0.27690253865938408 0.45811028602654041 0 -0.26330490497154813 0.43976041958731371 0 -0.2852957606144535 0.45730244818253718 0 -0.27690253865938408 0.45811028602654041 0 -0.28186649269177161 0.46567885888970018 0 -0.27690253865938408 0.45811028602654041 0 -0.27835780074514338 0.47366975871288508 0 -0.27690253865938408 0.45811028602654041 0 -0.25345677561811758 0.46036691342989022 0 -0.27690253865938408 0.45811028602654041 0 -0.25345677561811758 0.46036691342989022 0 -0.26590293397843329 0.47057525233348851 0 -0.25345677561811758 0.46036691342989022 0 -0.25315469521642581 0.4750486889203015 0 -0.26590293397843329 0.47057525233348851 0 -0.25345677561811758 0.46036691342989022 0 -0.26330490497154813 0.43976041958731371 0 -0.24129970279445639 0.44943490890582899 0 -0.27690253865938408 0.45811028602654041 0 -0.25345677561811758 0.46036691342989022 0 -0.26330490497154813 0.43976041958731371 0 -0.26169037092037989 0.4910190989046625 0 -0.25397816739109252 0.5 0 -0.27113802145370669 0.49283981386083792 0 -0.26169037092037989 0.4910190989046625 0 -0.25474868654415728 0.48692894813519849 0 -0.26689660829256312 0.48430763362261348 0 -0.26169037092037989 0.4910190989046625 0 -0.25397816739109252 0.5 0 -0.25474868654415728 0.48692894813519849 0 -0.25315469521642581 0.4750486889203015 0 -0.26689660829256312 0.48430763362261348 0 -0.25315469521642581 0.4750486889203015 0 -0.26689660829256312 0.48430763362261348 0 -0.26590293397843329 0.47057525233348851 0 -0.25474868654415728 0.48692894813519849 0 -0.25315469521642581 0.4750486889203015 0 -0.26689660829256312 0.48430763362261348 0 -0.27690253865938408 0.45811028602654041 0 -0.26590293397843329 0.47057525233348851 0 -0.26946370716205509 0.4860372782758946 0 -0.27690253865938408 0.45811028602654041 0 -0.26946370716205509 0.4860372782758946 0 -0.27690253865938408 0.45811028602654041 0 -0.27835780074514338 0.47366975871288508 0 -0.26946370716205509 0.4860372782758946 0 -0.26689660829256312 0.48430763362261348 0 -0.26590293397843329 0.47057525233348851 0 -0.26946370716205509 0.4860372782758946 0 -0.28186649269177161 0.46567885888970018 0 -0.27835780074514338 0.47366975871288508 0 -0.28298297564177088 0.4743823417855309 0 -0.27835780074514338 0.47366975871288508 0 -0.2798907507987049 0.48286402398659151 0 -0.28298297564177088 0.4743823417855309 0 -0.27835780074514338 0.47366975871288508 0 -0.2798907507987049 0.48286402398659151 0 -0.26946370716205509 0.4860372782758946 0 -0.26946370716205509 0.4860372782758946 0 -0.28063852136870049 0.49356657832492562 0 -0.26946370716205509 0.4860372782758946 0 -0.27113802145370669 0.49283981386083792 0 -0.28063852136870049 0.49356657832492562 0 -0.2798907507987049 0.48286402398659151 0 -0.26946370716205509 0.4860372782758946 0 -0.28063852136870049 0.49356657832492562 0 -0.25397816739109252 0.5 0 -0.27113802145370669 0.49283981386083792 0 -0.27742446875513049 0.50000000000000155 0 -0.26689660829256312 0.48430763362261348 0 -0.26946370716205509 0.4860372782758946 0 -0.27113802145370669 0.49283981386083792 0 -0.26169037092037989 0.4910190989046625 0 -0.26689660829256312 0.48430763362261348 0 -0.27113802145370669 0.49283981386083792 0 -0.26689660829256312 0.48430763362261348 0 -0.26946370716205509 0.4860372782758946 0 -0.27113802145370669 0.49283981386083792 0 -0.28063852136870049 0.49356657832492562 0 -0.27742446875513049 0.50000000000000155 0 -0.28063852136870049 0.49356657832492562 0 -0.27742446875513049 0.50000000000000155 0 -0.28063852136870049 0.49356657832492562 0 -0.27742446875513049 0.50000000000000155 0 -0.29018685806186229 0.50000000000000122 0 -0.28063852136870049 0.49356657832492562 0 -0.29018685806186229 0.50000000000000122 0 -0.29092234379960469 0.47298192272523881 0 -0.28063852136870049 0.49356657832492562 0 -0.29018685806186229 0.50000000000000122 0 -0.29018685806186229 0.50000000000000122 0 -0.29092234379960469 0.47298192272523881 0 -0.30745775624609217 0.47728579204436761 0 -0.28063852136870049 0.49356657832492562 0 -0.29092234379960469 0.47298192272523881 0 -0.2798907507987049 0.48286402398659151 0 -0.28063852136870049 0.49356657832492562 0 -0.29092234379960469 0.47298192272523881 0 -0.28186649269177161 0.46567885888970018 0 -0.28298297564177088 0.4743823417855309 0 -0.29092234379960469 0.47298192272523881 0 -0.2798907507987049 0.48286402398659151 0 -0.28298297564177088 0.4743823417855309 0 -0.29092234379960469 0.47298192272523881 0 -0.29018685806186229 0.50000000000000122 0 -0.30745775624609217 0.47728579204436761 0 -0.3640375775585698 0.5 0 -0.30745775624609217 0.47728579204436761 0 -0.33122457162539992 0.46023714195115112 0 -0.3640375775585698 0.5 0 -0.30745775624609217 0.47728579204436761 0 -0.33122457162539992 0.46023714195115112 0 -0.30745775624609217 0.47728579204436761 0 -0.31718999816658727 0.45065056632578487 0 -0.33122457162539992 0.46023714195115112 0 -0.33223168701086447 0.43660936806356893 0 -0.31148998866141242 0.43181261152586448 0 -0.31718999816658727 0.45065056632578487 0 -0.33223168701086447 0.43660936806356893 0 -0.31718999816658727 0.45065056632578487 0 -0.33122457162539992 0.46023714195115112 0 -0.33122457162539992 0.46023714195115112 0 -0.35499138700470761 0.44318849185793469 0 -0.33223168701086447 0.43660936806356893 0 -0.33122457162539992 0.46023714195115112 0 -0.35499138700470761 0.44318849185793469 0 -0.33122457162539992 0.46023714195115112 0 -0.35376164566254242 0.46494380824906301 0 -0.35499138700470761 0.44318849185793469 0 -0.38249991962136642 0.44345487931465249 0 -0.35499138700470761 0.44318849185793469 0 -0.37103467036260362 0.45695891695805302 0 -0.38249991962136642 0.44345487931465249 0 -0.37875820238401509 0.42613984176471847 0 -0.35499138700470761 0.44318849185793469 0 -0.35376164566254242 0.46494380824906301 0 -0.35499138700470761 0.44318849185793469 0 -0.37103467036260362 0.45695891695805302 0 -0.35376164566254242 0.46494380824906301 0 -0.37103467036260362 0.45695891695805302 0 -0.36943712044780219 0.47475959506207249 0 -0.33122457162539992 0.46023714195115112 0 -0.35376164566254242 0.46494380824906301 0 -0.3640375775585698 0.5 0 -0.38891458820749281 0.47713565504117422 0 -0.36943712044780219 0.47475959506207249 0 -0.3640375775585698 0.5 0 -0.35376164566254242 0.46494380824906301 0 -0.36943712044780219 0.47475959506207249 0 -0.3640375775585698 0.5 0 -0.1410608215807003 0.47118489318428192 0 -0.1506389915883973 0.47451242435581331 0 -0.15779819732271971 0.4695739402503486 0 -0.1410608215807003 0.47118489318428192 0 -0.15779819732271971 0.4695739402503486 0 -0.1455325599989582 0.47665965757352818 0 -0.14983465253105441 0.48099067897208148 0 -0.1405957742956809 0.47995063378193648 0 -0.14983465253105441 0.48099067897208148 0 -0.14427471349546869 0.48965289008050411 0 -0.1405957742956809 0.47995063378193648 0 -0.1455325599989582 0.47665965757352818 0 -0.1410608215807003 0.47118489318428192 0 -0.1506389915883973 0.47451242435581331 0 -0.1455325599989582 0.47665965757352818 0 -0.1410608215807003 0.47118489318428192 0 -0.1405957742956809 0.47995063378193648 0 -0.1506389915883973 0.47451242435581331 0 -0.15682389603308189 0.47748605108520858 0 -0.15779819732271971 0.4695739402503486 0 -0.1506389915883973 0.47451242435581331 0 -0.14983465253105441 0.48099067897208148 0 -0.15682389603308189 0.47748605108520858 0 -0.1455325599989582 0.47665965757352818 0 -0.1506389915883973 0.47451242435581331 0 -0.14983465253105441 0.48099067897208148 0 -0.14983465253105441 0.48099067897208148 0 -0.1558122254133027 0.48316327461493752 0 -0.15682389603308189 0.47748605108520858 0 -0.14983465253105441 0.48099067897208148 0 -0.1558122254133027 0.48316327461493752 0 -0.15140604362779489 0.486968875654338 0 -0.1558122254133027 0.48316327461493752 0 -0.15140604362779489 0.486968875654338 0 -0.15545271364459581 0.49281799385228547 0 -0.14983465253105441 0.48099067897208148 0 -0.15140604362779489 0.486968875654338 0 -0.14427471349546869 0.48965289008050411 0 -0.15140604362779489 0.486968875654338 0 -0.15545271364459581 0.49281799385228547 0 -0.14427471349546869 0.48965289008050411 0 -0.15453849507163009 0.5 0 -0.14427471349546869 0.48965289008050411 0 -0.12543772684428189 0.5 0 -0.15453849507163009 0.5 0 -0.15545271364459581 0.49281799385228547 0 -0.14427471349546869 0.48965289008050411 0 -0.14427471349546869 0.48965289008050411 0 -0.12543772684428189 0.5 0 -0.13178312884530541 0.48627570230508688 0 -0.14427471349546869 0.48965289008050411 0 -0.13178312884530541 0.48627570230508688 0 -0.1405957742956809 0.47995063378193648 0 -0.13178312884530541 0.48627570230508688 0 -0.1317912103042716 0.47600940211286807 0 -0.11642361318749669 0.48420448820259387 0 -0.1317912103042716 0.47600940211286807 0 -0.14083201439797821 0.46516349611765162 0 -0.12052644250191399 0.4682622397032008 0 -0.13178312884530541 0.48627570230508688 0 -0.1405957742956809 0.47995063378193648 0 -0.1317912103042716 0.47600940211286807 0 -0.1410608215807003 0.47118489318428192 0 -0.1405957742956809 0.47995063378193648 0 -0.1317912103042716 0.47600940211286807 0 -0.1410608215807003 0.47118489318428192 0 -0.1317912103042716 0.47600940211286807 0 -0.14083201439797821 0.46516349611765162 0 -0.12618187852634369 0.45882241462805679 0 -0.14083201439797821 0.46516349611765162 0 -0.12052644250191399 0.4682622397032008 0 -0.14083201439797821 0.46516349611765162 0 -0.12052644250191399 0.4682622397032008 0 -0.12618187852634369 0.45882241462805679 0 -0.13621980461969219 0.45775649261309698 0 -0.13482926781972801 0.45201676164804122 0 -0.13621980461969219 0.45775649261309698 0 -0.13482926781972801 0.45201676164804122 0 -0.1430360577347192 0.45502329805863873 0 -0.13621980461969219 0.45775649261309698 0 -0.14083201439797821 0.46516349611765162 0 -0.1430360577347192 0.45502329805863873 0 -0.12618187852634369 0.45882241462805679 0 -0.13621980461969219 0.45775649261309698 0 -0.14083201439797821 0.46516349611765162 0 -0.12618187852634369 0.45882241462805679 0 -0.13482926781972801 0.45201676164804122 0 -0.1248743097581413 0.44162978393037222 0 -0.13482926781972801 0.45201676164804122 0 -0.13973201497409549 0.44099892737807922 0 -0.1415241139788854 0.4488412036993919 0 -0.13482926781972801 0.45201676164804122 0 -0.1415241139788854 0.4488412036993919 0 -0.1430360577347192 0.45502329805863873 0 -0.13973201497409549 0.44099892737807922 0 -0.13491063247587859 0.43073185275000708 0 -0.1248743097581413 0.44162978393037222 0 -0.13482926781972801 0.45201676164804122 0 -0.13973201497409549 0.44099892737807922 0 -0.1248743097581413 0.44162978393037222 0 -0.13973201497409549 0.44099892737807922 0 -0.14849911538699881 0.44732582771280882 0 -0.14949031039727409 0.43903968606904947 0 -0.14849911538699881 0.44732582771280882 0 -0.1430360577347192 0.45502329805863873 0 -0.15230793746503779 0.45507497120342549 0 -0.13973201497409549 0.44099892737807922 0 -0.1415241139788854 0.4488412036993919 0 -0.14849911538699881 0.44732582771280882 0 -0.1415241139788854 0.4488412036993919 0 -0.14849911538699881 0.44732582771280882 0 -0.1430360577347192 0.45502329805863873 0 -0.14849911538699881 0.44732582771280882 0 -0.15230793746503779 0.45507497120342549 0 -0.15767924869329919 0.44641741059368378 0 -0.14949031039727409 0.43903968606904947 0 -0.15767924869329919 0.44641741059368378 0 -0.15912083936695831 0.4347249498771325 0 -0.14849911538699881 0.44732582771280882 0 -0.14949031039727409 0.43903968606904947 0 -0.15767924869329919 0.44641741059368378 0 -0.14083201439797821 0.46516349611765162 0 -0.16113758629404229 0.46206475253210239 0 -0.15779819732271971 0.4695739402503486 0 -0.1410608215807003 0.47118489318428192 0 -0.14083201439797821 0.46516349611765162 0 -0.15779819732271971 0.4695739402503486 0 -0.14083201439797821 0.46516349611765162 0 -0.16113758629404229 0.46206475253210239 0 -0.14083201439797821 0.46516349611765162 0 -0.15230793746503779 0.45507497120342549 0 -0.16113758629404229 0.46206475253210239 0 -0.14083201439797821 0.46516349611765162 0 -0.1430360577347192 0.45502329805863873 0 -0.15230793746503779 0.45507497120342549 0 -0.16113758629404229 0.46206475253210239 0 -0.16940388650370539 0.44815354093755089 0 -0.18144315819010631 0.45896600894655282 0 -0.16113758629404229 0.46206475253210239 0 -0.18144315819010631 0.45896600894655282 0 -0.16113758629404229 0.46206475253210239 0 -0.17453557306473899 0.46796298731641428 0 -0.15779819732271971 0.4695739402503486 0 -0.15230793746503779 0.45507497120342549 0 -0.16113758629404229 0.46206475253210239 0 -0.16013216473902109 0.45292766881669072 0 -0.16113758629404229 0.46206475253210239 0 -0.16013216473902109 0.45292766881669072 0 -0.16940388650370539 0.44815354093755089 0 -0.15767924869329919 0.44641741059368378 0 -0.16940388650370539 0.44815354093755089 0 -0.15912083936695831 0.4347249498771325 0 -0.15230793746503779 0.45507497120342549 0 -0.16013216473902109 0.45292766881669072 0 -0.15767924869329919 0.44641741059368378 0 -0.16013216473902109 0.45292766881669072 0 -0.15767924869329919 0.44641741059368378 0 -0.16940388650370539 0.44815354093755089 0 -0.1829590266345629 0.45699162349075462 0 -0.18255950863604661 0.43173185523385532 0 -0.1829590266345629 0.45699162349075462 0 -0.19557533522393281 0.44055915781337712 0 -0.18255950863604661 0.43173185523385532 0 -0.16940388650370539 0.44815354093755089 0 -0.1829590266345629 0.45699162349075462 0 -0.18255950863604661 0.43173185523385532 0 -0.16113758629404229 0.46206475253210239 0 -0.17453557306473899 0.46796298731641428 0 -0.18144315819010631 0.45896600894655282 0 -0.17453557306473899 0.46796298731641428 0 -0.18144315819010631 0.45896600894655282 0 -0.17453557306473899 0.46796298731641428 0 -0.18311948649431831 0.46713679563994498 0 -0.16940388650370539 0.44815354093755089 0 -0.18144315819010631 0.45896600894655282 0 -0.1829590266345629 0.45699162349075462 0 -0.18144315819010631 0.45896600894655282 0 -0.1829590266345629 0.45699162349075462 0 -0.18144315819010631 0.45896600894655282 0 -0.1829865290739871 0.45873048193697258 0 -0.1829590266345629 0.45699162349075462 0 -0.18144315819010631 0.45896600894655282 0 -0.1829865290739871 0.45873048193697258 0 -0.1829865290739871 0.45873048193697258 0 -0.1829590266345629 0.45699162349075462 0 -0.17453557306473899 0.46796298731641428 0 -0.18144315819010631 0.45896600894655282 0 -0.18311948649431831 0.46713679563994498 0 -0.1829865290739871 0.45873048193697258 0 -0.18311948649431831 0.46713679563994498 0 -0.18144315819010631 0.45896600894655282 0 -0.1829865290739871 0.45873048193697258 0 -0.18311948649431831 0.46713679563994498 0 -0.18311948649431831 0.46713679563994498 0 -0.18337937489664821 0.48356839781997168 0 -0.19511197543601369 0.47606725323690458 0 -0.18311948649431831 0.46713679563994498 0 -0.18337937489664821 0.48356839781997168 0 -0.18311948649431831 0.46713679563994498 0 -0.18337937489664821 0.48356839781997168 0 -0.17485937494801759 0.47808814193434568 0 -0.17453557306473899 0.46796298731641428 0 -0.18311948649431831 0.46713679563994498 0 -0.17485937494801759 0.47808814193434568 0 -0.17453557306473899 0.46796298731641428 0 -0.15779819732271971 0.4695739402503486 0 -0.17453557306473899 0.46796298731641428 0 -0.16499414335466689 0.48039049058434952 0 -0.17453557306473899 0.46796298731641428 0 -0.16499414335466689 0.48039049058434952 0 -0.15779819732271971 0.4695739402503486 0 -0.17453557306473899 0.46796298731641428 0 -0.17485937494801759 0.47808814193434568 0 -0.16499414335466689 0.48039049058434952 0 -0.17485937494801759 0.47808814193434568 0 -0.16499414335466689 0.48039049058434952 0 -0.1699453859209171 0.49288017845899518 0 -0.1558122254133027 0.48316327461493752 0 -0.16499414335466689 0.48039049058434952 0 -0.15682389603308189 0.47748605108520858 0 -0.16499414335466689 0.48039049058434952 0 -0.15682389603308189 0.47748605108520858 0 -0.15779819732271971 0.4695739402503486 0 -0.15453849507163009 0.5 0 -0.1699453859209171 0.49288017845899518 0 -0.18363926329897839 0.49999999999999828 0 -0.15453849507163009 0.5 0 -0.15545271364459581 0.49281799385228547 0 -0.1699453859209171 0.49288017845899518 0 -0.15545271364459581 0.49281799385228547 0 -0.16499414335466689 0.48039049058434952 0 -0.1699453859209171 0.49288017845899518 0 -0.15545271364459581 0.49281799385228547 0 -0.16499414335466689 0.48039049058434952 0 -0.1558122254133027 0.48316327461493752 0 -0.15545271364459581 0.49281799385228547 0 -0.16499414335466689 0.48039049058434952 0 -0.18337937489664821 0.48356839781997168 0 -0.18363926329897839 0.49999999999999828 0 -0.18337937489664821 0.48356839781997168 0 -0.1699453859209171 0.49288017845899518 0 -0.18363926329897839 0.49999999999999828 0 -0.18337937489664821 0.48356839781997168 0 -0.17485937494801759 0.47808814193434568 0 -0.1699453859209171 0.49288017845899518 0 -0.18337937489664821 0.48356839781997168 0 -0.18363926329897839 0.49999999999999828 0 -0.19848883175809501 0.48685236178056529 0 -0.18363926329897839 0.49999999999999828 0 -0.19848883175809501 0.48685236178056529 0 -0.20708556466301639 0.5 0 -0.18311948649431831 0.46713679563994498 0 -0.19511197543601369 0.47606725323690458 0 -0.20656524953558469 0.46488016823659339 0 -0.18337937489664821 0.48356839781997168 0 -0.19848883175809501 0.48685236178056529 0 -0.19511197543601369 0.47606725323690458 0 -0.19848883175809501 0.48685236178056529 0 -0.19511197543601369 0.47606725323690458 0 -0.206747867840962 0.47700509082497228 0 -0.19511197543601369 0.47606725323690458 0 -0.206747867840962 0.47700509082497228 0 -0.20656524953558469 0.46488016823659339 0 -0.19848883175809501 0.48685236178056529 0 -0.206747867840962 0.47700509082497228 0 -0.21585796601610141 0.48648558657266339 0 -0.206747867840962 0.47700509082497228 0 -0.21852396914967101 0.47285401242330122 0 -0.20656524953558469 0.46488016823659339 0 -0.206747867840962 0.47700509082497228 0 -0.21852396914967101 0.47285401242330122 0 -0.21585796601610141 0.48648558657266339 0 -0.20708556466301639 0.5 0 -0.21585796601610141 0.48648558657266339 0 -0.23053186602705439 0.5 0 -0.19848883175809501 0.48685236178056529 0 -0.20708556466301639 0.5 0 -0.21585796601610141 0.48648558657266339 0 -0.21585796601610141 0.48648558657266339 0 -0.23053186602705439 0.5 0 -0.2373192826940049 0.48342253064983348 0 -0.21852396914967101 0.47285401242330122 0 -0.2373192826940049 0.48342253064983348 0 -0.23001101257685119 0.46262354083324181 0 -0.21852396914967101 0.47285401242330122 0 -0.21585796601610141 0.48648558657266339 0 -0.2373192826940049 0.48342253064983348 0 -0.25474868654415728 0.48692894813519849 0 -0.25315469521642581 0.4750486889203015 0 -0.2373192826940049 0.48342253064983348 0 -0.25315469521642581 0.4750486889203015 0 -0.2373192826940049 0.48342253064983348 0 -0.23001101257685119 0.46262354083324181 0 -0.25397816739109252 0.5 0 -0.23053186602705439 0.5 0 -0.2373192826940049 0.48342253064983348 0 -0.25397816739109252 0.5 0 -0.25474868654415728 0.48692894813519849 0 -0.2373192826940049 0.48342253064983348 0 -0.26330490497154813 0.43976041958731371 0 -0.24129970279445639 0.44943490890582899 0 -0.24092688658692171 0.43286849171069308 0 -0.24129970279445639 0.44943490890582899 0 -0.2242493546558077 0.44235471361969553 0 -0.24092688658692171 0.43286849171069308 0 -0.25345677561811758 0.46036691342989022 0 -0.23001101257685119 0.46262354083324181 0 -0.25345677561811758 0.46036691342989022 0 -0.24129970279445639 0.44943490890582899 0 -0.23001101257685119 0.46262354083324181 0 -0.25345677561811758 0.46036691342989022 0 -0.25315469521642581 0.4750486889203015 0 -0.23001101257685119 0.46262354083324181 0 -0.24129970279445639 0.44943490890582899 0 -0.23001101257685119 0.46262354083324181 0 -0.2242493546558077 0.44235471361969553 0 -0.23001101257685119 0.46262354083324181 0 -0.2242493546558077 0.44235471361969553 0 -0.2144914677851314 0.45380351874251162 0 -0.2242493546558077 0.44235471361969553 0 -0.20880164963731279 0.443380440886459 0 -0.2144914677851314 0.45380351874251162 0 -0.20880164963731279 0.443380440886459 0 -0.2144914677851314 0.45380351874251162 0 -0.20415969833182021 0.45549933815243238 0 -0.23001101257685119 0.46262354083324181 0 -0.2144914677851314 0.45380351874251162 0 -0.20656524953558469 0.46488016823659339 0 -0.21852396914967101 0.47285401242330122 0 -0.23001101257685119 0.46262354083324181 0 -0.20656524953558469 0.46488016823659339 0 -0.23001101257685119 0.46262354083324181 0 -0.20656524953558469 0.46488016823659339 0 -0.2144914677851314 0.45380351874251162 0 -0.20415969833182021 0.45549933815243238 0 -0.20656524953558469 0.46488016823659339 0 -0.1829865290739871 0.45873048193697258 0 -0.1829590266345629 0.45699162349075462 0 -0.20415969833182021 0.45549933815243238 0 -0.1829865290739871 0.45873048193697258 0 -0.20415969833182021 0.45549933815243238 0 -0.18311948649431831 0.46713679563994498 0 -0.20415969833182021 0.45549933815243238 0 -0.20656524953558469 0.46488016823659339 0 -0.1829865290739871 0.45873048193697258 0 -0.18311948649431831 0.46713679563994498 0 -0.20415969833182021 0.45549933815243238 0 -0.18311948649431831 0.46713679563994498 0 -0.20656524953558469 0.46488016823659339 0 -0.1829590266345629 0.45699162349075462 0 -0.19557533522393281 0.44055915781337712 0 -0.1829590266345629 0.45699162349075462 0 -0.20415969833182021 0.45549933815243238 0 -0.19557533522393281 0.44055915781337712 0 -0.20880164963731279 0.443380440886459 0 -0.20415969833182021 0.45549933815243238 0 -0.19557533522393281 0.44055915781337712 0 -0.19557533522393281 0.44055915781337712 0 -0.20819164381331129 0.42412669213600601 0 -0.19557533522393281 0.44055915781337712 0 -0.19413142888046839 0.4217351031076268 0 -0.18255950863604661 0.43173185523385532 0 -0.19557533522393281 0.44055915781337712 0 -0.19413142888046839 0.4217351031076268 0 -0.20819164381331129 0.42412669213600601 0 -0.19413142888046839 0.4217351031076268 0 -0.20819164381331129 0.42412669213600601 0 -0.2021706660915297 0.40578572337793972 0 -0.19413142888046839 0.4217351031076268 0 -0.2021706660915297 0.40578572337793972 0 -0.18215999063752189 0.40647208697695608 0 -0.20819164381331129 0.42412669213600601 0 -0.22405449890785839 0.40643558214578251 0 -0.2021706660915297 0.40578572337793972 0 -0.20880164963731279 0.443380440886459 0 -0.19557533522393281 0.44055915781337712 0 -0.20819164381331129 0.42412669213600601 0 -0.2242493546558077 0.44235471361969553 0 -0.20880164963731279 0.443380440886459 0 -0.20819164381331129 0.42412669213600601 0 -0.2242493546558077 0.44235471361969553 0 -0.20819164381331129 0.42412669213600601 0 -0.22600929792909111 0.42518400498706249 0 -0.2242493546558077 0.44235471361969553 0 -0.22600929792909111 0.42518400498706249 0 -0.24092688658692171 0.43286849171069308 0 -0.20819164381331129 0.42412669213600601 0 -0.22600929792909111 0.42518400498706249 0 -0.22405449890785839 0.40643558214578251 0 -0.22600929792909111 0.42518400498706249 0 -0.22405449890785839 0.40643558214578251 0 -0.2382988550227183 0.41778448946306668 0 -0.2572482915111563 0.42152384209731297 0 -0.2382988550227183 0.41778448946306668 0 -0.2490618870264745 0.40647588616764979 0 -0.22405449890785839 0.40643558214578251 0 -0.2382988550227183 0.41778448946306668 0 -0.2490618870264745 0.40647588616764979 0 -0.2572482915111563 0.42152384209731297 0 -0.2382988550227183 0.41778448946306668 0 -0.24092688658692171 0.43286849171069308 0 -0.22600929792909111 0.42518400498706249 0 -0.2382988550227183 0.41778448946306668 0 -0.24092688658692171 0.43286849171069308 0 -0.24000210142933509 0.37809552861286783 0 -0.23801773827758249 0.39392053259368742 0 -0.22567210936962789 0.38582584627882549 0 -0.25152819264859128 0.38883491631829081 0 -0.24000210142933509 0.37809552861286783 0 -0.23801773827758249 0.39392053259368742 0 -0.25213085833087667 0.37355178257669552 0 -0.25152819264859128 0.38883491631829081 0 -0.24000210142933509 0.37809552861286783 0 -0.25152819264859128 0.38883491631829081 0 -0.2490618870264745 0.40647588616764979 0 -0.23801773827758249 0.39392053259368742 0 -0.22405449890785839 0.40643558214578251 0 -0.2490618870264745 0.40647588616764979 0 -0.23801773827758249 0.39392053259368742 0 -0.22405449890785839 0.40643558214578251 0 -0.22567210936962789 0.38582584627882549 0 -0.2099895612515065 0.38861519238670661 0 -0.22405449890785839 0.40643558214578251 0 -0.23801773827758249 0.39392053259368742 0 -0.22567210936962789 0.38582584627882549 0 -0.22567210936962789 0.38582584627882549 0 -0.21752164111765379 0.37637519474985792 0 -0.23054114355980421 0.3681661286558337 0 -0.24000210142933509 0.37809552861286783 0 -0.22567210936962789 0.38582584627882549 0 -0.23054114355980421 0.3681661286558337 0 -0.22567210936962789 0.38582584627882549 0 -0.21752164111765379 0.37637519474985792 0 -0.2099895612515065 0.38861519238670661 0 -0.21752164111765379 0.37637519474985792 0 -0.2099895612515065 0.38861519238670661 0 -0.20825127389149589 0.37038948781896619 0 -0.2099895612515065 0.38861519238670661 0 -0.1956253707180633 0.37355818799515828 0 -0.20825127389149589 0.37038948781896619 0 -0.22405449890785839 0.40643558214578251 0 -0.2099895612515065 0.38861519238670661 0 -0.2021706660915297 0.40578572337793972 0 -0.2021706660915297 0.40578572337793972 0 -0.19434121226752371 0.39112870189136351 0 -0.18215999063752189 0.40647208697695608 0 -0.2099895612515065 0.38861519238670661 0 -0.2021706660915297 0.40578572337793972 0 -0.19434121226752371 0.39112870189136351 0 -0.2099895612515065 0.38861519238670661 0 -0.19434121226752371 0.39112870189136351 0 -0.1956253707180633 0.37355818799515828 0 -0.19434121226752371 0.39112870189136351 0 -0.18176047263899719 0.38121231872005679 0 -0.1956253707180633 0.37355818799515828 0 -0.18176047263899719 0.38121231872005679 0 -0.16585623702428451 0.39107516703040651 0 -0.16689278400863089 0.37048631692620287 0 -0.16585623702428451 0.39107516703040651 0 -0.1532541744773912 0.375434017343177 0 -0.15169756500005979 0.38990146883471011 0 -0.16585623702428451 0.39107516703040651 0 -0.1532541744773912 0.375434017343177 0 -0.16689278400863089 0.37048631692620287 0 -0.16585623702428451 0.39107516703040651 0 -0.1665369108918931 0.40914444316194981 0 -0.1556916669008335 0.40278409093046019 0 -0.16585623702428451 0.39107516703040651 0 -0.18215999063752189 0.40647208697695608 0 -0.1665369108918931 0.40914444316194981 0 -0.16585623702428451 0.39107516703040651 0 -0.15169756500005979 0.38990146883471011 0 -0.1556916669008335 0.40278409093046019 0 -0.18176047263899719 0.38121231872005679 0 -0.16585623702428451 0.39107516703040651 0 -0.18215999063752189 0.40647208697695608 0 -0.18176047263899719 0.38121231872005679 0 -0.18215999063752189 0.40647208697695608 0 -0.19434121226752371 0.39112870189136351 0 -0.18176047263899719 0.38121231872005679 0 -0.18215999063752189 0.40647208697695608 0 -0.18215999063752189 0.40647208697695608 0 -0.18255950863604661 0.43173185523385532 0 -0.18215999063752189 0.40647208697695608 0 -0.16958367679162159 0.42493542776846188 0 -0.1665369108918931 0.40914444316194981 0 -0.19413142888046839 0.4217351031076268 0 -0.18215999063752189 0.40647208697695608 0 -0.18255950863604661 0.43173185523385532 0 -0.18215999063752189 0.40647208697695608 0 -0.18255950863604661 0.43173185523385532 0 -0.16958367679162159 0.42493542776846188 0 -0.16940388650370539 0.44815354093755089 0 -0.18255950863604661 0.43173185523385532 0 -0.16958367679162159 0.42493542776846188 0 -0.16940388650370539 0.44815354093755089 0 -0.16958367679162159 0.42493542776846188 0 -0.15912083936695831 0.4347249498771325 0 -0.16958367679162159 0.42493542776846188 0 -0.15912083936695831 0.4347249498771325 0 -0.15604886632200479 0.41831593774319042 0 -0.16958367679162159 0.42493542776846188 0 -0.1665369108918931 0.40914444316194981 0 -0.15604886632200479 0.41831593774319042 0 -0.1665369108918931 0.40914444316194981 0 -0.15604886632200479 0.41831593774319042 0 -0.1556916669008335 0.40278409093046019 0 -0.15604886632200479 0.41831593774319042 0 -0.14768726638806501 0.40958107086639878 0 -0.1556916669008335 0.40278409093046019 0 -0.15604886632200479 0.41831593774319042 0 -0.1455440964649429 0.41771164433310332 0 -0.14575226394851429 0.42876386523653243 0 -0.15604886632200479 0.41831593774319042 0 -0.1455440964649429 0.41771164433310332 0 -0.14768726638806501 0.40958107086639878 0 -0.1455440964649429 0.41771164433310332 0 -0.14768726638806501 0.40958107086639878 0 -0.13820848934052041 0.41088683445876423 0 -0.15912083936695831 0.4347249498771325 0 -0.15604886632200479 0.41831593774319042 0 -0.14575226394851429 0.42876386523653243 0 -0.14949031039727409 0.43903968606904947 0 -0.15912083936695831 0.4347249498771325 0 -0.14575226394851429 0.42876386523653243 0 -0.1455440964649429 0.41771164433310332 0 -0.14575226394851429 0.42876386523653243 0 -0.13557398954387551 0.42076075412316039 0 -0.13973201497409549 0.44099892737807922 0 -0.14949031039727409 0.43903968606904947 0 -0.14575226394851429 0.42876386523653243 0 -0.13491063247587859 0.43073185275000708 0 -0.1242188050129694 0.42501783294758849 0 -0.1248743097581413 0.44162978393037222 0 -0.13973201497409549 0.44099892737807922 0 -0.14575226394851429 0.42876386523653243 0 -0.13491063247587859 0.43073185275000708 0 -0.14575226394851429 0.42876386523653243 0 -0.13491063247587859 0.43073185275000708 0 -0.13557398954387551 0.42076075412316039 0 -0.13491063247587859 0.43073185275000708 0 -0.13557398954387551 0.42076075412316039 0 -0.1242188050129694 0.42501783294758849 0 -0.13820848934052041 0.41088683445876423 0 -0.13557398954387551 0.42076075412316039 0 -0.12623023605756489 0.41143854881348008 0 -0.1455440964649429 0.41771164433310332 0 -0.13820848934052041 0.41088683445876423 0 -0.13557398954387551 0.42076075412316039 0 -0.13557398954387551 0.42076075412316039 0 -0.12623023605756489 0.41143854881348008 0 -0.1242188050129694 0.42501783294758849 0 -0.13820848934052041 0.41088683445876423 0 -0.12623023605756489 0.41143854881348008 0 -0.13398515235888339 0.40371564514020769 0 -0.12997925716256209 0.39431640422262348 0 -0.14074253368576661 0.38200722200303072 0 -0.1429432129120235 0.39820684686647628 0 -0.12623023605756489 0.41143854881348008 0 -0.13398515235888339 0.40371564514020769 0 -0.12997925716256209 0.39431640422262348 0 -0.13398515235888339 0.40371564514020769 0 -0.12997925716256209 0.39431640422262348 0 -0.1429432129120235 0.39820684686647628 0 -0.13820848934052041 0.41088683445876423 0 -0.13398515235888339 0.40371564514020769 0 -0.1429432129120235 0.39820684686647628 0 -0.12997925716256209 0.39431640422262348 0 -0.14074253368576661 0.38200722200303072 0 -0.12523428666698541 0.37069662222368049 0 -0.12997925716256209 0.39431640422262348 0 -0.12523428666698541 0.37069662222368049 0 -0.12103247972044499 0.39311621374447298 0 -0.14074253368576661 0.38200722200303072 0 -0.15169756500005979 0.38990146883471011 0 -0.1429432129120235 0.39820684686647628 0 -0.14074253368576661 0.38200722200303072 0 -0.1532541744773912 0.375434017343177 0 -0.15169756500005979 0.38990146883471011 0 -0.15169756500005979 0.38990146883471011 0 -0.1556916669008335 0.40278409093046019 0 -0.1429432129120235 0.39820684686647628 0 -0.14768726638806501 0.40958107086639878 0 -0.1556916669008335 0.40278409093046019 0 -0.1429432129120235 0.39820684686647628 0 -0.14768726638806501 0.40958107086639878 0 -0.13820848934052041 0.41088683445876423 0 -0.1429432129120235 0.39820684686647628 0 -0.14407255521749979 0.34403263722221961 0 -0.15504053286571459 0.3545366000593369 0 -0.14129669608781389 0.36249735492572199 0 -0.14407255521749979 0.34403263722221961 0 -0.15504053286571459 0.3545366000593369 0 -0.1549481930100888 0.34056708499864929 0 -0.14074253368576661 0.38200722200303072 0 -0.1532541744773912 0.375434017343177 0 -0.14129669608781389 0.36249735492572199 0 -0.1532541744773912 0.375434017343177 0 -0.15504053286571459 0.3545366000593369 0 -0.14129669608781389 0.36249735492572199 0 -0.14129669608781389 0.36249735492572199 0 -0.12523428666698541 0.37069662222368049 0 -0.1294360936135257 0.3482770307028879 0 -0.12523428666698541 0.37069662222368049 0 -0.1294360936135257 0.3482770307028879 0 -0.14074253368576661 0.38200722200303072 0 -0.14129669608781389 0.36249735492572199 0 -0.12523428666698541 0.37069662222368049 0 -0.14407255521749979 0.34403263722221961 0 -0.14129669608781389 0.36249735492572199 0 -0.1294360936135257 0.3482770307028879 0 -0.1294360936135257 0.3482770307028879 0 -0.13363790056006589 0.32585743918209531 0 -0.14407255521749979 0.34403263722221961 0 -0.1294360936135257 0.3482770307028879 0 -0.13363790056006589 0.32585743918209531 0 -0.1294360936135257 0.3482770307028879 0 -0.13363790056006589 0.32585743918209531 0 -0.1154499742120704 0.34086754873962172 0 -0.12722248981549561 0.3181430308760943 0 -0.13363790056006589 0.32585743918209531 0 -0.1360408951285694 0.3130357752318072 0 -0.12722248981549561 0.3181430308760943 0 -0.1360408951285694 0.3130357752318072 0 -0.12136448477009221 0.30951812845445109 0 -0.12722248981549561 0.3181430308760943 0 -0.13363790056006589 0.32585743918209531 0 -0.12142985306419619 0.32461006626398298 0 -0.13363790056006589 0.32585743918209531 0 -0.12142985306419619 0.32461006626398298 0 -0.13363790056006589 0.32585743918209531 0 -0.1360408951285694 0.3130357752318072 0 -0.14290423209994971 0.32095809222069871 0 -0.13363790056006589 0.32585743918209531 0 -0.1360408951285694 0.3130357752318072 0 -0.14290423209994971 0.32095809222069871 0 -0.1532404752523272 0.32269894785805692 0 -0.1464174014568787 0.29836992735667278 0 -0.13363790056006589 0.32585743918209531 0 -0.14290423209994971 0.32095809222069871 0 -0.15729966860100811 0.32827511069417059 0 -0.13363790056006589 0.32585743918209531 0 -0.15729966860100811 0.32827511069417059 0 -0.14290423209994971 0.32095809222069871 0 -0.1532404752523272 0.32269894785805692 0 -0.15729966860100811 0.32827511069417059 0 -0.1532404752523272 0.32269894785805692 0 -0.15943794807189979 0.31595908059817063 0 -0.1547819877644892 0.3091453549012102 0 -0.14407255521749979 0.34403263722221961 0 -0.13363790056006589 0.32585743918209531 0 -0.14748957934716561 0.33468306802428371 0 -0.13363790056006589 0.32585743918209531 0 -0.14748957934716561 0.33468306802428371 0 -0.15729966860100811 0.32827511069417059 0 -0.14748957934716561 0.33468306802428371 0 -0.1549481930100888 0.34056708499864929 0 -0.15729966860100811 0.32827511069417059 0 -0.14407255521749979 0.34403263722221961 0 -0.14748957934716561 0.33468306802428371 0 -0.1549481930100888 0.34056708499864929 0 -0.15729966860100811 0.32827511069417059 0 -0.18096143664194889 0.33069278220625808 0 -0.1549481930100888 0.34056708499864929 0 -0.15729966860100811 0.32827511069417059 0 -0.16781010436956259 0.34240718275037813 0 -0.15729966860100811 0.32827511069417059 0 -0.16781010436956259 0.34240718275037813 0 -0.18096143664194889 0.33069278220625808 0 -0.15729966860100811 0.32827511069417059 0 -0.17028988351433311 0.32233995817617028 0 -0.18096143664194889 0.33069278220625808 0 -0.15943794807189979 0.31595908059817063 0 -0.16495134068588049 0.31685297469802859 0 -0.1638395481514221 0.30983277085387728 0 -0.1532404752523272 0.32269894785805692 0 -0.15943794807189979 0.31595908059817063 0 -0.16037638850537991 0.32126535467967993 0 -0.15943794807189979 0.31595908059817063 0 -0.16037638850537991 0.32126535467967993 0 -0.16495134068588049 0.31685297469802859 0 -0.15729966860100811 0.32827511069417059 0 -0.16037638850537991 0.32126535467967993 0 -0.17028988351433311 0.32233995817617028 0 -0.1532404752523272 0.32269894785805692 0 -0.15729966860100811 0.32827511069417059 0 -0.16037638850537991 0.32126535467967993 0 -0.16495134068588049 0.31685297469802859 0 -0.17285953122972289 0.31090601179704258 0 -0.1638395481514221 0.30983277085387728 0 -0.17028988351433311 0.32233995817617028 0 -0.16495134068588049 0.31685297469802859 0 -0.17285953122972289 0.31090601179704258 0 -0.16037638850537991 0.32126535467967993 0 -0.17028988351433311 0.32233995817617028 0 -0.16495134068588049 0.31685297469802859 0 -0.18077272512400111 0.31876138179813301 0 -0.17285953122972289 0.31090601179704258 0 -0.17028988351433311 0.32233995817617028 0 -0.18077272512400111 0.31876138179813301 0 -0.17285953122972289 0.31090601179704258 0 -0.17028988351433311 0.32233995817617028 0 -0.18077272512400111 0.31876138179813301 0 -0.18096143664194889 0.33069278220625808 0 -0.18077272512400111 0.31876138179813301 0 -0.19386790912735871 0.33176087567547108 0 -0.18077272512400111 0.31876138179813301 0 -0.18096143664194889 0.33069278220625808 0 -0.18077272512400111 0.31876138179813301 0 -0.18096143664194889 0.33069278220625808 0 -0.19386790912735871 0.33176087567547108 0 -0.18096143664194889 0.33069278220625808 0 -0.1813609546404725 0.35595255046315749 0 -0.18096143664194889 0.33069278220625808 0 -0.1813609546404725 0.35595255046315749 0 -0.19258948339875709 0.33633707034479371 0 -0.16781010436956259 0.34240718275037813 0 -0.18096143664194889 0.33069278220625808 0 -0.1813609546404725 0.35595255046315749 0 -0.18096143664194889 0.33069278220625808 0 -0.19386790912735871 0.33176087567547108 0 -0.15504053286571459 0.3545366000593369 0 -0.16781010436956259 0.34240718275037813 0 -0.1813609546404725 0.35595255046315749 0 -0.15504053286571459 0.3545366000593369 0 -0.1549481930100888 0.34056708499864929 0 -0.16781010436956259 0.34240718275037813 0 -0.1532541744773912 0.375434017343177 0 -0.15504053286571459 0.3545366000593369 0 -0.16689278400863089 0.37048631692620287 0 -0.15504053286571459 0.3545366000593369 0 -0.1813609546404725 0.35595255046315749 0 -0.16689278400863089 0.37048631692620287 0 -0.18176047263899719 0.38121231872005679 0 -0.1813609546404725 0.35595255046315749 0 -0.18176047263899719 0.38121231872005679 0 -0.1813609546404725 0.35595255046315749 0 -0.1956253707180633 0.37355818799515828 0 -0.18176047263899719 0.38121231872005679 0 -0.1813609546404725 0.35595255046315749 0 -0.16689278400863089 0.37048631692620287 0 -0.1813609546404725 0.35595255046315749 0 -0.1956253707180633 0.37355818799515828 0 -0.2000380028121157 0.35856944723279938 0 -0.1956253707180633 0.37355818799515828 0 -0.2000380028121157 0.35856944723279938 0 -0.20825127389149589 0.37038948781896619 0 -0.1813609546404725 0.35595255046315749 0 -0.1951678646333711 0.34883535218340811 0 -0.19258948339875709 0.33633707034479371 0 -0.1813609546404725 0.35595255046315749 0 -0.1951678646333711 0.34883535218340811 0 -0.2000380028121157 0.35856944723279938 0 -0.1951678646333711 0.34883535218340811 0 -0.2000380028121157 0.35856944723279938 0 -0.20668301768213909 0.34448234069288158 0 -0.20668301768213909 0.34448234069288158 0 -0.2120127789660084 0.36084248239747968 0 -0.21921666942493959 0.3569244055809645 0 -0.2000380028121157 0.35856944723279938 0 -0.20668301768213909 0.34448234069288158 0 -0.2120127789660084 0.36084248239747968 0 -0.2120127789660084 0.36084248239747968 0 -0.21921666942493959 0.3569244055809645 0 -0.20668301768213909 0.34448234069288158 0 -0.21921666942493959 0.3569244055809645 0 -0.22158808080033929 0.34557455345049992 0 -0.20668301768213909 0.34448234069288158 0 -0.21921666942493959 0.3569244055809645 0 -0.2000380028121157 0.35856944723279938 0 -0.20825127389149589 0.37038948781896619 0 -0.2120127789660084 0.36084248239747968 0 -0.2120127789660084 0.36084248239747968 0 -0.2199937556016836 0.36693485901855288 0 -0.21921666942493959 0.3569244055809645 0 -0.20825127389149589 0.37038948781896619 0 -0.2120127789660084 0.36084248239747968 0 -0.2199937556016836 0.36693485901855288 0 -0.21752164111765379 0.37637519474985792 0 -0.20825127389149589 0.37038948781896619 0 -0.2199937556016836 0.36693485901855288 0 -0.21752164111765379 0.37637519474985792 0 -0.23054114355980421 0.3681661286558337 0 -0.2199937556016836 0.36693485901855288 0 -0.23054114355980421 0.3681661286558337 0 -0.21921666942493959 0.3569244055809645 0 -0.23305195790672301 0.35812934693154008 0 -0.23054114355980421 0.3681661286558337 0 -0.2199937556016836 0.36693485901855288 0 -0.21921666942493959 0.3569244055809645 0 -0.23054114355980421 0.3681661286558337 0 -0.21921666942493959 0.3569244055809645 0 -0.21921666942493959 0.3569244055809645 0 -0.22158808080033929 0.34557455345049992 0 -0.23915963598069589 0.34607775607121571 0 -0.21921666942493959 0.3569244055809645 0 -0.23915963598069589 0.34607775607121571 0 -0.21921666942493959 0.3569244055809645 0 -0.23305195790672301 0.35812934693154008 0 -0.23915963598069589 0.34607775607121571 0 -0.23305195790672301 0.35812934693154008 0 -0.23915963598069589 0.34607775607121571 0 -0.24329038266145239 0.36134909741814653 0 -0.25407523553642281 0.3497448278934856 0 -0.23915963598069589 0.34607775607121571 0 -0.24329038266145239 0.36134909741814653 0 -0.25213085833087667 0.37355178257669552 0 -0.24000210142933509 0.37809552861286783 0 -0.24329038266145239 0.36134909741814653 0 -0.24000210142933509 0.37809552861286783 0 -0.23054114355980421 0.3681661286558337 0 -0.24329038266145239 0.36134909741814653 0 -0.23054114355980421 0.3681661286558337 0 -0.23305195790672301 0.35812934693154008 0 -0.24329038266145239 0.36134909741814653 0 -0.23582541811145999 0.32679902143390172 0 -0.24885494741763489 0.31718848033418301 0 -0.23189508169276829 0.30076725351495531 0 -0.23582541811145999 0.32679902143390172 0 -0.24885494741763489 0.31718848033418301 0 -0.24633099797708269 0.32737693631841108 0 -0.25451497659773847 0.32559442806853028 0 -0.24885494741763489 0.31718848033418301 0 -0.24633099797708269 0.32737693631841108 0 -0.24843663428782739 0.33758714710907461 0 -0.22129300011358269 0.33481371145693772 0 -0.25451497659773847 0.32559442806853028 0 -0.24633099797708269 0.32737693631841108 0 -0.24843663428782739 0.33758714710907461 0 -0.25910260253645218 0.33523110656146687 0 -0.23915963598069589 0.34607775607121571 0 -0.23582541811145999 0.32679902143390172 0 -0.24633099797708269 0.32737693631841108 0 -0.24843663428782739 0.33758714710907461 0 -0.25910260253645218 0.33523110656146687 0 -0.23915963598069589 0.34607775607121571 0 -0.24843663428782739 0.33758714710907461 0 -0.23582541811145999 0.32679902143390172 0 -0.24843663428782739 0.33758714710907461 0 -0.22129300011358269 0.33481371145693772 0 -0.23915963598069589 0.34607775607121571 0 -0.24843663428782739 0.33758714710907461 0 -0.22129300011358269 0.33481371145693772 0 -0.22158808080033929 0.34557455345049992 0 -0.23915963598069589 0.34607775607121571 0 -0.22129300011358269 0.33481371145693772 0 -0.23582541811145999 0.32679902143390172 0 -0.21954464392232159 0.31820766509236142 0 -0.23189508169276829 0.30076725351495531 0 -0.23582541811145999 0.32679902143390172 0 -0.22129300011358269 0.33481371145693772 0 -0.21954464392232159 0.31820766509236142 0 -0.21954464392232159 0.31820766509236142 0 -0.20492818889453221 0.32276220977772679 0 -0.20060783596013981 0.3076349397264902 0 -0.22129300011358269 0.33481371145693772 0 -0.21954464392232159 0.31820766509236142 0 -0.20492818889453221 0.32276220977772679 0 -0.22129300011358269 0.33481371145693772 0 -0.20492818889453221 0.32276220977772679 0 -0.19386790912735871 0.33176087567547108 0 -0.22129300011358269 0.33481371145693772 0 -0.19386790912735871 0.33176087567547108 0 -0.20668301768213909 0.34448234069288158 0 -0.22129300011358269 0.33481371145693772 0 -0.19386790912735871 0.33176087567547108 0 -0.20668301768213909 0.34448234069288158 0 -0.22158808080033929 0.34557455345049992 0 -0.22129300011358269 0.33481371145693772 0 -0.20668301768213909 0.34448234069288158 0 -0.19386790912735871 0.33176087567547108 0 -0.19258948339875709 0.33633707034479371 0 -0.20668301768213909 0.34448234069288158 0 -0.19386790912735871 0.33176087567547108 0 -0.1951678646333711 0.34883535218340811 0 -0.20668301768213909 0.34448234069288158 0 -0.19258948339875709 0.33633707034479371 0 -0.18096143664194889 0.33069278220625808 0 -0.19386790912735871 0.33176087567547108 0 -0.19258948339875709 0.33633707034479371 0 -0.19386790912735871 0.33176087567547108 0 -0.19258948339875709 0.33633707034479371 0 -0.18077272512400111 0.31876138179813301 0 -0.19386790912735871 0.33176087567547108 0 -0.20060783596013981 0.3076349397264902 0 -0.20492818889453221 0.32276220977772679 0 -0.19386790912735871 0.33176087567547108 0 -0.20060783596013981 0.3076349397264902 0 -0.19386790912735871 0.33176087567547108 0 -0.20060783596013981 0.3076349397264902 0 -0.20060783596013981 0.3076349397264902 0 -0.20734776279292019 0.28350900377750898 0 -0.23189508169276829 0.30076725351495531 0 -0.21954464392232159 0.31820766509236142 0 -0.20060783596013981 0.3076349397264902 0 -0.23189508169276829 0.30076725351495531 0 -0.20060783596013981 0.3076349397264902 0 -0.20734776279292019 0.28350900377750898 0 -0.18034630435624241 0.29180066960649809 0 -0.20734776279292019 0.28350900377750898 0 -0.19375927737912041 0.2730469699042487 0 -0.18034630435624241 0.29180066960649809 0 -0.20060783596013981 0.3076349397264902 0 -0.20734776279292019 0.28350900377750898 0 -0.20734776279292019 0.28350900377750898 0 -0.23189508169276829 0.30076725351495531 0 -0.22396762922540969 0.27514125130055722 0 -0.23189508169276829 0.30076725351495531 0 -0.2378434694439332 0.28391349183279069 0 -0.22396762922540969 0.27514125130055722 0 -0.25673188405007052 0.28646841290673969 0 -0.23189508169276829 0.30076725351495531 0 -0.2378434694439332 0.28391349183279069 0 -0.25673188405007052 0.28646841290673969 0 -0.23189508169276829 0.30076725351495531 0 -0.25505401324638421 0.30366623925853881 0 -0.25673188405007052 0.28646841290673969 0 -0.23189508169276829 0.30076725351495531 0 -0.25505401324638421 0.30366623925853881 0 -0.24885494741763489 0.31718848033418301 0 -0.23189508169276829 0.30076725351495531 0 -0.25265925142613249 0.26128234508680298 0 -0.23885305679183191 0.2684477152547543 0 -0.23951274761537589 0.2474853768326048 0 -0.23885305679183191 0.2684477152547543 0 -0.22811192938500721 0.25829645972706228 0 -0.23951274761537589 0.2474853768326048 0 -0.25621817608628389 0.2460965770837312 0 -0.25265925142613249 0.26128234508680298 0 -0.23951274761537589 0.2474853768326048 0 -0.25673188405007052 0.28646841290673969 0 -0.2378434694439332 0.28391349183279069 0 -0.23885305679183191 0.2684477152547543 0 -0.25265925142613249 0.26128234508680298 0 -0.25673188405007052 0.28646841290673969 0 -0.23885305679183191 0.2684477152547543 0 -0.23885305679183191 0.2684477152547543 0 -0.22396762922540969 0.27514125130055722 0 -0.22811192938500721 0.25829645972706228 0 -0.2378434694439332 0.28391349183279069 0 -0.23885305679183191 0.2684477152547543 0 -0.22396762922540969 0.27514125130055722 0 -0.22811192938500721 0.25829645972706228 0 -0.22371849106378741 0.2462845034026982 0 -0.23951274761537589 0.2474853768326048 0 -0.22396762922540969 0.27514125130055722 0 -0.22811192938500721 0.25829645972706228 0 -0.21408768962570049 0.25938306782852782 0 -0.22811192938500721 0.25829645972706228 0 -0.21408768962570049 0.25938306782852782 0 -0.22371849106378741 0.2462845034026982 0 -0.21408768962570049 0.25938306782852782 0 -0.19928355658839081 0.25766712263582692 0 -0.2066863838603582 0.24242880758937649 0 -0.21408768962570049 0.25938306782852782 0 -0.20163280817849061 0.26608937016207479 0 -0.19928355658839081 0.25766712263582692 0 -0.20734776279292019 0.28350900377750898 0 -0.21408768962570049 0.25938306782852782 0 -0.20734776279292019 0.28350900377750898 0 -0.22396762922540969 0.27514125130055722 0 -0.21408768962570049 0.25938306782852782 0 -0.20734776279292019 0.28350900377750898 0 -0.21408768962570049 0.25938306782852782 0 -0.20163280817849061 0.26608937016207479 0 -0.20734776279292019 0.28350900377750898 0 -0.20163280817849061 0.26608937016207479 0 -0.19375927737912041 0.2730469699042487 0 -0.20163280817849061 0.26608937016207479 0 -0.19375927737912041 0.2730469699042487 0 -0.19160269433399771 0.26436194023610149 0 -0.19375927737912041 0.2730469699042487 0 -0.19160269433399771 0.26436194023610149 0 -0.17991988358848049 0.26483995741486333 0 -0.19928355658839081 0.25766712263582692 0 -0.18259587964237009 0.2606558300825601 0 -0.2066863838603582 0.24242880758937649 0 -0.18259587964237009 0.2606558300825601 0 -0.19333963139412971 0.24385714112684301 0 -0.19928355658839081 0.25766712263582692 0 -0.19160269433399771 0.26436194023610149 0 -0.18259587964237009 0.2606558300825601 0 -0.18259587964237009 0.2606558300825601 0 -0.2066863838603582 0.24242880758937649 0 -0.20163280817849061 0.26608937016207479 0 -0.19928355658839081 0.25766712263582692 0 -0.19160269433399771 0.26436194023610149 0 -0.17991988358848049 0.26483995741486333 0 -0.17951502337729761 0.2392424245160312 0 -0.17991988358848049 0.26483995741486333 0 -0.17042143569771079 0.26099360542817968 0 -0.17951502337729761 0.2392424245160312 0 -0.18259587964237009 0.2606558300825601 0 -0.17991988358848049 0.26483995741486333 0 -0.17951502337729761 0.2392424245160312 0 -0.19160269433399771 0.26436194023610149 0 -0.18259587964237009 0.2606558300825601 0 -0.17991988358848049 0.26483995741486333 0 -0.18259587964237009 0.2606558300825601 0 -0.17991988358848049 0.26483995741486333 0 -0.17991988358848049 0.26483995741486333 0 -0.17042143569771079 0.26099360542817968 0 -0.17716480609589361 0.26914773470870201 0 -0.17042143569771079 0.26099360542817968 0 -0.1627301728603629 0.26968240911070368 0 -0.1532221513837192 0.25419418888983192 0 -0.17042143569771079 0.26099360542817968 0 -0.1532221513837192 0.25419418888983192 0 -0.17951502337729761 0.2392424245160312 0 -0.1627301728603629 0.26968240911070368 0 -0.1620479085915319 0.28265904931380531 0 -0.15271877240598841 0.27446820953958367 0 -0.17042143569771079 0.26099360542817968 0 -0.1627301728603629 0.26968240911070368 0 -0.1699765768805111 0.26885491792894611 0 -0.1627301728603629 0.26968240911070368 0 -0.1699765768805111 0.26885491792894611 0 -0.16860704672851359 0.27535934789532951 0 -0.1627301728603629 0.26968240911070368 0 -0.16860704672851359 0.27535934789532951 0 -0.1620479085915319 0.28265904931380531 0 -0.16860704672851359 0.27535934789532951 0 -0.17077339862397739 0.28423195702734899 0 -0.1620479085915319 0.28265904931380531 0 -0.17991988358848049 0.26483995741486333 0 -0.18034630435624241 0.29180066960649809 0 -0.17991988358848049 0.26483995741486333 0 -0.17716480609589361 0.26914773470870201 0 -0.18034630435624241 0.29180066960649809 0 -0.16860704672851359 0.27535934789532951 0 -0.17716480609589361 0.26914773470870201 0 -0.17077339862397739 0.28423195702734899 0 -0.19375927737912041 0.2730469699042487 0 -0.17991988358848049 0.26483995741486333 0 -0.18034630435624241 0.29180066960649809 0 -0.17042143569771079 0.26099360542817968 0 -0.1699765768805111 0.26885491792894611 0 -0.17716480609589361 0.26914773470870201 0 -0.1699765768805111 0.26885491792894611 0 -0.16860704672851359 0.27535934789532951 0 -0.17716480609589361 0.26914773470870201 0 -0.17991988358848049 0.26483995741486333 0 -0.17716480609589361 0.26914773470870201 0 -0.17716480609589361 0.26914773470870201 0 -0.18034630435624241 0.29180066960649809 0 -0.17077339862397739 0.28423195702734899 0 -0.18034630435624241 0.29180066960649809 0 -0.16501618616712291 0.29775164083812761 0 -0.17077339862397739 0.28423195702734899 0 -0.18077272512400111 0.31876138179813301 0 -0.18034630435624241 0.29180066960649809 0 -0.18077272512400111 0.31876138179813301 0 -0.18034630435624241 0.29180066960649809 0 -0.17285953122972289 0.31090601179704258 0 -0.18034630435624241 0.29180066960649809 0 -0.17285953122972289 0.31090601179704258 0 -0.16501618616712291 0.29775164083812761 0 -0.18077272512400111 0.31876138179813301 0 -0.20060783596013981 0.3076349397264902 0 -0.18034630435624241 0.29180066960649809 0 -0.16501618616712291 0.29775164083812761 0 -0.15329008091572741 0.28945008379417048 0 -0.1547819877644892 0.3091453549012102 0 -0.17285953122972289 0.31090601179704258 0 -0.16501618616712291 0.29775164083812761 0 -0.1638395481514221 0.30983277085387728 0 -0.16501618616712291 0.29775164083812761 0 -0.1638395481514221 0.30983277085387728 0 -0.1547819877644892 0.3091453549012102 0 -0.15943794807189979 0.31595908059817063 0 -0.1638395481514221 0.30983277085387728 0 -0.1547819877644892 0.3091453549012102 0 -0.16501618616712291 0.29775164083812761 0 -0.17077339862397739 0.28423195702734899 0 -0.1620479085915319 0.28265904931380531 0 -0.16501618616712291 0.29775164083812761 0 -0.1620479085915319 0.28265904931380531 0 -0.15329008091572741 0.28945008379417048 0 -0.1464174014568787 0.29836992735667278 0 -0.13959432766143021 0.2740409068552887 0 -0.1620479085915319 0.28265904931380531 0 -0.15329008091572741 0.28945008379417048 0 -0.15271877240598841 0.27446820953958367 0 -0.15329008091572741 0.28945008379417048 0 -0.1464174014568787 0.29836992735667278 0 -0.13959432766143021 0.2740409068552887 0 -0.15329008091572741 0.28945008379417048 0 -0.1464174014568787 0.29836992735667278 0 -0.1547819877644892 0.3091453549012102 0 -0.1532404752523272 0.32269894785805692 0 -0.1464174014568787 0.29836992735667278 0 -0.1360408951285694 0.3130357752318072 0 -0.14290423209994971 0.32095809222069871 0 -0.1464174014568787 0.29836992735667278 0 -0.1532404752523272 0.32269894785805692 0 -0.1464174014568787 0.29836992735667278 0 -0.1547819877644892 0.3091453549012102 0 -0.1360408951285694 0.3130357752318072 0 -0.1264253840414637 0.29528772621663357 0 -0.12136448477009221 0.30951812845445109 0 -0.1360408951285694 0.3130357752318072 0 -0.1464174014568787 0.29836992735667278 0 -0.1264253840414637 0.29528772621663357 0 -0.1464174014568787 0.29836992735667278 0 -0.1264253840414637 0.29528772621663357 0 -0.13959432766143021 0.2740409068552887 0 -0.1264253840414637 0.29528772621663357 0 -0.13959432766143021 0.2740409068552887 0 -0.1185373796182298 0.27837978510360878 0 -0.13959432766143021 0.2740409068552887 0 -0.1327712538659816 0.24971188635390451 0 -0.13959432766143021 0.2740409068552887 0 -0.116744543106582 0.25728181003509248 0 -0.1327712538659816 0.24971188635390451 0 -0.13959432766143021 0.2740409068552887 0 -0.1532221513837192 0.25419418888983192 0 -0.1327712538659816 0.24971188635390451 0 -0.1627301728603629 0.26968240911070368 0 -0.1532221513837192 0.25419418888983192 0 -0.15271877240598841 0.27446820953958367 0 -0.13959432766143021 0.2740409068552887 0 -0.1532221513837192 0.25419418888983192 0 -0.15271877240598841 0.27446820953958367 0 -0.15329008091572741 0.28945008379417048 0 -0.13959432766143021 0.2740409068552887 0 -0.15271877240598841 0.27446820953958367 0 -0.1061606963602142 0.26761343855331338 0 -0.1001789302111205 0.27974269320078388 0 -0.1185373796182298 0.27837978510360878 0 -0.1061606963602142 0.26761343855331338 0 -0.1001789302111205 0.27974269320078388 0 -0.092613028744971265 0.26767711662392979 0 -0.1061606963602142 0.26761343855331338 0 -0.10005120432924321 0.25626016583208688 0 -0.116744543106582 0.25728181003509248 0 -0.1061606963602142 0.26761343855331338 0 -0.10005120432924321 0.25626016583208688 0 -0.092613028744971265 0.26767711662392979 0 -0.10005120432924321 0.25626016583208688 0 -0.116744543106582 0.25728181003509248 0 -0.1045487088169635 0.24438495162540061 0 -0.13959432766143021 0.2740409068552887 0 -0.116744543106582 0.25728181003509248 0 -0.1185373796182298 0.27837978510360878 0 -0.1061606963602142 0.26761343855331338 0 -0.116744543106582 0.25728181003509248 0 -0.1185373796182298 0.27837978510360878 0 -0.1264253840414637 0.29528772621663357 0 -0.1127724140037699 0.30190213115774378 0 -0.1091517300735869 0.29135078386346752 0 -0.1264253840414637 0.29528772621663357 0 -0.1185373796182298 0.27837978510360878 0 -0.1091517300735869 0.29135078386346752 0 -0.1264253840414637 0.29528772621663357 0 -0.12136448477009221 0.30951812845445109 0 -0.1127724140037699 0.30190213115774378 0 -0.12136448477009221 0.30951812845445109 0 -0.1127724140037699 0.30190213115774378 0 -0.1061991548417472 0.31213959050036899 0 -0.1127724140037699 0.30190213115774378 0 -0.1061991548417472 0.31213959050036899 0 -0.1005146973405663 0.30141191014932889 0 -0.1127724140037699 0.30190213115774378 0 -0.1005146973405663 0.30141191014932889 0 -0.1091517300735869 0.29135078386346752 0 -0.1005146973405663 0.30141191014932889 0 -0.094430836728355921 0.29177030977787999 0 -0.089068024122243669 0.30112896568664949 0 -0.1061991548417472 0.31213959050036899 0 -0.1005146973405663 0.30141191014932889 0 -0.090928135519314904 0.31087631578889069 0 -0.1001789302111205 0.27974269320078388 0 -0.1185373796182298 0.27837978510360878 0 -0.1091517300735869 0.29135078386346752 0 -0.1005146973405663 0.30141191014932889 0 -0.1091517300735869 0.29135078386346752 0 -0.094430836728355921 0.29177030977787999 0 -0.1001789302111205 0.27974269320078388 0 -0.1091517300735869 0.29135078386346752 0 -0.094430836728355921 0.29177030977787999 0 -0.1001789302111205 0.27974269320078388 0 -0.094430836728355921 0.29177030977787999 0 -0.086145563619835275 0.2816538088019015 0 -0.094430836728355921 0.29177030977787999 0 -0.086145563619835275 0.2816538088019015 0 -0.081526075002782958 0.29533369696514911 0 -0.094430836728355921 0.29177030977787999 0 -0.081526075002782958 0.29533369696514911 0 -0.089068024122243669 0.30112896568664949 0 -0.086145563619835275 0.2816538088019015 0 -0.081526075002782958 0.29533369696514911 0 -0.070830210313899522 0.29195808219782299 0 -0.090928135519314904 0.31087631578889069 0 -0.079482369404140468 0.30560554845979909 0 -0.074915307566508993 0.31649039264194578 0 -0.090928135519314904 0.31087631578889069 0 -0.089068024122243669 0.30112896568664949 0 -0.079482369404140468 0.30560554845979909 0 -0.1005146973405663 0.30141191014932889 0 -0.090928135519314904 0.31087631578889069 0 -0.089068024122243669 0.30112896568664949 0 -0.081526075002782958 0.29533369696514911 0 -0.089068024122243669 0.30112896568664949 0 -0.079482369404140468 0.30560554845979909 0 -0.054647974243728172 0.30430181459310768 0 -0.074915307566508993 0.31649039264194578 0 -0.079482369404140468 0.30560554845979909 0 -0.068661557073843291 0.3005821027458685 0 -0.074915307566508993 0.31649039264194578 0 -0.068661557073843291 0.3005821027458685 0 -0.054647974243728172 0.30430181459310768 0 -0.074915307566508993 0.31649039264194578 0 -0.081526075002782958 0.29533369696514911 0 -0.079482369404140468 0.30560554845979909 0 -0.068661557073843291 0.3005821027458685 0 -0.070830210313899522 0.29195808219782299 0 -0.067453711470644842 0.27023673344429472 0 -0.052574645638654917 0.28480468584225688 0 -0.081526075002782958 0.29533369696514911 0 -0.068661557073843291 0.3005821027458685 0 -0.070830210313899522 0.29195808219782299 0 -0.068661557073843291 0.3005821027458685 0 -0.070830210313899522 0.29195808219782299 0 -0.068661557073843291 0.3005821027458685 0 -0.070830210313899522 0.29195808219782299 0 -0.059610011597539182 0.29372125904316332 0 -0.086145563619835275 0.2816538088019015 0 -0.070830210313899522 0.29195808219782299 0 -0.077256670317037021 0.26667642926106078 0 -0.070830210313899522 0.29195808219782299 0 -0.067453711470644842 0.27023673344429472 0 -0.070830210313899522 0.29195808219782299 0 -0.077256670317037021 0.26667642926106078 0 -0.070830210313899522 0.29195808219782299 0 -0.067453711470644842 0.27023673344429472 0 -0.077256670317037021 0.26667642926106078 0 -0.086145563619835275 0.2816538088019015 0 -0.077256670317037021 0.26667642926106078 0 -0.092613028744971265 0.26767711662392979 0 -0.1001789302111205 0.27974269320078388 0 -0.086145563619835275 0.2816538088019015 0 -0.092613028744971265 0.26767711662392979 0 -0.077256670317037021 0.26667642926106078 0 -0.086302411784292182 0.25447467192259482 0 -0.083666647235009842 0.24139059785004849 0 -0.077256670317037021 0.26667642926106078 0 -0.083666647235009842 0.24139059785004849 0 -0.10005120432924321 0.25626016583208688 0 -0.086302411784292182 0.25447467192259482 0 -0.094679029848152713 0.24609146959404629 0 -0.10005120432924321 0.25626016583208688 0 -0.092613028744971265 0.26767711662392979 0 -0.086302411784292182 0.25447467192259482 0 -0.077256670317037021 0.26667642926106078 0 -0.092613028744971265 0.26767711662392979 0 -0.086302411784292182 0.25447467192259482 0 -0.077256670317037021 0.26667642926106078 0 -0.064077212627390134 0.24851538469076631 0 -0.083666647235009842 0.24139059785004849 0 -0.067453711470644842 0.27023673344429472 0 -0.077256670317037021 0.26667642926106078 0 -0.064077212627390134 0.24851538469076631 0 -0.067453711470644842 0.27023673344429472 0 -0.064077212627390134 0.24851538469076631 0 -0.067453711470644842 0.27023673344429472 0 -0.04634179854296408 0.26632715615711849 0 -0.064077212627390134 0.24851538469076631 0 -0.04634179854296408 0.26632715615711849 0 -0.064077212627390134 0.24851538469076631 0 -0.046578861792199937 0.24361118962503389 0 -0.067453711470644842 0.27023673344429472 0 -0.04634179854296408 0.26632715615711849 0 -0.052574645638654917 0.28480468584225688 0 -0.04634179854296408 0.26632715615711849 0 -0.034380640920947357 0.29211323654426968 0 -0.052574645638654917 0.28480468584225688 0 -0.04634179854296408 0.26632715615711849 0 -0.022607631921228569 0.27169805167723737 0 -0.034380640920947357 0.29211323654426968 0 -0.04634179854296408 0.26632715615711849 0 -0.03068766995985707 0.25286978792993342 0 -0.022607631921228569 0.27169805167723737 0 -0.04634179854296408 0.26632715615711849 0 -0.03068766995985707 0.25286978792993342 0 -0.046578861792199937 0.24361118962503389 0 -0.03068766995985707 0.25286978792993342 0 -0.022607631921228569 0.27169805167723737 0 -0.0098044441781452579 0.25473951632571468 0 -0.022607631921228569 0.27169805167723737 0 -0.015153941911089409 0.29208252597919021 0 3.3590645499582607e-05 0.27236849017123349 0 -0.022607631921228569 0.27169805167723737 0 -0.0098044441781452579 0.25473951632571468 0 3.3590645499582607e-05 0.27236849017123349 0 -0.0098044441781452579 0.25473951632571468 0 0.0073806355134042019 0.25529449578482938 0 3.3590645499582607e-05 0.27236849017123349 0 -0.0088759444352828343 0.31092800175718183 0 -0.015153941911089409 0.29208252597919021 0 0.0083336089875100904 0.29343585490586271 0 -0.015153941911089409 0.29208252597919021 0 0.0083336089875100904 0.29343585490586271 0 3.3590645499582607e-05 0.27236849017123349 0 -0.022607631921228569 0.27169805167723737 0 -0.015153941911089409 0.29208252597919021 0 -0.034380640920947357 0.29211323654426968 0 -0.0088759444352828343 0.31092800175718183 0 -0.015153941911089409 0.29208252597919021 0 -0.03508050583840458 0.3127012881250415 0 -0.015153941911089409 0.29208252597919021 0 -0.034380640920947357 0.29211323654426968 0 -0.03508050583840458 0.3127012881250415 0 -0.034380640920947357 0.29211323654426968 0 -0.054647974243728172 0.30430181459310768 0 -0.034380640920947357 0.29211323654426968 0 -0.054647974243728172 0.30430181459310768 0 -0.03508050583840458 0.3127012881250415 0 -0.034380640920947357 0.29211323654426968 0 -0.052574645638654917 0.28480468584225688 0 -0.054647974243728172 0.30430181459310768 0 -0.052574645638654917 0.28480468584225688 0 -0.059610011597539182 0.29372125904316332 0 -0.054647974243728172 0.30430181459310768 0 -0.070830210313899522 0.29195808219782299 0 -0.052574645638654917 0.28480468584225688 0 -0.059610011597539182 0.29372125904316332 0 -0.068661557073843291 0.3005821027458685 0 -0.059610011597539182 0.29372125904316332 0 -0.054647974243728172 0.30430181459310768 0 -0.058679851530075752 0.32054224196392622 0 -0.045885169747561752 0.33132665820789581 0 -0.073191842414501496 0.33174208285196288 0 -0.054647974243728172 0.30430181459310768 0 -0.058679851530075752 0.32054224196392622 0 -0.03508050583840458 0.3127012881250415 0 -0.045885169747561752 0.33132665820789581 0 -0.067541502003893042 0.3482616942848048 0 -0.073191842414501496 0.33174208285196288 0 -0.045885169747561752 0.33132665820789581 0 -0.073191842414501496 0.33174208285196288 0 -0.045885169747561752 0.33132665820789581 0 -0.018578497080621779 0.33091123356382868 0 -0.045885169747561752 0.33132665820789581 0 -0.03508050583840458 0.3127012881250415 0 -0.018578497080621779 0.33091123356382868 0 -0.058679851530075752 0.32054224196392622 0 -0.045885169747561752 0.33132665820789581 0 -0.03508050583840458 0.3127012881250415 0 -0.0088759444352828343 0.31092800175718183 0 -0.03508050583840458 0.3127012881250415 0 -0.018578497080621779 0.33091123356382868 0 -0.018578497080621779 0.33091123356382868 0 -0.0050552824635438226 0.34569829691311771 0 -0.02749858990914332 0.35301881799134821 0 -0.045885169747561752 0.33132665820789581 0 -0.018578497080621779 0.33091123356382868 0 -0.02749858990914332 0.35301881799134821 0 -0.018578497080621779 0.33091123356382868 0 -0.0050552824635438226 0.34569829691311771 0 0.0064742168078369342 0.3347740657525386 0 -0.018578497080621779 0.33091123356382868 0 0.0087281755863181168 0.33049580891976171 0 -0.018578497080621779 0.33091123356382868 0 0.0064742168078369342 0.3347740657525386 0 0.0087281755863181168 0.33049580891976171 0 -0.018578497080621779 0.33091123356382868 0 -0.003280447873963227 0.32161399115684158 0 0.0087281755863181168 0.33049580891976171 0 -0.0088759444352828343 0.31092800175718183 0 -0.018578497080621779 0.33091123356382868 0 -0.003280447873963227 0.32161399115684158 0 -0.0088759444352828343 0.31092800175718183 0 -0.003280447873963227 0.32161399115684158 0 0.0056044744337335906 0.31412092038659428 0 -0.0052616759920083916 0.36132776784546622 0 -0.0045342830833226501 0.3863935686212247 0 -0.0052616759920083916 0.36132776784546622 0 -0.024169526760701381 0.37267007813580277 0 -0.0045342830833226501 0.3863935686212247 0 -0.0052616759920083916 0.36132776784546622 0 -0.0045342830833226501 0.3863935686212247 0 0.0079023355216259559 0.37348921158265391 0 -0.0052616759920083916 0.36132776784546622 0 -0.0050552824635438226 0.34569829691311771 0 0.0061318462344260851 0.35417601161121459 0 -0.0052616759920083916 0.36132776784546622 0 -0.0050552824635438226 0.34569829691311771 0 -0.02749858990914332 0.35301881799134821 0 -0.02749858990914332 0.35301881799134821 0 -0.024169526760701381 0.37267007813580277 0 -0.04149310004589906 0.37124785083274592 0 -0.0052616759920083916 0.36132776784546622 0 -0.02749858990914332 0.35301881799134821 0 -0.024169526760701381 0.37267007813580277 0 -0.02749858990914332 0.35301881799134821 0 -0.04149310004589906 0.37124785083274592 0 -0.051818441616049399 0.35735321764765782 0 -0.045885169747561752 0.33132665820789581 0 -0.02749858990914332 0.35301881799134821 0 -0.051818441616049399 0.35735321764765782 0 -0.045885169747561752 0.33132665820789581 0 -0.051818441616049399 0.35735321764765782 0 -0.067541502003893042 0.3482616942848048 0 -0.04149310004589906 0.37124785083274592 0 -0.051818441616049399 0.35735321764765782 0 -0.056875823715872062 0.37631267096962301 0 -0.051818441616049399 0.35735321764765782 0 -0.069616273344600341 0.3650636543096733 0 -0.056875823715872062 0.37631267096962301 0 -0.069616273344600341 0.3650636543096733 0 -0.085055645225370236 0.37193713089684588 0 -0.071788917171084016 0.3809272333041443 0 -0.069616273344600341 0.3650636543096733 0 -0.071788917171084016 0.3809272333041443 0 -0.056875823715872062 0.37631267096962301 0 -0.069616273344600341 0.3650636543096733 0 -0.085055645225370236 0.37193713089684588 0 -0.084100884505446297 0.3554636863979832 0 -0.085055645225370236 0.37193713089684588 0 -0.084100884505446297 0.3554636863979832 0 -0.1008292236537022 0.36036332390371462 0 -0.084100884505446297 0.3554636863979832 0 -0.067541502003893042 0.3482616942848048 0 -0.085709514220790303 0.34113927750747819 0 -0.084100884505446297 0.3554636863979832 0 -0.085709514220790303 0.34113927750747819 0 -0.099722393067727538 0.34687368244968458 0 -0.069616273344600341 0.3650636543096733 0 -0.084100884505446297 0.3554636863979832 0 -0.067541502003893042 0.3482616942848048 0 -0.051818441616049399 0.35735321764765782 0 -0.069616273344600341 0.3650636543096733 0 -0.067541502003893042 0.3482616942848048 0 -0.067541502003893042 0.3482616942848048 0 -0.073191842414501496 0.33174208285196288 0 -0.085709514220790303 0.34113927750747819 0 -0.058679851530075752 0.32054224196392622 0 -0.073191842414501496 0.33174208285196288 0 -0.074915307566508993 0.31649039264194578 0 -0.054647974243728172 0.30430181459310768 0 -0.058679851530075752 0.32054224196392622 0 -0.074915307566508993 0.31649039264194578 0 -0.073191842414501496 0.33174208285196288 0 -0.074915307566508993 0.31649039264194578 0 -0.095182640889289766 0.32867897069078372 0 -0.090928135519314904 0.31087631578889069 0 -0.074915307566508993 0.31649039264194578 0 -0.095182640889289766 0.32867897069078372 0 -0.074915307566508993 0.31649039264194578 0 -0.095182640889289766 0.32867897069078372 0 -0.073191842414501496 0.33174208285196288 0 -0.085709514220790303 0.34113927750747819 0 -0.095182640889289766 0.32867897069078372 0 -0.085709514220790303 0.34113927750747819 0 -0.095182640889289766 0.32867897069078372 0 -0.099722393067727538 0.34687368244968458 0 -0.095182640889289766 0.32867897069078372 0 -0.1154499742120704 0.34086754873962172 0 -0.095182640889289766 0.32867897069078372 0 -0.1098512680755149 0.32470257897991811 0 -0.1154499742120704 0.34086754873962172 0 -0.095182640889289766 0.32867897069078372 0 -0.1154499742120704 0.34086754873962172 0 -0.099722393067727538 0.34687368244968458 0 -0.1061991548417472 0.31213959050036899 0 -0.090928135519314904 0.31087631578889069 0 -0.095182640889289766 0.32867897069078372 0 -0.1061991548417472 0.31213959050036899 0 -0.095182640889289766 0.32867897069078372 0 -0.1098512680755149 0.32470257897991811 0 -0.1061991548417472 0.31213959050036899 0 -0.115330384384618 0.31728312261503783 0 -0.1098512680755149 0.32470257897991811 0 -0.12136448477009221 0.30951812845445109 0 -0.1061991548417472 0.31213959050036899 0 -0.115330384384618 0.31728312261503783 0 -0.115330384384618 0.31728312261503783 0 -0.1098512680755149 0.32470257897991811 0 -0.12142985306419619 0.32461006626398298 0 -0.12722248981549561 0.3181430308760943 0 -0.115330384384618 0.31728312261503783 0 -0.12142985306419619 0.32461006626398298 0 -0.12722248981549561 0.3181430308760943 0 -0.12136448477009221 0.30951812845445109 0 -0.115330384384618 0.31728312261503783 0 -0.1098512680755149 0.32470257897991811 0 -0.12142985306419619 0.32461006626398298 0 -0.1154499742120704 0.34086754873962172 0 -0.13363790056006589 0.32585743918209531 0 -0.12142985306419619 0.32461006626398298 0 -0.1154499742120704 0.34086754873962172 0 -0.12523428666698541 0.37069662222368049 0 -0.1294360936135257 0.3482770307028879 0 -0.1154159689866658 0.35521970897278921 0 -0.1154499742120704 0.34086754873962172 0 -0.1154159689866658 0.35521970897278921 0 -0.099722393067727538 0.34687368244968458 0 -0.1294360936135257 0.3482770307028879 0 -0.1154499742120704 0.34086754873962172 0 -0.1154159689866658 0.35521970897278921 0 -0.12523428666698541 0.37069662222368049 0 -0.1154159689866658 0.35521970897278921 0 -0.11117961403065831 0.36839673047223442 0 -0.12523428666698541 0.37069662222368049 0 -0.11117961403065831 0.36839673047223442 0 -0.1123930043347208 0.38073562172137532 0 -0.11117961403065831 0.36839673047223442 0 -0.1008292236537022 0.36036332390371462 0 -0.09970079949094271 0.37763208900548878 0 -0.1154159689866658 0.35521970897278921 0 -0.11117961403065831 0.36839673047223442 0 -0.1008292236537022 0.36036332390371462 0 -0.085055645225370236 0.37193713089684588 0 -0.1008292236537022 0.36036332390371462 0 -0.09970079949094271 0.37763208900548878 0 -0.084100884505446297 0.3554636863979832 0 -0.1008292236537022 0.36036332390371462 0 -0.099722393067727538 0.34687368244968458 0 -0.1154159689866658 0.35521970897278921 0 -0.1008292236537022 0.36036332390371462 0 -0.099722393067727538 0.34687368244968458 0 -0.1036554482544351 0.39516830989393792 0 -0.1102807352191843 0.41378788895710661 0 -0.09259379641793411 0.40948313349934218 0 -0.1036554482544351 0.39516830989393792 0 -0.09970079949094271 0.37763208900548878 0 -0.1123930043347208 0.38073562172137532 0 -0.1036554482544351 0.39516830989393792 0 -0.09970079949094271 0.37763208900548878 0 -0.084297773186445962 0.39217279846007119 0 -0.11117961403065831 0.36839673047223442 0 -0.09970079949094271 0.37763208900548878 0 -0.1123930043347208 0.38073562172137532 0 -0.12523428666698541 0.37069662222368049 0 -0.1123930043347208 0.38073562172137532 0 -0.12103247972044499 0.39311621374447298 0 -0.1036554482544351 0.39516830989393792 0 -0.1123930043347208 0.38073562172137532 0 -0.12103247972044499 0.39311621374447298 0 -0.12523428666698541 0.37069662222368049 0 -0.12103247972044499 0.39311621374447298 0 -0.1036554482544351 0.39516830989393792 0 -0.12103247972044499 0.39311621374447298 0 -0.1102807352191843 0.41378788895710661 0 -0.12997925716256209 0.39431640422262348 0 -0.1102807352191843 0.41378788895710661 0 -0.12997925716256209 0.39431640422262348 0 -0.12103247972044499 0.39311621374447298 0 -0.1102807352191843 0.41378788895710661 0 -0.12623023605756489 0.41143854881348008 0 -0.1102807352191843 0.41378788895710661 0 -0.1242188050129694 0.42501783294758849 0 -0.12623023605756489 0.41143854881348008 0 -0.12997925716256209 0.39431640422262348 0 -0.1102807352191843 0.41378788895710661 0 -0.1102807352191843 0.41378788895710661 0 -0.1104760497445479 0.43296770510105842 0 -0.1242188050129694 0.42501783294758849 0 -0.1104760497445479 0.43296770510105842 0 -0.1242188050129694 0.42501783294758849 0 -0.1248743097581413 0.44162978393037222 0 -0.1102807352191843 0.41378788895710661 0 -0.090582213275806372 0.43325937369158968 0 -0.1102807352191843 0.41378788895710661 0 -0.1104760497445479 0.43296770510105842 0 -0.090582213275806372 0.43325937369158968 0 -0.1102807352191843 0.41378788895710661 0 -0.09259379641793411 0.40948313349934218 0 -0.090582213275806372 0.43325937369158968 0 -0.09259379641793411 0.40948313349934218 0 -0.090582213275806372 0.43325937369158968 0 -0.074152812153798875 0.41302729649400538 0 -0.090582213275806372 0.43325937369158968 0 -0.066022972602334681 0.42956105407568013 0 -0.074152812153798875 0.41302729649400538 0 -0.066022972602334681 0.42956105407568013 0 -0.074152812153798875 0.41302729649400538 0 -0.049329429094603867 0.41198700835812702 0 -0.074152812153798875 0.41302729649400538 0 -0.063154715464804681 0.39516467689365731 0 -0.084297773186445962 0.39217279846007119 0 -0.09259379641793411 0.40948313349934218 0 -0.074152812153798875 0.41302729649400538 0 -0.084297773186445962 0.39217279846007119 0 -0.1036554482544351 0.39516830989393792 0 -0.09259379641793411 0.40948313349934218 0 -0.084297773186445962 0.39217279846007119 0 -0.085055645225370236 0.37193713089684588 0 -0.09970079949094271 0.37763208900548878 0 -0.084297773186445962 0.39217279846007119 0 -0.085055645225370236 0.37193713089684588 0 -0.084297773186445962 0.39217279846007119 0 -0.071788917171084016 0.3809272333041443 0 -0.063154715464804681 0.39516467689365731 0 -0.084297773186445962 0.39217279846007119 0 -0.071788917171084016 0.3809272333041443 0 -0.063154715464804681 0.39516467689365731 0 -0.071788917171084016 0.3809272333041443 0 -0.056875823715872062 0.37631267096962301 0 -0.04149310004589906 0.37124785083274592 0 -0.056875823715872062 0.37631267096962301 0 -0.04338349465279491 0.38811939282985902 0 -0.063154715464804681 0.39516467689365731 0 -0.056875823715872062 0.37631267096962301 0 -0.04338349465279491 0.38811939282985902 0 -0.063154715464804681 0.39516467689365731 0 -0.04338349465279491 0.38811939282985902 0 -0.049329429094603867 0.41198700835812702 0 -0.04338349465279491 0.38811939282985902 0 -0.024844401122877391 0.39948633252540261 0 -0.049329429094603867 0.41198700835812702 0 -0.024169526760701381 0.37267007813580277 0 -0.04149310004589906 0.37124785083274592 0 -0.04338349465279491 0.38811939282985902 0 -0.024169526760701381 0.37267007813580277 0 -0.04338349465279491 0.38811939282985902 0 -0.024844401122877391 0.39948633252540261 0 -0.024169526760701381 0.37267007813580277 0 -0.024844401122877391 0.39948633252540261 0 -0.0045342830833226501 0.3863935686212247 0 -0.024844401122877391 0.39948633252540261 0 -0.0045342830833226501 0.3863935686212247 0 -0.0038092142255275289 0.41137928311071797 0 -0.0045342830833226501 0.3863935686212247 0 -0.0038092142255275289 0.41137928311071797 0 -0.024169526760701381 0.37267007813580277 0 -0.0045342830833226501 0.3863935686212247 0 -0.0030841453677343121 0.43636499760021141 0 -0.0038092142255275289 0.41137928311071797 0 -0.026324668085478481 0.42779129271708288 0 -0.0030841453677343121 0.43636499760021141 0 -0.0038092142255275289 0.41137928311071797 0 -0.024844401122877391 0.39948633252540261 0 -0.0038092142255275289 0.41137928311071797 0 -0.026324668085478481 0.42779129271708288 0 -0.026324668085478481 0.42779129271708288 0 -0.049329429094603867 0.41198700835812702 0 -0.049413859365407042 0.43472239834070731 0 -0.024844401122877391 0.39948633252540261 0 -0.026324668085478481 0.42779129271708288 0 -0.049329429094603867 0.41198700835812702 0 -0.074152812153798875 0.41302729649400538 0 -0.063154715464804681 0.39516467689365731 0 -0.049329429094603867 0.41198700835812702 0 -0.066022972602334681 0.42956105407568013 0 -0.049329429094603867 0.41198700835812702 0 -0.049413859365407042 0.43472239834070731 0 -0.066022972602334681 0.42956105407568013 0 -0.049413859365407042 0.43472239834070731 0 -0.0708836913324285 0.45273085842607269 0 -0.0393713920190637 0.45112048084748302 0 -0.052402143273794041 0.47435943831340011 0 -0.0708836913324285 0.45273085842607269 0 -0.049413859365407042 0.43472239834070731 0 -0.0393713920190637 0.45112048084748302 0 -0.0708836913324285 0.45273085842607269 0 -0.0393713920190637 0.45112048084748302 0 -0.02876560419008364 0.47203163756026523 0 -0.052402143273794041 0.47435943831340011 0 -0.026324668085478481 0.42779129271708288 0 -0.049413859365407042 0.43472239834070731 0 -0.0393713920190637 0.45112048084748302 0 -0.0030841453677343121 0.43636499760021141 0 -0.026324668085478481 0.42779129271708288 0 -0.01888650882967766 0.45329231687868837 0 -0.026324668085478481 0.42779129271708288 0 -0.0393713920190637 0.45112048084748302 0 -0.01888650882967766 0.45329231687868837 0 -0.0393713920190637 0.45112048084748302 0 -0.01888650882967766 0.45329231687868837 0 -0.02876560419008364 0.47203163756026523 0 -0.01888650882967766 0.45329231687868837 0 -0.01341416680576474 0.47109478045738301 0 -0.02876560419008364 0.47203163756026523 0 -0.01888650882967766 0.45329231687868837 0 -0.002359076509941094 0.46135071208970457 0 -0.01341416680576474 0.47109478045738301 0 -0.0030841453677343121 0.43636499760021141 0 -0.01888650882967766 0.45329231687868837 0 -0.002359076509941094 0.46135071208970457 0 -0.0030841453677343121 0.43636499760021141 0 -0.002359076509941094 0.46135071208970457 0 -0.0090346539348886701 0.5 0 -0.0016340076521478781 0.48633642657919801 0 -0.017460482120078509 0.48648722646036041 0 -0.0016340076521478781 0.48633642657919801 0 -0.01341416680576474 0.47109478045738301 0 -0.017460482120078509 0.48648722646036041 0 -0.002359076509941094 0.46135071208970457 0 -0.0016340076521478781 0.48633642657919801 0 -0.01341416680576474 0.47109478045738301 0 -0.002359076509941094 0.46135071208970457 0 -0.0016340076521478781 0.48633642657919801 0 -0.002359076509941094 0.46135071208970457 0 -0.0016340076521478781 0.48633642657919801 0 0.0036787250480955699 0.47408322248379448 0 -0.01341416680576474 0.47109478045738301 0 -0.02876560419008364 0.47203163756026523 0 -0.017460482120078509 0.48648722646036041 0 -0.02876560419008364 0.47203163756026523 0 -0.017460482120078509 0.48648722646036041 0 -0.038135422162237087 0.5 0 -0.0090346539348886701 0.5 0 -0.017460482120078509 0.48648722646036041 0 -0.038135422162237087 0.5 0 -0.02876560419008364 0.47203163756026523 0 -0.038135422162237087 0.5 0 -0.052402143273794041 0.47435943831340011 0 -0.038135422162237087 0.5 0 -0.052402143273794041 0.47435943831340011 0 -0.067236190389585393 0.5 0 -0.052402143273794041 0.47435943831340011 0 -0.067236190389585393 0.5 0 -0.073349005429332273 0.47921852398434828 0 -0.067236190389585393 0.5 0 -0.073349005429332273 0.47921852398434828 0 -0.096336958616933588 0.5 0 -0.073349005429332273 0.47921852398434828 0 -0.096336958616933588 0.5 0 -0.093805091172543903 0.47224368257650851 0 -0.052402143273794041 0.47435943831340011 0 -0.073349005429332273 0.47921852398434828 0 -0.0708836913324285 0.45273085842607269 0 -0.0708836913324285 0.45273085842607269 0 -0.1043361340672995 0.45358667135048331 0 -0.093805091172543903 0.47224368257650851 0 -0.090582213275806372 0.43325937369158968 0 -0.0708836913324285 0.45273085842607269 0 -0.1043361340672995 0.45358667135048331 0 -0.090582213275806372 0.43325937369158968 0 -0.066022972602334681 0.42956105407568013 0 -0.0708836913324285 0.45273085842607269 0 -0.090582213275806372 0.43325937369158968 0 -0.0708836913324285 0.45273085842607269 0 -0.073349005429332273 0.47921852398434828 0 -0.0708836913324285 0.45273085842607269 0 -0.093805091172543903 0.47224368257650851 0 -0.1043361340672995 0.45358667135048331 0 -0.12052644250191399 0.4682622397032008 0 -0.093805091172543903 0.47224368257650851 0 -0.1104760497445479 0.43296770510105842 0 -0.090582213275806372 0.43325937369158968 0 -0.1043361340672995 0.45358667135048331 0 -0.12618187852634369 0.45882241462805679 0 -0.1043361340672995 0.45358667135048331 0 -0.1248743097581413 0.44162978393037222 0 -0.1104760497445479 0.43296770510105842 0 -0.1043361340672995 0.45358667135048331 0 -0.1248743097581413 0.44162978393037222 0 -0.12618187852634369 0.45882241462805679 0 -0.1043361340672995 0.45358667135048331 0 -0.12052644250191399 0.4682622397032008 0 -0.1317912103042716 0.47600940211286807 0 -0.12052644250191399 0.4682622397032008 0 -0.11642361318749669 0.48420448820259387 0 -0.12052644250191399 0.4682622397032008 0 -0.11642361318749669 0.48420448820259387 0 -0.093805091172543903 0.47224368257650851 0 -0.12543772684428189 0.5 0 -0.11642361318749669 0.48420448820259387 0 -0.096336958616933588 0.5 0 -0.12543772684428189 0.5 0 -0.13178312884530541 0.48627570230508688 0 -0.11642361318749669 0.48420448820259387 0 -0.11642361318749669 0.48420448820259387 0 -0.096336958616933588 0.5 0 -0.093805091172543903 0.47224368257650851 0 -0.1693268494853358 0.079538523923443544 0 -0.16945340910355561 0.089496265134995978 0 -0.1618062267740645 0.07958177760614682 0 -0.16945340910355561 0.089496265134995978 0 -0.1618062267740645 0.07958177760614682 0 -0.1616157516695074 0.095139316102685473 0 -0.1618062267740645 0.07958177760614682 0 -0.1616157516695074 0.095139316102685473 0 -0.14767322655010931 0.084806545451415583 0 -0.1618062267740645 0.07958177760614682 0 -0.16640070467345031 0.07104807823334372 0 -0.15517576509654349 0.068304766057398533 0 -0.16640070467345031 0.07104807823334372 0 -0.15517576509654349 0.068304766057398533 0 -0.16451238623864939 0.061110077383343737 0 -0.16640070467345031 0.07104807823334372 0 -0.17354141001077031 0.063798093567348918 0 -0.16451238623864939 0.061110077383343737 0 -0.17157411485926041 0.074087910936242465 0 -0.16640070467345031 0.07104807823334372 0 -0.17354141001077031 0.063798093567348918 0 -0.1693268494853358 0.079538523923443544 0 -0.17157411485926041 0.074087910936242465 0 -0.16640070467345031 0.07104807823334372 0 -0.1693268494853358 0.079538523923443544 0 -0.1618062267740645 0.07958177760614682 0 -0.16640070467345031 0.07104807823334372 0 -0.17354141001077031 0.063798093567348918 0 -0.17702749526748529 0.081966948020833708 0 -0.17656426821359539 0.052679136019797047 0 -0.18185637422210199 0.067243003367259677 0 -0.17702749526748529 0.081966948020833708 0 -0.17656426821359539 0.052679136019797047 0 -0.17702749526748529 0.081966948020833708 0 -0.17656426821359539 0.052679136019797047 0 -0.17157411485926041 0.074087910936242465 0 -0.17354141001077031 0.063798093567348918 0 -0.17702749526748529 0.081966948020833708 0 -0.18185637422210199 0.067243003367259677 0 -0.1853153676200878 0.058850167416455039 0 -0.18892740292417859 0.064703221589215376 0 -0.18185637422210199 0.067243003367259677 0 -0.19050021368002351 0.072419239531055349 0 -0.18892740292417859 0.064703221589215376 0 -0.18185637422210199 0.067243003367259677 0 -0.18141962227324601 0.075216957450553817 0 -0.17702749526748529 0.081966948020833708 0 -0.18185637422210199 0.067243003367259677 0 -0.18141962227324601 0.075216957450553817 0 -0.19050021368002351 0.072419239531055349 0 -0.18141962227324601 0.075216957450553817 0 -0.1867192510276118 0.077748512173410014 0 -0.19050021368002351 0.072419239531055349 0 -0.18141962227324601 0.075216957450553817 0 -0.1867192510276118 0.077748512173410014 0 -0.1819129998543452 0.079414551687582866 0 -0.18248563084903771 0.082725789105533951 0 -0.17702749526748529 0.081966948020833708 0 -0.17749072232138041 0.1112547600218704 0 -0.1867192510276118 0.077748512173410014 0 -0.18248563084903771 0.082725789105533951 0 -0.1819129998543452 0.079414551687582866 0 -0.18141962227324601 0.075216957450553817 0 -0.1819129998543452 0.079414551687582866 0 -0.17702749526748529 0.081966948020833708 0 -0.18248563084903771 0.082725789105533951 0 -0.1819129998543452 0.079414551687582866 0 -0.17702749526748529 0.081966948020833708 0 -0.1693268494853358 0.079538523923443544 0 -0.16945340910355561 0.089496265134995978 0 -0.17702749526748529 0.081966948020833708 0 -0.1693268494853358 0.079538523923443544 0 -0.17157411485926041 0.074087910936242465 0 -0.17702749526748529 0.081966948020833708 0 -0.17702749526748529 0.081966948020833708 0 -0.17749072232138041 0.1112547600218704 0 -0.16945340910355561 0.089496265134995978 0 -0.17702749526748529 0.081966948020833708 0 -0.17749072232138041 0.1112547600218704 0 -0.17749072232138041 0.1112547600218704 0 -0.1951643137470572 0.093770439387570487 0 -0.18248563084903771 0.082725789105533951 0 -0.17749072232138041 0.1112547600218704 0 -0.1951643137470572 0.093770439387570487 0 -0.17749072232138041 0.1112547600218704 0 -0.19150979458678249 0.1243728737611647 0 -0.17789558253256721 0.1368522929207025 0 -0.17749072232138041 0.1112547600218704 0 -0.17789558253256721 0.1368522929207025 0 -0.17749072232138041 0.1112547600218704 0 -0.16113979031376621 0.12743058591966341 0 -0.17749072232138041 0.1112547600218704 0 -0.15084139672814201 0.110160429760413 0 -0.16113979031376621 0.12743058591966341 0 -0.17749072232138041 0.1112547600218704 0 -0.1616157516695074 0.095139316102685473 0 -0.15084139672814201 0.110160429760413 0 -0.16945340910355561 0.089496265134995978 0 -0.17749072232138041 0.1112547600218704 0 -0.1616157516695074 0.095139316102685473 0 -0.1616157516695074 0.095139316102685473 0 -0.15084139672814201 0.110160429760413 0 -0.14767322655010931 0.084806545451415583 0 -0.15084139672814201 0.110160429760413 0 -0.1348328660863515 0.097215266237156234 0 -0.14767322655010931 0.084806545451415583 0 -0.15084139672814201 0.110160429760413 0 -0.13137241316615089 0.11357835761918721 0 -0.14300315410871919 0.1253406317882016 0 -0.15084139672814201 0.110160429760413 0 -0.16113979031376621 0.12743058591966341 0 -0.14300315410871919 0.1253406317882016 0 -0.13137241316615089 0.11357835761918721 0 -0.14300315410871919 0.1253406317882016 0 -0.12687331202938101 0.13192737382428379 0 -0.13137241316615089 0.11357835761918721 0 -0.1348328660863515 0.097215266237156234 0 -0.1198812247159142 0.095002477965890675 0 -0.15084139672814201 0.110160429760413 0 -0.13137241316615089 0.11357835761918721 0 -0.1348328660863515 0.097215266237156234 0 -0.1348328660863515 0.097215266237156234 0 -0.12533951967512769 0.078274991835817334 0 -0.1198812247159142 0.095002477965890675 0 -0.1348328660863515 0.097215266237156234 0 -0.12533951967512769 0.078274991835817334 0 -0.14767322655010931 0.084806545451415583 0 -0.1618062267740645 0.07958177760614682 0 -0.14767322655010931 0.084806545451415583 0 -0.15517576509654349 0.068304766057398533 0 -0.14767322655010931 0.084806545451415583 0 -0.15517576509654349 0.068304766057398533 0 -0.14001017723872511 0.063978020277280875 0 -0.12533951967512769 0.078274991835817334 0 -0.14767322655010931 0.084806545451415583 0 -0.14001017723872511 0.063978020277280875 0 -0.12533951967512769 0.078274991835817334 0 -0.14001017723872511 0.063978020277280875 0 -0.1248745965026067 0.059896082918310993 0 -0.14001017723872511 0.063978020277280875 0 -0.13626681081840961 0.042829268155062397 0 -0.1248745965026067 0.059896082918310993 0 -0.13626681081840961 0.042829268155062397 0 -0.1339340902388827 0.022300844741854581 0 -0.1180188049733784 0.030804183747700629 0 -0.13626681081840961 0.042829268155062397 0 -0.1339340902388827 0.022300844741854581 0 -0.15968783393996419 0.037567277286728401 0 -0.13626681081840961 0.042829268155062397 0 -0.15351002702878311 0.053877414325468623 0 -0.15968783393996419 0.037567277286728401 0 -0.13626681081840961 0.042829268155062397 0 -0.15968783393996419 0.037567277286728401 0 -0.14001017723872511 0.063978020277280875 0 -0.13626681081840961 0.042829268155062397 0 -0.15351002702878311 0.053877414325468623 0 -0.15517576509654349 0.068304766057398533 0 -0.14001017723872511 0.063978020277280875 0 -0.15351002702878311 0.053877414325468623 0 -0.12735709500343681 0.004015926865657337 0 -0.15177498865293759 0.016606981474429749 0 -0.12735709500343681 0.004015926865657337 0 -0.1339340902388827 0.022300844741854581 0 -0.15177498865293759 0.016606981474429749 0 -0.12735709500343681 0.004015926865657337 0 -0.1339340902388827 0.022300844741854581 0 -0.11835839359799651 0.016938700943610479 0 -0.1339340902388827 0.022300844741854581 0 -0.15177498865293759 0.016606981474429749 0 -0.15968783393996419 0.037567277286728401 0 -0.1339340902388827 0.022300844741854581 0 -0.15968783393996419 0.037567277286728401 0 -0.12735709500343681 0.004015926865657337 0 -0.15177498865293759 0.016606981474429749 0 -0.14801408494475049 0.0031182785745780331 0 -0.15177498865293759 0.016606981474429749 0 -0.14801408494475049 0.0031182785745780331 0 -0.1619193683370386 0.0066468078375689294 0 -0.15773416148281841 -0.0035868741371463562 0 -0.14801408494475049 0.0031182785745780331 0 -0.1619193683370386 0.0066468078375689294 0 -0.15177498865293759 0.016606981474429749 0 -0.1619193683370386 0.0066468078375689294 0 -0.16760309597538539 0.015861310899326669 0 -0.16716832075785379 -0.0032078365625175 0 -0.1619193683370386 0.0066468078375689294 0 -0.17584419881677341 0.0071523107965592754 0 -0.1619193683370386 0.0066468078375689294 0 -0.16760309597538539 0.015861310899326669 0 -0.17584419881677341 0.0071523107965592754 0 -0.15177498865293759 0.016606981474429749 0 -0.17619288230243149 0.029198036083215671 0 -0.15177498865293759 0.016606981474429749 0 -0.17619288230243149 0.029198036083215671 0 -0.15968783393996419 0.037567277286728401 0 -0.15177498865293759 0.016606981474429749 0 -0.16760309597538539 0.015861310899326669 0 -0.17619288230243149 0.029198036083215671 0 -0.17619288230243149 0.029198036083215671 0 -0.1852069371874478 0.015311100034367831 0 -0.17584419881677341 0.0071523107965592754 0 -0.17619288230243149 0.029198036083215671 0 -0.17584419881677341 0.0071523107965592754 0 -0.16760309597538539 0.015861310899326669 0 -0.17619288230243149 0.029198036083215671 0 -0.17584419881677341 0.0071523107965592754 0 -0.17619288230243149 0.029198036083215671 0 -0.19572946351785711 0.039272048382664133 0 -0.19029700863621521 0.024089069561314659 0 -0.17619288230243149 0.029198036083215671 0 -0.1852069371874478 0.015311100034367831 0 -0.19029700863621521 0.024089069561314659 0 -0.1852069371874478 0.015311100034367831 0 -0.18717715497560061 0.0062623078557712403 0 -0.17584419881677341 0.0071523107965592754 0 -0.18154179604087481 -0.0036104187285780349 0 -0.18717715497560061 0.0062623078557712403 0 -0.17584419881677341 0.0071523107965592754 0 -0.15351002702878311 0.053877414325468623 0 -0.1659033968134131 0.050269055427132232 0 -0.15968783393996419 0.037567277286728401 0 -0.1659033968134131 0.050269055427132232 0 -0.16451238623864939 0.061110077383343737 0 -0.17656426821359539 0.052679136019797047 0 -0.17354141001077031 0.063798093567348918 0 -0.16451238623864939 0.061110077383343737 0 -0.17656426821359539 0.052679136019797047 0 -0.16451238623864939 0.061110077383343737 0 -0.17656426821359539 0.052679136019797047 0 -0.15351002702878311 0.053877414325468623 0 -0.1659033968134131 0.050269055427132232 0 -0.16451238623864939 0.061110077383343737 0 -0.15517576509654349 0.068304766057398533 0 -0.15351002702878311 0.053877414325468623 0 -0.16451238623864939 0.061110077383343737 0 -0.15968783393996419 0.037567277286728401 0 -0.1762663423330757 0.033842591165095401 0 -0.1659033968134131 0.050269055427132232 0 -0.15968783393996419 0.037567277286728401 0 -0.1764827173319595 0.047523031967639129 0 -0.17619288230243149 0.029198036083215671 0 -0.15968783393996419 0.037567277286728401 0 -0.1762663423330757 0.033842591165095401 0 -0.15968783393996419 0.037567277286728401 0 -0.1764827173319595 0.047523031967639129 0 -0.15968783393996419 0.037567277286728401 0 -0.1762663423330757 0.033842591165095401 0 -0.1764827173319595 0.047523031967639129 0 -0.17619288230243149 0.029198036083215671 0 -0.19572946351785711 0.039272048382664133 0 -0.181281627628781 0.040827380692469641 0 -0.18051660755046151 0.049914261515807259 0 -0.1764827173319595 0.047523031967639129 0 -0.17619288230243149 0.029198036083215671 0 -0.1762663423330757 0.033842591165095401 0 -0.19572946351785711 0.039272048382664133 0 -0.1762663423330757 0.033842591165095401 0 -0.181281627628781 0.040827380692469641 0 -0.19572946351785711 0.039272048382664133 0 -0.1762663423330757 0.033842591165095401 0 -0.181281627628781 0.040827380692469641 0 -0.1764827173319595 0.047523031967639129 0 -0.1762663423330757 0.033842591165095401 0 -0.1764827173319595 0.047523031967639129 0 -0.17619288230243149 0.029198036083215671 0 -0.1762663423330757 0.033842591165095401 0 -0.181281627628781 0.040827380692469641 0 -0.18051660755046151 0.049914261515807259 0 -0.19572946351785711 0.039272048382664133 0 -0.18051660755046151 0.049914261515807259 0 -0.17656426821359539 0.052679136019797047 0 -0.1853153676200878 0.058850167416455039 0 -0.18051660755046151 0.049914261515807259 0 -0.1764827173319595 0.047523031967639129 0 -0.1764827173319595 0.047523031967639129 0 -0.17656426821359539 0.052679136019797047 0 -0.1659033968134131 0.050269055427132232 0 -0.1764827173319595 0.047523031967639129 0 -0.17656426821359539 0.052679136019797047 0 -0.18051660755046151 0.049914261515807259 0 -0.1764827173319595 0.047523031967639129 0 -0.17656426821359539 0.052679136019797047 0 -0.18051660755046151 0.049914261515807259 0 -0.17656426821359539 0.052679136019797047 0 -0.18185637422210199 0.067243003367259677 0 -0.17656426821359539 0.052679136019797047 0 -0.1853153676200878 0.058850167416455039 0 -0.1853153676200878 0.058850167416455039 0 -0.19803765617450109 0.060300476042091433 0 -0.18892740292417859 0.064703221589215376 0 -0.18051660755046151 0.049914261515807259 0 -0.19803765617450109 0.060300476042091433 0 -0.1977866825790292 0.05007637869738242 0 -0.18051660755046151 0.049914261515807259 0 -0.1853153676200878 0.058850167416455039 0 -0.19803765617450109 0.060300476042091433 0 -0.18051660755046151 0.049914261515807259 0 -0.19803765617450109 0.060300476042091433 0 -0.19803765617450109 0.060300476042091433 0 -0.1977866825790292 0.05007637869738242 0 -0.2066297839190599 0.054855205218219752 0 -0.18051660755046151 0.049914261515807259 0 -0.1977866825790292 0.05007637869738242 0 -0.19572946351785711 0.039272048382664133 0 -0.18051660755046151 0.049914261515807259 0 -0.19572946351785711 0.039272048382664133 0 -0.19572946351785711 0.039272048382664133 0 -0.2098237389609823 0.029412342647955388 0 -0.1977866825790292 0.05007637869738242 0 -0.19572946351785711 0.039272048382664133 0 -0.2073344650466164 0.045256152092875389 0 -0.19572946351785711 0.039272048382664133 0 -0.2073344650466164 0.045256152092875389 0 -0.2073344650466164 0.045256152092875389 0 -0.21702036639386221 0.038769314305699548 0 -0.2098237389609823 0.029412342647955388 0 -0.19572946351785711 0.039272048382664133 0 -0.2073344650466164 0.045256152092875389 0 -0.2098237389609823 0.029412342647955388 0 -0.21702036639386221 0.038769314305699548 0 -0.2098237389609823 0.029412342647955388 0 -0.2284051488343061 0.035137669629428533 0 -0.2073344650466164 0.045256152092875389 0 -0.21702036639386221 0.038769314305699548 0 -0.22251811273354419 0.045271092852538893 0 -0.2073344650466164 0.045256152092875389 0 -0.21769334509658461 0.055951218203848879 0 -0.22251811273354419 0.045271092852538893 0 -0.21769334509658461 0.055951218203848879 0 -0.20947987249717179 0.060448397508133619 0 -0.2066297839190599 0.054855205218219752 0 -0.21769334509658461 0.055951218203848879 0 -0.20947987249717179 0.060448397508133619 0 -0.2155587047985415 0.070686690568374386 0 -0.19803765617450109 0.060300476042091433 0 -0.20947987249717179 0.060448397508133619 0 -0.2066297839190599 0.054855205218219752 0 -0.1977866825790292 0.05007637869738242 0 -0.2073344650466164 0.045256152092875389 0 -0.2066297839190599 0.054855205218219752 0 -0.2073344650466164 0.045256152092875389 0 -0.21769334509658461 0.055951218203848879 0 -0.2066297839190599 0.054855205218219752 0 -0.1989264366345522 -0.0080023544535597537 0 -0.1965234412062255 0.0098537758749781944 0 -0.20713549204565579 6.5395444916274768e-05 0 -0.19066530249761049 -0.0041303576494283751 0 -0.18717715497560061 0.0062623078557712403 0 -0.1965234412062255 0.0098537758749781944 0 -0.1852069371874478 0.015311100034367831 0 -0.18717715497560061 0.0062623078557712403 0 -0.1965234412062255 0.0098537758749781944 0 -0.1965234412062255 0.0098537758749781944 0 -0.20113962024173071 0.02227838771243261 0 -0.2107847094499361 0.011405203725301251 0 -0.19572946351785711 0.039272048382664133 0 -0.20113962024173071 0.02227838771243261 0 -0.2098237389609823 0.029412342647955388 0 -0.19572946351785711 0.039272048382664133 0 -0.20113962024173071 0.02227838771243261 0 -0.19029700863621521 0.024089069561314659 0 -0.1965234412062255 0.0098537758749781944 0 -0.20113962024173071 0.02227838771243261 0 -0.19029700863621521 0.024089069561314659 0 -0.1852069371874478 0.015311100034367831 0 -0.1965234412062255 0.0098537758749781944 0 -0.19029700863621521 0.024089069561314659 0 -0.2098237389609823 0.029412342647955388 0 -0.2107847094499361 0.011405203725301251 0 -0.22391801440410891 0.019552636913248388 0 -0.20113962024173071 0.02227838771243261 0 -0.2098237389609823 0.029412342647955388 0 -0.2107847094499361 0.011405203725301251 0 -0.2098237389609823 0.029412342647955388 0 -0.22391801440410891 0.019552636913248388 0 -0.21702438745170211 -0.0043907958627755336 0 -0.2107847094499361 0.011405203725301251 0 -0.20713549204565579 6.5395444916274768e-05 0 -0.21702438745170211 -0.0043907958627755336 0 -0.2107847094499361 0.011405203725301251 0 -0.22391801440410891 0.019552636913248388 0 -0.1965234412062255 0.0098537758749781944 0 -0.2107847094499361 0.011405203725301251 0 -0.20713549204565579 6.5395444916274768e-05 0 -0.22867745033346079 0.0038692188645070222 0 -0.22391801440410891 0.019552636913248388 0 -0.2344599051246074 0.012178015861532989 0 -0.21702438745170211 -0.0043907958627755336 0 -0.22391801440410891 0.019552636913248388 0 -0.21702438745170211 -0.0043907958627755336 0 -0.22867745033346079 0.0038692188645070222 0 -0.22391801440410891 0.019552636913248388 0 -0.22391801440410891 0.019552636913248388 0 -0.2403792472176362 0.02548084658656756 0 -0.2344599051246074 0.012178015861532989 0 -0.2098237389609823 0.029412342647955388 0 -0.22391801440410891 0.019552636913248388 0 -0.2284051488343061 0.035137669629428533 0 -0.22391801440410891 0.019552636913248388 0 -0.2403792472176362 0.02548084658656756 0 -0.2284051488343061 0.035137669629428533 0 -0.22391801440410891 0.019552636913248388 0 -0.2344599051246074 0.012178015861532989 0 -0.22391801440410891 0.019552636913248388 0 -0.2284051488343061 0.035137669629428533 0 -0.2522816967992324 0.037264740289820159 0 -0.25157722050270093 0.012682655753942951 0 -0.2403792472176362 0.02548084658656756 0 -0.25157722050270093 0.012682655753942951 0 -0.2403792472176362 0.02548084658656756 0 -0.2344599051246074 0.012178015861532989 0 -0.25267499080189931 -0.0034516002120552492 0 -0.25157722050270093 0.012682655753942951 0 -0.2401015516947359 0.00075261550232862703 0 -0.25157722050270093 0.012682655753942951 0 -0.2344599051246074 0.012178015861532989 0 -0.2401015516947359 0.00075261550232862703 0 -0.22867745033346079 0.0038692188645070222 0 -0.2344599051246074 0.012178015861532989 0 -0.2401015516947359 0.00075261550232862703 0 -0.21769334509658461 0.055951218203848879 0 -0.23255980098598539 0.056775429521547523 0 -0.2155587047985415 0.070686690568374386 0 -0.23289228326450309 0.050722702345608793 0 -0.22641588552015429 0.052180110730886013 0 -0.22251811273354419 0.045271092852538893 0 -0.23289228326450309 0.050722702345608793 0 -0.23255980098598539 0.056775429521547523 0 -0.22641588552015429 0.052180110730886013 0 -0.21769334509658461 0.055951218203848879 0 -0.23255980098598539 0.056775429521547523 0 -0.22641588552015429 0.052180110730886013 0 -0.21769334509658461 0.055951218203848879 0 -0.22641588552015429 0.052180110730886013 0 -0.22251811273354419 0.045271092852538893 0 -0.21702036639386221 0.038769314305699548 0 -0.22251811273354419 0.045271092852538893 0 -0.2284051488343061 0.035137669629428533 0 -0.23289228326450309 0.050722702345608793 0 -0.22251811273354419 0.045271092852538893 0 -0.2284051488343061 0.035137669629428533 0 -0.23289228326450309 0.050722702345608793 0 -0.2284051488343061 0.035137669629428533 0 -0.2522816967992324 0.037264740289820159 0 -0.2403792472176362 0.02548084658656756 0 -0.2284051488343061 0.035137669629428533 0 -0.2522816967992324 0.037264740289820159 0 -0.23289228326450309 0.050722702345608793 0 -0.2284051488343061 0.035137669629428533 0 -0.2522816967992324 0.037264740289820159 0 -0.23289228326450309 0.050722702345608793 0 -0.23255980098598539 0.056775429521547523 0 -0.2522816967992324 0.037264740289820159 0 -0.23255980098598539 0.056775429521547523 0 -0.2522816967992324 0.037264740289820159 0 -0.23255980098598539 0.056775429521547523 0 -0.24906194248509719 0.058488871325365822 0 -0.23255980098598539 0.056775429521547523 0 -0.24906194248509719 0.058488871325365822 0 -0.23770452364983391 0.071010308971772351 0 -0.26257114212692878 0.06573449919026883 0 -0.24906194248509719 0.058488871325365822 0 -0.23770452364983391 0.071010308971772351 0 -0.25261226255175379 0.080423606239198905 0 -0.23770452364983391 0.071010308971772351 0 -0.23158356521460469 0.085326977986282804 0 -0.25261226255175379 0.080423606239198905 0 -0.23158356521460469 0.085326977986282804 0 -0.24377998071086901 0.096378574065869249 0 -0.23158356521460469 0.085326977986282804 0 -0.21283790517273879 0.076286118753275345 0 -0.22135706029896429 0.097751395037259853 0 -0.23158356521460469 0.085326977986282804 0 -0.22135706029896429 0.097751395037259853 0 -0.24377998071086901 0.096378574065869249 0 -0.23255980098598539 0.056775429521547523 0 -0.21283790517273879 0.076286118753275345 0 -0.23770452364983391 0.071010308971772351 0 -0.23158356521460469 0.085326977986282804 0 -0.21283790517273879 0.076286118753275345 0 -0.23255980098598539 0.056775429521547523 0 -0.23770452364983391 0.071010308971772351 0 -0.21283790517273879 0.076286118753275345 0 -0.23255980098598539 0.056775429521547523 0 -0.21283790517273879 0.076286118753275345 0 -0.2155587047985415 0.070686690568374386 0 -0.23770452364983391 0.071010308971772351 0 -0.21283790517273879 0.076286118753275345 0 -0.19803765617450109 0.060300476042091433 0 -0.20947987249717179 0.060448397508133619 0 -0.2155587047985415 0.070686690568374386 0 -0.19803765617450109 0.060300476042091433 0 -0.20333782300263301 0.070680183335342567 0 -0.2155587047985415 0.070686690568374386 0 -0.19803765617450109 0.060300476042091433 0 -0.2155587047985415 0.070686690568374386 0 -0.21283790517273879 0.076286118753275345 0 -0.19766176801088831 0.079505953929404904 0 -0.20333782300263301 0.070680183335342567 0 -0.21283790517273879 0.076286118753275345 0 -0.19766176801088831 0.079505953929404904 0 -0.20333782300263301 0.070680183335342567 0 -0.21283790517273879 0.076286118753275345 0 -0.2155587047985415 0.070686690568374386 0 -0.21283790517273879 0.076286118753275345 0 -0.1951643137470572 0.093770439387570487 0 -0.22135706029896429 0.097751395037259853 0 -0.21283790517273879 0.076286118753275345 0 -0.1951643137470572 0.093770439387570487 0 -0.21283790517273879 0.076286118753275345 0 -0.19766176801088831 0.079505953929404904 0 -0.1951643137470572 0.093770439387570487 0 -0.18248563084903771 0.082725789105533951 0 -0.19766176801088831 0.079505953929404904 0 -0.1951643137470572 0.093770439387570487 0 -0.1867192510276118 0.077748512173410014 0 -0.18248563084903771 0.082725789105533951 0 -0.19766176801088831 0.079505953929404904 0 -0.18248563084903771 0.082725789105533951 0 -0.19766176801088831 0.079505953929404904 0 -0.1867192510276118 0.077748512173410014 0 -0.19766176801088831 0.079505953929404904 0 -0.19050021368002351 0.072419239531055349 0 -0.19803765617450109 0.060300476042091433 0 -0.19050021368002351 0.072419239531055349 0 -0.18892740292417859 0.064703221589215376 0 -0.19803765617450109 0.060300476042091433 0 -0.20333782300263301 0.070680183335342567 0 -0.19050021368002351 0.072419239531055349 0 -0.20333782300263301 0.070680183335342567 0 -0.19766176801088831 0.079505953929404904 0 -0.19050021368002351 0.072419239531055349 0 -0.17749072232138041 0.1112547600218704 0 -0.19150979458678249 0.1243728737611647 0 -0.1951643137470572 0.093770439387570487 0 -0.19150979458678249 0.1243728737611647 0 -0.1951643137470572 0.093770439387570487 0 -0.20994497012605751 0.11823125198409511 0 -0.1951643137470572 0.093770439387570487 0 -0.20994497012605751 0.11823125198409511 0 -0.22135706029896429 0.097751395037259853 0 -0.20994497012605751 0.11823125198409511 0 -0.2348316268224595 0.11651500804646669 0 -0.2235388627286797 0.12965651036182041 0 -0.20994497012605751 0.11823125198409511 0 -0.22135706029896429 0.097751395037259853 0 -0.2348316268224595 0.11651500804646669 0 -0.22135706029896429 0.097751395037259853 0 -0.24377998071086901 0.096378574065869249 0 -0.2348316268224595 0.11651500804646669 0 -0.25136603029008331 0.1103208693098497 0 -0.24377998071086901 0.096378574065869249 0 -0.2348316268224595 0.11651500804646669 0 -0.25922316449870308 0.12628093809151891 0 -0.25136603029008331 0.1103208693098497 0 -0.2348316268224595 0.11651500804646669 0 -0.25922316449870308 0.12628093809151891 0 -0.2348316268224595 0.11651500804646669 0 -0.2369615480924761 0.1404602413506009 0 -0.2369615480924761 0.1404602413506009 0 -0.2235388627286797 0.12965651036182041 0 -0.2124173058737257 0.14341954006611901 0 -0.2348316268224595 0.11651500804646669 0 -0.2369615480924761 0.1404602413506009 0 -0.2235388627286797 0.12965651036182041 0 -0.2369615480924761 0.1404602413506009 0 -0.22679867445049531 0.16064067306310431 0 -0.2124173058737257 0.14341954006611901 0 -0.2369615480924761 0.1404602413506009 0 -0.247018622616726 0.15992587597476091 0 -0.22679867445049531 0.16064067306310431 0 -0.25846103874104392 0.14702121199507179 0 -0.2369615480924761 0.1404602413506009 0 -0.247018622616726 0.15992587597476091 0 -0.247018622616726 0.15992587597476091 0 -0.23359887481107691 0.1809086922627815 0 -0.247018622616726 0.15992587597476091 0 -0.23359887481107691 0.1809086922627815 0 -0.22679867445049531 0.16064067306310431 0 -0.26439180367967152 0.18225540552070321 0 -0.247018622616726 0.15992587597476091 0 -0.23359887481107691 0.1809086922627815 0 -0.23359887481107691 0.1809086922627815 0 -0.20517995294037331 0.17379218369948349 0 -0.2201791270054278 0.2018915085508021 0 -0.23359887481107691 0.1809086922627815 0 -0.22679867445049531 0.16064067306310431 0 -0.20517995294037331 0.17379218369948349 0 -0.22679867445049531 0.16064067306310431 0 -0.20517995294037331 0.17379218369948349 0 -0.2124173058737257 0.14341954006611901 0 -0.20517995294037331 0.17379218369948349 0 -0.19274338499996449 0.14807478539393409 0 -0.17830044274374979 0.16244982581953471 0 -0.19150979458678249 0.1243728737611647 0 -0.19274338499996449 0.14807478539393409 0 -0.2124173058737257 0.14341954006611901 0 -0.20994497012605751 0.11823125198409511 0 -0.2235388627286797 0.12965651036182041 0 -0.2124173058737257 0.14341954006611901 0 -0.19150979458678249 0.1243728737611647 0 -0.20994497012605751 0.11823125198409511 0 -0.2124173058737257 0.14341954006611901 0 -0.20517995294037331 0.17379218369948349 0 -0.19274338499996449 0.14807478539393409 0 -0.2124173058737257 0.14341954006611901 0 -0.22371849106378741 0.2462845034026982 0 -0.23019370483249479 0.22382880503591951 0 -0.2066863838603582 0.24242880758937649 0 -0.22371849106378741 0.2462845034026982 0 -0.23951274761537589 0.2474853768326048 0 -0.23019370483249479 0.22382880503591951 0 -0.25272375818517617 0.22994970808158929 0 -0.25621817608628389 0.2460965770837312 0 -0.23951274761537589 0.2474853768326048 0 -0.25370102580463139 0.2052288024824625 0 -0.25272375818517617 0.22994970808158929 0 -0.23019370483249479 0.22382880503591951 0 -0.25272375818517617 0.22994970808158929 0 -0.23951274761537589 0.2474853768326048 0 -0.23019370483249479 0.22382880503591951 0 -0.25370102580463139 0.2052288024824625 0 -0.23359887481107691 0.1809086922627815 0 -0.2201791270054278 0.2018915085508021 0 -0.25370102580463139 0.2052288024824625 0 -0.23019370483249479 0.22382880503591951 0 -0.2201791270054278 0.2018915085508021 0 -0.23019370483249479 0.22382880503591951 0 -0.2201791270054278 0.2018915085508021 0 -0.20675937919977869 0.22287432483882261 0 -0.25370102580463139 0.2052288024824625 0 -0.23019370483249479 0.22382880503591951 0 -0.23359887481107691 0.1809086922627815 0 -0.2201791270054278 0.2018915085508021 0 -0.20517995294037331 0.17379218369948349 0 -0.2201791270054278 0.2018915085508021 0 -0.19686056424972551 0.20437535499954981 0 -0.20517995294037331 0.17379218369948349 0 -0.19686056424972551 0.20437535499954981 0 -0.17870530295493239 0.18804735871836689 0 -0.19686056424972551 0.20437535499954981 0 -0.20675937919977869 0.22287432483882261 0 -0.19122946023172571 0.22600186257262461 0 -0.19686056424972551 0.20437535499954981 0 -0.19122946023172571 0.22600186257262461 0 -0.179110163166115 0.21364489161719899 0 -0.2201791270054278 0.2018915085508021 0 -0.19686056424972551 0.20437535499954981 0 -0.20675937919977869 0.22287432483882261 0 -0.2201791270054278 0.2018915085508021 0 -0.20675937919977869 0.22287432483882261 0 -0.23019370483249479 0.22382880503591951 0 -0.2066863838603582 0.24242880758937649 0 -0.23019370483249479 0.22382880503591951 0 -0.20675937919977869 0.22287432483882261 0 -0.2066863838603582 0.24242880758937649 0 -0.20675937919977869 0.22287432483882261 0 -0.19333963139412971 0.24385714112684301 0 -0.20675937919977869 0.22287432483882261 0 -0.19122946023172571 0.22600186257262461 0 -0.19333963139412971 0.24385714112684301 0 -0.19122946023172571 0.22600186257262461 0 -0.19333963139412971 0.24385714112684301 0 -0.17951502337729761 0.2392424245160312 0 -0.20675937919977869 0.22287432483882261 0 -0.19333963139412971 0.24385714112684301 0 -0.2066863838603582 0.24242880758937649 0 -0.18259587964237009 0.2606558300825601 0 -0.19333963139412971 0.24385714112684301 0 -0.2066863838603582 0.24242880758937649 0 -0.21408768962570049 0.25938306782852782 0 -0.22371849106378741 0.2462845034026982 0 -0.2066863838603582 0.24242880758937649 0 -0.1532221513837192 0.25419418888983192 0 -0.17951502337729761 0.2392424245160312 0 -0.15110003921584569 0.22881829817408891 0 -0.18259587964237009 0.2606558300825601 0 -0.19333963139412971 0.24385714112684301 0 -0.17951502337729761 0.2392424245160312 0 -0.17951502337729761 0.2392424245160312 0 -0.1619547442009632 0.2162214427956837 0 -0.179110163166115 0.21364489161719899 0 -0.19122946023172571 0.22600186257262461 0 -0.17951502337729761 0.2392424245160312 0 -0.179110163166115 0.21364489161719899 0 -0.17951502337729761 0.2392424245160312 0 -0.179110163166115 0.21364489161719899 0 -0.17951502337729761 0.2392424245160312 0 -0.1619547442009632 0.2162214427956837 0 -0.15110003921584569 0.22881829817408891 0 -0.1619547442009632 0.2162214427956837 0 -0.179110163166115 0.21364489161719899 0 -0.17870530295493239 0.18804735871836689 0 -0.19686056424972551 0.20437535499954981 0 -0.179110163166115 0.21364489161719899 0 -0.17870530295493239 0.18804735871836689 0 -0.179110163166115 0.21364489161719899 0 -0.17870530295493239 0.18804735871836689 0 -0.1619547442009632 0.2162214427956837 0 -0.17870530295493239 0.18804735871836689 0 -0.15775407484820861 0.18727827749961631 0 -0.14804225966403101 0.20585853828705919 0 -0.15775407484820861 0.18727827749961631 0 -0.13876353146598761 0.18223131465273959 0 -0.1619547442009632 0.2162214427956837 0 -0.14804225966403101 0.20585853828705919 0 -0.15775407484820861 0.18727827749961631 0 -0.13876353146598761 0.18223131465273959 0 -0.1245765098090509 0.17966052017845999 0 -0.1190175871807343 0.20067046473278771 0 -0.14804225966403101 0.20585853828705919 0 -0.13876353146598761 0.18223131465273959 0 -0.1190175871807343 0.20067046473278771 0 -0.14804225966403101 0.20585853828705919 0 -0.13479108425045189 0.2189379304695287 0 -0.1190175871807343 0.20067046473278771 0 -0.13479108425045189 0.2189379304695287 0 -0.12594818007053379 0.2253828658525201 0 -0.1190175871807343 0.20067046473278771 0 -0.1619547442009632 0.2162214427956837 0 -0.14804225966403101 0.20585853828705919 0 -0.15110003921584569 0.22881829817408891 0 -0.14804225966403101 0.20585853828705919 0 -0.15110003921584569 0.22881829817408891 0 -0.13479108425045189 0.2189379304695287 0 -0.15110003921584569 0.22881829817408891 0 -0.13479108425045189 0.2189379304695287 0 -0.1378537507735782 0.22769286600650679 0 -0.15110003921584569 0.22881829817408891 0 -0.1378537507735782 0.22769286600650679 0 -0.13827307027013019 0.2362506378269415 0 -0.13479108425045189 0.2189379304695287 0 -0.12594818007053379 0.2253828658525201 0 -0.1378537507735782 0.22769286600650679 0 -0.12594818007053379 0.2253828658525201 0 -0.1378537507735782 0.22769286600650679 0 -0.13827307027013019 0.2362506378269415 0 -0.12594818007053379 0.2253828658525201 0 -0.13827307027013019 0.2362506378269415 0 -0.1327712538659816 0.24971188635390451 0 -0.12594818007053379 0.2253828658525201 0 -0.1327712538659816 0.24971188635390451 0 -0.1532221513837192 0.25419418888983192 0 -0.15110003921584569 0.22881829817408891 0 -0.13827307027013019 0.2362506378269415 0 -0.1532221513837192 0.25419418888983192 0 -0.13827307027013019 0.2362506378269415 0 -0.1327712538659816 0.24971188635390451 0 -0.16317411874061041 0.14897554401654969 0 -0.16113979031376621 0.12743058591966341 0 -0.1447888583061562 0.1436064118174607 0 -0.16317411874061041 0.14897554401654969 0 -0.16113979031376621 0.12743058591966341 0 -0.17789558253256721 0.1368522929207025 0 -0.17749072232138041 0.1112547600218704 0 -0.16113979031376621 0.12743058591966341 0 -0.17789558253256721 0.1368522929207025 0 -0.19150979458678249 0.1243728737611647 0 -0.19274338499996449 0.14807478539393409 0 -0.17789558253256721 0.1368522929207025 0 -0.16317411874061041 0.14897554401654969 0 -0.17789558253256721 0.1368522929207025 0 -0.17830044274374979 0.16244982581953471 0 -0.17789558253256721 0.1368522929207025 0 -0.17830044274374979 0.16244982581953471 0 -0.19274338499996449 0.14807478539393409 0 -0.17789558253256721 0.1368522929207025 0 -0.17830044274374979 0.16244982581953471 0 -0.20517995294037331 0.17379218369948349 0 -0.17870530295493239 0.18804735871836689 0 -0.17830044274374979 0.16244982581953471 0 -0.17870530295493239 0.18804735871836689 0 -0.17830044274374979 0.16244982581953471 0 -0.17870530295493239 0.18804735871836689 0 -0.17830044274374979 0.16244982581953471 0 -0.15775407484820861 0.18727827749961631 0 -0.17830044274374979 0.16244982581953471 0 -0.15775407484820861 0.18727827749961631 0 -0.15245232938168229 0.1648839185887534 0 -0.16317411874061041 0.14897554401654969 0 -0.17830044274374979 0.16244982581953471 0 -0.15245232938168229 0.1648839185887534 0 -0.15775407484820861 0.18727827749961631 0 -0.15245232938168229 0.1648839185887534 0 -0.13876353146598761 0.18223131465273959 0 -0.13876353146598761 0.18223131465273959 0 -0.12843792629854631 0.15978223771525801 0 -0.1245765098090509 0.17966052017845999 0 -0.15245232938168229 0.1648839185887534 0 -0.13876353146598761 0.18223131465273959 0 -0.12843792629854631 0.15978223771525801 0 -0.12843792629854631 0.15978223771525801 0 -0.1447888583061562 0.1436064118174607 0 -0.12843792629854631 0.15978223771525801 0 -0.1447888583061562 0.1436064118174607 0 -0.1204435081575875 0.14623213693654391 0 -0.16317411874061041 0.14897554401654969 0 -0.15245232938168229 0.1648839185887534 0 -0.1447888583061562 0.1436064118174607 0 -0.15245232938168229 0.1648839185887534 0 -0.12843792629854631 0.15978223771525801 0 -0.1447888583061562 0.1436064118174607 0 -0.16113979031376621 0.12743058591966341 0 -0.1447888583061562 0.1436064118174607 0 -0.14300315410871919 0.1253406317882016 0 -0.16113979031376621 0.12743058591966341 0 -0.1447888583061562 0.1436064118174607 0 -0.1447888583061562 0.1436064118174607 0 -0.12687331202938101 0.13192737382428379 0 -0.1204435081575875 0.14623213693654391 0 -0.1447888583061562 0.1436064118174607 0 -0.14300315410871919 0.1253406317882016 0 -0.12687331202938101 0.13192737382428379 0 -0.12687331202938101 0.13192737382428379 0 -0.1130049083687871 0.13722853083192951 0 -0.10667563132183119 0.1260080396076822 0 -0.12687331202938101 0.13192737382428379 0 -0.1130049083687871 0.13722853083192951 0 -0.1204435081575875 0.14623213693654391 0 -0.10667563132183119 0.1260080396076822 0 -0.081978849477511453 0.1384377215961772 0 -0.096577670607123245 0.1239972751083621 0 -0.10667563132183119 0.1260080396076822 0 -0.1008242758955458 0.1385116675773613 0 -0.081978849477511453 0.1384377215961772 0 -0.10667563132183119 0.1260080396076822 0 -0.081978849477511453 0.1384377215961772 0 -0.1130049083687871 0.13722853083192951 0 -0.10667563132183119 0.1260080396076822 0 -0.1008242758955458 0.1385116675773613 0 -0.1130049083687871 0.13722853083192951 0 -0.1008242758955458 0.1385116675773613 0 -0.1078791741402548 0.14587794917826699 0 -0.094422293866394627 0.1556947047027778 0 -0.094582816169344081 0.14500609667275041 0 -0.1078791741402548 0.14587794917826699 0 -0.1008242758955458 0.1385116675773613 0 -0.094582816169344081 0.14500609667275041 0 -0.1078791741402548 0.14587794917826699 0 -0.12843792629854631 0.15978223771525801 0 -0.1204435081575875 0.14623213693654391 0 -0.1073217141416921 0.15896651377475199 0 -0.1078791741402548 0.14587794917826699 0 -0.1204435081575875 0.14623213693654391 0 -0.1073217141416921 0.15896651377475199 0 -0.1130049083687871 0.13722853083192951 0 -0.1078791741402548 0.14587794917826699 0 -0.1204435081575875 0.14623213693654391 0 -0.12843792629854631 0.15978223771525801 0 -0.1245765098090509 0.17966052017845999 0 -0.1120869942909358 0.17595806361305491 0 -0.1120869942909358 0.17595806361305491 0 -0.1073217141416921 0.15896651377475199 0 -0.12843792629854631 0.15978223771525801 0 -0.1120869942909358 0.17595806361305491 0 -0.12843792629854631 0.15978223771525801 0 -0.1120869942909358 0.17595806361305491 0 -0.1073217141416921 0.15896651377475199 0 -0.1245765098090509 0.17966052017845999 0 -0.1120869942909358 0.17595806361305491 0 -0.1190175871807343 0.20067046473278771 0 -0.1120869942909358 0.17595806361305491 0 -0.1020860412129876 0.1687304780430319 0 -0.095149617161195271 0.19271405424946009 0 -0.1020860412129876 0.1687304780430319 0 -0.095149617161195271 0.19271405424946009 0 -0.1120869942909358 0.17595806361305491 0 -0.095149617161195271 0.19271405424946009 0 -0.1020860412129876 0.1687304780430319 0 -0.093279947424905002 0.17994671451597891 0 -0.095149617161195271 0.19271405424946009 0 -0.1020860412129876 0.1687304780430319 0 -0.089956478385260899 0.16811851343374709 0 -0.093279947424905002 0.17994671451597891 0 -0.094422293866394627 0.1556947047027778 0 -0.1078791741402548 0.14587794917826699 0 -0.1020860412129876 0.1687304780430319 0 -0.1078791741402548 0.14587794917826699 0 -0.1073217141416921 0.15896651377475199 0 -0.1020860412129876 0.1687304780430319 0 -0.1120869942909358 0.17595806361305491 0 -0.1073217141416921 0.15896651377475199 0 -0.1020860412129876 0.1687304780430319 0 -0.1078791741402548 0.14587794917826699 0 -0.1020860412129876 0.1687304780430319 0 -0.094422293866394627 0.1556947047027778 0 -0.1020860412129876 0.1687304780430319 0 -0.089956478385260899 0.16811851343374709 0 -0.094422293866394627 0.1556947047027778 0 -0.089956478385260899 0.16811851343374709 0 -0.084742563178951485 0.15922574422532609 0 -0.089956478385260899 0.16811851343374709 0 -0.080023232193096983 0.1657260639694961 0 -0.084742563178951485 0.15922574422532609 0 -0.089956478385260899 0.16811851343374709 0 -0.080023232193096983 0.1657260639694961 0 -0.081293191825158789 0.17801619480298669 0 -0.080023232193096983 0.1657260639694961 0 -0.084742563178951485 0.15922574422532609 0 -0.074930767296401246 0.15918989644816289 0 -0.081293191825158789 0.17801619480298669 0 -0.095149617161195271 0.19271405424946009 0 -0.073474196407973841 0.19079473501472519 0 -0.081293191825158789 0.17801619480298669 0 -0.095149617161195271 0.19271405424946009 0 -0.093279947424905002 0.17994671451597891 0 -0.081293191825158789 0.17801619480298669 0 -0.095149617161195271 0.19271405424946009 0 -0.089956478385260899 0.16811851343374709 0 -0.093279947424905002 0.17994671451597891 0 -0.081293191825158789 0.17801619480298669 0 -0.064604308801312821 0.18244611143699499 0 -0.069549912031587807 0.17131438064227461 0 -0.073474196407973841 0.19079473501472519 0 -0.081293191825158789 0.17801619480298669 0 -0.069549912031587807 0.17131438064227461 0 -0.073474196407973841 0.19079473501472519 0 -0.069549912031587807 0.17131438064227461 0 -0.073474196407973841 0.19079473501472519 0 -0.064604308801312821 0.18244611143699499 0 -0.069549912031587807 0.17131438064227461 0 -0.062041409668937363 0.1723934095439342 0 -0.084742563178951485 0.15922574422532609 0 -0.074930767296401246 0.15918989644816289 0 -0.074588176879671189 0.15080810715310269 0 -0.080023232193096983 0.1657260639694961 0 -0.074930767296401246 0.15918989644816289 0 -0.06743676648912228 0.16331833535651319 0 -0.081293191825158789 0.17801619480298669 0 -0.069549912031587807 0.17131438064227461 0 -0.06743676648912228 0.16331833535651319 0 -0.080023232193096983 0.1657260639694961 0 -0.081293191825158789 0.17801619480298669 0 -0.06743676648912228 0.16331833535651319 0 -0.081293191825158789 0.17801619480298669 0 -0.06743676648912228 0.16331833535651319 0 -0.069549912031587807 0.17131438064227461 0 -0.062031688412593149 0.16441565219234799 0 -0.062041409668937363 0.1723934095439342 0 -0.069549912031587807 0.17131438064227461 0 -0.06743676648912228 0.16331833535651319 0 -0.062031688412593149 0.16441565219234799 0 -0.06743676648912228 0.16331833535651319 0 -0.06725389334219653 0.15771987894696021 0 -0.062031688412593149 0.16441565219234799 0 -0.074930767296401246 0.15918989644816289 0 -0.06743676648912228 0.16331833535651319 0 -0.06725389334219653 0.15771987894696021 0 -0.081978849477511453 0.1384377215961772 0 -0.05728206763319247 0.1508674035846734 0 -0.06725389334219653 0.15771987894696021 0 -0.074588176879671189 0.15080810715310269 0 -0.05728206763319247 0.1508674035846734 0 -0.074588176879671189 0.15080810715310269 0 -0.081978849477511453 0.1384377215961772 0 -0.05728206763319247 0.1508674035846734 0 -0.081978849477511453 0.1384377215961772 0 -0.06070043620975589 0.134524720015781 0 -0.05728206763319247 0.1508674035846734 0 -0.074930767296401246 0.15918989644816289 0 -0.06725389334219653 0.15771987894696021 0 -0.074588176879671189 0.15080810715310269 0 -0.071786582042575819 0.1280585334591178 0 -0.081978849477511453 0.1384377215961772 0 -0.08034823769671974 0.121089655777625 0 -0.071786582042575819 0.1280585334591178 0 -0.081978849477511453 0.1384377215961772 0 -0.06070043620975589 0.134524720015781 0 -0.071786582042575819 0.1280585334591178 0 -0.06070043620975589 0.134524720015781 0 -0.06411880478631618 0.11818203644688791 0 -0.081978849477511453 0.1384377215961772 0 -0.08034823769671974 0.121089655777625 0 -0.096577670607123245 0.1239972751083621 0 -0.1008242758955458 0.1385116675773613 0 -0.094582816169344081 0.14500609667275041 0 -0.081978849477511453 0.1384377215961772 0 -0.094582816169344081 0.14500609667275041 0 -0.081978849477511453 0.1384377215961772 0 -0.0854808471676783 0.14892295327365951 0 -0.094422293866394627 0.1556947047027778 0 -0.084742563178951485 0.15922574422532609 0 -0.0854808471676783 0.14892295327365951 0 -0.094422293866394627 0.1556947047027778 0 -0.094582816169344081 0.14500609667275041 0 -0.0854808471676783 0.14892295327365951 0 -0.084742563178951485 0.15922574422532609 0 -0.074588176879671189 0.15080810715310269 0 -0.0854808471676783 0.14892295327365951 0 -0.074588176879671189 0.15080810715310269 0 -0.081978849477511453 0.1384377215961772 0 -0.0854808471676783 0.14892295327365951 0 -0.1045487088169635 0.24438495162540061 0 -0.11455994162881621 0.23631135170566109 0 -0.098826177075254387 0.23394696074010041 0 -0.10005120432924321 0.25626016583208688 0 -0.094679029848152713 0.24609146959404629 0 -0.1045487088169635 0.24438495162540061 0 -0.094679029848152713 0.24609146959404629 0 -0.1045487088169635 0.24438495162540061 0 -0.098826177075254387 0.23394696074010041 0 -0.116744543106582 0.25728181003509248 0 -0.1045487088169635 0.24438495162540061 0 -0.11455994162881621 0.23631135170566109 0 -0.116744543106582 0.25728181003509248 0 -0.1327712538659816 0.24971188635390451 0 -0.11455994162881621 0.23631135170566109 0 -0.12594818007053379 0.2253828658525201 0 -0.1327712538659816 0.24971188635390451 0 -0.11455994162881621 0.23631135170566109 0 -0.11455994162881621 0.23631135170566109 0 -0.1144435087069731 0.2232582902708152 0 -0.1063794885369051 0.22193246116811141 0 -0.12594818007053379 0.2253828658525201 0 -0.1144435087069731 0.2232582902708152 0 -0.1108864245916369 0.20940648235696879 0 -0.12594818007053379 0.2253828658525201 0 -0.11455994162881621 0.23631135170566109 0 -0.1144435087069731 0.2232582902708152 0 -0.11455994162881621 0.23631135170566109 0 -0.1063794885369051 0.22193246116811141 0 -0.098826177075254387 0.23394696074010041 0 -0.1063794885369051 0.22193246116811141 0 -0.098826177075254387 0.23394696074010041 0 -0.089950704149474564 0.21660149084549701 0 -0.1063794885369051 0.22193246116811141 0 -0.089950704149474564 0.21660149084549701 0 -0.10053720550511509 0.21148400771379949 0 -0.095149617161195271 0.19271405424946009 0 -0.089950704149474564 0.21660149084549701 0 -0.1063794885369051 0.22193246116811141 0 -0.10053720550511509 0.21148400771379949 0 -0.089950704149474564 0.21660149084549701 0 -0.10053720550511509 0.21148400771379949 0 -0.1108864245916369 0.20940648235696879 0 -0.095149617161195271 0.19271405424946009 0 -0.1063794885369051 0.22193246116811141 0 -0.10053720550511509 0.21148400771379949 0 -0.1108864245916369 0.20940648235696879 0 -0.12594818007053379 0.2253828658525201 0 -0.1190175871807343 0.20067046473278771 0 -0.12594818007053379 0.2253828658525201 0 -0.1108864245916369 0.20940648235696879 0 -0.1190175871807343 0.20067046473278771 0 -0.12594818007053379 0.2253828658525201 0 -0.1108864245916369 0.20940648235696879 0 -0.1144435087069731 0.2232582902708152 0 -0.1063794885369051 0.22193246116811141 0 -0.1108864245916369 0.20940648235696879 0 -0.1120869942909358 0.17595806361305491 0 -0.1190175871807343 0.20067046473278771 0 -0.1108864245916369 0.20940648235696879 0 -0.1190175871807343 0.20067046473278771 0 -0.10682171669235439 0.1942096232944058 0 -0.1120869942909358 0.17595806361305491 0 -0.1190175871807343 0.20067046473278771 0 -0.10682171669235439 0.1942096232944058 0 -0.1108864245916369 0.20940648235696879 0 -0.095149617161195271 0.19271405424946009 0 -0.1108864245916369 0.20940648235696879 0 -0.10682171669235439 0.1942096232944058 0 -0.095149617161195271 0.19271405424946009 0 -0.1120869942909358 0.17595806361305491 0 -0.10682171669235439 0.1942096232944058 0 -0.095149617161195271 0.19271405424946009 0 -0.095149617161195271 0.19271405424946009 0 -0.077398480784349299 0.2102750893871779 0 -0.095149617161195271 0.19271405424946009 0 -0.073474196407973841 0.19079473501472519 0 -0.077398480784349299 0.2102750893871779 0 -0.095149617161195271 0.19271405424946009 0 -0.077398480784349299 0.2102750893871779 0 -0.087241526055590657 0.20514135106535239 0 -0.073474196407973841 0.19079473501472519 0 -0.077398480784349299 0.2102750893871779 0 -0.073474196407973841 0.19079473501472519 0 -0.077398480784349299 0.2102750893871779 0 -0.068984895145132993 0.20348567813270921 0 -0.064604308801312821 0.18244611143699499 0 -0.073474196407973841 0.19079473501472519 0 -0.062951628171730722 0.19451437844324071 0 -0.073474196407973841 0.19079473501472519 0 -0.062951628171730722 0.19451437844324071 0 -0.068984895145132993 0.20348567813270921 0 -0.062951628171730722 0.19451437844324071 0 -0.068984895145132993 0.20348567813270921 0 -0.057478398324341332 0.20606456403591589 0 -0.068984895145132993 0.20348567813270921 0 -0.075683327299925024 0.21197187487555791 0 -0.057478398324341332 0.20606456403591589 0 -0.075683327299925024 0.21197187487555791 0 -0.060700713784132942 0.2267940359372384 0 -0.057478398324341332 0.20606456403591589 0 -0.075683327299925024 0.21197187487555791 0 -0.057478398324341332 0.20606456403591589 0 -0.077398480784349299 0.2102750893871779 0 -0.068984895145132993 0.20348567813270921 0 -0.075683327299925024 0.21197187487555791 0 -0.075683327299925024 0.21197187487555791 0 -0.077884159070199604 0.2126860219832131 0 -0.060700713784132942 0.2267940359372384 0 -0.075683327299925024 0.21197187487555791 0 -0.077884159070199604 0.2126860219832131 0 -0.077398480784349299 0.2102750893871779 0 -0.075683327299925024 0.21197187487555791 0 -0.077884159070199604 0.2126860219832131 0 -0.077398480784349299 0.2102750893871779 0 -0.077884159070199604 0.2126860219832131 0 -0.077398480784349299 0.2102750893871779 0 -0.075683327299925024 0.21197187487555791 0 -0.077884159070199604 0.2126860219832131 0 -0.089950704149474564 0.21660149084549701 0 -0.077884159070199604 0.2126860219832131 0 -0.087241526055590657 0.20514135106535239 0 -0.089950704149474564 0.21660149084549701 0 -0.095149617161195271 0.19271405424946009 0 -0.087241526055590657 0.20514135106535239 0 -0.089950704149474564 0.21660149084549701 0 -0.095149617161195271 0.19271405424946009 0 -0.089950704149474564 0.21660149084549701 0 -0.077398480784349299 0.2102750893871779 0 -0.077884159070199604 0.2126860219832131 0 -0.087241526055590657 0.20514135106535239 0 -0.077884159070199604 0.2126860219832131 0 -0.083666647235009842 0.24139059785004849 0 -0.089950704149474564 0.21660149084549701 0 -0.083666647235009842 0.24139059785004849 0 -0.077884159070199604 0.2126860219832131 0 -0.089950704149474564 0.21660149084549701 0 -0.083666647235009842 0.24139059785004849 0 -0.098826177075254387 0.23394696074010041 0 -0.089950704149474564 0.21660149084549701 0 -0.083666647235009842 0.24139059785004849 0 -0.077884159070199604 0.2126860219832131 0 -0.083666647235009842 0.24139059785004849 0 -0.060700713784132942 0.2267940359372384 0 -0.075683327299925024 0.21197187487555791 0 -0.060700713784132942 0.2267940359372384 0 -0.064077212627390134 0.24851538469076631 0 -0.083666647235009842 0.24139059785004849 0 -0.060700713784132942 0.2267940359372384 0 -0.086302411784292182 0.25447467192259482 0 -0.083666647235009842 0.24139059785004849 0 -0.094679029848152713 0.24609146959404629 0 -0.098826177075254387 0.23394696074010041 0 -0.083666647235009842 0.24139059785004849 0 -0.086302411784292182 0.25447467192259482 0 -0.094679029848152713 0.24609146959404629 0 -0.083666647235009842 0.24139059785004849 0 -0.03068766995985707 0.25286978792993342 0 -0.034335222642673788 0.23481172099035691 0 -0.046578861792199937 0.24361118962503389 0 -0.034335222642673788 0.23481172099035691 0 -0.046578861792199937 0.24361118962503389 0 -0.045510089746351297 0.2289623102588538 0 -0.064077212627390134 0.24851538469076631 0 -0.046578861792199937 0.24361118962503389 0 -0.055802081643016588 0.23164020743468811 0 -0.064077212627390134 0.24851538469076631 0 -0.055802081643016588 0.23164020743468811 0 -0.060700713784132942 0.2267940359372384 0 -0.064077212627390134 0.24851538469076631 0 -0.060700713784132942 0.2267940359372384 0 -0.046578861792199937 0.24361118962503389 0 -0.055802081643016588 0.23164020743468811 0 -0.045510089746351297 0.2289623102588538 0 -0.055802081643016588 0.23164020743468811 0 -0.053252725762674542 0.2222055350902031 0 -0.045510089746351297 0.2289623102588538 0 -0.055802081643016588 0.23164020743468811 0 -0.060700713784132942 0.2267940359372384 0 -0.053252725762674542 0.2222055350902031 0 -0.055802081643016588 0.23164020743468811 0 -0.060700713784132942 0.2267940359372384 0 -0.053252725762674542 0.2222055350902031 0 -0.045510089746351297 0.2289623102588538 0 -0.046772345315528908 0.21756655778431969 0 -0.045510089746351297 0.2289623102588538 0 -0.036443083940353373 0.22210497005765251 0 -0.046772345315528908 0.21756655778431969 0 -0.034335222642673788 0.23481172099035691 0 -0.045510089746351297 0.2289623102588538 0 -0.036443083940353373 0.22210497005765251 0 -0.034335222642673788 0.23481172099035691 0 -0.036443083940353373 0.22210497005765251 0 -0.024866254401544021 0.22078734426404351 0 -0.036443083940353373 0.22210497005765251 0 -0.046772345315528908 0.21756655778431969 0 -0.031637039445344017 0.19767931081015269 0 -0.046772345315528908 0.21756655778431969 0 -0.057478398324341332 0.20606456403591589 0 -0.031637039445344017 0.19767931081015269 0 -0.060700713784132942 0.2267940359372384 0 -0.053252725762674542 0.2222055350902031 0 -0.057478398324341332 0.20606456403591589 0 -0.060700713784132942 0.2267940359372384 0 -0.057478398324341332 0.20606456403591589 0 -0.053252725762674542 0.2222055350902031 0 -0.046772345315528908 0.21756655778431969 0 -0.057478398324341332 0.20606456403591589 0 -0.062951628171730722 0.19451437844324071 0 -0.057478398324341332 0.20606456403591589 0 -0.054948738746262903 0.1897910154656581 0 -0.057478398324341332 0.20606456403591589 0 -0.054948738746262903 0.1897910154656581 0 -0.031637039445344017 0.19767931081015269 0 -0.057478398324341332 0.20606456403591589 0 -0.054948738746262903 0.1897910154656581 0 -0.054948738746262903 0.1897910154656581 0 -0.031637039445344017 0.19767931081015269 0 -0.039999697082172873 0.18418677263352329 0 -0.057478398324341332 0.20606456403591589 0 -0.031637039445344017 0.19767931081015269 0 -0.031637039445344017 0.19767931081015269 0 -0.0057956805663459468 0.1892940575843915 0 -0.031637039445344017 0.19767931081015269 0 -0.0057956805663459468 0.1892940575843915 0 -0.024775833668462071 0.17590936267321361 0 -0.031637039445344017 0.19767931081015269 0 -0.0057956805663459468 0.1892940575843915 0 -0.01019634689217482 0.20814994011246479 0 -0.0057956805663459468 0.1892940575843915 0 -0.01019634689217482 0.20814994011246479 0 0.0090806704795409685 0.20996839310177981 0 -0.01019634689217482 0.20814994011246479 0 0.00014186162909880781 0.2338185852574263 0 0.0090806704795409685 0.20996839310177981 0 -0.036443083940353373 0.22210497005765251 0 -0.031637039445344017 0.19767931081015269 0 -0.024866254401544021 0.22078734426404351 0 -0.031637039445344017 0.19767931081015269 0 -0.01019634689217482 0.20814994011246479 0 -0.024866254401544021 0.22078734426404351 0 -0.034335222642673788 0.23481172099035691 0 -0.024866254401544021 0.22078734426404351 0 -0.01991034591062427 0.239405390953495 0 -0.024866254401544021 0.22078734426404351 0 0.00014186162909880781 0.2338185852574263 0 -0.024866254401544021 0.22078734426404351 0 -0.01991034591062427 0.239405390953495 0 0.00014186162909880781 0.2338185852574263 0 -0.01019634689217482 0.20814994011246479 0 -0.024866254401544021 0.22078734426404351 0 0.00014186162909880781 0.2338185852574263 0 -0.0098044441781452579 0.25473951632571468 0 0.00014186162909880781 0.2338185852574263 0 0.0073806355134042019 0.25529449578482938 0 -0.0098044441781452579 0.25473951632571468 0 -0.01991034591062427 0.239405390953495 0 0.00014186162909880781 0.2338185852574263 0 -0.03068766995985707 0.25286978792993342 0 -0.034335222642673788 0.23481172099035691 0 -0.01991034591062427 0.239405390953495 0 -0.03068766995985707 0.25286978792993342 0 -0.0098044441781452579 0.25473951632571468 0 -0.01991034591062427 0.239405390953495 0 -0.045513089216113363 0.1481501368583191 0 -0.039963318838929777 0.1583549670989208 0 -0.028048700007850699 0.14601834090005769 0 -0.045513089216113363 0.1481501368583191 0 -0.037584816749385713 0.12707105787504261 0 -0.028048700007850699 0.14601834090005769 0 -0.037584816749385713 0.12707105787504261 0 -0.028048700007850699 0.14601834090005769 0 -0.045513089216113363 0.1481501368583191 0 -0.037584816749385713 0.12707105787504261 0 -0.045513089216113363 0.1481501368583191 0 -0.037584816749385713 0.12707105787504261 0 -0.049753839012929922 0.13582205838018921 0 -0.037584816749385713 0.12707105787504261 0 -0.049753839012929922 0.13582205838018921 0 -0.051208231868337763 0.1260313133231428 0 -0.049753839012929922 0.13582205838018921 0 -0.06070043620975589 0.134524720015781 0 -0.052276118599972977 0.1457036522838337 0 -0.051208231868337763 0.1260313133231428 0 -0.06070043620975589 0.134524720015781 0 -0.06411880478631618 0.11818203644688791 0 -0.06070043620975589 0.134524720015781 0 -0.06411880478631618 0.11818203644688791 0 -0.049753839012929922 0.13582205838018921 0 -0.051208231868337763 0.1260313133231428 0 -0.06070043620975589 0.134524720015781 0 -0.06070043620975589 0.134524720015781 0 -0.052276118599972977 0.1457036522838337 0 -0.05728206763319247 0.1508674035846734 0 -0.06070043620975589 0.134524720015781 0 -0.05728206763319247 0.1508674035846734 0 -0.045513089216113363 0.1481501368583191 0 -0.049753839012929922 0.13582205838018921 0 -0.052276118599972977 0.1457036522838337 0 -0.045513089216113363 0.1481501368583191 0 -0.052276118599972977 0.1457036522838337 0 -0.053440893212920608 0.15280063427064891 0 -0.052276118599972977 0.1457036522838337 0 -0.053440893212920608 0.15280063427064891 0 -0.05728206763319247 0.1508674035846734 0 -0.053440893212920608 0.15280063427064891 0 -0.05728206763319247 0.1508674035846734 0 -0.05728206763319247 0.1508674035846734 0 -0.062031688412593149 0.16441565219234799 0 -0.053441361682841117 0.16922921584159559 0 -0.053440893212920608 0.15280063427064891 0 -0.05728206763319247 0.1508674035846734 0 -0.053441361682841117 0.16922921584159559 0 -0.045513089216113363 0.1481501368583191 0 -0.053440893212920608 0.15280063427064891 0 -0.053441361682841117 0.16922921584159559 0 -0.045513089216113363 0.1481501368583191 0 -0.053441361682841117 0.16922921584159559 0 -0.05728206763319247 0.1508674035846734 0 -0.053441361682841117 0.16922921584159559 0 -0.06725389334219653 0.15771987894696021 0 -0.05728206763319247 0.1508674035846734 0 -0.062031688412593149 0.16441565219234799 0 -0.062031688412593149 0.16441565219234799 0 -0.053441361682841117 0.16922921584159559 0 -0.062041409668937363 0.1723934095439342 0 -0.053441361682841117 0.16922921584159559 0 -0.047633738945979477 0.17108968717192211 0 -0.039963318838929777 0.1583549670989208 0 -0.052991971448818453 0.17137768000779441 0 -0.053441361682841117 0.16922921584159559 0 -0.047633738945979477 0.17108968717192211 0 -0.052991971448818453 0.17137768000779441 0 -0.053441361682841117 0.16922921584159559 0 -0.054948738746262903 0.1897910154656581 0 -0.052419079168185397 0.17351746689540021 0 -0.046888846475854867 0.17837904804597579 0 -0.062951628171730722 0.19451437844324071 0 -0.054948738746262903 0.1897910154656581 0 -0.052419079168185397 0.17351746689540021 0 -0.062951628171730722 0.19451437844324071 0 -0.052991971448818453 0.17137768000779441 0 -0.052419079168185397 0.17351746689540021 0 -0.064604308801312821 0.18244611143699499 0 -0.062951628171730722 0.19451437844324071 0 -0.053441361682841117 0.16922921584159559 0 -0.062951628171730722 0.19451437844324071 0 -0.052991971448818453 0.17137768000779441 0 -0.053441361682841117 0.16922921584159559 0 -0.054948738746262903 0.1897910154656581 0 -0.052419079168185397 0.17351746689540021 0 -0.062951628171730722 0.19451437844324071 0 -0.053441361682841117 0.16922921584159559 0 -0.064604308801312821 0.18244611143699499 0 -0.053441361682841117 0.16922921584159559 0 -0.062041409668937363 0.1723934095439342 0 -0.052991971448818453 0.17137768000779441 0 -0.047633738945979477 0.17108968717192211 0 -0.052419079168185397 0.17351746689540021 0 -0.047633738945979477 0.17108968717192211 0 -0.052419079168185397 0.17351746689540021 0 -0.046888846475854867 0.17837904804597579 0 -0.054948738746262903 0.1897910154656581 0 -0.046888846475854867 0.17837904804597579 0 -0.039999697082172873 0.18418677263352329 0 -0.031637039445344017 0.19767931081015269 0 -0.039999697082172873 0.18418677263352329 0 -0.024775833668462071 0.17590936267321361 0 -0.046888846475854867 0.17837904804597579 0 -0.039999697082172873 0.18418677263352329 0 -0.039442978436673673 0.17331029806337539 0 -0.047633738945979477 0.17108968717192211 0 -0.046888846475854867 0.17837904804597579 0 -0.039442978436673673 0.17331029806337539 0 -0.039442978436673673 0.17331029806337539 0 -0.032139483942643897 0.16694135859911591 0 -0.024775833668462071 0.17590936267321361 0 -0.039999697082172873 0.18418677263352329 0 -0.039442978436673673 0.17331029806337539 0 -0.024775833668462071 0.17590936267321361 0 -0.045513089216113363 0.1481501368583191 0 -0.053441361682841117 0.16922921584159559 0 -0.039963318838929777 0.1583549670989208 0 -0.039963318838929777 0.1583549670989208 0 -0.032139483942643897 0.16694135859911591 0 -0.02343924065842673 0.15869802647678349 0 -0.047633738945979477 0.17108968717192211 0 -0.039442978436673673 0.17331029806337539 0 -0.039963318838929777 0.1583549670989208 0 -0.039442978436673673 0.17331029806337539 0 -0.039963318838929777 0.1583549670989208 0 -0.032139483942643897 0.16694135859911591 0 -0.032139483942643897 0.16694135859911591 0 -0.02343924065842673 0.15869802647678349 0 -0.024775833668462071 0.17590936267321361 0 -0.02343924065842673 0.15869802647678349 0 -0.024775833668462071 0.17590936267321361 0 -0.0048034666842798916 0.1614245706846468 0 -0.0057956805663459468 0.1892940575843915 0 -0.024775833668462071 0.17590936267321361 0 -0.0048034666842798916 0.1614245706846468 0 -0.0048034666842798916 0.1614245706846468 0 -0.01090464080839405 0.14353955890474629 0 0.011098566836083609 0.13484946890849181 0 -0.02343924065842673 0.15869802647678349 0 -0.0048034666842798916 0.1614245706846468 0 -0.01090464080839405 0.14353955890474629 0 -0.039963318838929777 0.1583549670989208 0 -0.02343924065842673 0.15869802647678349 0 -0.028048700007850699 0.14601834090005769 0 -0.02343924065842673 0.15869802647678349 0 -0.01090464080839405 0.14353955890474629 0 -0.028048700007850699 0.14601834090005769 0 -0.037584816749385713 0.12707105787504261 0 -0.0187932077553963 0.1304023687453105 0 -0.02482114599867602 0.1199028763409456 0 -0.01090464080839405 0.14353955890474629 0 -0.028048700007850699 0.14601834090005769 0 -0.0187932077553963 0.1304023687453105 0 -0.037584816749385713 0.12707105787504261 0 -0.028048700007850699 0.14601834090005769 0 -0.0187932077553963 0.1304023687453105 0 -0.0064436606074630637 0.13109611639504981 0 -0.007175360702145514 0.1155930690216506 0 0.011098566836083609 0.13484946890849181 0 -0.01090464080839405 0.14353955890474629 0 -0.0064436606074630637 0.13109611639504981 0 0.011098566836083609 0.13484946890849181 0 -0.0187932077553963 0.1304023687453105 0 -0.0064436606074630637 0.13109611639504981 0 -0.007175360702145514 0.1155930690216506 0 -0.01090464080839405 0.14353955890474629 0 -0.0187932077553963 0.1304023687453105 0 -0.0064436606074630637 0.13109611639504981 0 -0.007175360702145514 0.1155930690216506 0 -0.0040088977147468936 0.097024336429998151 0 -0.013655752966245171 0.094180689311720855 0 -0.007175360702145514 0.1155930690216506 0 -0.0040088977147468936 0.097024336429998151 0 0.0025937760044158291 0.1064596481343341 0 -0.007175360702145514 0.1155930690216506 0 -0.013655752966245171 0.094180689311720855 0 -0.02544928824037461 0.096336669134809427 0 -0.029459919491476121 0.1011230655410132 0 -0.021580178673492881 0.1105609364200745 0 -0.037915498494119543 0.10215930426450601 0 -0.007175360702145514 0.1155930690216506 0 -0.02544928824037461 0.096336669134809427 0 -0.007175360702145514 0.1155930690216506 0 -0.02544928824037461 0.096336669134809427 0 -0.0241566231860777 0.1021061234229471 0 -0.02544928824037461 0.096336669134809427 0 -0.029459919491476121 0.1011230655410132 0 -0.035034026511796899 0.0954599165668297 0 -0.02544928824037461 0.096336669134809427 0 -0.029459919491476121 0.1011230655410132 0 -0.0241566231860777 0.1021061234229471 0 -0.02544928824037461 0.096336669134809427 0 -0.0241566231860777 0.1021061234229471 0 -0.029459919491476121 0.1011230655410132 0 -0.0241566231860777 0.1021061234229471 0 -0.021580178673492881 0.1105609364200745 0 -0.02482114599867602 0.1199028763409456 0 -0.021580178673492881 0.1105609364200745 0 -0.032585978911933711 0.11378053360982859 0 -0.007175360702145514 0.1155930690216506 0 -0.0241566231860777 0.1021061234229471 0 -0.021580178673492881 0.1105609364200745 0 -0.0187932077553963 0.1304023687453105 0 -0.007175360702145514 0.1155930690216506 0 -0.02482114599867602 0.1199028763409456 0 -0.007175360702145514 0.1155930690216506 0 -0.02482114599867602 0.1199028763409456 0 -0.021580178673492881 0.1105609364200745 0 -0.01109578586274463 0.07592966442077155 0 -0.01963881101933795 0.057650575484614511 0 -0.0089029190745683329 0.062319161291970238 0 -0.0031702267477386531 0.067180855403790804 0 -0.01109578586274463 0.07592966442077155 0 0.0065236609159091173 0.071671444604676282 0 -0.0031702267477386531 0.067180855403790804 0 -0.0089029190745683329 0.062319161291970238 0 0.00079413703044923156 0.058803151297745167 0 -0.0031702267477386531 0.067180855403790804 0 -0.01109578586274463 0.07592966442077155 0 -0.0089029190745683329 0.062319161291970238 0 -0.0040088977147468936 0.097024336429998151 0 -0.01109578586274463 0.07592966442077155 0 0.011643404763696401 0.092949868607662828 0 -0.0040088977147468936 0.097024336429998151 0 -0.013655752966245171 0.094180689311720855 0 -0.01109578586274463 0.07592966442077155 0 -0.013655752966245171 0.094180689311720855 0 -0.01109578586274463 0.07592966442077155 0 -0.02054943231121421 0.086019707551374502 0 -0.02544928824037461 0.096336669134809427 0 -0.02054943231121421 0.086019707551374502 0 -0.029642132364781061 0.077623064684345475 0 -0.02544928824037461 0.096336669134809427 0 -0.029642132364781061 0.077623064684345475 0 -0.036673455980692451 0.084509049595857907 0 -0.01109578586274463 0.07592966442077155 0 -0.02054943231121421 0.086019707551374502 0 -0.029642132364781061 0.077623064684345475 0 -0.02544928824037461 0.096336669134809427 0 -0.029642132364781061 0.077623064684345475 0 -0.013655752966245171 0.094180689311720855 0 -0.02544928824037461 0.096336669134809427 0 -0.02054943231121421 0.086019707551374502 0 -0.02544928824037461 0.096336669134809427 0 -0.036673455980692451 0.084509049595857907 0 -0.01109578586274463 0.07592966442077155 0 -0.033834976489186493 0.058909460233881362 0 -0.01109578586274463 0.07592966442077155 0 -0.029642132364781061 0.077623064684345475 0 -0.033834976489186493 0.058909460233881362 0 -0.01109578586274463 0.07592966442077155 0 -0.033834976489186493 0.058909460233881362 0 -0.01963881101933795 0.057650575484614511 0 -0.029642132364781061 0.077623064684345475 0 -0.033834976489186493 0.058909460233881362 0 -0.029642132364781061 0.077623064684345475 0 -0.036732086871232597 0.066761861307427367 0 -0.033834976489186493 0.058909460233881362 0 -0.042969512877196837 0.063698159366550891 0 -0.036732086871232597 0.066761861307427367 0 -0.038306240480512441 0.072768089837317376 0 -0.042969512877196837 0.063698159366550891 0 -0.038306240480512441 0.072768089837317376 0 -0.046136221960229658 0.070392563092827029 0 -0.042969512877196837 0.063698159366550891 0 -0.036732086871232597 0.066761861307427367 0 -0.038907572144486188 0.060810532415041758 0 -0.029642132364781061 0.077623064684345475 0 -0.036732086871232597 0.066761861307427367 0 -0.038306240480512441 0.072768089837317376 0 -0.038306240480512441 0.072768089837317376 0 -0.046136221960229658 0.070392563092827029 0 -0.043586306971417507 0.077534071189344175 0 -0.038306240480512441 0.072768089837317376 0 -0.043586306971417507 0.077534071189344175 0 -0.036673455980692451 0.084509049595857907 0 -0.043586306971417507 0.077534071189344175 0 -0.036673455980692451 0.084509049595857907 0 -0.046978765451358998 0.084182386091036676 0 -0.029642132364781061 0.077623064684345475 0 -0.038306240480512441 0.072768089837317376 0 -0.036673455980692451 0.084509049595857907 0 -0.02544928824037461 0.096336669134809427 0 -0.036673455980692451 0.084509049595857907 0 -0.035034026511796899 0.0954599165668297 0 -0.036673455980692451 0.084509049595857907 0 -0.044089979176562301 0.093675305350012283 0 -0.035034026511796899 0.0954599165668297 0 -0.036673455980692451 0.084509049595857907 0 -0.044089979176562301 0.093675305350012283 0 -0.046978765451358998 0.084182386091036676 0 -0.044089979176562301 0.093675305350012283 0 -0.057144835734191893 0.088207312209507505 0 -0.046978765451358998 0.084182386091036676 0 -0.057144835734191893 0.088207312209507505 0 -0.046978765451358998 0.084182386091036676 0 -0.053399249393930842 0.076986192110461482 0 -0.043586306971417507 0.077534071189344175 0 -0.046978765451358998 0.084182386091036676 0 -0.053399249393930842 0.076986192110461482 0 -0.053399249393930842 0.076986192110461482 0 -0.070406408885084593 0.061857930521202607 0 -0.059815066152941319 0.061788281472960463 0 -0.057144835734191893 0.088207312209507505 0 -0.053399249393930842 0.076986192110461482 0 -0.070406408885084593 0.061857930521202607 0 -0.046136221960229658 0.070392563092827029 0 -0.043586306971417507 0.077534071189344175 0 -0.053399249393930842 0.076986192110461482 0 -0.046136221960229658 0.070392563092827029 0 -0.053399249393930842 0.076986192110461482 0 -0.05257832837313995 0.068950164376806455 0 -0.053399249393930842 0.076986192110461482 0 -0.05257832837313995 0.068950164376806455 0 -0.059815066152941319 0.061788281472960463 0 -0.05257832837313995 0.068950164376806455 0 -0.052166049838275927 0.062310195238599278 0 -0.059815066152941319 0.061788281472960463 0 -0.046136221960229658 0.070392563092827029 0 -0.05257832837313995 0.068950164376806455 0 -0.052166049838275927 0.062310195238599278 0 -0.042969512877196837 0.063698159366550891 0 -0.046136221960229658 0.070392563092827029 0 -0.052166049838275927 0.062310195238599278 0 -0.021580178673492881 0.1105609364200745 0 -0.043883262583300407 0.11455669389781301 0 -0.021580178673492881 0.1105609364200745 0 -0.043883262583300407 0.11455669389781301 0 -0.032585978911933711 0.11378053360982859 0 -0.037584816749385713 0.12707105787504261 0 -0.051208231868337763 0.1260313133231428 0 -0.043883262583300407 0.11455669389781301 0 -0.037584816749385713 0.12707105787504261 0 -0.043883262583300407 0.11455669389781301 0 -0.037584816749385713 0.12707105787504261 0 -0.032585978911933711 0.11378053360982859 0 -0.037584816749385713 0.12707105787504261 0 -0.043883262583300407 0.11455669389781301 0 -0.032585978911933711 0.11378053360982859 0 -0.037584816749385713 0.12707105787504261 0 -0.02482114599867602 0.1199028763409456 0 -0.032585978911933711 0.11378053360982859 0 -0.021580178673492881 0.1105609364200745 0 -0.043883262583300407 0.11455669389781301 0 -0.037915498494119543 0.10215930426450601 0 -0.044089979176562301 0.093675305350012283 0 -0.043883262583300407 0.11455669389781301 0 -0.037915498494119543 0.10215930426450601 0 -0.044089979176562301 0.093675305350012283 0 -0.037915498494119543 0.10215930426450601 0 -0.035034026511796899 0.0954599165668297 0 -0.029459919491476121 0.1011230655410132 0 -0.037915498494119543 0.10215930426450601 0 -0.035034026511796899 0.0954599165668297 0 -0.044089979176562301 0.093675305350012283 0 -0.057144835734191893 0.088207312209507505 0 -0.043883262583300407 0.11455669389781301 0 -0.057144835734191893 0.088207312209507505 0 -0.043883262583300407 0.11455669389781301 0 -0.057144835734191893 0.088207312209507505 0 -0.043883262583300407 0.11455669389781301 0 -0.056175626513735713 0.104231459755559 0 -0.056175626513735713 0.104231459755559 0 -0.061770267295803899 0.1005995653590098 0 -0.06411880478631618 0.11818203644688791 0 -0.057144835734191893 0.088207312209507505 0 -0.056175626513735713 0.104231459755559 0 -0.061770267295803899 0.1005995653590098 0 -0.043883262583300407 0.11455669389781301 0 -0.06411880478631618 0.11818203644688791 0 -0.051208231868337763 0.1260313133231428 0 -0.043883262583300407 0.11455669389781301 0 -0.06411880478631618 0.11818203644688791 0 -0.043883262583300407 0.11455669389781301 0 -0.056175626513735713 0.104231459755559 0 -0.06411880478631618 0.11818203644688791 0 -0.071786582042575819 0.1280585334591178 0 -0.06411880478631618 0.11818203644688791 0 -0.08034823769671974 0.121089655777625 0 -0.06411880478631618 0.11818203644688791 0 -0.08034823769671974 0.121089655777625 0 -0.075381325115152609 0.106019298300689 0 -0.06411880478631618 0.11818203644688791 0 -0.08034823769671974 0.121089655777625 0 -0.08034823769671974 0.121089655777625 0 -0.096577670607123245 0.1239972751083621 0 -0.08034823769671974 0.121089655777625 0 -0.092569001324263961 0.1124699312803344 0 -0.096577670607123245 0.1239972751083621 0 -0.08034823769671974 0.121089655777625 0 -0.083967771981719092 0.1102844810624737 0 -0.092569001324263961 0.1124699312803344 0 -0.08034823769671974 0.121089655777625 0 -0.083967771981719092 0.1102844810624737 0 -0.075381325115152609 0.106019298300689 0 -0.087572523790740042 0.10155903889124659 0 -0.082071947835387321 0.094412947715560025 0 -0.09233625647768956 0.091651488650119919 0 -0.083967771981719092 0.1102844810624737 0 -0.092569001324263961 0.1124699312803344 0 -0.087572523790740042 0.10155903889124659 0 -0.083967771981719092 0.1102844810624737 0 -0.087572523790740042 0.10155903889124659 0 -0.075381325115152609 0.106019298300689 0 -0.087572523790740042 0.10155903889124659 0 -0.082071947835387321 0.094412947715560025 0 -0.075381325115152609 0.106019298300689 0 -0.06411880478631618 0.11818203644688791 0 -0.06964180214897181 0.091777453024084701 0 -0.082071947835387321 0.094412947715560025 0 -0.075381325115152609 0.106019298300689 0 -0.06964180214897181 0.091777453024084701 0 -0.06411880478631618 0.11818203644688791 0 -0.075381325115152609 0.106019298300689 0 -0.06964180214897181 0.091777453024084701 0 -0.061770267295803899 0.1005995653590098 0 -0.06411880478631618 0.11818203644688791 0 -0.06964180214897181 0.091777453024084701 0 -0.057144835734191893 0.088207312209507505 0 -0.061770267295803899 0.1005995653590098 0 -0.06964180214897181 0.091777453024084701 0 -0.06964180214897181 0.091777453024084701 0 -0.075164799511626648 0.065372869601281192 0 -0.057144835734191893 0.088207312209507505 0 -0.06964180214897181 0.091777453024084701 0 -0.068089461569968729 0.076803891339018993 0 -0.06964180214897181 0.091777453024084701 0 -0.068089461569968729 0.076803891339018993 0 -0.075164799511626648 0.065372869601281192 0 -0.057144835734191893 0.088207312209507505 0 -0.068089461569968729 0.076803891339018993 0 -0.070406408885084593 0.061857930521202607 0 -0.06964180214897181 0.091777453024084701 0 -0.075164799511626648 0.065372869601281192 0 -0.08073347634316104 0.073575546631144614 0 -0.057144835734191893 0.088207312209507505 0 -0.070406408885084593 0.061857930521202607 0 -0.068089461569968729 0.076803891339018993 0 -0.075164799511626648 0.065372869601281192 0 -0.070406408885084593 0.061857930521202607 0 -0.089923560922876636 0.068178037636278263 0 -0.08578586832533959 0.082170087930996366 0 -0.103675070998617 0.083967309240415983 0 -0.08073347634316104 0.073575546631144614 0 -0.089923560922876636 0.068178037636278263 0 -0.083186879645449088 0.059889597987781727 0 -0.075164799511626648 0.065372869601281192 0 -0.08073347634316104 0.073575546631144614 0 -0.083186879645449088 0.059889597987781727 0 -0.08073347634316104 0.073575546631144614 0 -0.089923560922876636 0.068178037636278263 0 -0.08578586832533959 0.082170087930996366 0 -0.06964180214897181 0.091777453024084701 0 -0.08073347634316104 0.073575546631144614 0 -0.08578586832533959 0.082170087930996366 0 -0.082071947835387321 0.094412947715560025 0 -0.06964180214897181 0.091777453024084701 0 -0.08578586832533959 0.082170087930996366 0 -0.082071947835387321 0.094412947715560025 0 -0.08578586832533959 0.082170087930996366 0 -0.09233625647768956 0.091651488650119919 0 -0.09233625647768956 0.091651488650119919 0 -0.103675070998617 0.083967309240415983 0 -0.10429444750695741 0.1014886749251958 0 -0.08578586832533959 0.082170087930996366 0 -0.09233625647768956 0.091651488650119919 0 -0.103675070998617 0.083967309240415983 0 -0.103675070998617 0.083967309240415983 0 -0.1198812247159142 0.095002477965890675 0 -0.10429444750695741 0.1014886749251958 0 -0.089923560922876636 0.068178037636278263 0 -0.103675070998617 0.083967309240415983 0 -0.10785209906359081 0.065371441260914459 0 -0.12533951967512769 0.078274991835817334 0 -0.103675070998617 0.083967309240415983 0 -0.10785209906359081 0.065371441260914459 0 -0.12533951967512769 0.078274991835817334 0 -0.10785209906359081 0.065371441260914459 0 -0.1248745965026067 0.059896082918310993 0 -0.12533951967512769 0.078274991835817334 0 -0.103675070998617 0.083967309240415983 0 -0.1198812247159142 0.095002477965890675 0 -0.13137241316615089 0.11357835761918721 0 -0.1198812247159142 0.095002477965890675 0 -0.10429444750695741 0.1014886749251958 0 -0.13137241316615089 0.11357835761918721 0 -0.12687331202938101 0.13192737382428379 0 -0.10667563132183119 0.1260080396076822 0 -0.13137241316615089 0.11357835761918721 0 -0.10667563132183119 0.1260080396076822 0 -0.1062978327852654 0.11550845570815239 0 -0.13137241316615089 0.11357835761918721 0 -0.1062978327852654 0.11550845570815239 0 -0.10429444750695741 0.1014886749251958 0 -0.13137241316615089 0.11357835761918721 0 -0.10667563132183119 0.1260080396076822 0 -0.10667563132183119 0.1260080396076822 0 -0.1062978327852654 0.11550845570815239 0 -0.096577670607123245 0.1239972751083621 0 -0.092569001324263961 0.1124699312803344 0 -0.1062978327852654 0.11550845570815239 0 -0.096577670607123245 0.1239972751083621 0 -0.092569001324263961 0.1124699312803344 0 -0.1062978327852654 0.11550845570815239 0 -0.10429444750695741 0.1014886749251958 0 -0.092569001324263961 0.1124699312803344 0 -0.087572523790740042 0.10155903889124659 0 -0.10429444750695741 0.1014886749251958 0 -0.087572523790740042 0.10155903889124659 0 -0.09233625647768956 0.091651488650119919 0 -0.10429444750695741 0.1014886749251958 0 -0.10370969952600501 0.019997694726909911 0 -0.098524362227562057 0.035744340183224317 0 -0.08645931971955316 0.02325136753113614 0 -0.10370969952600501 0.019997694726909911 0 -0.08645931971955316 0.02325136753113614 0 -0.091682611010439896 0.0063963380850077774 0 -0.10370969952600501 0.019997694726909911 0 -0.1180188049733784 0.030804183747700629 0 -0.098524362227562057 0.035744340183224317 0 -0.10370969952600501 0.019997694726909911 0 -0.10877227824827949 0.0075748546359299482 0 -0.091682611010439896 0.0063963380850077774 0 -0.1029392013539359 -0.0085751277431150782 0 -0.10877227824827949 0.0075748546359299482 0 -0.091682611010439896 0.0063963380850077774 0 -0.10370969952600501 0.019997694726909911 0 -0.10877227824827949 0.0075748546359299482 0 -0.11835839359799651 0.016938700943610479 0 -0.1029392013539359 -0.0085751277431150782 0 -0.12735709500343681 0.004015926865657337 0 -0.10877227824827949 0.0075748546359299482 0 -0.12735709500343681 0.004015926865657337 0 -0.10877227824827949 0.0075748546359299482 0 -0.11835839359799651 0.016938700943610479 0 -0.1339340902388827 0.022300844741854581 0 -0.11835839359799651 0.016938700943610479 0 -0.1180188049733784 0.030804183747700629 0 -0.10370969952600501 0.019997694726909911 0 -0.11835839359799651 0.016938700943610479 0 -0.1180188049733784 0.030804183747700629 0 -0.1180188049733784 0.030804183747700629 0 -0.1128457876968547 0.048091259023394652 0 -0.098524362227562057 0.035744340183224317 0 -0.13626681081840961 0.042829268155062397 0 -0.1128457876968547 0.048091259023394652 0 -0.13626681081840961 0.042829268155062397 0 -0.1180188049733784 0.030804183747700629 0 -0.1128457876968547 0.048091259023394652 0 -0.13626681081840961 0.042829268155062397 0 -0.1128457876968547 0.048091259023394652 0 -0.1248745965026067 0.059896082918310993 0 -0.10785209906359081 0.065371441260914459 0 -0.1128457876968547 0.048091259023394652 0 -0.1248745965026067 0.059896082918310993 0 -0.1128457876968547 0.048091259023394652 0 -0.089424764575299687 0.053353249891726941 0 -0.089923560922876636 0.068178037636278263 0 -0.10785209906359081 0.065371441260914459 0 -0.089424764575299687 0.053353249891726941 0 -0.10785209906359081 0.065371441260914459 0 -0.1128457876968547 0.048091259023394652 0 -0.089424764575299687 0.053353249891726941 0 -0.1128457876968547 0.048091259023394652 0 -0.098524362227562057 0.035744340183224317 0 -0.089424764575299687 0.053353249891726941 0 -0.098524362227562057 0.035744340183224317 0 -0.080687796874281473 0.038968286178477703 0 -0.08645931971955316 0.02325136753113614 0 -0.098524362227562057 0.035744340183224317 0 -0.080687796874281473 0.038968286178477703 0 -0.089424764575299687 0.053353249891726941 0 -0.080687796874281473 0.038968286178477703 0 -0.089424764575299687 0.053353249891726941 0 -0.083186879645449088 0.059889597987781727 0 -0.075164799511626648 0.065372869601281192 0 -0.080687796874281473 0.038968286178477703 0 -0.083186879645449088 0.059889597987781727 0 -0.089923560922876636 0.068178037636278263 0 -0.089424764575299687 0.053353249891726941 0 -0.083186879645449088 0.059889597987781727 0 -0.075164799511626648 0.065372869601281192 0 -0.080687796874281473 0.038968286178477703 0 -0.071303082845968715 0.053347503409362687 0 -0.075164799511626648 0.065372869601281192 0 -0.080687796874281473 0.038968286178477703 0 -0.075164799511626648 0.065372869601281192 0 -0.070406408885084593 0.061857930521202607 0 -0.071303082845968715 0.053347503409362687 0 -0.071303082845968715 0.053347503409362687 0 -0.064856269609628314 0.055117702274744398 0 -0.065400139349222536 0.045420728471107522 0 -0.070406408885084593 0.061857930521202607 0 -0.071303082845968715 0.053347503409362687 0 -0.064856269609628314 0.055117702274744398 0 -0.070406408885084593 0.061857930521202607 0 -0.064856269609628314 0.055117702274744398 0 -0.059815066152941319 0.061788281472960463 0 -0.080687796874281473 0.038968286178477703 0 -0.065400139349222536 0.045420728471107522 0 -0.063264057366842208 0.031259222641012697 0 -0.080687796874281473 0.038968286178477703 0 -0.063264057366842208 0.031259222641012697 0 -0.073460039823911166 0.024685388153665749 0 -0.080687796874281473 0.038968286178477703 0 -0.071303082845968715 0.053347503409362687 0 -0.065400139349222536 0.045420728471107522 0 -0.063264057366842208 0.031259222641012697 0 -0.073460039823911166 0.024685388153665749 0 -0.061440697951084179 0.017621877449499421 0 -0.073460039823911166 0.024685388153665749 0 -0.076769634387976737 0.01135693610240161 0 -0.061440697951084179 0.017621877449499421 0 -0.080687796874281473 0.038968286178477703 0 -0.073460039823911166 0.024685388153665749 0 -0.08645931971955316 0.02325136753113614 0 -0.073460039823911166 0.024685388153665749 0 -0.08645931971955316 0.02325136753113614 0 -0.076769634387976737 0.01135693610240161 0 -0.08645931971955316 0.02325136753113614 0 -0.091682611010439896 0.0063963380850077774 0 -0.076769634387976737 0.01135693610240161 0 -0.091682611010439896 0.0063963380850077774 0 -0.078933949510919491 0.00072378658541613432 0 -0.076769634387976737 0.01135693610240161 0 -0.086097875964997059 -0.0058870606910941042 0 -0.091682611010439896 0.0063963380850077774 0 -0.078933949510919491 0.00072378658541613432 0 -0.078933949510919491 0.00072378658541613432 0 -0.076769634387976737 0.01135693610240161 0 -0.068462160169621672 0.0025537029525893409 0 -0.068462160169621672 0.0025537029525893409 0 -0.057836245250817257 0.0062936453779614283 0 -0.061440697951084179 0.017621877449499421 0 -0.076769634387976737 0.01135693610240161 0 -0.068462160169621672 0.0025537029525893409 0 -0.061440697951084179 0.017621877449499421 0 -0.057836245250817257 0.0062936453779614283 0 -0.061440697951084179 0.017621877449499421 0 -0.042678209040760022 0.019440128409622049 0 -0.057836245250817257 0.0062936453779614283 0 -0.042678209040760022 0.019440128409622049 0 -0.044352522143416888 0.0050416822031405977 0 -0.063264057366842208 0.031259222641012697 0 -0.042678209040760022 0.019440128409622049 0 -0.05195897498334151 0.039592758420259042 0 -0.063264057366842208 0.031259222641012697 0 -0.061440697951084179 0.017621877449499421 0 -0.042678209040760022 0.019440128409622049 0 -0.042678209040760022 0.019440128409622049 0 -0.038256592764973757 0.039174794321751791 0 -0.042678209040760022 0.019440128409622049 0 -0.038256592764973757 0.039174794321751791 0 -0.027511467414372541 0.03001296694831072 0 -0.042678209040760022 0.019440128409622049 0 -0.028180513839983729 0.018098474401369 0 -0.027511467414372541 0.03001296694831072 0 -0.042678209040760022 0.019440128409622049 0 -0.032770024037711037 0.0084985419153508525 0 -0.028180513839983729 0.018098474401369 0 -0.032770024037711037 0.0084985419153508525 0 -0.03614709390981162 0.0015378833132510439 0 -0.044352522143416888 0.0050416822031405977 0 -0.029539197120254941 -0.00051038393964639519 0 -0.032770024037711037 0.0084985419153508525 0 -0.03614709390981162 0.0015378833132510439 0 -0.042678209040760022 0.019440128409622049 0 -0.032770024037711037 0.0084985419153508525 0 -0.044352522143416888 0.0050416822031405977 0 -0.042969512877196837 0.063698159366550891 0 -0.047980875447113908 0.056604040506729722 0 -0.052166049838275927 0.062310195238599278 0 -0.047980875447113908 0.056604040506729722 0 -0.052166049838275927 0.062310195238599278 0 -0.055804220694704088 0.051985500715961808 0 -0.064856269609628314 0.055117702274744398 0 -0.059815066152941319 0.061788281472960463 0 -0.055804220694704088 0.051985500715961808 0 -0.052166049838275927 0.062310195238599278 0 -0.059815066152941319 0.061788281472960463 0 -0.055804220694704088 0.051985500715961808 0 -0.064856269609628314 0.055117702274744398 0 -0.065400139349222536 0.045420728471107522 0 -0.055804220694704088 0.051985500715961808 0 -0.047980875447113908 0.056604040506729722 0 -0.055804220694704088 0.051985500715961808 0 -0.046350630683546529 0.050276175962098407 0 -0.055804220694704088 0.051985500715961808 0 -0.05195897498334151 0.039592758420259042 0 -0.046350630683546529 0.050276175962098407 0 -0.065400139349222536 0.045420728471107522 0 -0.055804220694704088 0.051985500715961808 0 -0.05195897498334151 0.039592758420259042 0 -0.065400139349222536 0.045420728471107522 0 -0.063264057366842208 0.031259222641012697 0 -0.05195897498334151 0.039592758420259042 0 -0.042678209040760022 0.019440128409622049 0 -0.05195897498334151 0.039592758420259042 0 -0.038256592764973757 0.039174794321751791 0 -0.05195897498334151 0.039592758420259042 0 -0.038256592764973757 0.039174794321751791 0 -0.046350630683546529 0.050276175962098407 0 -0.038256592764973757 0.039174794321751791 0 -0.033834976489186493 0.058909460233881362 0 -0.038256592764973757 0.039174794321751791 0 -0.038513274033404883 0.055407770980391423 0 -0.033834976489186493 0.058909460233881362 0 -0.038256592764973757 0.039174794321751791 0 -0.046350630683546529 0.050276175962098407 0 -0.038513274033404883 0.055407770980391423 0 -0.038256592764973757 0.039174794321751791 0 -0.033834976489186493 0.058909460233881362 0 -0.02879531395286377 0.050132256585483953 0 -0.046350630683546529 0.050276175962098407 0 -0.038513274033404883 0.055407770980391423 0 -0.042914570065583427 0.057802329486214707 0 -0.036732086871232597 0.066761861307427367 0 -0.033834976489186493 0.058909460233881362 0 -0.038907572144486188 0.060810532415041758 0 -0.038513274033404883 0.055407770980391423 0 -0.033834976489186493 0.058909460233881362 0 -0.038513274033404883 0.055407770980391423 0 -0.033834976489186493 0.058909460233881362 0 -0.038907572144486188 0.060810532415041758 0 -0.042969512877196837 0.063698159366550891 0 -0.038907572144486188 0.060810532415041758 0 -0.042914570065583427 0.057802329486214707 0 -0.038513274033404883 0.055407770980391423 0 -0.038907572144486188 0.060810532415041758 0 -0.042914570065583427 0.057802329486214707 0 -0.047980875447113908 0.056604040506729722 0 -0.046350630683546529 0.050276175962098407 0 -0.042914570065583427 0.057802329486214707 0 -0.042969512877196837 0.063698159366550891 0 -0.047980875447113908 0.056604040506729722 0 -0.042914570065583427 0.057802329486214707 0 -0.033834976489186493 0.058909460233881362 0 -0.01963881101933795 0.057650575484614511 0 -0.02879531395286377 0.050132256585483953 0 -0.01963881101933795 0.057650575484614511 0 -0.02879531395286377 0.050132256585483953 0 -0.02345087553795689 0.044794196301688183 0 -0.01963881101933795 0.057650575484614511 0 -0.02345087553795689 0.044794196301688183 0 -0.012175026131353321 0.050402421608982242 0 -0.02345087553795689 0.044794196301688183 0 -0.014695186475719159 0.0359408453649432 0 -0.012175026131353321 0.050402421608982242 0 -0.038256592764973757 0.039174794321751791 0 -0.02879531395286377 0.050132256585483953 0 -0.02345087553795689 0.044794196301688183 0 -0.038256592764973757 0.039174794321751791 0 -0.02345087553795689 0.044794196301688183 0 -0.027511467414372541 0.03001296694831072 0 -0.02345087553795689 0.044794196301688183 0 -0.014695186475719159 0.0359408453649432 0 -0.027511467414372541 0.03001296694831072 0 -0.014695186475719159 0.0359408453649432 0 -0.0023331541944977092 0.045311556235899067 0 0.00074240361007229996 0.028778475488121531 0 -0.014695186475719159 0.0359408453649432 0 -0.0023331541944977092 0.045311556235899067 0 -0.012175026131353321 0.050402421608982242 0 -0.0023331541944977092 0.045311556235899067 0 -0.012175026131353321 0.050402421608982242 0 0.00079413703044923156 0.058803151297745167 0 -0.012175026131353321 0.050402421608982242 0 -0.0089029190745683329 0.062319161291970238 0 0.00079413703044923156 0.058803151297745167 0 -0.01963881101933795 0.057650575484614511 0 -0.012175026131353321 0.050402421608982242 0 -0.0089029190745683329 0.062319161291970238 0 -0.021996997598287969 0.010981086364913869 0 -0.02112675760807068 0.0030512678310729521 0 -0.0083058662928979787 0.012079608812324741 0 -0.021996997598287969 0.010981086364913869 0 -0.01661374249992489 0.02103319015209278 0 -0.0083058662928979787 0.012079608812324741 0 -0.021996997598287969 0.010981086364913869 0 -0.02112675760807068 0.0030512678310729521 0 -0.02631380729169577 0.0053104208567875946 0 -0.029539197120254941 -0.00051038393964639519 0 -0.02112675760807068 0.0030512678310729521 0 -0.02631380729169577 0.0053104208567875946 0 -0.029539197120254941 -0.00051038393964639519 0 -0.032770024037711037 0.0084985419153508525 0 -0.02631380729169577 0.0053104208567875946 0 -0.032770024037711037 0.0084985419153508525 0 -0.021996997598287969 0.010981086364913869 0 -0.02631380729169577 0.0053104208567875946 0 -0.032770024037711037 0.0084985419153508525 0 -0.021996997598287969 0.010981086364913869 0 -0.028180513839983729 0.018098474401369 0 -0.028180513839983729 0.018098474401369 0 -0.027511467414372541 0.03001296694831072 0 -0.01661374249992489 0.02103319015209278 0 -0.014695186475719159 0.0359408453649432 0 -0.027511467414372541 0.03001296694831072 0 -0.01661374249992489 0.02103319015209278 0 -0.021996997598287969 0.010981086364913869 0 -0.028180513839983729 0.018098474401369 0 -0.01661374249992489 0.02103319015209278 0 -0.01661374249992489 0.02103319015209278 0 0.00074240361007229996 0.028778475488121531 0 -0.0083058662928979787 0.012079608812324741 0 0.0060294939382754481 0.01286563290641534 0 0.00074240361007229996 0.028778475488121531 0 -0.014695186475719159 0.0359408453649432 0 -0.01661374249992489 0.02103319015209278 0 0.00074240361007229996 0.028778475488121531 0 -0.0083058662928979787 0.012079608812324741 0 0.00074240361007229996 0.028778475488121531 0 -0.01661374249992489 0.02103319015209278 0 -0.0083058662928979787 0.012079608812324741 0 0.00074240361007229996 0.028778475488121531 0 -0.0072764121498596901 -0.0036325873431357339 0 -0.0083058662928979787 0.012079608812324741 0 0.0012074066645448821 -0.00065723147797176382 0 -0.0072764121498596901 -0.0036325873431357339 0 -0.013607688627124061 -0.00178224205395049 0 -0.0083058662928979787 0.012079608812324741 0 -0.017354136195868258 -0.0046192578634720229 0 -0.0083058662928979787 0.012079608812324741 0 -0.017354136195868258 -0.0046192578634720229 0 -0.013607688627124061 -0.00178224205395049 0 -0.0083058662928979787 0.012079608812324741 0 -0.0083058662928979787 0.012079608812324741 0 0.0060294939382754481 0.01286563290641534 0 0.0012074066645448821 -0.00065723147797176382 0 -0.017354136195868258 -0.0046192578634720229 0 -0.02112675760807068 0.0030512678310729521 0 -0.0083058662928979787 0.012079608812324741 0 0.0060294939382754481 0.01286563290641534 0 0.0012074066645448821 -0.00065723147797176382 0 0.01265631079038235 -0.01012693536007268 0 0.0060294939382754481 0.01286563290641534 0 0.020311547060899309 0.014329649790385431 0 0.01265631079038235 -0.01012693536007268 0 0.00074240361007229996 0.028778475488121531 0 0.015746539320639769 0.024046632949657649 0 0.022626785018342459 0.038544513255683338 0 0.0060294939382754481 0.01286563290641534 0 0.00074240361007229996 0.028778475488121531 0 0.015746539320639769 0.024046632949657649 0 0.0060294939382754481 0.01286563290641534 0 0.015746539320639769 0.024046632949657649 0 0.020311547060899309 0.014329649790385431 0 0.015746539320639769 0.024046632949657649 0 0.029022466975609298 0.02571489330768258 0 0.020311547060899309 0.014329649790385431 0 0.015746539320639769 0.024046632949657649 0 0.029022466975609298 0.02571489330768258 0 0.022626785018342459 0.038544513255683338 0 0.020311547060899309 0.014329649790385431 0 0.034885408484197772 0.0062912350017927032 0 0.01265631079038235 -0.01012693536007268 0 0.029022466975609298 0.02571489330768258 0 0.020311547060899309 0.014329649790385431 0 0.034885408484197772 0.0062912350017927032 0 0.00079413703044923156 0.058803151297745167 0 0.01366790099406239 0.052632887419703241 0 0.0065236609159091173 0.071671444604676282 0 -0.0023331541944977092 0.045311556235899067 0 0.00079413703044923156 0.058803151297745167 0 0.01366790099406239 0.052632887419703241 0 0.00074240361007229996 0.028778475488121531 0 0.01366790099406239 0.052632887419703241 0 0.022626785018342459 0.038544513255683338 0 0.00074240361007229996 0.028778475488121531 0 0.022626785018342459 0.038544513255683338 0 -0.0023331541944977092 0.045311556235899067 0 0.00074240361007229996 0.028778475488121531 0 0.01366790099406239 0.052632887419703241 0 0.00074240361007229996 0.028778475488121531 0 0.01366790099406239 0.052632887419703241 0 0.029022466975609298 0.02571489330768258 0 0.022626785018342459 0.038544513255683338 0 0.037630953216902623 0.033668105561091018 0 0.01366790099406239 0.052632887419703241 0 0.022626785018342459 0.038544513255683338 0 0.025434983742737761 0.055249644843112657 0 0.022626785018342459 0.038544513255683338 0 0.025434983742737761 0.055249644843112657 0 0.034616451435572633 0.051242168749322393 0 0.025434983742737761 0.055249644843112657 0 0.034062632092931817 0.061255223706808547 0 0.02703491536905472 0.067401080742933134 0 0.01366790099406239 0.052632887419703241 0 0.025434983742737761 0.055249644843112657 0 0.02703491536905472 0.067401080742933134 0 0.034616451435572633 0.051242168749322393 0 0.044511166426612833 0.04831055102324476 0 0.060132464308973767 0.062986029428160187 0 0.034616451435572633 0.051242168749322393 0 0.060132464308973767 0.062986029428160187 0 0.044258496001147778 0.063884183083345675 0 0.034062632092931817 0.061255223706808547 0 0.034616451435572633 0.051242168749322393 0 0.044258496001147778 0.063884183083345675 0 0.025434983742737761 0.055249644843112657 0 0.034062632092931817 0.061255223706808547 0 0.034616451435572633 0.051242168749322393 0 0.022626785018342459 0.038544513255683338 0 0.044511166426612833 0.04831055102324476 0 0.022626785018342459 0.038544513255683338 0 0.034616451435572633 0.051242168749322393 0 0.044511166426612833 0.04831055102324476 0 0.022626785018342459 0.038544513255683338 0 0.044511166426612833 0.04831055102324476 0 0.037630953216902623 0.033668105561091018 0 0.044511166426612833 0.04831055102324476 0 0.037630953216902623 0.033668105561091018 0 0.0484135161167236 0.034205204957136963 0 0.0484135161167236 0.034205204957136963 0 0.060669767880595721 0.038134724015348051 0 0.0518117103670514 0.042737821036878322 0 0.0484135161167236 0.034205204957136963 0 0.060669767880595721 0.038134724015348051 0 0.057623658326613529 0.02352368721002385 0 0.060669767880595721 0.038134724015348051 0 0.0518117103670514 0.042737821036878322 0 0.059559274975242667 0.047504887075434543 0 0.044511166426612833 0.04831055102324476 0 0.0518117103670514 0.042737821036878322 0 0.059559274975242667 0.047504887075434543 0 0.044511166426612833 0.04831055102324476 0 0.0484135161167236 0.034205204957136963 0 0.0518117103670514 0.042737821036878322 0 0.044511166426612833 0.04831055102324476 0 0.066395547834883203 0.05807658879080619 0 0.060132464308973767 0.062986029428160187 0 0.034616451435572633 0.051242168749322393 0 0.060132464308973767 0.062986029428160187 0 0.044511166426612833 0.04831055102324476 0 0.066395547834883203 0.05807658879080619 0 0.044511166426612833 0.04831055102324476 0 0.059559274975242667 0.047504887075434543 0 0.066395547834883203 0.05807658879080619 0 0.034885408484197772 0.0062912350017927032 0 0.052968053050369737 0.0090809173488315582 0 0.042517259973231587 -0.011683923625132649 0 0.034885408484197772 0.0062912350017927032 0 0.043580831547224863 0.021565365261707499 0 0.052968053050369737 0.0090809173488315582 0 0.029022466975609298 0.02571489330768258 0 0.034885408484197772 0.0062912350017927032 0 0.043580831547224863 0.021565365261707499 0 0.029022466975609298 0.02571489330768258 0 0.037630953216902623 0.033668105561091018 0 0.043580831547224863 0.021565365261707499 0 0.037630953216902623 0.033668105561091018 0 0.0484135161167236 0.034205204957136963 0 0.043580831547224863 0.021565365261707499 0 0.057623658326613529 0.02352368721002385 0 0.052968053050369737 0.0090809173488315582 0 0.071708216805815503 0.016768608491387289 0 0.043580831547224863 0.021565365261707499 0 0.057623658326613529 0.02352368721002385 0 0.052968053050369737 0.0090809173488315582 0 0.0484135161167236 0.034205204957136963 0 0.043580831547224863 0.021565365261707499 0 0.057623658326613529 0.02352368721002385 0 0.052968053050369737 0.0090809173488315582 0 0.071708216805815503 0.016768608491387289 0 0.067492943165135169 -0.0019794682467893379 0 0.083930998993742512 0.0059737405228527038 0 0.071708216805815503 0.016768608491387289 0 0.067492943165135169 -0.0019794682467893379 0 0.083930998993742512 0.0059737405228527038 0 0.098495163759696414 0.0029673617968291321 0 0.094917995650245529 0.021722354499223519 0 0.083930998993742512 0.0059737405228527038 0 0.071708216805815503 0.016768608491387289 0 0.094917995650245529 0.021722354499223519 0 0.071708216805815503 0.016768608491387289 0 0.07449934060461412 0.03258063005354956 0 0.094917995650245529 0.021722354499223519 0 0.07449934060461412 0.03258063005354956 0 0.087237150257314613 0.037926204838731957 0 0.094917995650245529 0.021722354499223519 0 0.057623658326613529 0.02352368721002385 0 0.071708216805815503 0.016768608491387289 0 0.07449934060461412 0.03258063005354956 0 0.060669767880595721 0.038134724015348051 0 0.057623658326613529 0.02352368721002385 0 0.07449934060461412 0.03258063005354956 0 0.060669767880595721 0.038134724015348051 0 0.069155187538762042 0.045022305850501279 0 0.07449934060461412 0.03258063005354956 0 0.060669767880595721 0.038134724015348051 0 0.059559274975242667 0.047504887075434543 0 0.069155187538762042 0.045022305850501279 0 0.069155187538762042 0.045022305850501279 0 0.07449934060461412 0.03258063005354956 0 0.079692196512252927 0.044953406994506007 0 0.059559274975242667 0.047504887075434543 0 0.069155187538762042 0.045022305850501279 0 0.067326156772233525 0.050603546620565112 0 0.059559274975242667 0.047504887075434543 0 0.066395547834883203 0.05807658879080619 0 0.067326156772233525 0.050603546620565112 0 0.066395547834883203 0.05807658879080619 0 0.067326156772233525 0.050603546620565112 0 0.074194616740046182 0.051810404765518438 0 0.069155187538762042 0.045022305850501279 0 0.067326156772233525 0.050603546620565112 0 0.074194616740046182 0.051810404765518438 0 0.069155187538762042 0.045022305850501279 0 0.074194616740046182 0.051810404765518438 0 0.079692196512252927 0.044953406994506007 0 0.066395547834883203 0.05807658879080619 0 0.074194616740046182 0.051810404765518438 0 0.080343143758095259 0.058335218209008277 0 0.066395547834883203 0.05807658879080619 0 0.080343143758095259 0.058335218209008277 0 0.08827992924315356 0.067842626558367619 0 0.080343143758095259 0.058335218209008277 0 0.083306510346727383 0.05351440315152866 0 0.090416084875221875 0.058235299142909973 0 0.074194616740046182 0.051810404765518438 0 0.083306510346727383 0.05351440315152866 0 0.079692196512252927 0.044953406994506007 0 0.083306510346727383 0.05351440315152866 0 0.089760373586053266 0.048866493307206167 0 0.079692196512252927 0.044953406994506007 0 0.074194616740046182 0.051810404765518438 0 0.080343143758095259 0.058335218209008277 0 0.083306510346727383 0.05351440315152866 0 0.083306510346727383 0.05351440315152866 0 0.089760373586053266 0.048866493307206167 0 0.090416084875221875 0.058235299142909973 0 0.089760373586053266 0.048866493307206167 0 0.090416084875221875 0.058235299142909973 0 0.099395501669828634 0.055681054702382278 0 0.080343143758095259 0.058335218209008277 0 0.090416084875221875 0.058235299142909973 0 0.08827992924315356 0.067842626558367619 0 0.087237150257314613 0.037926204838731957 0 0.098930039005792711 0.04227996871225087 0 0.094917995650245529 0.021722354499223519 0 0.07449934060461412 0.03258063005354956 0 0.079692196512252927 0.044953406994506007 0 0.087237150257314613 0.037926204838731957 0 0.089760373586053266 0.048866493307206167 0 0.079692196512252927 0.044953406994506007 0 0.087237150257314613 0.037926204838731957 0 0.089760373586053266 0.048866493307206167 0 0.087237150257314613 0.037926204838731957 0 0.098930039005792711 0.04227996871225087 0 0.10894092886672049 0.033503019923715648 0 0.098930039005792711 0.04227996871225087 0 0.11550376979223601 0.054551475820320147 0 0.10894092886672049 0.033503019923715648 0 0.098930039005792711 0.04227996871225087 0 0.094917995650245529 0.021722354499223519 0 0.098930039005792711 0.04227996871225087 0 0.099395501669828634 0.055681054702382278 0 0.11550376979223601 0.054551475820320147 0 0.099395501669828634 0.055681054702382278 0 0.11550376979223601 0.054551475820320147 0 0.10561354398445311 0.069921878226714862 0 0.090416084875221875 0.058235299142909973 0 0.099395501669828634 0.055681054702382278 0 0.095618088847860577 0.065038419849084594 0 0.089760373586053266 0.048866493307206167 0 0.098930039005792711 0.04227996871225087 0 0.099395501669828634 0.055681054702382278 0 0.10894092886672049 0.033503019923715648 0 0.11961069471150609 0.02296590295220987 0 0.12977361784467401 0.039215218793308727 0 0.10894092886672049 0.033503019923715648 0 0.11550376979223601 0.054551475820320147 0 0.12977361784467401 0.039215218793308727 0 0.11961069471150609 0.02296590295220987 0 0.1158546052028349 0.0064685721448778594 0 0.094917995650245529 0.021722354499223519 0 0.11961069471150609 0.02296590295220987 0 0.1158546052028349 0.0064685721448778594 0 0.13894824890776639 0.02136224913872127 0 0.1158546052028349 0.0064685721448778594 0 0.098495163759696414 0.0029673617968291321 0 0.094917995650245529 0.021722354499223519 0 0.10894092886672049 0.033503019923715648 0 0.11961069471150609 0.02296590295220987 0 0.094917995650245529 0.021722354499223519 0 0.097728221435088053 0.099184528615223033 0 0.110275064223293 0.10236359857942121 0 0.11116449005577619 0.086473750785835857 0 0.099894961061174667 0.1104201015940532 0 0.11150799601301251 0.1117412241471519 0 0.110275064223293 0.10236359857942121 0 0.097728221435088053 0.099184528615223033 0 0.099894961061174667 0.1104201015940532 0 0.110275064223293 0.10236359857942121 0 0.097728221435088053 0.099184528615223033 0 0.099894961061174667 0.1104201015940532 0 0.084925795867796111 0.1103515185161017 0 0.099894961061174667 0.1104201015940532 0 0.096984900528893664 0.1212489081817222 0 0.084925795867796111 0.1103515185161017 0 0.099894961061174667 0.1104201015940532 0 0.096984900528893664 0.1212489081817222 0 0.10712684862241641 0.1210429748963526 0 0.096984900528893664 0.1212489081817222 0 0.10712684862241641 0.1210429748963526 0 0.10589272808503949 0.13156516273042271 0 0.099894961061174667 0.1104201015940532 0 0.10712684862241641 0.1210429748963526 0 0.11150799601301251 0.1117412241471519 0 0.10712684862241641 0.1210429748963526 0 0.11150799601301251 0.1117412241471519 0 0.1187293914863337 0.1182846474287873 0 0.11150799601301251 0.1117412241471519 0 0.1187293914863337 0.1182846474287873 0 0.1197878353292403 0.1092484053650479 0 0.10712684862241641 0.1210429748963526 0 0.1187293914863337 0.1182846474287873 0 0.114987521205969 0.1268010028982309 0 0.1187293914863337 0.1182846474287873 0 0.12813823657366311 0.12049833089676459 0 0.12624189261331301 0.1140678077034443 0 0.1187293914863337 0.1182846474287873 0 0.12212988809696081 0.1249307776834532 0 0.12813823657366311 0.12049833089676459 0 0.1187293914863337 0.1182846474287873 0 0.12212988809696081 0.1249307776834532 0 0.114987521205969 0.1268010028982309 0 0.1187293914863337 0.1182846474287873 0 0.1197878353292403 0.1092484053650479 0 0.12624189261331301 0.1140678077034443 0 0.1216961693062274 0.1020981758197984 0 0.110275064223293 0.10236359857942121 0 0.11116449005577619 0.086473750785835857 0 0.1197878353292403 0.1092484053650479 0 0.1216961693062274 0.1020981758197984 0 0.1302764983332621 0.10693497851168419 0 0.1216961693062274 0.1020981758197984 0 0.11116449005577619 0.086473750785835857 0 0.13668050292917741 0.098217611464673699 0 0.1197878353292403 0.1092484053650479 0 0.1216961693062274 0.1020981758197984 0 0.110275064223293 0.10236359857942121 0 0.11150799601301251 0.1117412241471519 0 0.1197878353292403 0.1092484053650479 0 0.110275064223293 0.10236359857942121 0 0.11116449005577619 0.086473750785835857 0 0.1207366242219714 0.074251990558816788 0 0.1300820653953097 0.084166932106396392 0 0.11116449005577619 0.086473750785835857 0 0.13668050292917741 0.098217611464673699 0 0.11116449005577619 0.086473750785835857 0 0.1207366242219714 0.074251990558816788 0 0.10561354398445311 0.069921878226714862 0 0.11550376979223601 0.054551475820320147 0 0.1207366242219714 0.074251990558816788 0 0.13255022158949201 0.068763676371196639 0 0.11550376979223601 0.054551475820320147 0 0.1207366242219714 0.074251990558816788 0 0.10561354398445311 0.069921878226714862 0 0.11116449005577619 0.086473750785835857 0 0.10561354398445311 0.069921878226714862 0 0.085648477182374977 0.074729890106998029 0 0.10561354398445311 0.069921878226714862 0 0.095618088847860577 0.065038419849084594 0 0.085648477182374977 0.074729890106998029 0 0.099395501669828634 0.055681054702382278 0 0.10561354398445311 0.069921878226714862 0 0.095618088847860577 0.065038419849084594 0 0.11116449005577619 0.086473750785835857 0 0.085648477182374977 0.074729890106998029 0 0.11116449005577619 0.086473750785835857 0 0.090808031879269946 0.087622927320568048 0 0.085648477182374977 0.074729890106998029 0 0.097728221435088053 0.099184528615223033 0 0.11116449005577619 0.086473750785835857 0 0.090808031879269946 0.087622927320568048 0 0.097728221435088053 0.099184528615223033 0 0.090808031879269946 0.087622927320568048 0 0.080235742217082393 0.093435287859391092 0 0.090808031879269946 0.087622927320568048 0 0.078675001300488379 0.083882301042573534 0 0.085648477182374977 0.074729890106998029 0 0.090808031879269946 0.087622927320568048 0 0.078675001300488379 0.083882301042573534 0 0.080235742217082393 0.093435287859391092 0 0.066395547834883203 0.05807658879080619 0 0.08827992924315356 0.067842626558367619 0 0.085648477182374977 0.074729890106998029 0 0.095618088847860577 0.065038419849084594 0 0.08827992924315356 0.067842626558367619 0 0.085648477182374977 0.074729890106998029 0 0.090416084875221875 0.058235299142909973 0 0.095618088847860577 0.065038419849084594 0 0.08827992924315356 0.067842626558367619 0 0.066395547834883203 0.05807658879080619 0 0.085648477182374977 0.074729890106998029 0 0.060132464308973767 0.062986029428160187 0 0.066395547834883203 0.05807658879080619 0 0.08827992924315356 0.067842626558367619 0 0.085648477182374977 0.074729890106998029 0 0.068637102026180674 0.07792917868559901 0 0.060132464308973767 0.062986029428160187 0 0.085648477182374977 0.074729890106998029 0 0.060132464308973767 0.062986029428160187 0 0.078675001300488379 0.083882301042573534 0 0.085648477182374977 0.074729890106998029 0 0.068637102026180674 0.07792917868559901 0 0.080235742217082393 0.093435287859391092 0 0.069503799956795384 0.087722797055870286 0 0.068523875558259784 0.095111972458496966 0 0.078675001300488379 0.083882301042573534 0 0.080235742217082393 0.093435287859391092 0 0.069503799956795384 0.087722797055870286 0 0.078675001300488379 0.083882301042573534 0 0.068637102026180674 0.07792917868559901 0 0.069503799956795384 0.087722797055870286 0 0.068637102026180674 0.07792917868559901 0 0.069503799956795384 0.087722797055870286 0 0.060111091978902922 0.083782113849914977 0 0.069503799956795384 0.087722797055870286 0 0.06135777996986308 0.093915161513068182 0 0.060111091978902922 0.083782113849914977 0 0.069503799956795384 0.087722797055870286 0 0.068523875558259784 0.095111972458496966 0 0.06135777996986308 0.093915161513068182 0 0.068523875558259784 0.095111972458496966 0 0.071520258741129425 0.10189571548122769 0 0.062413973273008162 0.1018934272394761 0 0.068523875558259784 0.095111972458496966 0 0.062413973273008162 0.1018934272394761 0 0.06135777996986308 0.093915161513068182 0 0.071520258741129425 0.10189571548122769 0 0.072821304814728441 0.1108529925529516 0 0.063718101814298073 0.11016590081819259 0 0.071520258741129425 0.10189571548122769 0 0.063718101814298073 0.11016590081819259 0 0.062413973273008162 0.1018934272394761 0 0.071520258741129425 0.10189571548122769 0 0.084925795867796111 0.1103515185161017 0 0.072821304814728441 0.1108529925529516 0 0.080235742217082393 0.093435287859391092 0 0.068523875558259784 0.095111972458496966 0 0.071520258741129425 0.10189571548122769 0 0.097728221435088053 0.099184528615223033 0 0.080235742217082393 0.093435287859391092 0 0.084925795867796111 0.1103515185161017 0 0.080235742217082393 0.093435287859391092 0 0.071520258741129425 0.10189571548122769 0 0.084925795867796111 0.1103515185161017 0 0.084925795867796111 0.1103515185161017 0 0.074154959480044275 0.1204842858357125 0 0.087075880893963842 0.12621803440601359 0 0.096984900528893664 0.1212489081817222 0 0.084925795867796111 0.1103515185161017 0 0.087075880893963842 0.12621803440601359 0 0.084925795867796111 0.1103515185161017 0 0.074154959480044275 0.1204842858357125 0 0.072821304814728441 0.1108529925529516 0 0.074154959480044275 0.1204842858357125 0 0.072821304814728441 0.1108529925529516 0 0.063718101814298073 0.11016590081819259 0 0.074154959480044275 0.1204842858357125 0 0.063718101814298073 0.11016590081819259 0 0.060124536552058239 0.11864948812996751 0 0.074154959480044275 0.1204842858357125 0 0.060124536552058239 0.11864948812996751 0 0.061109117960118017 0.12720913792676911 0 0.060124536552058239 0.11864948812996751 0 0.052595679859244633 0.1236025024456274 0 0.054913207086597561 0.11271600588853189 0 0.060124536552058239 0.11864948812996751 0 0.052595679859244633 0.1236025024456274 0 0.061109117960118017 0.12720913792676911 0 0.052595679859244633 0.1236025024456274 0 0.054913207086597561 0.11271600588853189 0 0.046771683079868627 0.1089772416004138 0 0.063718101814298073 0.11016590081819259 0 0.060124536552058239 0.11864948812996751 0 0.054913207086597561 0.11271600588853189 0 0.063718101814298073 0.11016590081819259 0 0.062413973273008162 0.1018934272394761 0 0.053620768430252298 0.1031656988462608 0 0.063718101814298073 0.11016590081819259 0 0.054913207086597561 0.11271600588853189 0 0.053620768430252298 0.1031656988462608 0 0.06135777996986308 0.093915161513068182 0 0.053620768430252298 0.1031656988462608 0 0.051535176025136201 0.090416251810209708 0 0.062413973273008162 0.1018934272394761 0 0.06135777996986308 0.093915161513068182 0 0.053620768430252298 0.1031656988462608 0 0.053620768430252298 0.1031656988462608 0 0.042875633238578528 0.09739353282270094 0 0.051535176025136201 0.090416251810209708 0 0.053620768430252298 0.1031656988462608 0 0.046771683079868627 0.1089772416004138 0 0.042875633238578528 0.09739353282270094 0 0.054913207086597561 0.11271600588853189 0 0.053620768430252298 0.1031656988462608 0 0.046771683079868627 0.1089772416004138 0 0.046771683079868627 0.1089772416004138 0 0.042875633238578528 0.09739353282270094 0 0.034382595390138257 0.1099700727945534 0 0.042875633238578528 0.09739353282270094 0 0.034382595390138257 0.1099700727945534 0 0.030708755379597181 0.088685576768743155 0 0.034382595390138257 0.1099700727945534 0 0.030708755379597181 0.088685576768743155 0 0.052595679859244633 0.1236025024456274 0 0.046771683079868627 0.1089772416004138 0 0.034382595390138257 0.1099700727945534 0 0.034382595390138257 0.1099700727945534 0 0.02520709702204247 0.1232263280856261 0 0.037354296692750887 0.12718670835402709 0 0.052595679859244633 0.1236025024456274 0 0.034382595390138257 0.1099700727945534 0 0.037354296692750887 0.12718670835402709 0 0.034382595390138257 0.1099700727945534 0 0.037354296692750887 0.12718670835402709 0 0.052595679859244633 0.1236025024456274 0 0.034382595390138257 0.1099700727945534 0 0.060132464308973767 0.062986029428160187 0 0.051537231586459821 0.0703604747810012 0 0.044258496001147778 0.063884183083345675 0 0.051537231586459821 0.0703604747810012 0 0.045053238281461433 0.071665999821029613 0 0.044258496001147778 0.063884183083345675 0 0.060132464308973767 0.062986029428160187 0 0.058160070023191839 0.074213970699792686 0 0.051537231586459821 0.0703604747810012 0 0.068637102026180674 0.07792917868559901 0 0.060132464308973767 0.062986029428160187 0 0.058160070023191839 0.074213970699792686 0 0.051537231586459821 0.0703604747810012 0 0.049495561811348857 0.078896267932753172 0 0.045053238281461433 0.071665999821029613 0 0.058160070023191839 0.074213970699792686 0 0.051537231586459821 0.0703604747810012 0 0.049495561811348857 0.078896267932753172 0 0.049495561811348857 0.078896267932753172 0 0.051535176025136201 0.090416251810209708 0 0.041750220721871581 0.085344735896560275 0 0.049495561811348857 0.078896267932753172 0 0.060111091978902922 0.083782113849914977 0 0.051535176025136201 0.090416251810209708 0 0.068637102026180674 0.07792917868559901 0 0.058160070023191839 0.074213970699792686 0 0.060111091978902922 0.083782113849914977 0 0.058160070023191839 0.074213970699792686 0 0.049495561811348857 0.078896267932753172 0 0.060111091978902922 0.083782113849914977 0 0.06135777996986308 0.093915161513068182 0 0.060111091978902922 0.083782113849914977 0 0.051535176025136201 0.090416251810209708 0 0.042875633238578528 0.09739353282270094 0 0.051535176025136201 0.090416251810209708 0 0.041750220721871581 0.085344735896560275 0 0.042875633238578528 0.09739353282270094 0 0.041750220721871581 0.085344735896560275 0 0.030708755379597181 0.088685576768743155 0 0.041750220721871581 0.085344735896560275 0 0.037489048909448763 0.07466528487264068 0 0.030708755379597181 0.088685576768743155 0 0.049495561811348857 0.078896267932753172 0 0.041750220721871581 0.085344735896560275 0 0.037489048909448763 0.07466528487264068 0 0.037489048909448763 0.07466528487264068 0 0.02703491536905472 0.067401080742933134 0 0.030708755379597181 0.088685576768743155 0 0.049495561811348857 0.078896267932753172 0 0.045053238281461433 0.071665999821029613 0 0.037489048909448763 0.07466528487264068 0 0.045053238281461433 0.071665999821029613 0 0.037489048909448763 0.07466528487264068 0 0.037579666130808903 0.067774354445351542 0 0.034062632092931817 0.061255223706808547 0 0.037579666130808903 0.067774354445351542 0 0.02703491536905472 0.067401080742933134 0 0.037489048909448763 0.07466528487264068 0 0.037579666130808903 0.067774354445351542 0 0.02703491536905472 0.067401080742933134 0 0.034062632092931817 0.061255223706808547 0 0.037579666130808903 0.067774354445351542 0 0.044258496001147778 0.063884183083345675 0 0.045053238281461433 0.071665999821029613 0 0.037579666130808903 0.067774354445351542 0 0.044258496001147778 0.063884183083345675 0 0.02703491536905472 0.067401080742933134 0 0.030708755379597181 0.088685576768743155 0 0.01366790099406239 0.052632887419703241 0 0.026593398378051959 0.076487299351285121 0 0.01366790099406239 0.052632887419703241 0 0.02703491536905472 0.067401080742933134 0 0.026593398378051959 0.076487299351285121 0 0.02703491536905472 0.067401080742933134 0 0.026593398378051959 0.076487299351285121 0 0.030708755379597181 0.088685576768743155 0 0.01366790099406239 0.052632887419703241 0 0.026593398378051959 0.076487299351285121 0 0.01611389888654503 0.070322973248010373 0 0.026593398378051959 0.076487299351285121 0 0.01611389888654503 0.070322973248010373 0 0.01767063525815666 0.080500261616376856 0 0.01767063525815666 0.080500261616376856 0 0.030708755379597181 0.088685576768743155 0 0.011643404763696401 0.092949868607662828 0 0.026593398378051959 0.076487299351285121 0 0.01767063525815666 0.080500261616376856 0 0.030708755379597181 0.088685576768743155 0 0.01767063525815666 0.080500261616376856 0 0.011643404763696401 0.092949868607662828 0 0.0065236609159091173 0.071671444604676282 0 -0.01109578586274463 0.07592966442077155 0 0.011643404763696401 0.092949868607662828 0 0.0065236609159091173 0.071671444604676282 0 -0.01109578586274463 0.07592966442077155 0 0.011643404763696401 0.092949868607662828 0 0.01366790099406239 0.052632887419703241 0 0.01611389888654503 0.070322973248010373 0 0.0065236609159091173 0.071671444604676282 0 0.01611389888654503 0.070322973248010373 0 0.01767063525815666 0.080500261616376856 0 0.0065236609159091173 0.071671444604676282 0 -0.0031702267477386531 0.067180855403790804 0 0.00079413703044923156 0.058803151297745167 0 0.0065236609159091173 0.071671444604676282 0 0.034382595390138257 0.1099700727945534 0 0.02520709702204247 0.1232263280856261 0 0.01356063639681436 0.11371506303709419 0 0.02520709702204247 0.1232263280856261 0 0.01356063639681436 0.11371506303709419 0 0.011098566836083609 0.13484946890849181 0 0.034382595390138257 0.1099700727945534 0 0.011643404763696401 0.092949868607662828 0 0.01356063639681436 0.11371506303709419 0 0.034382595390138257 0.1099700727945534 0 0.011643404763696401 0.092949868607662828 0 0.034382595390138257 0.1099700727945534 0 0.030708755379597181 0.088685576768743155 0 0.011643404763696401 0.092949868607662828 0 -0.0040088977147468936 0.097024336429998151 0 0.011643404763696401 0.092949868607662828 0 0.0025937760044158291 0.1064596481343341 0 0.011643404763696401 0.092949868607662828 0 0.0025937760044158291 0.1064596481343341 0 0.01356063639681436 0.11371506303709419 0 -0.007175360702145514 0.1155930690216506 0 0.0025937760044158291 0.1064596481343341 0 0.01356063639681436 0.11371506303709419 0 -0.007175360702145514 0.1155930690216506 0 0.01356063639681436 0.11371506303709419 0 0.011098566836083609 0.13484946890849181 0 -0.007175360702145514 0.1155930690216506 0 0.011098566836083609 0.13484946890849181 0 0.02520709702204247 0.1232263280856261 0 0.011098566836083609 0.13484946890849181 0 0.028759663239593541 0.13617761485890201 0 0.02520709702204247 0.1232263280856261 0 0.028759663239593541 0.13617761485890201 0 0.037354296692750887 0.12718670835402709 0 0.011098566836083609 0.13484946890849181 0 0.029372494374312729 0.15410586879533311 0 0.013538337341477229 0.1636201682865295 0 0.011098566836083609 0.13484946890849181 0 0.028759663239593541 0.13617761485890201 0 0.029372494374312729 0.15410586879533311 0 0.011098566836083609 0.13484946890849181 0 0.029372494374312729 0.15410586879533311 0 -0.0048034666842798916 0.1614245706846468 0 0.011098566836083609 0.13484946890849181 0 0.013538337341477229 0.1636201682865295 0 -0.0057956805663459468 0.1892940575843915 0 -0.0048034666842798916 0.1614245706846468 0 0.013538337341477229 0.1636201682865295 0 -0.0057956805663459468 0.1892940575843915 0 0.013538337341477229 0.1636201682865295 0 0.020045678312652242 0.18090880435863019 0 -0.0057956805663459468 0.1892940575843915 0 0.020045678312652242 0.18090880435863019 0 0.029372494374312729 0.15410586879533311 0 0.013538337341477229 0.1636201682865295 0 0.020045678312652242 0.18090880435863019 0 0.029372494374312729 0.15410586879533311 0 0.045887037191650451 0.17252355113286891 0 0.04813315871709322 0.1541455757588851 0 0.029372494374312729 0.15410586879533311 0 0.020045678312652242 0.18090880435863019 0 0.045887037191650451 0.17252355113286891 0 0.020045678312652242 0.18090880435863019 0 0.045887037191650451 0.17252355113286891 0 0.020045678312652242 0.18090880435863019 0 0.045887037191650451 0.17252355113286891 0 0.041991232206495782 0.1919910870650737 0 0.045887037191650451 0.17252355113286891 0 0.060802696405823108 0.1787365445376432 0 0.041991232206495782 0.1919910870650737 0 0.045887037191650451 0.17252355113286891 0 0.071728396070648653 0.1641382979071076 0 0.045887037191650451 0.17252355113286891 0 0.060802696405823108 0.1787365445376432 0 0.071728396070648653 0.1641382979071076 0 0.045887037191650451 0.17252355113286891 0 0.059657673584757237 0.15824269734654939 0 0.04813315871709322 0.1541455757588851 0 0.045887037191650451 0.17252355113286891 0 0.059657673584757237 0.15824269734654939 0 0.071728396070648653 0.1641382979071076 0 0.059657673584757237 0.15824269734654939 0 0.04813315871709322 0.1541455757588851 0 0.060329678829100349 0.1474246815113264 0 0.04813315871709322 0.1541455757588851 0 0.050215372913412007 0.1458935282758238 0 0.060329678829100349 0.1474246815113264 0 0.050215372913412007 0.1458935282758238 0 0.060329678829100349 0.1474246815113264 0 0.052072656112092337 0.13760051191958289 0 0.050215372913412007 0.1458935282758238 0 0.052072656112092337 0.13760051191958289 0 0.040325997995362128 0.14440334391350099 0 0.060329678829100349 0.1474246815113264 0 0.062159468211553673 0.13737243366585769 0 0.052072656112092337 0.13760051191958289 0 0.062159468211553673 0.13737243366585769 0 0.054733357378362921 0.13083888414419281 0 0.052072656112092337 0.13760051191958289 0 0.052595679859244633 0.1236025024456274 0 0.054733357378362921 0.13083888414419281 0 0.061109117960118017 0.12720913792676911 0 0.062159468211553673 0.13737243366585769 0 0.054733357378362921 0.13083888414419281 0 0.061109117960118017 0.12720913792676911 0 0.052595679859244633 0.1236025024456274 0 0.054733357378362921 0.13083888414419281 0 0.046346625143134958 0.1312929959830558 0 0.054733357378362921 0.13083888414419281 0 0.052072656112092337 0.13760051191958289 0 0.046346625143134958 0.1312929959830558 0 0.037354296692750887 0.12718670835402709 0 0.040325997995362128 0.14440334391350099 0 0.046346625143134958 0.1312929959830558 0 0.037354296692750887 0.12718670835402709 0 0.040325997995362128 0.14440334391350099 0 0.028759663239593541 0.13617761485890201 0 0.037354296692750887 0.12718670835402709 0 0.040325997995362128 0.14440334391350099 0 0.052072656112092337 0.13760051191958289 0 0.046346625143134958 0.1312929959830558 0 0.040325997995362128 0.14440334391350099 0 0.052595679859244633 0.1236025024456274 0 0.046346625143134958 0.1312929959830558 0 0.037354296692750887 0.12718670835402709 0 0.028759663239593541 0.13617761485890201 0 0.029372494374312729 0.15410586879533311 0 0.040325997995362128 0.14440334391350099 0 0.029372494374312729 0.15410586879533311 0 0.04813315871709322 0.1541455757588851 0 0.040325997995362128 0.14440334391350099 0 0.04813315871709322 0.1541455757588851 0 0.050215372913412007 0.1458935282758238 0 0.040325997995362128 0.14440334391350099 0 0.025149977659741599 0.24684982625080901 0 0.00014186162909880781 0.2338185852574263 0 0.02177620002751179 0.22559840920251981 0 0.025149977659741599 0.24684982625080901 0 0.00014186162909880781 0.2338185852574263 0 0.025149977659741599 0.24684982625080901 0 0.00014186162909880781 0.2338185852574263 0 0.0073806355134042019 0.25529449578482938 0 0.00014186162909880781 0.2338185852574263 0 0.02177620002751179 0.22559840920251981 0 0.0090806704795409685 0.20996839310177981 0 0.025149977659741599 0.24684982625080901 0 0.02177620002751179 0.22559840920251981 0 0.039960986899899173 0.22780444499479169 0 0.02177620002751179 0.22559840920251981 0 0.0090806704795409685 0.20996839310177981 0 0.034547503469278373 0.20955079640779209 0 0.0090806704795409685 0.20996839310177981 0 0.02162293693503077 0.1981024475624624 0 0.034547503469278373 0.20955079640779209 0 -0.0057956805663459468 0.1892940575843915 0 0.0090806704795409685 0.20996839310177981 0 0.02162293693503077 0.1981024475624624 0 -0.0057956805663459468 0.1892940575843915 0 0.020045678312652242 0.18090880435863019 0 0.02162293693503077 0.1981024475624624 0 0.020045678312652242 0.18090880435863019 0 0.02162293693503077 0.1981024475624624 0 0.041991232206495782 0.1919910870650737 0 0.02162293693503077 0.1981024475624624 0 0.041991232206495782 0.1919910870650737 0 0.034547503469278373 0.20955079640779209 0 0.041991232206495782 0.1919910870650737 0 0.05849467095877426 0.1965416733816682 0 0.050764695011206777 0.20916964222725651 0 0.060802696405823108 0.1787365445376432 0 0.041991232206495782 0.1919910870650737 0 0.05849467095877426 0.1965416733816682 0 0.050764695011206777 0.20916964222725651 0 0.066981886553135278 0.20878848804672309 0 0.05849467095877426 0.1965416733816682 0 0.050764695011206777 0.20916964222725651 0 0.066981886553135278 0.20878848804672309 0 0.050764695011206777 0.20916964222725651 0 0.061514006406540499 0.23071042489022231 0 0.066981886553135278 0.20878848804672309 0 0.050764695011206777 0.20916964222725651 0 0.034547503469278373 0.20955079640779209 0 0.039960986899899173 0.22780444499479169 0 0.050764695011206777 0.20916964222725651 0 0.034547503469278373 0.20955079640779209 0 0.041991232206495782 0.1919910870650737 0 0.050764695011206777 0.20916964222725651 0 0.034547503469278373 0.20955079640779209 0 0.02177620002751179 0.22559840920251981 0 0.034547503469278373 0.20955079640779209 0 0.039960986899899173 0.22780444499479169 0 0.039960986899899173 0.22780444499479169 0 0.061514006406540499 0.23071042489022231 0 0.045472231705318063 0.24424317023843681 0 0.050764695011206777 0.20916964222725651 0 0.039960986899899173 0.22780444499479169 0 0.061514006406540499 0.23071042489022231 0 0.061514006406540499 0.23071042489022231 0 0.056046126259945157 0.25263236173372139 0 0.061514006406540499 0.23071042489022231 0 0.056046126259945157 0.25263236173372139 0 0.067905867336300579 0.25358800162702 0 0.061514006406540499 0.23071042489022231 0 0.045472231705318063 0.24424317023843681 0 0.056046126259945157 0.25263236173372139 0 0.025149977659741599 0.24684982625080901 0 0.039960986899899173 0.22780444499479169 0 0.045472231705318063 0.24424317023843681 0 0.092857250133516089 0.24175825718487831 0 0.078525547080241467 0.2465942846531784 0 0.093798877441032588 0.2579700649065903 0 0.092857250133516089 0.24175825718487831 0 0.078525547080241467 0.2465942846531784 0 0.081986142109724491 0.22560265144644431 0 0.061514006406540499 0.23071042489022231 0 0.078525547080241467 0.2465942846531784 0 0.067905867336300579 0.25358800162702 0 0.061514006406540499 0.23071042489022231 0 0.078525547080241467 0.2465942846531784 0 0.081986142109724491 0.22560265144644431 0 0.061514006406540499 0.23071042489022231 0 0.081986142109724491 0.22560265144644431 0 0.066981886553135278 0.20878848804672309 0 0.061514006406540499 0.23071042489022231 0 0.066981886553135278 0.20878848804672309 0 0.081986142109724491 0.22560265144644431 0 0.09236794217301933 0.20819183719001669 0 0.066981886553135278 0.20878848804672309 0 0.09236794217301933 0.20819183719001669 0 0.066981886553135278 0.20878848804672309 0 0.09236794217301933 0.20819183719001669 0 0.066981886553135278 0.20878848804672309 0 0.071445073857882777 0.19089458628000441 0 0.060802696405823108 0.1787365445376432 0 0.05849467095877426 0.1965416733816682 0 0.071445073857882777 0.19089458628000441 0 0.066981886553135278 0.20878848804672309 0 0.071445073857882777 0.19089458628000441 0 0.05849467095877426 0.1965416733816682 0 0.066981886553135278 0.20878848804672309 0 0.071445073857882777 0.19089458628000441 0 0.09236794217301933 0.20819183719001669 0 0.071445073857882777 0.19089458628000441 0 0.086464584236575506 0.1862285865309723 0 0.09236794217301933 0.20819183719001669 0 0.086464584236575506 0.1862285865309723 0 0.1023855527362314 0.18749689463882899 0 0.09236794217301933 0.20819183719001669 0 0.11775399779290339 0.20759518633331239 0 0.1023855527362314 0.18749689463882899 0 0.11775399779290339 0.20759518633331239 0 0.1023855527362314 0.18749689463882899 0 0.12550986450034471 0.186594373040398 0 0.09236794217301933 0.20819183719001669 0 0.11775399779290339 0.20759518633331239 0 0.09236794217301933 0.20819183719001669 0 0.11775399779290339 0.20759518633331239 0 0.10906069526472741 0.22998953009969161 0 0.092857250133516089 0.24175825718487831 0 0.081986142109724491 0.22560265144644431 0 0.10906069526472741 0.22998953009969161 0 0.081986142109724491 0.22560265144644431 0 0.09236794217301933 0.20819183719001669 0 0.10906069526472741 0.22998953009969161 0 0.11775399779290339 0.20759518633331239 0 0.10906069526472741 0.22998953009969161 0 0.1382648444377183 0.22719855966067881 0 0.10906069526472741 0.22998953009969161 0 0.12787711237058769 0.24521089126939841 0 0.1100607559553454 0.25396994184181759 0 0.092857250133516089 0.24175825718487831 0 0.10906069526472741 0.22998953009969161 0 0.1100607559553454 0.25396994184181759 0 0.081151633673542972 0.15313158297098389 0 0.083920606388658545 0.14050817004821939 0 0.0975697549496468 0.15575304468134629 0 0.081151633673542972 0.15313158297098389 0 0.083920606388658545 0.14050817004821939 0 0.071387777285217918 0.15212681924726251 0 0.074154959480044275 0.1204842858357125 0 0.087075880893963842 0.12621803440601359 0 0.083920606388658545 0.14050817004821939 0 0.087075880893963842 0.12621803440601359 0 0.083920606388658545 0.14050817004821939 0 0.097906888154765004 0.1362305538396491 0 0.062159468211553673 0.13737243366585769 0 0.061109117960118017 0.12720913792676911 0 0.083920606388658545 0.14050817004821939 0 0.074154959480044275 0.1204842858357125 0 0.061109117960118017 0.12720913792676911 0 0.083920606388658545 0.14050817004821939 0 0.061109117960118017 0.12720913792676911 0 0.083920606388658545 0.14050817004821939 0 0.062159468211553673 0.13737243366585769 0 0.083920606388658545 0.14050817004821939 0 0.069449382678632612 0.1443580261181665 0 0.060329678829100349 0.1474246815113264 0 0.062159468211553673 0.13737243366585769 0 0.069449382678632612 0.1443580261181665 0 0.060329678829100349 0.1474246815113264 0 0.069449382678632612 0.1443580261181665 0 0.071387777285217918 0.15212681924726251 0 0.083920606388658545 0.14050817004821939 0 0.069449382678632612 0.1443580261181665 0 0.071387777285217918 0.15212681924726251 0 0.059657673584757237 0.15824269734654939 0 0.060329678829100349 0.1474246815113264 0 0.071387777285217918 0.15212681924726251 0 0.059657673584757237 0.15824269734654939 0 0.071387777285217918 0.15212681924726251 0 0.071728396070648653 0.1641382979071076 0 0.081151633673542972 0.15313158297098389 0 0.071387777285217918 0.15212681924726251 0 0.071728396070648653 0.1641382979071076 0 0.071445073857882777 0.19089458628000441 0 0.075908261162629706 0.17300068451328551 0 0.086464584236575506 0.1862285865309723 0 0.060802696405823108 0.1787365445376432 0 0.071445073857882777 0.19089458628000441 0 0.075908261162629706 0.17300068451328551 0 0.071445073857882777 0.19089458628000441 0 0.075908261162629706 0.17300068451328551 0 0.060802696405823108 0.1787365445376432 0 0.071728396070648653 0.1641382979071076 0 0.075908261162629706 0.17300068451328551 0 0.086464584236575506 0.1862285865309723 0 0.090216091253114361 0.17155893003272579 0 0.1023855527362314 0.18749689463882899 0 0.075908261162629706 0.17300068451328551 0 0.086464584236575506 0.1862285865309723 0 0.090216091253114361 0.17155893003272579 0 0.081151633673542972 0.15313158297098389 0 0.071728396070648653 0.1641382979071076 0 0.0975697549496468 0.15575304468134629 0 0.071728396070648653 0.1641382979071076 0 0.090216091253114361 0.17155893003272579 0 0.0975697549496468 0.15575304468134629 0 0.071728396070648653 0.1641382979071076 0 0.075908261162629706 0.17300068451328551 0 0.090216091253114361 0.17155893003272579 0 0.071728396070648653 0.1641382979071076 0 0.0975697549496468 0.15575304468134629 0 0.090216091253114361 0.17155893003272579 0 0.1064810698159025 0.16893633516972181 0 0.0975697549496468 0.15575304468134629 0 0.1064810698159025 0.16893633516972181 0 0.1067320948171991 0.1538072021696697 0 0.0975697549496468 0.15575304468134629 0 0.090216091253114361 0.17155893003272579 0 0.1064810698159025 0.16893633516972181 0 0.1023855527362314 0.18749689463882899 0 0.1064810698159025 0.16893633516972181 0 0.12954358324573961 0.16710623429112001 0 0.12550986450034471 0.186594373040398 0 0.1064810698159025 0.16893633516972181 0 0.1023855527362314 0.18749689463882899 0 0.12550986450034471 0.186594373040398 0 0.1064810698159025 0.16893633516972181 0 0.1067320948171991 0.1538072021696697 0 0.12954358324573961 0.16710623429112001 0 0.1067320948171991 0.1538072021696697 0 0.1262856736452258 0.1537478882528979 0 0.12954358324573961 0.16710623429112001 0 0.1067320948171991 0.1538072021696697 0 0.12954358324573961 0.16710623429112001 0 0.1148569119608701 0.14824987142416859 0 0.1067320948171991 0.1538072021696697 0 0.1262856736452258 0.1537478882528979 0 0.118317888191051 0.14254191757659121 0 0.1148569119608701 0.14824987142416859 0 0.1262856736452258 0.1537478882528979 0 0.118317888191051 0.14254191757659121 0 0.12756241452120801 0.13893694775055651 0 0.1262856736452258 0.1537478882528979 0 0.1148569119608701 0.14824987142416859 0 0.1067320948171991 0.1538072021696697 0 0.1080919911900045 0.14290247769751591 0 0.118317888191051 0.14254191757659121 0 0.1148569119608701 0.14824987142416859 0 0.1080919911900045 0.14290247769751591 0 0.083920606388658545 0.14050817004821939 0 0.1067320948171991 0.1538072021696697 0 0.1067320948171991 0.1538072021696697 0 0.1080919911900045 0.14290247769751591 0 0.097906888154765004 0.1362305538396491 0 0.083920606388658545 0.14050817004821939 0 0.1067320948171991 0.1538072021696697 0 0.097906888154765004 0.1362305538396491 0 0.083920606388658545 0.14050817004821939 0 0.1067320948171991 0.1538072021696697 0 0.0975697549496468 0.15575304468134629 0 0.096984900528893664 0.1212489081817222 0 0.097906888154765004 0.1362305538396491 0 0.10589272808503949 0.13156516273042271 0 0.096984900528893664 0.1212489081817222 0 0.087075880893963842 0.12621803440601359 0 0.097906888154765004 0.1362305538396491 0 0.1080919911900045 0.14290247769751591 0 0.097906888154765004 0.1362305538396491 0 0.10589272808503949 0.13156516273042271 0 0.1080919911900045 0.14290247769751591 0 0.10589272808503949 0.13156516273042271 0 0.11327312463209829 0.13597294690712769 0 0.10712684862241641 0.1210429748963526 0 0.10589272808503949 0.13156516273042271 0 0.114987521205969 0.1268010028982309 0 0.10589272808503949 0.13156516273042271 0 0.114987521205969 0.1268010028982309 0 0.11327312463209829 0.13597294690712769 0 0.114987521205969 0.1268010028982309 0 0.11327312463209829 0.13597294690712769 0 0.1203000125167645 0.13336293759413789 0 0.118317888191051 0.14254191757659121 0 0.1080919911900045 0.14290247769751591 0 0.11327312463209829 0.13597294690712769 0 0.118317888191051 0.14254191757659121 0 0.1203000125167645 0.13336293759413789 0 0.12756241452120801 0.13893694775055651 0 0.118317888191051 0.14254191757659121 0 0.11327312463209829 0.13597294690712769 0 0.1203000125167645 0.13336293759413789 0 0.12212988809696081 0.1249307776834532 0 0.114987521205969 0.1268010028982309 0 0.1203000125167645 0.13336293759413789 0 0.12212988809696081 0.1249307776834532 0 0.1203000125167645 0.13336293759413789 0 0.12788127083107459 0.1291064789800366 0 0.12788127083107459 0.1291064789800366 0 0.13409394305489639 0.1257339851238449 0 0.12813823657366311 0.12049833089676459 0 0.12788127083107459 0.1291064789800366 0 0.13410827310584911 0.13282331674432049 0 0.13409394305489639 0.1257339851238449 0 0.12788127083107459 0.1291064789800366 0 0.12756241452120801 0.13893694775055651 0 0.13410827310584911 0.13282331674432049 0 0.1203000125167645 0.13336293759413789 0 0.12788127083107459 0.1291064789800366 0 0.12756241452120801 0.13893694775055651 0 0.13410827310584911 0.13282331674432049 0 0.14295710802469111 0.12768772724150559 0 0.13848136883728299 0.14203914735535511 0 0.12756241452120801 0.13893694775055651 0 0.13410827310584911 0.13282331674432049 0 0.13848136883728299 0.14203914735535511 0 0.13410827310584911 0.13282331674432049 0 0.13409394305489639 0.1257339851238449 0 0.14295710802469111 0.12768772724150559 0 0.14295710802469111 0.12768772724150559 0 0.15698787762036359 0.14007723406829989 0 0.15364605026385231 0.1227496740475859 0 0.14295710802469111 0.12768772724150559 0 0.13848136883728299 0.14203914735535511 0 0.15698787762036359 0.14007723406829989 0 0.13848136883728299 0.14203914735535511 0 0.1441447949138806 0.1573716891147208 0 0.15698787762036359 0.14007723406829989 0 0.1441447949138806 0.1573716891147208 0 0.1598153361361678 0.15982657838785511 0 0.15698787762036359 0.14007723406829989 0 0.13848136883728299 0.14203914735535511 0 0.1262856736452258 0.1537478882528979 0 0.1441447949138806 0.1573716891147208 0 0.12756241452120801 0.13893694775055651 0 0.13848136883728299 0.14203914735535511 0 0.1262856736452258 0.1537478882528979 0 0.1262856736452258 0.1537478882528979 0 0.12954358324573961 0.16710623429112001 0 0.1441447949138806 0.1573716891147208 0 0.12954358324573961 0.16710623429112001 0 0.12550986450034471 0.186594373040398 0 0.15375492999850379 0.1814330523327968 0 0.12954358324573961 0.16710623429112001 0 0.15375492999850379 0.1814330523327968 0 0.1441447949138806 0.1573716891147208 0 0.15375492999850379 0.1814330523327968 0 0.1441447949138806 0.1573716891147208 0 0.1598153361361678 0.15982657838785511 0 0.1598153361361678 0.15982657838785511 0 0.17205847002769489 0.1711246398383999 0 0.17247097746626519 0.1464629757798975 0 0.15375492999850379 0.1814330523327968 0 0.1598153361361678 0.15982657838785511 0 0.17205847002769489 0.1711246398383999 0 0.15375492999850379 0.1814330523327968 0 0.17205847002769489 0.1711246398383999 0 0.18411838942066619 0.18828130780555291 0 0.17205847002769489 0.1711246398383999 0 0.18411838942066619 0.18828130780555291 0 0.19050902449260759 0.164433536692701 0 0.17205847002769489 0.1711246398383999 0 0.17247097746626519 0.1464629757798975 0 0.19050902449260759 0.164433536692701 0 0.17247097746626519 0.1464629757798975 0 0.1903693880120208 0.14015559280000461 0 0.19050902449260759 0.164433536692701 0 0.17247097746626519 0.1464629757798975 0 0.18002451345814399 0.12716596121819479 0 0.1903693880120208 0.14015559280000461 0 0.17247097746626519 0.1464629757798975 0 0.18002451345814399 0.12716596121819479 0 0.16417220099380411 0.12505127510387981 0 0.15698787762036359 0.14007723406829989 0 0.16417220099380411 0.12505127510387981 0 0.15364605026385231 0.1227496740475859 0 0.17247097746626519 0.1464629757798975 0 0.15698787762036359 0.14007723406829989 0 0.16417220099380411 0.12505127510387981 0 0.1598153361361678 0.15982657838785511 0 0.17247097746626519 0.1464629757798975 0 0.15698787762036359 0.14007723406829989 0 0.14702044576598061 0.2478904659134552 0 0.1382648444377183 0.22719855966067881 0 0.15828943790025421 0.22969507774947781 0 0.14702044576598061 0.2478904659134552 0 0.12787711237058769 0.24521089126939841 0 0.1382648444377183 0.22719855966067881 0 0.10906069526472741 0.22998953009969161 0 0.12787711237058769 0.24521089126939841 0 0.1382648444377183 0.22719855966067881 0 0.1382648444377183 0.22719855966067881 0 0.14314005341278749 0.20699853547660821 0 0.15828943790025421 0.22969507774947781 0 0.14314005341278749 0.20699853547660821 0 0.16852610903267151 0.206401884619904 0 0.11775399779290339 0.20759518633331239 0 0.1382648444377183 0.22719855966067881 0 0.14314005341278749 0.20699853547660821 0 0.11775399779290339 0.20759518633331239 0 0.14314005341278749 0.20699853547660821 0 0.11775399779290339 0.20759518633331239 0 0.12550986450034471 0.186594373040398 0 0.14314005341278749 0.20699853547660821 0 0.15375492999850379 0.1814330523327968 0 0.14314005341278749 0.20699853547660821 0 0.16852610903267151 0.206401884619904 0 0.12550986450034471 0.186594373040398 0 0.15375492999850379 0.1814330523327968 0 0.14314005341278749 0.20699853547660821 0 0.15375492999850379 0.1814330523327968 0 0.18411838942066619 0.18828130780555291 0 0.16852610903267151 0.206401884619904 0 0.18411838942066619 0.18828130780555291 0 0.16852610903267151 0.206401884619904 0 0.1878214256448299 0.20672411698152671 0 0.16852610903267151 0.206401884619904 0 0.17766068788986381 0.23020170431202469 0 0.1878214256448299 0.20672411698152671 0 0.14314005341278749 0.20699853547660821 0 0.16852610903267151 0.206401884619904 0 0.15828943790025421 0.22969507774947781 0 0.16852610903267151 0.206401884619904 0 0.15828943790025421 0.22969507774947781 0 0.17766068788986381 0.23020170431202469 0 0.17766068788986381 0.23020170431202469 0 0.19353513124668931 0.22246748781277501 0 0.1878214256448299 0.20672411698152671 0 0.17766068788986381 0.23020170431202469 0 0.18692125413578081 0.24552837502103991 0 0.19379669244916639 0.23440003217329089 0 0.17766068788986381 0.23020170431202469 0 0.18692125413578081 0.24552837502103991 0 0.16774616909827719 0.2460930353984315 0 0.15828943790025421 0.22969507774947781 0 0.17766068788986381 0.23020170431202469 0 0.16774616909827719 0.2460930353984315 0 0.14702044576598061 0.2478904659134552 0 0.15828943790025421 0.22969507774947781 0 0.16774616909827719 0.2460930353984315 0 0.21557305570370441 0.24515722135805329 0 0.2029257889591993 0.24295866219667439 0 0.23007231546290949 0.2334513308517342 0 0.2029257889591993 0.24295866219667439 0 0.23007231546290949 0.2334513308517342 0 0.21557305570370441 0.24515722135805329 0 0.2029257889591993 0.24295866219667439 0 0.20107379594449931 0.25686311186437227 0 0.18692125413578081 0.24552837502103991 0 0.2029257889591993 0.24295866219667439 0 0.20107379594449931 0.25686311186437227 0 0.18692125413578081 0.24552837502103991 0 0.19379669244916639 0.23440003217329089 0 0.2029257889591993 0.24295866219667439 0 0.17766068788986381 0.23020170431202469 0 0.19379669244916639 0.23440003217329089 0 0.19353513124668931 0.22246748781277501 0 0.19379669244916639 0.23440003217329089 0 0.2029257889591993 0.24295866219667439 0 0.20920449219815451 0.22515354045629349 0 0.19379669244916639 0.23440003217329089 0 0.19353513124668931 0.22246748781277501 0 0.20920449219815451 0.22515354045629349 0 0.2029257889591993 0.24295866219667439 0 0.20920449219815451 0.22515354045629349 0 0.23007231546290949 0.2334513308517342 0 0.19353513124668931 0.22246748781277501 0 0.20920449219815451 0.22515354045629349 0 0.20732414099141369 0.20672295990195361 0 0.20920449219815451 0.22515354045629349 0 0.20732414099141369 0.20672295990195361 0 0.22783619495118521 0.20973527166224001 0 0.19353513124668931 0.22246748781277501 0 0.20732414099141369 0.20672295990195361 0 0.1878214256448299 0.20672411698152671 0 0.18411838942066619 0.18828130780555291 0 0.1878214256448299 0.20672411698152671 0 0.20343121377691101 0.18825927067945539 0 0.20732414099141369 0.20672295990195361 0 0.1878214256448299 0.20672411698152671 0 0.20343121377691101 0.18825927067945539 0 0.20732414099141369 0.20672295990195361 0 0.20343121377691101 0.18825927067945539 0 0.2219787971027708 0.18678942035429349 0 0.20732414099141369 0.20672295990195361 0 0.22783619495118521 0.20973527166224001 0 0.2219787971027708 0.18678942035429349 0 0.24528107816237801 0.1907036486386274 0 0.22783619495118521 0.20973527166224001 0 0.2219787971027708 0.18678942035429349 0 0.24528107816237801 0.1907036486386274 0 0.25242827713160498 0.21540237912569379 0 0.24528107816237801 0.1907036486386274 0 0.22783619495118521 0.20973527166224001 0 0.25242827713160498 0.21540237912569379 0 0.20920449219815451 0.22515354045629349 0 0.22783619495118521 0.20973527166224001 0 0.23007231546290949 0.2334513308517342 0 0.23007231546290949 0.2334513308517342 0 0.25242827713160498 0.21540237912569379 0 0.23007231546290949 0.2334513308517342 0 0.25511338863332461 0.22468137717712711 0 0.25242827713160498 0.21540237912569379 0 0.23007231546290949 0.2334513308517342 0 0.25511338863332461 0.22468137717712711 0 0.23007231546290949 0.2334513308517342 0 0.2457442494512444 0.24022391879071339 0 0.25511338863332461 0.22468137717712711 0 0.22783619495118521 0.20973527166224001 0 0.23007231546290949 0.2334513308517342 0 0.25242827713160498 0.21540237912569379 0 0.2457442494512444 0.24022391879071339 0 0.23628031136540401 0.25597328662156199 0 0.26221447651104962 0.2479993693513689 0 0.23007231546290949 0.2334513308517342 0 0.2457442494512444 0.24022391879071339 0 0.23628031136540401 0.25597328662156199 0 0.21557305570370441 0.24515722135805329 0 0.23007231546290949 0.2334513308517342 0 0.23628031136540401 0.25597328662156199 0 0.21557305570370441 0.24515722135805329 0 0.23007231546290949 0.2334513308517342 0 0.21023583046185859 0.14706018503428281 0 0.22521494488481819 0.12557893006429149 0 0.2001236667938262 0.1180422718546187 0 0.18002451345814399 0.12716596121819479 0 0.1903693880120208 0.14015559280000461 0 0.2001236667938262 0.1180422718546187 0 0.21023583046185859 0.14706018503428281 0 0.1903693880120208 0.14015559280000461 0 0.2001236667938262 0.1180422718546187 0 0.21023583046185859 0.14706018503428281 0 0.1903693880120208 0.14015559280000461 0 0.19050902449260759 0.164433536692701 0 0.18411838942066619 0.18828130780555291 0 0.20343121377691101 0.18825927067945539 0 0.19050902449260759 0.164433536692701 0 0.20343121377691101 0.18825927067945539 0 0.19050902449260759 0.164433536692701 0 0.20962662881846919 0.1707346457134423 0 0.20343121377691101 0.18825927067945539 0 0.20962662881846919 0.1707346457134423 0 0.2219787971027708 0.18678942035429349 0 0.21023583046185859 0.14706018503428281 0 0.20962662881846919 0.1707346457134423 0 0.2254160648188453 0.164078398330023 0 0.21023583046185859 0.14706018503428281 0 0.19050902449260759 0.164433536692701 0 0.20962662881846919 0.1707346457134423 0 0.20962662881846919 0.1707346457134423 0 0.2254160648188453 0.164078398330023 0 0.2219787971027708 0.18678942035429349 0 0.2254160648188453 0.164078398330023 0 0.2219787971027708 0.18678942035429349 0 0.23714843650665229 0.1758398884969993 0 0.24528107816237801 0.1907036486386274 0 0.2219787971027708 0.18678942035429349 0 0.23714843650665229 0.1758398884969993 0 0.24528107816237801 0.1907036486386274 0 0.23714843650665229 0.1758398884969993 0 0.25292738168467233 0.17649485219682931 0 0.2254160648188453 0.164078398330023 0 0.24653130607993951 0.16237692388552691 0 0.23688534306575301 0.1458043597726891 0 0.23714843650665229 0.1758398884969993 0 0.24653130607993951 0.16237692388552691 0 0.25292738168467233 0.17649485219682931 0 0.2254160648188453 0.164078398330023 0 0.23714843650665229 0.1758398884969993 0 0.24653130607993951 0.16237692388552691 0 0.24653130607993951 0.16237692388552691 0 0.2496536413094039 0.15044712256699261 0 0.23688534306575301 0.1458043597726891 0 0.2496536413094039 0.15044712256699261 0 0.23688534306575301 0.1458043597726891 0 0.25004344172447263 0.14019424959050239 0 0.21023583046185859 0.14706018503428281 0 0.2254160648188453 0.164078398330023 0 0.23688534306575301 0.1458043597726891 0 0.21023583046185859 0.14706018503428281 0 0.23688534306575301 0.1458043597726891 0 0.22521494488481819 0.12557893006429149 0 0.22521494488481819 0.12557893006429149 0 0.25030622297580962 0.13311558827396619 0 0.23688534306575301 0.1458043597726891 0 0.22521494488481819 0.12557893006429149 0 0.25030622297580962 0.13311558827396619 0 0.23688534306575301 0.1458043597726891 0 0.25004344172447263 0.14019424959050239 0 0.25030622297580962 0.13311558827396619 0 0.22521494488481819 0.12557893006429149 0 0.2369469616243938 0.1144798656387125 0 0.25030622297580962 0.13311558827396619 0 0.2369469616243938 0.1144798656387125 0 0.25094552198087999 0.11589449234768209 0 0.25030622297580962 0.13311558827396619 0 0.2369469616243938 0.1144798656387125 0 0.25158482098595109 0.098673396421397969 0 0.25094552198087999 0.11589449234768209 0 0.2369469616243938 0.1144798656387125 0 0.2308580048349978 0.09939168424622695 0 0.25158482098595109 0.098673396421397969 0 0.2308580048349978 0.09939168424622695 0 0.2177667053289645 0.10879872465146249 0 0.21723881235993189 0.092441087960636145 0 0.2369469616243938 0.1144798656387125 0 0.2308580048349978 0.09939168424622695 0 0.2177667053289645 0.10879872465146249 0 0.22521494488481819 0.12557893006429149 0 0.2369469616243938 0.1144798656387125 0 0.2177667053289645 0.10879872465146249 0 0.2177667053289645 0.10879872465146249 0 0.1970849337058638 0.1019164286603922 0 0.2001236667938262 0.1180422718546187 0 0.22521494488481819 0.12557893006429149 0 0.2177667053289645 0.10879872465146249 0 0.2001236667938262 0.1180422718546187 0 0.22521494488481819 0.12557893006429149 0 0.2001236667938262 0.1180422718546187 0 0.1970849337058638 0.1019164286603922 0 0.20420713705815571 0.090978010823124941 0 0.21723881235993189 0.092441087960636145 0 0.1970849337058638 0.1019164286603922 0 0.21723881235993189 0.092441087960636145 0 0.2177667053289645 0.10879872465146249 0 0.1970849337058638 0.1019164286603922 0 0.21723881235993189 0.092441087960636145 0 0.1970849337058638 0.1019164286603922 0 0.1916307843626972 0.08827444688259839 0 0.17503238870283441 0.11050561364494491 0 0.2001236667938262 0.1180422718546187 0 0.17503238870283441 0.11050561364494491 0 0.1970849337058638 0.1019164286603922 0 0.2001236667938262 0.1180422718546187 0 0.17503238870283441 0.11050561364494491 0 0.1916307843626972 0.08827444688259839 0 0.2082291800225603 0.066043280120252124 0 0.19067723801237901 0.065525043857756982 0 0.1916307843626972 0.08827444688259839 0 0.2082291800225603 0.066043280120252124 0 0.1916307843626972 0.08827444688259839 0 0.21087401780412959 0.081280079788873041 0 0.20420713705815571 0.090978010823124941 0 0.1970849337058638 0.1019164286603922 0 0.1916307843626972 0.08827444688259839 0 0.20420713705815571 0.090978010823124941 0 0.1916307843626972 0.08827444688259839 0 0.21087401780412959 0.081280079788873041 0 0.2082291800225603 0.066043280120252124 0 0.21087401780412959 0.081280079788873041 0 0.20420713705815571 0.090978010823124941 0 0.21723881235993189 0.092441087960636145 0 0.21087401780412959 0.081280079788873041 0 0.21723881235993189 0.092441087960636145 0 0.22613356481757629 0.0775902723280468 0 0.21087401780412959 0.081280079788873041 0 0.2082291800225603 0.066043280120252124 0 0.22613356481757629 0.0775902723280468 0 0.2082291800225603 0.066043280120252124 0 0.22613356481757629 0.0775902723280468 0 0.2082291800225603 0.066043280120252124 0 0.2259496113806885 0.070300708218039992 0 0.21450653174737461 0.057635669175196122 0 0.2259496113806885 0.070300708218039992 0 0.21450653174737461 0.057635669175196122 0 0.2082291800225603 0.066043280120252124 0 0.2259496113806885 0.070300708218039992 0 0.22613356481757629 0.0775902723280468 0 0.2259496113806885 0.070300708218039992 0 0.2248665156508784 0.061611733455129589 0 0.21450653174737461 0.057635669175196122 0 0.2259496113806885 0.070300708218039992 0 0.22613356481757629 0.0775902723280468 0 0.23739269101400209 0.082965747260884265 0 0.2259496113806885 0.070300708218039992 0 0.23739269101400209 0.082965747260884265 0 0.237967452106535 0.070105640596903412 0 0.2259496113806885 0.070300708218039992 0 0.23739269101400209 0.082965747260884265 0 0.2259496113806885 0.070300708218039992 0 0.2330718446673557 0.064441819436705627 0 0.2248665156508784 0.061611733455129589 0 0.2259496113806885 0.070300708218039992 0 0.2330718446673557 0.064441819436705627 0 0.237967452106535 0.070105640596903412 0 0.2308580048349978 0.09939168424622695 0 0.21723881235993189 0.092441087960636145 0 0.23739269101400209 0.082965747260884265 0 0.21723881235993189 0.092441087960636145 0 0.22613356481757629 0.0775902723280468 0 0.23739269101400209 0.082965747260884265 0 0.21723881235993189 0.092441087960636145 0 0.23739269101400209 0.082965747260884265 0 0.23739269101400209 0.082965747260884265 0 0.25158482098595109 0.098673396421397969 0 0.23739269101400209 0.082965747260884265 0 0.25243039498113262 0.075895774732197205 0 0.25158482098595109 0.098673396421397969 0 0.2308580048349978 0.09939168424622695 0 0.23739269101400209 0.082965747260884265 0 0.25158482098595109 0.098673396421397969 0 0.23739269101400209 0.082965747260884265 0 0.25243039498113262 0.075895774732197205 0 0.23934469018649959 0.064583282500140851 0 0.237967452106535 0.070105640596903412 0 0.24496427956833819 0.066036472520138348 0 0.2330718446673557 0.064441819436705627 0 0.23934469018649959 0.064583282500140851 0 0.2376257901407148 0.059976102198904507 0 0.2330718446673557 0.064441819436705627 0 0.23934469018649959 0.064583282500140851 0 0.237967452106535 0.070105640596903412 0 0.23739269101400209 0.082965747260884265 0 0.237967452106535 0.070105640596903412 0 0.24429048066179679 0.072622021298478806 0 0.24429048066179679 0.072622021298478806 0 0.24842415088314279 0.069033451464499671 0 0.25243039498113262 0.075895774732197205 0 0.23739269101400209 0.082965747260884265 0 0.24429048066179679 0.072622021298478806 0 0.25243039498113262 0.075895774732197205 0 0.24842415088314279 0.069033451464499671 0 0.24853219730195361 0.063845178725116872 0 0.25274476311700622 0.067427493409812952 0 0.237967452106535 0.070105640596903412 0 0.24429048066179679 0.072622021298478806 0 0.24496427956833819 0.066036472520138348 0 0.24429048066179679 0.072622021298478806 0 0.24842415088314279 0.069033451464499671 0 0.24496427956833819 0.066036472520138348 0 0.23934469018649959 0.064583282500140851 0 0.24496427956833819 0.066036472520138348 0 0.24309408444955441 0.062356377748052388 0 0.24496427956833819 0.066036472520138348 0 0.24602681454492631 0.062964227281045088 0 0.24309408444955441 0.062356377748052388 0 0.24496427956833819 0.066036472520138348 0 0.24602681454492631 0.062964227281045088 0 0.24853219730195361 0.063845178725116872 0 0.24842415088314279 0.069033451464499671 0 0.24496427956833819 0.066036472520138348 0 0.24853219730195361 0.063845178725116872 0 0.24751669685985911 0.059618880130872708 0 0.24309408444955441 0.062356377748052388 0 0.2376257901407148 0.059976102198904507 0 0.24751669685985911 0.059618880130872708 0 0.24426241142214139 0.049994713685017962 0 0.2310385276818335 0.053106641608170198 0 0.24751669685985911 0.059618880130872708 0 0.2376257901407148 0.059976102198904507 0 0.2310385276818335 0.053106641608170198 0 0.24751669685985911 0.059618880130872708 0 0.2310385276818335 0.053106641608170198 0 0.24853219730195361 0.063845178725116872 0 0.24751669685985911 0.059618880130872708 0 0.2530174900015254 0.0600809219264858 0 0.24602681454492631 0.062964227281045088 0 0.24853219730195361 0.063845178725116872 0 0.24751669685985911 0.059618880130872708 0 0.24602681454492631 0.062964227281045088 0 0.24751669685985911 0.059618880130872708 0 0.24309408444955441 0.062356377748052388 0 0.23934469018649959 0.064583282500140851 0 0.24309408444955441 0.062356377748052388 0 0.2376257901407148 0.059976102198904507 0 0.24426241142214139 0.049994713685017962 0 0.23928634064401511 0.040096757013566242 0 0.2310385276818335 0.053106641608170198 0 0.24751669685985911 0.059618880130872708 0 0.24426241142214139 0.049994713685017962 0 0.25102243244437311 0.053297338652025752 0 0.24426241142214139 0.049994713685017962 0 0.25174039047255609 0.044464402284776217 0 0.25102243244437311 0.053297338652025752 0 0.23928634064401511 0.040096757013566242 0 0.2320502206633881 0.021165953515508481 0 0.25044211127373811 0.032849993626191502 0 0.23928634064401511 0.040096757013566242 0 0.25044211127373811 0.032849993626191502 0 0.25174039047255609 0.044464402284776217 0 0.24426241142214139 0.049994713685017962 0 0.23928634064401511 0.040096757013566242 0 0.25174039047255609 0.044464402284776217 0 0.22618438235043381 0.038998837361733103 0 0.2320502206633881 0.021165953515508481 0 0.20963369093729961 0.03941564640516447 0 0.23928634064401511 0.040096757013566242 0 0.22618438235043381 0.038998837361733103 0 0.2320502206633881 0.021165953515508481 0 0.22618438235043381 0.038998837361733103 0 0.2310385276818335 0.053106641608170198 0 0.21456035850380811 0.046594403085467223 0 0.23928634064401511 0.040096757013566242 0 0.22618438235043381 0.038998837361733103 0 0.2310385276818335 0.053106641608170198 0 0.2310385276818335 0.053106641608170198 0 0.21456035850380811 0.046594403085467223 0 0.2248665156508784 0.061611733455129589 0 0.2310385276818335 0.053106641608170198 0 0.21456035850380811 0.046594403085467223 0 0.2248665156508784 0.061611733455129589 0 0.21456035850380811 0.046594403085467223 0 0.2330718446673557 0.064441819436705627 0 0.2248665156508784 0.061611733455129589 0 0.23150027442910881 0.059501590197602497 0 0.2248665156508784 0.061611733455129589 0 0.23150027442910881 0.059501590197602497 0 0.2310385276818335 0.053106641608170198 0 0.2330718446673557 0.064441819436705627 0 0.2376257901407148 0.059976102198904507 0 0.23150027442910881 0.059501590197602497 0 0.2376257901407148 0.059976102198904507 0 0.23150027442910881 0.059501590197602497 0 0.2310385276818335 0.053106641608170198 0 0.2320502206633881 0.021165953515508481 0 0.22999165343287109 0.0038227322559807589 0 0.25446675038947358 0.0029162606258486688 0 0.2320502206633881 0.021165953515508481 0 0.2600935707136679 0.019574361616358959 0 0.25446675038947358 0.0029162606258486688 0 0.22999165343287109 0.0038227322559807589 0 0.25446675038947358 0.0029162606258486688 0 0.24138147174972829 -0.0061427828714447699 0 0.2320502206633881 0.021165953515508481 0 0.25446675038947358 0.0029162606258486688 0 0.2320502206633881 0.021165953515508481 0 0.2600935707136679 0.019574361616358959 0 0.25044211127373811 0.032849993626191502 0 0.2320502206633881 0.021165953515508481 0 0.20963369093729961 0.03941564640516447 0 0.22999165343287109 0.0038227322559807589 0 0.21340461703840111 0.0096506044731711187 0 0.21351355446813719 -0.0021103410187178909 0 0.2320502206633881 0.021165953515508481 0 0.22999165343287109 0.0038227322559807589 0 0.21340461703840111 0.0096506044731711187 0 0.21340461703840111 0.0096506044731711187 0 0.1998105265397013 0.00335350757378736 0 0.21351355446813719 -0.0021103410187178909 0 0.21340461703840111 0.0096506044731711187 0 0.20371525389429951 0.01279949030761077 0 0.2082588668535221 0.02245160931237615 0 0.21340461703840111 0.0096506044731711187 0 0.20371525389429951 0.01279949030761077 0 0.1998105265397013 0.00335350757378736 0 0.2320502206633881 0.021165953515508481 0 0.2082588668535221 0.02245160931237615 0 0.20963369093729961 0.03941564640516447 0 0.2320502206633881 0.021165953515508481 0 0.21340461703840111 0.0096506044731711187 0 0.2082588668535221 0.02245160931237615 0 0.2082588668535221 0.02245160931237615 0 0.19338700514557339 0.015742239871108451 0 0.20963369093729961 0.03941564640516447 0 0.19338700514557339 0.015742239871108451 0 0.1989601287501698 0.040429129743079398 0 0.18048502430789731 0.01998114488410483 0 0.1989601287501698 0.040429129743079398 0 0.18048502430789731 0.01998114488410483 0 0.19338700514557339 0.015742239871108451 0 0.20963369093729961 0.03941564640516447 0 0.20371525389429951 0.01279949030761077 0 0.2082588668535221 0.02245160931237615 0 0.19338700514557339 0.015742239871108451 0 0.19338700514557339 0.015742239871108451 0 0.1998105265397013 0.00335350757378736 0 0.17714031935384769 -0.0079311666629475405 0 0.20371525389429951 0.01279949030761077 0 0.19338700514557339 0.015742239871108451 0 0.1998105265397013 0.00335350757378736 0 0.21450653174737461 0.057635669175196122 0 0.2029561920580818 0.044851916216142339 0 0.21450653174737461 0.057635669175196122 0 0.2029561920580818 0.044851916216142339 0 0.2021088015620611 0.053433964061651712 0 0.21450653174737461 0.057635669175196122 0 0.21456035850380811 0.046594403085467223 0 0.2029561920580818 0.044851916216142339 0 0.2082291800225603 0.066043280120252124 0 0.21450653174737461 0.057635669175196122 0 0.2021088015620611 0.053433964061651712 0 0.2248665156508784 0.061611733455129589 0 0.21450653174737461 0.057635669175196122 0 0.21456035850380811 0.046594403085467223 0 0.2082291800225603 0.066043280120252124 0 0.21450653174737461 0.057635669175196122 0 0.22618438235043381 0.038998837361733103 0 0.21456035850380811 0.046594403085467223 0 0.20963369093729961 0.03941564640516447 0 0.21456035850380811 0.046594403085467223 0 0.20963369093729961 0.03941564640516447 0 0.21456035850380811 0.046594403085467223 0 0.20530753189452691 0.042937648913457381 0 0.2029561920580818 0.044851916216142339 0 0.20963369093729961 0.03941564640516447 0 0.20530753189452691 0.042937648913457381 0 0.1989601287501698 0.040429129743079398 0 0.21456035850380811 0.046594403085467223 0 0.20530753189452691 0.042937648913457381 0 0.21456035850380811 0.046594403085467223 0 0.20963369093729961 0.03941564640516447 0 0.20530753189452691 0.042937648913457381 0 0.20963369093729961 0.03941564640516447 0 0.20530753189452691 0.042937648913457381 0 0.20530753189452691 0.042937648913457381 0 0.2029561920580818 0.044851916216142339 0 0.1989601287501698 0.040429129743079398 0 0.1774654858828027 0.031934360706524292 0 0.2029561920580818 0.044851916216142339 0 0.1989601287501698 0.040429129743079398 0 0.19971656766465989 0.047489351670260083 0 0.1989601287501698 0.040429129743079398 0 0.19133087755196571 0.045131483978966998 0 0.19971656766465989 0.047489351670260083 0 0.2029561920580818 0.044851916216142339 0 0.19971656766465989 0.047489351670260083 0 0.19338700514557339 0.015742239871108451 0 0.20963369093729961 0.03941564640516447 0 0.1989601287501698 0.040429129743079398 0 0.1989601287501698 0.040429129743079398 0 0.19133087755196571 0.045131483978966998 0 0.18298678422305309 0.040980100737508622 0 0.20530753189452691 0.042937648913457381 0 0.2029561920580818 0.044851916216142339 0 0.1989601287501698 0.040429129743079398 0 0.20530753189452691 0.042937648913457381 0 0.1989601287501698 0.040429129743079398 0 0.2029561920580818 0.044851916216142339 0 0.1989601287501698 0.040429129743079398 0 0.2082291800225603 0.066043280120252124 0 0.18513553631762919 0.051149603126408108 0 0.2021088015620611 0.053433964061651712 0 0.19971656766465989 0.047489351670260083 0 0.18513553631762919 0.051149603126408108 0 0.2082291800225603 0.066043280120252124 0 0.2021088015620611 0.053433964061651712 0 0.18513553631762919 0.051149603126408108 0 0.19067723801237901 0.065525043857756982 0 0.2082291800225603 0.066043280120252124 0 0.18513553631762919 0.051149603126408108 0 0.19133087755196571 0.045131483978966998 0 0.19971656766465989 0.047489351670260083 0 0.18513553631762919 0.051149603126408108 0 0.2029561920580818 0.044851916216142339 0 0.2021088015620611 0.053433964061651712 0 0.19971656766465989 0.047489351670260083 0 0.17734631865053521 0.060730067185729229 0 0.18513553631762919 0.051149603126408108 0 0.16725106424272049 0.052894846580172288 0 0.19067723801237901 0.065525043857756982 0 0.17734631865053521 0.060730067185729229 0 0.18513553631762919 0.051149603126408108 0 0.18298678422305309 0.040980100737508622 0 0.1774654858828027 0.031934360706524292 0 0.1620418926126978 0.036255926132564682 0 0.19133087755196571 0.045131483978966998 0 0.18513553631762919 0.051149603126408108 0 0.18298678422305309 0.040980100737508622 0 0.18513553631762919 0.051149603126408108 0 0.18298678422305309 0.040980100737508622 0 0.1620418926126978 0.036255926132564682 0 0.1989601287501698 0.040429129743079398 0 0.18298678422305309 0.040980100737508622 0 0.1774654858828027 0.031934360706524292 0 0.18513553631762919 0.051149603126408108 0 0.1620418926126978 0.036255926132564682 0 0.1620418926126978 0.036255926132564682 0 0.16725106424272049 0.052894846580172288 0 0.15541952745182569 0.04677658384696623 0 0.18513553631762919 0.051149603126408108 0 0.1620418926126978 0.036255926132564682 0 0.16725106424272049 0.052894846580172288 0 0.16725106424272049 0.052894846580172288 0 0.15507694825043991 0.057889849327421902 0 0.15541952745182569 0.04677658384696623 0 0.16725106424272049 0.052894846580172288 0 0.15507694825043991 0.057889849327421902 0 0.1653937448538241 0.067538194789913991 0 0.17734631865053521 0.060730067185729229 0 0.16725106424272049 0.052894846580172288 0 0.1653937448538241 0.067538194789913991 0 0.18048502430789731 0.01998114488410483 0 0.1657030786406338 0.0084270166623369204 0 0.17714031935384769 -0.0079311666629475405 0 0.19338700514557339 0.015742239871108451 0 0.17714031935384769 -0.0079311666629475405 0 0.19338700514557339 0.015742239871108451 0 0.18048502430789731 0.01998114488410483 0 0.17714031935384769 -0.0079311666629475405 0 0.1989601287501698 0.040429129743079398 0 0.1774654858828027 0.031934360706524292 0 0.18048502430789731 0.01998114488410483 0 0.1774654858828027 0.031934360706524292 0 0.18048502430789731 0.01998114488410483 0 0.16935520337559401 0.020657770454092759 0 0.1774654858828027 0.031934360706524292 0 0.15597084301543529 0.02343959166996953 0 0.1774654858828027 0.031934360706524292 0 0.1620418926126978 0.036255926132564682 0 0.15597084301543529 0.02343959166996953 0 0.1774654858828027 0.031934360706524292 0 0.16935520337559401 0.020657770454092759 0 0.15597084301543529 0.02343959166996953 0 0.16935520337559401 0.020657770454092759 0 0.1657030786406338 0.0084270166623369204 0 0.15597084301543529 0.02343959166996953 0 0.18048502430789731 0.01998114488410483 0 0.16935520337559401 0.020657770454092759 0 0.1657030786406338 0.0084270166623369204 0 0.1657030786406338 0.0084270166623369204 0 0.14883794818754281 0.01110572894874149 0 0.15480995508657039 -0.001084596553268768 0 0.1657030786406338 0.0084270166623369204 0 0.14883794818754281 0.01110572894874149 0 0.15597084301543529 0.02343959166996953 0 0.14883794818754281 0.01110572894874149 0 0.13464870039648349 0.00080453217212592717 0 0.15480995508657039 -0.001084596553268768 0 0.14883794818754281 0.01110572894874149 0 0.13894824890776639 0.02136224913872127 0 0.13464870039648349 0.00080453217212592717 0 0.1620418926126978 0.036255926132564682 0 0.13894824890776639 0.02136224913872127 0 0.14883794818754281 0.01110572894874149 0 0.15597084301543529 0.02343959166996953 0 0.13894824890776639 0.02136224913872127 0 0.1620418926126978 0.036255926132564682 0 0.15597084301543529 0.02343959166996953 0 0.13894824890776639 0.02136224913872127 0 0.11961069471150609 0.02296590295220987 0 0.13894824890776639 0.02136224913872127 0 0.12977361784467401 0.039215218793308727 0 0.1158546052028349 0.0064685721448778594 0 0.13894824890776639 0.02136224913872127 0 0.1158546052028349 0.0064685721448778594 0 0.13894824890776639 0.02136224913872127 0 0.13464870039648349 0.00080453217212592717 0 0.14278372382386809 0.048416123664777412 0 0.1428601767931531 0.062084067640591357 0 0.15507694825043991 0.057889849327421902 0 0.14278372382386809 0.048416123664777412 0 0.15507694825043991 0.057889849327421902 0 0.15541952745182569 0.04677658384696623 0 0.1620418926126978 0.036255926132564682 0 0.13894824890776639 0.02136224913872127 0 0.14579340212816641 0.038405220315267663 0 0.1620418926126978 0.036255926132564682 0 0.15541952745182569 0.04677658384696623 0 0.14579340212816641 0.038405220315267663 0 0.14278372382386809 0.048416123664777412 0 0.15541952745182569 0.04677658384696623 0 0.14579340212816641 0.038405220315267663 0 0.14278372382386809 0.048416123664777412 0 0.14579340212816641 0.038405220315267663 0 0.12977361784467401 0.039215218793308727 0 0.13894824890776639 0.02136224913872127 0 0.14579340212816641 0.038405220315267663 0 0.12977361784467401 0.039215218793308727 0 0.11550376979223601 0.054551475820320147 0 0.12977361784467401 0.039215218793308727 0 0.1326943019686847 0.054606112458038862 0 0.11550376979223601 0.054551475820320147 0 0.1326943019686847 0.054606112458038862 0 0.13255022158949201 0.068763676371196639 0 0.14278372382386809 0.048416123664777412 0 0.12977361784467401 0.039215218793308727 0 0.1326943019686847 0.054606112458038862 0 0.14278372382386809 0.048416123664777412 0 0.1428601767931531 0.062084067640591357 0 0.1326943019686847 0.054606112458038862 0 0.1428601767931531 0.062084067640591357 0 0.1326943019686847 0.054606112458038862 0 0.13255022158949201 0.068763676371196639 0 0.1207366242219714 0.074251990558816788 0 0.13255022158949201 0.068763676371196639 0 0.13578085374332971 0.077614708003019631 0 0.13255022158949201 0.068763676371196639 0 0.13578085374332971 0.077614708003019631 0 0.1430759120552613 0.073085192731263071 0 0.1428601767931531 0.062084067640591357 0 0.13255022158949201 0.068763676371196639 0 0.1430759120552613 0.073085192731263071 0 0.1428601767931531 0.062084067640591357 0 0.1430759120552613 0.073085192731263071 0 0.15260580868734391 0.069203578475014266 0 0.1430759120552613 0.073085192731263071 0 0.14969883640752091 0.076610515579137797 0 0.14563192422462459 0.083183778073064013 0 0.13578085374332971 0.077614708003019631 0 0.1430759120552613 0.073085192731263071 0 0.14563192422462459 0.083183778073064013 0 0.1430759120552613 0.073085192731263071 0 0.14969883640752091 0.076610515579137797 0 0.15260580868734391 0.069203578475014266 0 0.14969883640752091 0.076610515579137797 0 0.15260580868734391 0.069203578475014266 0 0.15677919641446331 0.080277826610221981 0 0.1428601767931531 0.062084067640591357 0 0.15507694825043991 0.057889849327421902 0 0.15260580868734391 0.069203578475014266 0 0.1506819444987289 0.088437751930635633 0 0.14868901735932749 0.09586058707093438 0 0.157853861938485 0.092527754269896317 0 0.1506819444987289 0.088437751930635633 0 0.15677919641446331 0.080277826610221981 0 0.157853861938485 0.092527754269896317 0 0.14969883640752091 0.076610515579137797 0 0.14563192422462459 0.083183778073064013 0 0.15677919641446331 0.080277826610221981 0 0.1506819444987289 0.088437751930635633 0 0.14563192422462459 0.083183778073064013 0 0.15677919641446331 0.080277826610221981 0 0.14563192422462459 0.083183778073064013 0 0.1444557225567443 0.090338813629061501 0 0.13888671887288589 0.088270852986767859 0 0.1506819444987289 0.088437751930635633 0 0.14563192422462459 0.083183778073064013 0 0.1444557225567443 0.090338813629061501 0 0.1444557225567443 0.090338813629061501 0 0.14209274384079601 0.094639397504520467 0 0.14868901735932749 0.09586058707093438 0 0.1506819444987289 0.088437751930635633 0 0.1444557225567443 0.090338813629061501 0 0.14868901735932749 0.09586058707093438 0 0.1444557225567443 0.090338813629061501 0 0.13888671887288589 0.088270852986767859 0 0.14209274384079601 0.094639397504520467 0 0.13888671887288589 0.088270852986767859 0 0.13668050292917741 0.098217611464673699 0 0.14209274384079601 0.094639397504520467 0 0.13888671887288589 0.088270852986767859 0 0.1300820653953097 0.084166932106396392 0 0.13668050292917741 0.098217611464673699 0 0.11116449005577619 0.086473750785835857 0 0.1300820653953097 0.084166932106396392 0 0.13668050292917741 0.098217611464673699 0 0.13578085374332971 0.077614708003019631 0 0.13888671887288589 0.088270852986767859 0 0.1300820653953097 0.084166932106396392 0 0.13578085374332971 0.077614708003019631 0 0.14563192422462459 0.083183778073064013 0 0.13888671887288589 0.088270852986767859 0 0.1207366242219714 0.074251990558816788 0 0.13578085374332971 0.077614708003019631 0 0.1300820653953097 0.084166932106396392 0 0.1216961693062274 0.1020981758197984 0 0.1302764983332621 0.10693497851168419 0 0.13668050292917741 0.098217611464673699 0 0.1302764983332621 0.10693497851168419 0 0.13758713408363871 0.1043360441680015 0 0.13668050292917741 0.098217611464673699 0 0.1302764983332621 0.10693497851168419 0 0.1360833458267342 0.1084620534226548 0 0.13758713408363871 0.1043360441680015 0 0.1360833458267342 0.1084620534226548 0 0.13758713408363871 0.1043360441680015 0 0.14314356584317489 0.10755645506983 0 0.13758713408363871 0.1043360441680015 0 0.13668050292917741 0.098217611464673699 0 0.14175175748584509 0.1005091223711649 0 0.13668050292917741 0.098217611464673699 0 0.14209274384079601 0.094639397504520467 0 0.14175175748584509 0.1005091223711649 0 0.12813823657366311 0.12049833089676459 0 0.13246275659848361 0.1130811342378658 0 0.13708322035591489 0.118794437000363 0 0.12212988809696081 0.1249307776834532 0 0.12788127083107459 0.1291064789800366 0 0.12813823657366311 0.12049833089676459 0 0.1197878353292403 0.1092484053650479 0 0.1302764983332621 0.10693497851168419 0 0.12624189261331301 0.1140678077034443 0 0.12813823657366311 0.12049833089676459 0 0.12624189261331301 0.1140678077034443 0 0.13246275659848361 0.1130811342378658 0 0.1302764983332621 0.10693497851168419 0 0.12624189261331301 0.1140678077034443 0 0.13246275659848361 0.1130811342378658 0 0.138866780176991 0.11235807520418389 0 0.13708322035591489 0.118794437000363 0 0.14572099158606311 0.1154247658161887 0 0.1360833458267342 0.1084620534226548 0 0.13246275659848361 0.1130811342378658 0 0.138866780176991 0.11235807520418389 0 0.1302764983332621 0.10693497851168419 0 0.1360833458267342 0.1084620534226548 0 0.13246275659848361 0.1130811342378658 0 0.1360833458267342 0.1084620534226548 0 0.138866780176991 0.11235807520418389 0 0.14314356584317489 0.10755645506983 0 0.13246275659848361 0.1130811342378658 0 0.138866780176991 0.11235807520418389 0 0.13708322035591489 0.118794437000363 0 0.13409394305489639 0.1257339851238449 0 0.14295710802469111 0.12768772724150559 0 0.13708322035591489 0.118794437000363 0 0.13409394305489639 0.1257339851238449 0 0.12813823657366311 0.12049833089676459 0 0.13708322035591489 0.118794437000363 0 0.14572099158606311 0.1154247658161887 0 0.15364605026385231 0.1227496740475859 0 0.15839207309433961 0.10550736800805539 0 0.14295710802469111 0.12768772724150559 0 0.13708322035591489 0.118794437000363 0 0.14572099158606311 0.1154247658161887 0 0.14295710802469111 0.12768772724150559 0 0.14572099158606311 0.1154247658161887 0 0.15364605026385231 0.1227496740475859 0 0.138866780176991 0.11235807520418389 0 0.14572099158606311 0.1154247658161887 0 0.14314356584317489 0.10755645506983 0 0.14572099158606311 0.1154247658161887 0 0.14314356584317489 0.10755645506983 0 0.15839207309433961 0.10550736800805539 0 0.14175175748584509 0.1005091223711649 0 0.15839207309433961 0.10550736800805539 0 0.14175175748584509 0.1005091223711649 0 0.14314356584317489 0.10755645506983 0 0.15839207309433961 0.10550736800805539 0 0.14175175748584509 0.1005091223711649 0 0.14868901735932749 0.09586058707093438 0 0.15839207309433961 0.10550736800805539 0 0.14209274384079601 0.094639397504520467 0 0.14175175748584509 0.1005091223711649 0 0.14868901735932749 0.09586058707093438 0 0.13758713408363871 0.1043360441680015 0 0.14175175748584509 0.1005091223711649 0 0.14314356584317489 0.10755645506983 0 0.14868901735932749 0.09586058707093438 0 0.15839207309433961 0.10550736800805539 0 0.157853861938485 0.092527754269896317 0 0.15839207309433961 0.10550736800805539 0 0.17503238870283441 0.11050561364494491 0 0.15839207309433961 0.10550736800805539 0 0.1705578526620479 0.095927182961129481 0 0.157853861938485 0.092527754269896317 0 0.15839207309433961 0.10550736800805539 0 0.1705578526620479 0.095927182961129481 0 0.17503238870283441 0.11050561364494491 0 0.16417220099380411 0.12505127510387981 0 0.15839207309433961 0.10550736800805539 0 0.17503238870283441 0.11050561364494491 0 0.16417220099380411 0.12505127510387981 0 0.15364605026385231 0.1227496740475859 0 0.15839207309433961 0.10550736800805539 0 0.16417220099380411 0.12505127510387981 0 0.17503238870283441 0.11050561364494491 0 0.18002451345814399 0.12716596121819479 0 0.16417220099380411 0.12505127510387981 0 0.17503238870283441 0.11050561364494491 0 0.18002451345814399 0.12716596121819479 0 0.2001236667938262 0.1180422718546187 0 0.17503238870283441 0.11050561364494491 0 0.1916307843626972 0.08827444688259839 0 0.1705578526620479 0.095927182961129481 0 0.17503238870283441 0.11050561364494491 0 0.1916307843626972 0.08827444688259839 0 0.17503238870283441 0.11050561364494491 0 0.1916307843626972 0.08827444688259839 0 0.17935943521264269 0.07135827912697662 0 0.16988015521188329 0.08282073200015258 0 0.1916307843626972 0.08827444688259839 0 0.1705578526620479 0.095927182961129481 0 0.16988015521188329 0.08282073200015258 0 0.19067723801237901 0.065525043857756982 0 0.1916307843626972 0.08827444688259839 0 0.17935943521264269 0.07135827912697662 0 0.19067723801237901 0.065525043857756982 0 0.17734631865053521 0.060730067185729229 0 0.17935943521264269 0.07135827912697662 0 0.17734631865053521 0.060730067185729229 0 0.17935943521264269 0.07135827912697662 0 0.1653937448538241 0.067538194789913991 0 0.17935943521264269 0.07135827912697662 0 0.1653937448538241 0.067538194789913991 0 0.16988015521188329 0.08282073200015258 0 0.15507694825043991 0.057889849327421902 0 0.15260580868734391 0.069203578475014266 0 0.1653937448538241 0.067538194789913991 0 0.15260580868734391 0.069203578475014266 0 0.1653937448538241 0.067538194789913991 0 0.15677919641446331 0.080277826610221981 0 0.1653937448538241 0.067538194789913991 0 0.15677919641446331 0.080277826610221981 0 0.16988015521188329 0.08282073200015258 0 0.15677919641446331 0.080277826610221981 0 0.157853861938485 0.092527754269896317 0 0.16988015521188329 0.08282073200015258 0 0.1705578526620479 0.095927182961129481 0 0.157853861938485 0.092527754269896317 0 0.16988015521188329 0.08282073200015258 0 0.099456207782380623 0.4822659283708195 0 0.1141892196830592 0.48396198267476093 0 0.11304725129434449 0.46767028325629811 0 0.099456207782380623 0.4822659283708195 0 0.11304725129434449 0.46767028325629811 0 0.096803680563272876 0.46646214520586099 0 0.099456207782380623 0.4822659283708195 0 0.10782601469385079 0.5 0 0.078267650747156567 0.50000000000000133 0 0.099456207782380623 0.4822659283708195 0 0.10782601469385079 0.5 0 0.1141892196830592 0.48396198267476093 0 0.10782601469385079 0.5 0 0.1249193769550877 0.49369376296818718 0 0.1141892196830592 0.48396198267476093 0 0.1249193769550877 0.49369376296818718 0 0.1141892196830592 0.48396198267476093 0 0.12569724768963239 0.47617993877849962 0 0.10782601469385079 0.5 0 0.1249193769550877 0.49369376296818718 0 0.13738437864054501 0.5 0 0.1141892196830592 0.48396198267476093 0 0.11304725129434449 0.46767028325629811 0 0.12569724768963239 0.47617993877849962 0 0.11304725129434449 0.46767028325629811 0 0.1267882431275838 0.46370707134437261 0 0.12569724768963239 0.47617993877849962 0 0.11304725129434449 0.46767028325629811 0 0.1221607865463437 0.4507156547582637 0 0.1004821270038239 0.44949914822431608 0 0.11304725129434449 0.46767028325629811 0 0.1221607865463437 0.4507156547582637 0 0.1267882431275838 0.46370707134437261 0 0.1221607865463437 0.4507156547582637 0 0.1004821270038239 0.44949914822431608 0 0.12259086230274099 0.42947812748907283 0 0.1004821270038239 0.44949914822431608 0 0.096803680563272876 0.46646214520586099 0 0.084307548883437972 0.45862843933572522 0 0.11304725129434449 0.46767028325629811 0 0.1004821270038239 0.44949914822431608 0 0.096803680563272876 0.46646214520586099 0 0.084307548883437972 0.45862843933572522 0 0.070120974899159305 0.46867166915081548 0 0.08254081050968877 0.47642281665818748 0 0.096803680563272876 0.46646214520586099 0 0.084307548883437972 0.45862843933572522 0 0.08254081050968877 0.47642281665818748 0 0.084307548883437972 0.45862843933572522 0 0.083205653112744402 0.44008551456546158 0 0.070599818540594342 0.45171728711773013 0 0.1004821270038239 0.44949914822431608 0 0.084307548883437972 0.45862843933572522 0 0.083205653112744402 0.44008551456546158 0 0.1004821270038239 0.44949914822431608 0 0.083205653112744402 0.44008551456546158 0 0.095892719888732866 0.42453745382262881 0 0.070599818540594342 0.45171728711773013 0 0.057347956450285731 0.44480695268810438 0 0.068330088192809502 0.43602814955066621 0 0.083205653112744402 0.44008551456546158 0 0.070599818540594342 0.45171728711773013 0 0.068330088192809502 0.43602814955066621 0 0.070599818540594342 0.45171728711773013 0 0.070120974899159305 0.46867166915081548 0 0.05832870883015126 0.45973880463956351 0 0.084307548883437972 0.45862843933572522 0 0.070599818540594342 0.45171728711773013 0 0.070120974899159305 0.46867166915081548 0 0.070120974899159305 0.46867166915081548 0 0.08254081050968877 0.47642281665818748 0 0.061557047466102868 0.48310025102256282 0 0.070120974899159305 0.46867166915081548 0 0.061557047466102868 0.48310025102256282 0 0.05832870883015126 0.45973880463956351 0 0.099456207782380623 0.4822659283708195 0 0.096803680563272876 0.46646214520586099 0 0.08254081050968877 0.47642281665818748 0 0.099456207782380623 0.4822659283708195 0 0.08254081050968877 0.47642281665818748 0 0.078267650747156567 0.50000000000000133 0 0.078267650747156567 0.50000000000000133 0 0.049166882519808157 0.5 0 0.061557047466102868 0.48310025102256282 0 0.08254081050968877 0.47642281665818748 0 0.078267650747156567 0.50000000000000133 0 0.061557047466102868 0.48310025102256282 0 0.078267650747156567 0.50000000000000133 0 0.061557047466102868 0.48310025102256282 0 0.049166882519808157 0.5 0 0.061557047466102868 0.48310025102256282 0 0.038208171894904559 0.48286056860770488 0 0.061557047466102868 0.48310025102256282 0 0.044846444185049857 0.46620050204512359 0 0.05832870883015126 0.45973880463956351 0 0.061557047466102868 0.48310025102256282 0 0.044846444185049857 0.46620050204512359 0 0.061557047466102868 0.48310025102256282 0 0.038208171894904559 0.48286056860770488 0 0.044846444185049857 0.46620050204512359 0 0.038208171894904559 0.48286056860770488 0 0.029572045059576241 0.469060477695939 0 0.044846444185049857 0.46620050204512359 0 0.049166882519808157 0.5 0 0.038208171894904559 0.48286056860770488 0 0.020066114292459799 0.5 0 0.038208171894904559 0.48286056860770488 0 0.020066114292459799 0.5 0 0.021055159894441029 0.48095839664786189 0 0.038208171894904559 0.48286056860770488 0 0.029572045059576241 0.469060477695939 0 0.021055159894441029 0.48095839664786189 0 0.029572045059576241 0.469060477695939 0 0.021055159894441029 0.48095839664786189 0 0.01561460841948897 0.46598216811131982 0 0.021055159894441029 0.48095839664786189 0 0.0030933759349822849 0.48266358315495572 0 0.01561460841948897 0.46598216811131982 0 0.0030933759349822849 0.48266358315495572 0 0.01561460841948897 0.46598216811131982 0 0.0036787250480955699 0.47408322248379448 0 0.0030933759349822849 0.48266358315495572 0 0.01561460841948897 0.46598216811131982 0 -0.0016340076521478781 0.48633642657919801 0 0.0036787250480955699 0.47408322248379448 0 0.0030933759349822849 0.48266358315495572 0 0.020066114292459799 0.5 0 0.021055159894441029 0.48095839664786189 0 0.0030933759349822849 0.48266358315495572 0 -0.0090346539348886701 0.5 0 -0.0016340076521478781 0.48633642657919801 0 0.020066114292459799 0.5 0 -0.0016340076521478781 0.48633642657919801 0 0.020066114292459799 0.5 0 0.0030933759349822849 0.48266358315495572 0 -0.0030841453677343121 0.43636499760021141 0 -0.002359076509941094 0.46135071208970457 0 0.010470448459028871 0.45111158928184719 0 -0.0030841453677343121 0.43636499760021141 0 0.010470448459028871 0.45111158928184719 0 0.017893296784651399 0.43894227458572882 0 -0.002359076509941094 0.46135071208970457 0 0.010470448459028871 0.45111158928184719 0 0.01561460841948897 0.46598216811131982 0 -0.002359076509941094 0.46135071208970457 0 0.0036787250480955699 0.47408322248379448 0 0.01561460841948897 0.46598216811131982 0 0.010470448459028871 0.45111158928184719 0 0.01561460841948897 0.46598216811131982 0 0.0281358409039968 0.44930075306768458 0 0.029572045059576241 0.469060477695939 0 0.01561460841948897 0.46598216811131982 0 0.0281358409039968 0.44930075306768458 0 0.01561460841948897 0.46598216811131982 0 0.0281358409039968 0.44930075306768458 0 0.010470448459028871 0.45111158928184719 0 0.0281358409039968 0.44930075306768458 0 0.017893296784651399 0.43894227458572882 0 0.0281358409039968 0.44930075306768458 0 0.017893296784651399 0.43894227458572882 0 0.03800042812263172 0.43615865433005307 0 0.0281358409039968 0.44930075306768458 0 0.017893296784651399 0.43894227458572882 0 0.0281358409039968 0.44930075306768458 0 0.04587361322417214 0.448769157871174 0 0.03800042812263172 0.43615865433005307 0 0.0281358409039968 0.44930075306768458 0 0.03800042812263172 0.43615865433005307 0 0.04587361322417214 0.448769157871174 0 0.049411209704934803 0.43621283219101809 0 0.03800042812263172 0.43615865433005307 0 0.029572045059576241 0.469060477695939 0 0.0281358409039968 0.44930075306768458 0 0.044846444185049857 0.46620050204512359 0 0.0281358409039968 0.44930075306768458 0 0.04587361322417214 0.448769157871174 0 0.044846444185049857 0.46620050204512359 0 0.0281358409039968 0.44930075306768458 0 0.044846444185049857 0.46620050204512359 0 0.04587361322417214 0.448769157871174 0 0.044846444185049857 0.46620050204512359 0 0.05832870883015126 0.45973880463956351 0 0.04587361322417214 0.448769157871174 0 0.057347956450285731 0.44480695268810438 0 0.049411209704934803 0.43621283219101809 0 0.04587361322417214 0.448769157871174 0 0.05832870883015126 0.45973880463956351 0 0.057347956450285731 0.44480695268810438 0 0.070599818540594342 0.45171728711773013 0 0.05832870883015126 0.45973880463956351 0 0.057347956450285731 0.44480695268810438 0 0.057347956450285731 0.44480695268810438 0 0.058238482531349368 0.43512174465279091 0 0.068330088192809502 0.43602814955066621 0 0.057347956450285731 0.44480695268810438 0 0.058238482531349368 0.43512174465279091 0 0.049411209704934803 0.43621283219101809 0 0.058238482531349368 0.43512174465279091 0 0.05412352915042095 0.42739076434297479 0 0.063786863135573219 0.4234822836218442 0 0.05412352915042095 0.42739076434297479 0 0.047865015341267358 0.42301655559242213 0 0.049411209704934803 0.43621283219101809 0 0.05412352915042095 0.42739076434297479 0 0.047865015341267358 0.42301655559242213 0 0.058238482531349368 0.43512174465279091 0 0.05412352915042095 0.42739076434297479 0 0.049411209704934803 0.43621283219101809 0 0.047865015341267358 0.42301655559242213 0 0.055388731832649349 0.41299308245440008 0 0.044385004541519633 0.40583709082877739 0 0.055388731832649349 0.41299308245440008 0 0.057103340742871267 0.4006394318358022 0 0.0691327228978319 0.40699071288372829 0 0.05412352915042095 0.42739076434297479 0 0.055388731832649349 0.41299308245440008 0 0.063786863135573219 0.4234822836218442 0 0.047865015341267358 0.42301655559242213 0 0.055388731832649349 0.41299308245440008 0 0.05412352915042095 0.42739076434297479 0 0.047865015341267358 0.42301655559242213 0 0.055388731832649349 0.41299308245440008 0 0.055388731832649349 0.41299308245440008 0 0.044385004541519633 0.40583709082877739 0 0.057103340742871267 0.4006394318358022 0 0.047865015341267358 0.42301655559242213 0 0.030398582533070099 0.41080889326869052 0 0.044385004541519633 0.40583709082877739 0 0.047865015341267358 0.42301655559242213 0 0.035686717363660143 0.42423985257235269 0 0.030398582533070099 0.41080889326869052 0 0.047865015341267358 0.42301655559242213 0 0.030398582533070099 0.41080889326869052 0 0.047865015341267358 0.42301655559242213 0 0.049411209704934803 0.43621283219101809 0 0.03800042812263172 0.43615865433005307 0 0.047865015341267358 0.42301655559242213 0 0.03800042812263172 0.43615865433005307 0 0.047865015341267358 0.42301655559242213 0 0.035686717363660143 0.42423985257235269 0 0.03800042812263172 0.43615865433005307 0 0.035686717363660143 0.42423985257235269 0 0.03800042812263172 0.43615865433005307 0 0.0264828434576714 0.42697530709824522 0 0.017893296784651399 0.43894227458572882 0 0.0264828434576714 0.42697530709824522 0 0.013451351612083251 0.42022136891186163 0 0.017893296784651399 0.43894227458572882 0 0.03800042812263172 0.43615865433005307 0 0.0264828434576714 0.42697530709824522 0 0.030398582533070099 0.41080889326869052 0 0.013451351612083251 0.42022136891186163 0 0.012932149724872831 0.39860123094495892 0 0.0264828434576714 0.42697530709824522 0 0.030398582533070099 0.41080889326869052 0 0.013451351612083251 0.42022136891186163 0 0.035686717363660143 0.42423985257235269 0 0.0264828434576714 0.42697530709824522 0 0.030398582533070099 0.41080889326869052 0 -0.0038092142255275289 0.41137928311071797 0 0.013451351612083251 0.42022136891186163 0 0.012932149724872831 0.39860123094495892 0 -0.0030841453677343121 0.43636499760021141 0 0.017893296784651399 0.43894227458572882 0 0.013451351612083251 0.42022136891186163 0 -0.0030841453677343121 0.43636499760021141 0 -0.0038092142255275289 0.41137928311071797 0 0.013451351612083251 0.42022136891186163 0 -0.0045342830833226501 0.3863935686212247 0 0.012932149724872831 0.39860123094495892 0 0.0079023355216259559 0.37348921158265391 0 0.012932149724872831 0.39860123094495892 0 0.025375843575522711 0.38021681034322929 0 0.0079023355216259559 0.37348921158265391 0 -0.0045342830833226501 0.3863935686212247 0 0.012932149724872831 0.39860123094495892 0 -0.0045342830833226501 0.3863935686212247 0 -0.0038092142255275289 0.41137928311071797 0 0.012932149724872831 0.39860123094495892 0 0.030398582533070099 0.41080889326869052 0 0.012932149724872831 0.39860123094495892 0 0.030398582533070099 0.41080889326869052 0 0.012932149724872831 0.39860123094495892 0 0.030218872497922818 0.39559608178221078 0 0.012932149724872831 0.39860123094495892 0 0.030218872497922818 0.39559608178221078 0 0.025375843575522711 0.38021681034322929 0 0.025375843575522711 0.38021681034322929 0 0.045236422390978262 0.39339421550307069 0 0.045418656597819553 0.37354288132317159 0 0.030218872497922818 0.39559608178221078 0 0.025375843575522711 0.38021681034322929 0 0.045236422390978262 0.39339421550307069 0 0.030398582533070099 0.41080889326869052 0 0.030218872497922818 0.39559608178221078 0 0.044385004541519633 0.40583709082877739 0 0.030218872497922818 0.39559608178221078 0 0.045236422390978262 0.39339421550307069 0 0.044385004541519633 0.40583709082877739 0 0.045236422390978262 0.39339421550307069 0 0.057103340742871267 0.4006394318358022 0 0.06607043693335328 0.38973814947632979 0 0.045236422390978262 0.39339421550307069 0 0.044385004541519633 0.40583709082877739 0 0.057103340742871267 0.4006394318358022 0 0.045236422390978262 0.39339421550307069 0 0.06607043693335328 0.38973814947632979 0 0.045418656597819553 0.37354288132317159 0 0.06607043693335328 0.38973814947632979 0 0.066778362586220691 0.36264744131756171 0 0.045418656597819553 0.37354288132317159 0 0.06607043693335328 0.38973814947632979 0 0.086713905658550791 0.37461406501925459 0 0.066778362586220691 0.36264744131756171 0 0.091303312773641829 0.3995757594209417 0 0.1025776524751303 0.38486691706586951 0 0.086713905658550791 0.37461406501925459 0 0.06607043693335328 0.38973814947632979 0 0.091303312773641829 0.3995757594209417 0 0.086713905658550791 0.37461406501925459 0 0.091303312773641829 0.3995757594209417 0 0.086713905658550791 0.37461406501925459 0 0.06607043693335328 0.38973814947632979 0 0.091303312773641829 0.3995757594209417 0 0.0691327228978319 0.40699071288372829 0 0.057103340742871267 0.4006394318358022 0 0.06607043693335328 0.38973814947632979 0 0.0691327228978319 0.40699071288372829 0 0.055388731832649349 0.41299308245440008 0 0.0691327228978319 0.40699071288372829 0 0.063786863135573219 0.4234822836218442 0 0.0691327228978319 0.40699071288372829 0 0.077714875811277062 0.4214876261871765 0 0.063786863135573219 0.4234822836218442 0 0.083205653112744402 0.44008551456546158 0 0.077714875811277062 0.4214876261871765 0 0.068330088192809502 0.43602814955066621 0 0.058238482531349368 0.43512174465279091 0 0.068330088192809502 0.43602814955066621 0 0.063786863135573219 0.4234822836218442 0 0.077714875811277062 0.4214876261871765 0 0.068330088192809502 0.43602814955066621 0 0.063786863135573219 0.4234822836218442 0 0.083205653112744402 0.44008551456546158 0 0.077714875811277062 0.4214876261871765 0 0.095892719888732866 0.42453745382262881 0 0.091303312773641829 0.3995757594209417 0 0.0691327228978319 0.40699071288372829 0 0.077714875811277062 0.4214876261871765 0 0.091303312773641829 0.3995757594209417 0 0.095892719888732866 0.42453745382262881 0 0.091303312773641829 0.3995757594209417 0 0.077714875811277062 0.4214876261871765 0 0.095892719888732866 0.42453745382262881 0 0.091303312773641829 0.3995757594209417 0 0.095892719888732866 0.42453745382262881 0 0.115428724103706 0.40267530492779557 0 0.1004821270038239 0.44949914822431608 0 0.095892719888732866 0.42453745382262881 0 0.12259086230274099 0.42947812748907283 0 0.1004821270038239 0.44949914822431608 0 0.095892719888732866 0.42453745382262881 0 0.095892719888732866 0.42453745382262881 0 0.12259086230274099 0.42947812748907283 0 0.115428724103706 0.40267530492779557 0 0.115428724103706 0.40267530492779557 0 0.119448870245615 0.38256434187866972 0 0.13692284990477191 0.38930777957628943 0 0.119448870245615 0.38256434187866972 0 0.1025776524751303 0.38486691706586951 0 0.1087205780393706 0.3656269003386084 0 0.115428724103706 0.40267530492779557 0 0.119448870245615 0.38256434187866972 0 0.1025776524751303 0.38486691706586951 0 0.1025776524751303 0.38486691706586951 0 0.1087205780393706 0.3656269003386084 0 0.086713905658550791 0.37461406501925459 0 0.091303312773641829 0.3995757594209417 0 0.115428724103706 0.40267530492779557 0 0.1025776524751303 0.38486691706586951 0 0.1087205780393706 0.3656269003386084 0 0.1202868522871179 0.34060046584014031 0 0.0915497208986496 0.34709204532757532 0 0.1087205780393706 0.3656269003386084 0 0.0915497208986496 0.34709204532757532 0 0.086713905658550791 0.37461406501925459 0 0.119448870245615 0.38256434187866972 0 0.1087205780393706 0.3656269003386084 0 0.13274728415341139 0.36410634055334368 0 0.1087205780393706 0.3656269003386084 0 0.1202868522871179 0.34060046584014031 0 0.13274728415341139 0.36410634055334368 0 0.1202868522871179 0.34060046584014031 0 0.1104734498024164 0.31171603628350752 0 0.14183880654046921 0.32250528078568202 0 0.1202868522871179 0.34060046584014031 0 0.1016552612267161 0.33013161519950079 0 0.1104734498024164 0.31171603628350752 0 0.1016552612267161 0.33013161519950079 0 0.081254576285268804 0.3210829637434266 0 0.1104734498024164 0.31171603628350752 0 0.1202868522871179 0.34060046584014031 0 0.1016552612267161 0.33013161519950079 0 0.0915497208986496 0.34709204532757532 0 0.081254576285268804 0.3210829637434266 0 0.072654821413094289 0.33942743407960763 0 0.0915497208986496 0.34709204532757532 0 0.1016552612267161 0.33013161519950079 0 0.081254576285268804 0.3210829637434266 0 0.0915497208986496 0.34709204532757532 0 0.081254576285268804 0.3210829637434266 0 0.06358813508901956 0.32234581427363851 0 0.071244474661197085 0.3036312559279935 0 0.081254576285268804 0.3210829637434266 0 0.06358813508901956 0.32234581427363851 0 0.072654821413094289 0.33942743407960763 0 0.06358813508901956 0.32234581427363851 0 0.072654821413094289 0.33942743407960763 0 0.055199983679349987 0.34246375673151652 0 0.072654821413094289 0.33942743407960763 0 0.066778362586220691 0.36264744131756171 0 0.055199983679349987 0.34246375673151652 0 0.072654821413094289 0.33942743407960763 0 0.0915497208986496 0.34709204532757532 0 0.066778362586220691 0.36264744131756171 0 0.0915497208986496 0.34709204532757532 0 0.086713905658550791 0.37461406501925459 0 0.066778362586220691 0.36264744131756171 0 0.066778362586220691 0.36264744131756171 0 0.044951457965310811 0.3555124197003488 0 0.045418656597819553 0.37354288132317159 0 0.066778362586220691 0.36264744131756171 0 0.044951457965310811 0.3555124197003488 0 0.055199983679349987 0.34246375673151652 0 0.044951457965310811 0.3555124197003488 0 0.021903196078839001 0.35746348141110651 0 0.035457090884324839 0.34144453771838768 0 0.044951457965310811 0.3555124197003488 0 0.035457090884324839 0.34144453771838768 0 0.055199983679349987 0.34246375673151652 0 0.044951457965310811 0.3555124197003488 0 0.045418656597819553 0.37354288132317159 0 0.021903196078839001 0.35746348141110651 0 0.025375843575522711 0.38021681034322929 0 0.021903196078839001 0.35746348141110651 0 0.0079023355216259559 0.37348921158265391 0 0.025375843575522711 0.38021681034322929 0 0.045418656597819553 0.37354288132317159 0 0.021903196078839001 0.35746348141110651 0 0.021903196078839001 0.35746348141110651 0 0.017151683724365509 0.3376665205351736 0 0.035457090884324839 0.34144453771838768 0 0.021903196078839001 0.35746348141110651 0 0.0095650341834115256 0.34490192427506011 0 0.017151683724365509 0.3376665205351736 0 0.021903196078839001 0.35746348141110651 0 0.0095650341834115256 0.34490192427506011 0 0.0061318462344260851 0.35417601161121459 0 -0.0050552824635438226 0.34569829691311771 0 0.0095650341834115256 0.34490192427506011 0 0.0061318462344260851 0.35417601161121459 0 0.021903196078839001 0.35746348141110651 0 0.0061318462344260851 0.35417601161121459 0 0.0079023355216259559 0.37348921158265391 0 -0.0052616759920083916 0.36132776784546622 0 0.0061318462344260851 0.35417601161121459 0 0.0079023355216259559 0.37348921158265391 0 0.0087281755863181168 0.33049580891976171 0 0.020410497070949891 0.30832150289807031 0 0.0056044744337335906 0.31412092038659428 0 0.0087281755863181168 0.33049580891976171 0 0.020410497070949891 0.30832150289807031 0 -0.003280447873963227 0.32161399115684158 0 0.0056044744337335906 0.31412092038659428 0 0.0087281755863181168 0.33049580891976171 0 0.0064742168078369342 0.3347740657525386 0 0.0087281755863181168 0.33049580891976171 0 -0.0050552824635438226 0.34569829691311771 0 0.0095650341834115256 0.34490192427506011 0 0.0064742168078369342 0.3347740657525386 0 0.0095650341834115256 0.34490192427506011 0 0.0064742168078369342 0.3347740657525386 0 0.017151683724365509 0.3376665205351736 0 0.0064742168078369342 0.3347740657525386 0 0.0087281755863181168 0.33049580891976171 0 0.017151683724365509 0.3376665205351736 0 0.0087281755863181168 0.33049580891976171 0 0.025353163704189718 0.33024288796319817 0 0.017151683724365509 0.3376665205351736 0 0.0087281755863181168 0.33049580891976171 0 0.025353163704189718 0.33024288796319817 0 0.025353163704189718 0.33024288796319817 0 0.017151683724365509 0.3376665205351736 0 0.035457090884324839 0.34144453771838768 0 0.0087281755863181168 0.33049580891976171 0 0.025353163704189718 0.33024288796319817 0 0.020410497070949891 0.30832150289807031 0 0.025353163704189718 0.33024288796319817 0 0.038017806832533571 0.30672300381527179 0 0.020410497070949891 0.30832150289807031 0 0.025353163704189718 0.33024288796319817 0 0.045812945845809312 0.32351293560108041 0 0.038017806832533571 0.30672300381527179 0 0.025353163704189718 0.33024288796319817 0 0.045812945845809312 0.32351293560108041 0 0.035457090884324839 0.34144453771838768 0 0.045812945845809312 0.32351293560108041 0 0.035457090884324839 0.34144453771838768 0 0.055199983679349987 0.34246375673151652 0 0.06358813508901956 0.32234581427363851 0 0.045812945845809312 0.32351293560108041 0 0.055199983679349987 0.34246375673151652 0 0.06358813508901956 0.32234581427363851 0 0.045812945845809312 0.32351293560108041 0 0.055148108477292443 0.3057593846019967 0 0.055148108477292443 0.3057593846019967 0 0.047586914097201803 0.29032131063477928 0 0.038017806832533571 0.30672300381527179 0 0.055148108477292443 0.3057593846019967 0 0.047586914097201803 0.29032131063477928 0 0.066935962560195753 0.28615893812798288 0 0.047586914097201803 0.29032131063477928 0 0.050578246113349837 0.27455429857722041 0 0.066935962560195753 0.28615893812798288 0 0.047586914097201803 0.29032131063477928 0 0.032092818555581597 0.28614719687637868 0 0.038017806832533571 0.30672300381527179 0 0.047586914097201803 0.29032131063477928 0 0.032092818555581597 0.28614719687637868 0 0.050578246113349837 0.27455429857722041 0 0.045812945845809312 0.32351293560108041 0 0.055148108477292443 0.3057593846019967 0 0.038017806832533571 0.30672300381527179 0 0.032092818555581597 0.28614719687637868 0 0.038017806832533571 0.30672300381527179 0 0.020410497070949891 0.30832150289807031 0 0.032092818555581597 0.28614719687637868 0 0.020410497070949891 0.30832150289807031 0 0.032092818555581597 0.28614719687637868 0 0.020410497070949891 0.30832150289807031 0 0.0083336089875100904 0.29343585490586271 0 0.032092818555581597 0.28614719687637868 0 0.0083336089875100904 0.29343585490586271 0 0.021382191810826279 0.2686960609189637 0 -0.0088759444352828343 0.31092800175718183 0 0.0056044744337335906 0.31412092038659428 0 0.0083336089875100904 0.29343585490586271 0 0.0056044744337335906 0.31412092038659428 0 0.020410497070949891 0.30832150289807031 0 0.0083336089875100904 0.29343585490586271 0 0.0073806355134042019 0.25529449578482938 0 3.3590645499582607e-05 0.27236849017123349 0 0.021382191810826279 0.2686960609189637 0 0.0083336089875100904 0.29343585490586271 0 3.3590645499582607e-05 0.27236849017123349 0 0.021382191810826279 0.2686960609189637 0 0.025149977659741599 0.24684982625080901 0 0.0073806355134042019 0.25529449578482938 0 0.021382191810826279 0.2686960609189637 0 0.025149977659741599 0.24684982625080901 0 0.021382191810826279 0.2686960609189637 0 0.043775140040213267 0.26397289085468728 0 0.025149977659741599 0.24684982625080901 0 0.045472231705318063 0.24424317023843681 0 0.050158093690384618 0.2598810672441918 0 0.025149977659741599 0.24684982625080901 0 0.050158093690384618 0.2598810672441918 0 0.025149977659741599 0.24684982625080901 0 0.043775140040213267 0.26397289085468728 0 0.050158093690384618 0.2598810672441918 0 0.032092818555581597 0.28614719687637868 0 0.043775140040213267 0.26397289085468728 0 0.032092818555581597 0.28614719687637868 0 0.021382191810826279 0.2686960609189637 0 0.043775140040213267 0.26397289085468728 0 0.032092818555581597 0.28614719687637868 0 0.043775140040213267 0.26397289085468728 0 0.050578246113349837 0.27455429857722041 0 0.050578246113349837 0.27455429857722041 0 0.063875668081316214 0.2678607518654692 0 0.066935962560195753 0.28615893812798288 0 0.043775140040213267 0.26397289085468728 0 0.050578246113349837 0.27455429857722041 0 0.050158093690384618 0.2598810672441918 0 0.050578246113349837 0.27455429857722041 0 0.056046126259945157 0.25263236173372139 0 0.063875668081316214 0.2678607518654692 0 0.050578246113349837 0.27455429857722041 0 0.050158093690384618 0.2598810672441918 0 0.056046126259945157 0.25263236173372139 0 0.045472231705318063 0.24424317023843681 0 0.050158093690384618 0.2598810672441918 0 0.056046126259945157 0.25263236173372139 0 0.050578246113349837 0.27455429857722041 0 0.056046126259945157 0.25263236173372139 0 0.078525547080241467 0.2465942846531784 0 0.067905867336300579 0.25358800162702 0 0.079567988853459573 0.27014218499250892 0 0.067905867336300579 0.25358800162702 0 0.079567988853459573 0.27014218499250892 0 0.063875668081316214 0.2678607518654692 0 0.056046126259945157 0.25263236173372139 0 0.067905867336300579 0.25358800162702 0 0.063875668081316214 0.2678607518654692 0 0.078525547080241467 0.2465942846531784 0 0.079567988853459573 0.27014218499250892 0 0.093798877441032588 0.2579700649065903 0 0.079567988853459573 0.27014218499250892 0 0.063875668081316214 0.2678607518654692 0 0.066935962560195753 0.28615893812798288 0 0.079567988853459573 0.27014218499250892 0 0.066935962560195753 0.28615893812798288 0 0.087430381393448858 0.29852998767476718 0 0.066935962560195753 0.28615893812798288 0 0.071244474661197085 0.3036312559279935 0 0.087430381393448858 0.29852998767476718 0 0.055148108477292443 0.3057593846019967 0 0.066935962560195753 0.28615893812798288 0 0.071244474661197085 0.3036312559279935 0 0.06358813508901956 0.32234581427363851 0 0.055148108477292443 0.3057593846019967 0 0.071244474661197085 0.3036312559279935 0 0.081254576285268804 0.3210829637434266 0 0.087430381393448858 0.29852998767476718 0 0.1104734498024164 0.31171603628350752 0 0.081254576285268804 0.3210829637434266 0 0.071244474661197085 0.3036312559279935 0 0.087430381393448858 0.29852998767476718 0 0.079567988853459573 0.27014218499250892 0 0.087430381393448858 0.29852998767476718 0 0.1079828451826004 0.27738565586056829 0 0.087430381393448858 0.29852998767476718 0 0.1104734498024164 0.31171603628350752 0 0.1079828451826004 0.27738565586056829 0 0.1104734498024164 0.31171603628350752 0 0.1079828451826004 0.27738565586056829 0 0.13401849175413849 0.29214957311260448 0 0.1079828451826004 0.27738565586056829 0 0.13401849175413849 0.29214957311260448 0 0.1100607559553454 0.25396994184181759 0 0.1079828451826004 0.27738565586056829 0 0.13366986361514199 0.26692500362740812 0 0.12787711237058769 0.24521089126939841 0 0.1100607559553454 0.25396994184181759 0 0.13366986361514199 0.26692500362740812 0 0.092857250133516089 0.24175825718487831 0 0.1100607559553454 0.25396994184181759 0 0.093798877441032588 0.2579700649065903 0 0.1100607559553454 0.25396994184181759 0 0.093798877441032588 0.2579700649065903 0 0.1079828451826004 0.27738565586056829 0 0.079567988853459573 0.27014218499250892 0 0.093798877441032588 0.2579700649065903 0 0.1079828451826004 0.27738565586056829 0 0.13366986361514199 0.26692500362740812 0 0.1558685034792309 0.28595093384994291 0 0.15959452244756481 0.26367036214955358 0 0.14702044576598061 0.2478904659134552 0 0.13366986361514199 0.26692500362740812 0 0.15959452244756481 0.26367036214955358 0 0.14702044576598061 0.2478904659134552 0 0.12787711237058769 0.24521089126939841 0 0.13366986361514199 0.26692500362740812 0 0.1079828451826004 0.27738565586056829 0 0.13366986361514199 0.26692500362740812 0 0.13401849175413849 0.29214957311260448 0 0.1104734498024164 0.31171603628350752 0 0.13401849175413849 0.29214957311260448 0 0.14183880654046921 0.32250528078568202 0 0.13401849175413849 0.29214957311260448 0 0.16005413832567669 0.30691349036464077 0 0.14183880654046921 0.32250528078568202 0 0.13401849175413849 0.29214957311260448 0 0.16005413832567669 0.30691349036464077 0 0.13401849175413849 0.29214957311260448 0 0.1558685034792309 0.28595093384994291 0 0.16005413832567669 0.30691349036464077 0 0.13366986361514199 0.26692500362740812 0 0.13401849175413849 0.29214957311260448 0 0.1558685034792309 0.28595093384994291 0 0.1558685034792309 0.28595093384994291 0 0.1700220001876428 0.28782965529906401 0 0.16005413832567669 0.30691349036464077 0 0.1558685034792309 0.28595093384994291 0 0.1700220001876428 0.28782965529906401 0 0.17370236977615991 0.27502287964280692 0 0.1700220001876428 0.28782965529906401 0 0.16005413832567669 0.30691349036464077 0 0.1764196225356903 0.29880027385689728 0 0.16005413832567669 0.30691349036464077 0 0.1764196225356903 0.29880027385689728 0 0.18686192329242929 0.31378732528256248 0 0.1764196225356903 0.29880027385689728 0 0.18674031124236579 0.30201460306836742 0 0.19086383386244751 0.2907864273273883 0 0.1764196225356903 0.29880027385689728 0 0.18674031124236579 0.30201460306836742 0 0.18686192329242929 0.31378732528256248 0 0.1700220001876428 0.28782965529906401 0 0.18013512871176271 0.28566990799825959 0 0.17370236977615991 0.27502287964280692 0 0.1700220001876428 0.28782965529906401 0 0.1764196225356903 0.29880027385689728 0 0.18013512871176271 0.28566990799825959 0 0.1764196225356903 0.29880027385689728 0 0.18013512871176271 0.28566990799825959 0 0.19086383386244751 0.2907864273273883 0 0.18013512871176271 0.28566990799825959 0 0.1896678171968729 0.27591030386514148 0 0.19086383386244751 0.2907864273273883 0 0.18251379545819379 0.26835647973838378 0 0.17370236977615991 0.27502287964280692 0 0.1896678171968729 0.27591030386514148 0 0.18013512871176271 0.28566990799825959 0 0.17370236977615991 0.27502287964280692 0 0.1896678171968729 0.27591030386514148 0 0.18251379545819379 0.26835647973838378 0 0.17370236977615991 0.27502287964280692 0 0.17699066645021869 0.2595722272450377 0 0.17370236977615991 0.27502287964280692 0 0.15959452244756481 0.26367036214955358 0 0.17699066645021869 0.2595722272450377 0 0.1558685034792309 0.28595093384994291 0 0.17370236977615991 0.27502287964280692 0 0.15959452244756481 0.26367036214955358 0 0.16774616909827719 0.2460930353984315 0 0.15959452244756481 0.26367036214955358 0 0.17699066645021869 0.2595722272450377 0 0.14702044576598061 0.2478904659134552 0 0.16774616909827719 0.2460930353984315 0 0.15959452244756481 0.26367036214955358 0 0.18692125413578081 0.24552837502103991 0 0.16774616909827719 0.2460930353984315 0 0.17699066645021869 0.2595722272450377 0 0.18692125413578081 0.24552837502103991 0 0.17699066645021869 0.2595722272450377 0 0.19242781921148469 0.26384338938458129 0 0.18251379545819379 0.26835647973838378 0 0.17699066645021869 0.2595722272450377 0 0.19242781921148469 0.26384338938458129 0 0.18692125413578081 0.24552837502103991 0 0.19242781921148469 0.26384338938458129 0 0.20107379594449931 0.25686311186437227 0 0.18692125413578081 0.24552837502103991 0 0.20107379594449931 0.25686311186437227 0 0.19242781921148469 0.26384338938458129 0 0.20107379594449931 0.25686311186437227 0 0.2008998280478862 0.26959186196165702 0 0.19242781921148469 0.26384338938458129 0 0.20107379594449931 0.25686311186437227 0 0.19242781921148469 0.26384338938458129 0 0.1896678171968729 0.27591030386514148 0 0.2008998280478862 0.26959186196165702 0 0.18251379545819379 0.26835647973838378 0 0.19242781921148469 0.26384338938458129 0 0.1896678171968729 0.27591030386514148 0 0.1896678171968729 0.27591030386514148 0 0.2008998280478862 0.26959186196165702 0 0.20354188417430641 0.281093168015905 0 0.2008998280478862 0.26959186196165702 0 0.2177878237122676 0.27024933667828532 0 0.20354188417430641 0.281093168015905 0 0.2177878237122676 0.27024933667828532 0 0.20354188417430641 0.281093168015905 0 0.2166033006779626 0.28924568688104418 0 0.21557305570370441 0.24515722135805329 0 0.20107379594449931 0.25686311186437227 0 0.2177878237122676 0.27024933667828532 0 0.20107379594449931 0.25686311186437227 0 0.2177878237122676 0.27024933667828532 0 0.20107379594449931 0.25686311186437227 0 0.2008998280478862 0.26959186196165702 0 0.2177878237122676 0.27024933667828532 0 0.21557305570370441 0.24515722135805329 0 0.20107379594449931 0.25686311186437227 0 0.21557305570370441 0.24515722135805329 0 0.2177878237122676 0.27024933667828532 0 0.23628031136540401 0.25597328662156199 0 0.2177878237122676 0.27024933667828532 0 0.23628031136540401 0.25597328662156199 0 0.23450185148003599 0.28363556149219821 0 0.2177878237122676 0.27024933667828532 0 0.23450185148003599 0.28363556149219821 0 0.2166033006779626 0.28924568688104418 0 0.2177878237122676 0.27024933667828532 0 0.23450185148003599 0.28363556149219821 0 0.23628031136540401 0.25597328662156199 0 0.23450185148003599 0.28363556149219821 0 0.25102838231212438 0.26850893423506528 0 0.23450185148003599 0.28363556149219821 0 0.25953152444998728 0.28294166139542631 0 0.25102838231212438 0.26850893423506528 0 0.23628031136540401 0.25597328662156199 0 0.25102838231212438 0.26850893423506528 0 0.26221447651104962 0.2479993693513689 0 0.2297645605960125 0.30261029929826411 0 0.25121587924780342 0.29702178630611242 0 0.2484846271056145 0.31037308609574782 0 0.2297645605960125 0.30261029929826411 0 0.23798581837376781 0.31938142953188831 0 0.2484846271056145 0.31037308609574782 0 0.2297645605960125 0.30261029929826411 0 0.25121587924780342 0.29702178630611242 0 0.23450185148003599 0.28363556149219821 0 0.2297645605960125 0.30261029929826411 0 0.25121587924780342 0.29702178630611242 0 0.23450185148003599 0.28363556149219821 0 0.25121587924780342 0.29702178630611242 0 0.23450185148003599 0.28363556149219821 0 0.25953152444998728 0.28294166139542631 0 0.25121587924780342 0.29702178630611242 0 0.23450185148003599 0.28363556149219821 0 0.2297645605960125 0.30261029929826411 0 0.2166033006779626 0.28924568688104418 0 0.2297645605960125 0.30261029929826411 0 0.20831324194422091 0.30819881229041318 0 0.2297645605960125 0.30261029929826411 0 0.20831324194422091 0.30819881229041318 0 0.21977364325038071 0.31928170538083578 0 0.20831324194422091 0.30819881229041318 0 0.2166033006779626 0.28924568688104418 0 0.20288664267638859 0.29424953150154581 0 0.2297645605960125 0.30261029929826411 0 0.20831324194422091 0.30819881229041318 0 0.2166033006779626 0.28924568688104418 0 0.20354188417430641 0.281093168015905 0 0.2166033006779626 0.28924568688104418 0 0.20288664267638859 0.29424953150154581 0 0.20354188417430641 0.281093168015905 0 0.20288664267638859 0.29424953150154581 0 0.19086383386244751 0.2907864273273883 0 0.20288664267638859 0.29424953150154581 0 0.19086383386244751 0.2907864273273883 0 0.19511095272300569 0.3019235629929784 0 0.1896678171968729 0.27591030386514148 0 0.20354188417430641 0.281093168015905 0 0.19086383386244751 0.2907864273273883 0 0.20831324194422091 0.30819881229041318 0 0.18686192329242929 0.31378732528256248 0 0.20831324194422091 0.30819881229041318 0 0.19511095272300569 0.3019235629929784 0 0.18686192329242929 0.31378732528256248 0 0.20831324194422091 0.30819881229041318 0 0.20288664267638859 0.29424953150154581 0 0.19511095272300569 0.3019235629929784 0 0.18674031124236579 0.30201460306836742 0 0.19086383386244751 0.2907864273273883 0 0.19511095272300569 0.3019235629929784 0 0.18674031124236579 0.30201460306836742 0 0.19511095272300569 0.3019235629929784 0 0.18686192329242929 0.31378732528256248 0 0.20141288137377081 0.31920030670374799 0 0.18686192329242929 0.31378732528256248 0 0.18608978489721489 0.32167740761667712 0 0.20831324194422091 0.30819881229041318 0 0.20141288137377081 0.31920030670374799 0 0.18686192329242929 0.31378732528256248 0 0.20141288137377081 0.31920030670374799 0 0.21212543146875301 0.33644132486871342 0 0.18608978489721489 0.32167740761667712 0 0.21212543146875301 0.33644132486871342 0 0.18608978489721489 0.32167740761667712 0 0.19231113454718349 0.34165597013868199 0 0.21212543146875301 0.33644132486871342 0 0.18608978489721489 0.32167740761667712 0 0.20831324194422091 0.30819881229041318 0 0.20141288137377081 0.31920030670374799 0 0.21977364325038071 0.31928170538083578 0 0.20141288137377081 0.31920030670374799 0 0.21212543146875301 0.33644132486871342 0 0.21977364325038071 0.31928170538083578 0 0.21977364325038071 0.31928170538083578 0 0.2290399257457596 0.32985805959198788 0 0.23798581837376781 0.31938142953188831 0 0.2297645605960125 0.30261029929826411 0 0.21977364325038071 0.31928170538083578 0 0.23798581837376781 0.31938142953188831 0 0.21212543146875301 0.33644132486871342 0 0.21977364325038071 0.31928170538083578 0 0.2290399257457596 0.32985805959198788 0 0.21212543146875301 0.33644132486871342 0 0.23060518033342339 0.33807106122714048 0 0.2290399257457596 0.32985805959198788 0 0.21212543146875301 0.33644132486871342 0 0.23060518033342339 0.33807106122714048 0 0.23816107804029091 0.35120524212074949 0 0.23060518033342339 0.33807106122714048 0 0.2290399257457596 0.32985805959198788 0 0.2430942860788903 0.33477961832711151 0 0.23060518033342339 0.33807106122714048 0 0.2430942860788903 0.33477961832711151 0 0.23816107804029091 0.35120524212074949 0 0.2484846271056145 0.31037308609574782 0 0.23798581837376781 0.31938142953188831 0 0.25508783524565293 0.32209220201309929 0 0.2430942860788903 0.33477961832711151 0 0.23798581837376781 0.31938142953188831 0 0.25508783524565293 0.32209220201309929 0 0.2290399257457596 0.32985805959198788 0 0.2430942860788903 0.33477961832711151 0 0.23798581837376781 0.31938142953188831 0 0.23439037865920059 0.35560025357312369 0 0.2386764282036242 0.37725286527910618 0 0.24311907173897271 0.36013203008567057 0 0.23439037865920059 0.35560025357312369 0 0.2386764282036242 0.37725286527910618 0 0.2492643002430574 0.365916522193315 0 0.24311907173897271 0.36013203008567057 0 0.2386764282036242 0.37725286527910618 0 0.2492643002430574 0.365916522193315 0 0.2386764282036242 0.37725286527910618 0 0.25383912625151372 0.37755129754335942 0 0.24311907173897271 0.36013203008567057 0 0.23816107804029091 0.35120524212074949 0 0.2641967246118288 0.36596915937278562 0 0.2430942860788903 0.33477961832711151 0 0.23816107804029091 0.35120524212074949 0 0.26173146881309822 0.35734024057335978 0 0.24311907173897271 0.36013203008567057 0 0.23816107804029091 0.35120524212074949 0 0.23439037865920059 0.35560025357312369 0 0.21212543146875301 0.33644132486871342 0 0.23816107804029091 0.35120524212074949 0 0.21848510057545151 0.35453686872473111 0 0.23816107804029091 0.35120524212074949 0 0.23439037865920059 0.35560025357312369 0 0.21848510057545151 0.35453686872473111 0 0.21212543146875301 0.33644132486871342 0 0.23816107804029091 0.35120524212074949 0 0.23439037865920059 0.35560025357312369 0 0.22513916990612379 0.36868200325308897 0 0.2386764282036242 0.37725286527910618 0 0.23439037865920059 0.35560025357312369 0 0.22513916990612379 0.36868200325308897 0 0.21848510057545151 0.35453686872473111 0 0.22513916990612379 0.36868200325308897 0 0.20931495008602691 0.36890180222237801 0 0.21961872799640589 0.38146559318592133 0 0.22513916990612379 0.36868200325308897 0 0.20931495008602691 0.36890180222237801 0 0.21848510057545151 0.35453686872473111 0 0.20931495008602691 0.36890180222237801 0 0.21848510057545151 0.35453686872473111 0 0.2018014651714847 0.35413555731190122 0 0.21212543146875301 0.33644132486871342 0 0.21848510057545151 0.35453686872473111 0 0.2018014651714847 0.35413555731190122 0 0.19231113454718349 0.34165597013868199 0 0.2018014651714847 0.35413555731190122 0 0.1832131523033072 0.3569188224833833 0 0.19231113454718349 0.34165597013868199 0 0.21212543146875301 0.33644132486871342 0 0.2018014651714847 0.35413555731190122 0 0.20931495008602691 0.36890180222237801 0 0.2018014651714847 0.35413555731190122 0 0.19217836357317111 0.36996972767433872 0 0.20931495008602691 0.36890180222237801 0 0.19217836357317111 0.36996972767433872 0 0.20289108470775991 0.38370682355227331 0 0.2018014651714847 0.35413555731190122 0 0.19217836357317111 0.36996972767433872 0 0.1832131523033072 0.3569188224833833 0 0.19217836357317111 0.36996972767433872 0 0.17197644233242751 0.37002706837148541 0 0.1832131523033072 0.3569188224833833 0 0.17197644233242751 0.37002706837148541 0 0.16866852787741549 0.35230522619665788 0 0.1832131523033072 0.3569188224833833 0 0.17197644233242751 0.37002706837148541 0 0.16866852787741549 0.35230522619665788 0 0.15186920095361911 0.35620033980905319 0 0.17197644233242751 0.37002706837148541 0 0.15186920095361911 0.35620033980905319 0 0.15185568245476189 0.37707061606136422 0 0.16866852787741549 0.35230522619665788 0 0.1579580049025659 0.33927316190663209 0 0.15186920095361911 0.35620033980905319 0 0.16866852787741549 0.35230522619665788 0 0.1832131523033072 0.3569188224833833 0 0.17832583889515771 0.33910673841273542 0 0.19231113454718349 0.34165597013868199 0 0.1832131523033072 0.3569188224833833 0 0.17832583889515771 0.33910673841273542 0 0.17832583889515771 0.33910673841273542 0 0.18608978489721489 0.32167740761667712 0 0.16647560889869609 0.32578562508456149 0 0.19231113454718349 0.34165597013868199 0 0.17832583889515771 0.33910673841273542 0 0.18608978489721489 0.32167740761667712 0 0.16005413832567669 0.30691349036464077 0 0.18608978489721489 0.32167740761667712 0 0.16005413832567669 0.30691349036464077 0 0.18686192329242929 0.31378732528256248 0 0.18608978489721489 0.32167740761667712 0 0.16005413832567669 0.30691349036464077 0 0.18608978489721489 0.32167740761667712 0 0.16647560889869609 0.32578562508456149 0 0.17832583889515771 0.33910673841273542 0 0.16647560889869609 0.32578562508456149 0 0.1579580049025659 0.33927316190663209 0 0.16866852787741549 0.35230522619665788 0 0.17832583889515771 0.33910673841273542 0 0.1579580049025659 0.33927316190663209 0 0.16647560889869609 0.32578562508456149 0 0.1579580049025659 0.33927316190663209 0 0.14183880654046921 0.32250528078568202 0 0.1579580049025659 0.33927316190663209 0 0.14183880654046921 0.32250528078568202 0 0.14054269679001921 0.34363296691054102 0 0.16005413832567669 0.30691349036464077 0 0.16647560889869609 0.32578562508456149 0 0.14183880654046921 0.32250528078568202 0 0.1202868522871179 0.34060046584014031 0 0.14183880654046921 0.32250528078568202 0 0.14054269679001921 0.34363296691054102 0 0.1202868522871179 0.34060046584014031 0 0.14054269679001921 0.34363296691054102 0 0.13274728415341139 0.36410634055334368 0 0.13274728415341139 0.36410634055334368 0 0.15186920095361911 0.35620033980905319 0 0.15185568245476189 0.37707061606136422 0 0.14054269679001921 0.34363296691054102 0 0.13274728415341139 0.36410634055334368 0 0.15186920095361911 0.35620033980905319 0 0.1579580049025659 0.33927316190663209 0 0.14054269679001921 0.34363296691054102 0 0.15186920095361911 0.35620033980905319 0 0.15352992747694119 0.40026604784697911 0 0.13692284990477191 0.38930777957628943 0 0.1397509022148696 0.40843688002483958 0 0.15352992747694119 0.40026604784697911 0 0.15185568245476189 0.37707061606136422 0 0.13692284990477191 0.38930777957628943 0 0.13274728415341139 0.36410634055334368 0 0.15185568245476189 0.37707061606136422 0 0.13692284990477191 0.38930777957628943 0 0.119448870245615 0.38256434187866972 0 0.13274728415341139 0.36410634055334368 0 0.13692284990477191 0.38930777957628943 0 0.115428724103706 0.40267530492779557 0 0.13692284990477191 0.38930777957628943 0 0.1397509022148696 0.40843688002483958 0 0.12259086230274099 0.42947812748907283 0 0.1397509022148696 0.40843688002483958 0 0.14363603346764281 0.42707530835579988 0 0.12259086230274099 0.42947812748907283 0 0.115428724103706 0.40267530492779557 0 0.1397509022148696 0.40843688002483958 0 0.12259086230274099 0.42947812748907283 0 0.14363603346764281 0.42707530835579988 0 0.13510526379757609 0.44116740875256688 0 0.14363603346764281 0.42707530835579988 0 0.16526304614212209 0.42908608809292892 0 0.1507341445198021 0.44370602134863157 0 0.14363603346764281 0.42707530835579988 0 0.15527295380072001 0.4153931176925994 0 0.16526304614212209 0.42908608809292892 0 0.14363603346764281 0.42707530835579988 0 0.1507341445198021 0.44370602134863157 0 0.13510526379757609 0.44116740875256688 0 0.1397509022148696 0.40843688002483958 0 0.14363603346764281 0.42707530835579988 0 0.15527295380072001 0.4153931176925994 0 0.15352992747694119 0.40026604784697911 0 0.1397509022148696 0.40843688002483958 0 0.15527295380072001 0.4153931176925994 0 0.15527295380072001 0.4153931176925994 0 0.1711416470664554 0.41062619466687539 0 0.16526304614212209 0.42908608809292892 0 0.15352992747694119 0.40026604784697911 0 0.15527295380072001 0.4153931176925994 0 0.1711416470664554 0.41062619466687539 0 0.16526304614212209 0.42908608809292892 0 0.1809560021812836 0.43814832633623357 0 0.16598328874466911 0.44273574664910909 0 0.16526304614212209 0.42908608809292892 0 0.18469425222239219 0.42125941149134333 0 0.1809560021812836 0.43814832633623357 0 0.1711416470664554 0.41062619466687539 0 0.16526304614212209 0.42908608809292892 0 0.18469425222239219 0.42125941149134333 0 0.1711416470664554 0.41062619466687539 0 0.18469425222239219 0.42125941149134333 0 0.1843100454414533 0.40126956181167389 0 0.1711416470664554 0.41062619466687539 0 0.1843100454414533 0.40126956181167389 0 0.16952276405911931 0.3912061138884545 0 0.1843100454414533 0.40126956181167389 0 0.16952276405911931 0.3912061138884545 0 0.18589276442329861 0.38606835492789338 0 0.15352992747694119 0.40026604784697911 0 0.1711416470664554 0.41062619466687539 0 0.16952276405911931 0.3912061138884545 0 0.15352992747694119 0.40026604784697911 0 0.15185568245476189 0.37707061606136422 0 0.16952276405911931 0.3912061138884545 0 0.17197644233242751 0.37002706837148541 0 0.15185568245476189 0.37707061606136422 0 0.16952276405911931 0.3912061138884545 0 0.17197644233242751 0.37002706837148541 0 0.16952276405911931 0.3912061138884545 0 0.18589276442329861 0.38606835492789338 0 0.19217836357317111 0.36996972767433872 0 0.17197644233242751 0.37002706837148541 0 0.18589276442329861 0.38606835492789338 0 0.18589276442329861 0.38606835492789338 0 0.20289108470775991 0.38370682355227331 0 0.19700705340585539 0.39579078134538831 0 0.19217836357317111 0.36996972767433872 0 0.18589276442329861 0.38606835492789338 0 0.20289108470775991 0.38370682355227331 0 0.19700705340585539 0.39579078134538831 0 0.21316338490038089 0.39704202397260657 0 0.19877798755638451 0.41086714246249401 0 0.1843100454414533 0.40126956181167389 0 0.19700705340585539 0.39579078134538831 0 0.19877798755638451 0.41086714246249401 0 0.1843100454414533 0.40126956181167389 0 0.18589276442329861 0.38606835492789338 0 0.19700705340585539 0.39579078134538831 0 0.20289108470775991 0.38370682355227331 0 0.19700705340585539 0.39579078134538831 0 0.21316338490038089 0.39704202397260657 0 0.20931495008602691 0.36890180222237801 0 0.20289108470775991 0.38370682355227331 0 0.21961872799640589 0.38146559318592133 0 0.20289108470775991 0.38370682355227331 0 0.21316338490038089 0.39704202397260657 0 0.21961872799640589 0.38146559318592133 0 0.22513916990612379 0.36868200325308897 0 0.21961872799640589 0.38146559318592133 0 0.2386764282036242 0.37725286527910618 0 0.21961872799640589 0.38146559318592133 0 0.22852735017452019 0.39320804083607441 0 0.2386764282036242 0.37725286527910618 0 0.21316338490038089 0.39704202397260657 0 0.21961872799640589 0.38146559318592133 0 0.22852735017452019 0.39320804083607441 0 0.21316338490038089 0.39704202397260657 0 0.22852735017452019 0.39320804083607441 0 0.22983145469658259 0.40925978250573319 0 0.21316338490038089 0.39704202397260657 0 0.22983145469658259 0.40925978250573319 0 0.22852735017452019 0.39320804083607441 0 0.2429624777480478 0.39890547698508871 0 0.22983145469658259 0.40925978250573319 0 0.2429624777480478 0.39890547698508871 0 0.2386764282036242 0.37725286527910618 0 0.22852735017452019 0.39320804083607441 0 0.2429624777480478 0.39890547698508871 0 0.2386764282036242 0.37725286527910618 0 0.2429624777480478 0.39890547698508871 0 0.2386764282036242 0.37725286527910618 0 0.25341304662754638 0.38974012394171498 0 0.2386764282036242 0.37725286527910618 0 0.25383912625151372 0.37755129754335942 0 0.25341304662754638 0.38974012394171498 0 0.24649952449278431 0.42147754103885982 0 0.22996656543308741 0.44177288309861867 0 0.24946733303660301 0.43176723098649622 0 0.24649952449278431 0.42147754103885982 0 0.22996656543308741 0.44177288309861867 0 0.24649952449278431 0.42147754103885982 0 0.22738899126970491 0.42458926785457718 0 0.22996656543308741 0.44177288309861867 0 0.24946733303660301 0.43176723098649622 0 0.24649952449278431 0.42147754103885982 0 0.2429624777480478 0.39890547698508871 0 0.24649952449278431 0.42147754103885982 0 0.24649952449278431 0.42147754103885982 0 0.22983145469658259 0.40925978250573319 0 0.22738899126970491 0.42458926785457718 0 0.24649952449278431 0.42147754103885982 0 0.22983145469658259 0.40925978250573319 0 0.2429624777480478 0.39890547698508871 0 0.24649952449278431 0.42147754103885982 0 0.22983145469658259 0.40925978250573319 0 0.21316338490038089 0.39704202397260657 0 0.22983145469658259 0.40925978250573319 0 0.21370806227123909 0.41789950377956148 0 0.22983145469658259 0.40925978250573319 0 0.22738899126970491 0.42458926785457718 0 0.21370806227123909 0.41789950377956148 0 0.22738899126970491 0.42458926785457718 0 0.21739304288862979 0.43200563017257382 0 0.22996656543308741 0.44177288309861867 0 0.22738899126970491 0.42458926785457718 0 0.21739304288862979 0.43200563017257382 0 0.21370806227123909 0.41789950377956148 0 0.21739304288862979 0.43200563017257382 0 0.1999317510848099 0.43097584272053618 0 0.2111195299095035 0.44359306409302351 0 0.21739304288862979 0.43200563017257382 0 0.21370806227123909 0.41789950377956148 0 0.1999317510848099 0.43097584272053618 0 0.21370806227123909 0.41789950377956148 0 0.19877798755638451 0.41086714246249401 0 0.1999317510848099 0.43097584272053618 0 0.21316338490038089 0.39704202397260657 0 0.21370806227123909 0.41789950377956148 0 0.19877798755638451 0.41086714246249401 0 0.18469425222239219 0.42125941149134333 0 0.19877798755638451 0.41086714246249401 0 0.1999317510848099 0.43097584272053618 0 0.18469425222239219 0.42125941149134333 0 0.1843100454414533 0.40126956181167389 0 0.19877798755638451 0.41086714246249401 0 0.18469425222239219 0.42125941149134333 0 0.1999317510848099 0.43097584272053618 0 0.1809560021812836 0.43814832633623357 0 0.1999317510848099 0.43097584272053618 0 0.19479511809318301 0.4526549487178691 0 0.2111195299095035 0.44359306409302351 0 0.1999317510848099 0.43097584272053618 0 0.19479511809318301 0.4526549487178691 0 0.1809560021812836 0.43814832633623357 0 0.19479511809318301 0.4526549487178691 0 0.213169792932182 0.46047172596691099 0 0.19211155850092579 0.47790980627879082 0 0.19479511809318301 0.4526549487178691 0 0.19211155850092579 0.47790980627879082 0 0.18348770279874721 0.46143911161818069 0 0.213169792932182 0.46047172596691099 0 0.2111195299095035 0.44359306409302351 0 0.22996656543308741 0.44177288309861867 0 0.19479511809318301 0.4526549487178691 0 0.213169792932182 0.46047172596691099 0 0.2111195299095035 0.44359306409302351 0 0.21739304288862979 0.43200563017257382 0 0.2111195299095035 0.44359306409302351 0 0.22996656543308741 0.44177288309861867 0 0.22996656543308741 0.44177288309861867 0 0.22854105436186559 0.46372788353366717 0 0.24141841662185301 0.45603819576859073 0 0.213169792932182 0.46047172596691099 0 0.22854105436186559 0.46372788353366717 0 0.221321310837439 0.47674074212904899 0 0.213169792932182 0.46047172596691099 0 0.22996656543308741 0.44177288309861867 0 0.22854105436186559 0.46372788353366717 0 0.24141841662185301 0.45603819576859073 0 0.23645949407781469 0.47608243786178739 0 0.25047151807745072 0.47036873115219768 0 0.22854105436186559 0.46372788353366717 0 0.24141841662185301 0.45603819576859073 0 0.23645949407781469 0.47608243786178739 0 0.24141841662185301 0.45603819576859073 0 0.25047151807745072 0.47036873115219768 0 0.25477099823403621 0.45804476415031298 0 0.24141841662185301 0.45603819576859073 0 0.25282491994113748 0.44831200937164878 0 0.25477099823403621 0.45804476415031298 0 0.22996656543308741 0.44177288309861867 0 0.24141841662185301 0.45603819576859073 0 0.24583280085865111 0.44361242472787987 0 0.24946733303660301 0.43176723098649622 0 0.22996656543308741 0.44177288309861867 0 0.24583280085865111 0.44361242472787987 0 0.24141841662185301 0.45603819576859073 0 0.24583280085865111 0.44361242472787987 0 0.25282491994113748 0.44831200937164878 0 0.24904418528453851 0.48634810883828161 0 0.23645949407781469 0.47608243786178739 0 0.23352830384551029 0.49999999999999978 0 0.24904418528453851 0.48634810883828161 0 0.23352830384551029 0.49999999999999978 0 0.25181722630913472 0.5 0 0.24904418528453851 0.48634810883828161 0 0.23645949407781469 0.47608243786178739 0 0.25047151807745072 0.47036873115219768 0 0.23645949407781469 0.47608243786178739 0 0.221321310837439 0.47674074212904899 0 0.23352830384551029 0.49999999999999978 0 0.22854105436186559 0.46372788353366717 0 0.23645949407781469 0.47608243786178739 0 0.221321310837439 0.47674074212904899 0 0.23352830384551029 0.49999999999999978 0 0.2128199311732181 0.48895490313939532 0 0.21702906166474581 0.5 0 0.23352830384551029 0.49999999999999978 0 0.2128199311732181 0.48895490313939532 0 0.221321310837439 0.47674074212904899 0 0.23352830384551029 0.49999999999999978 0 0.2128199311732181 0.48895490313939532 0 0.2128199311732181 0.48895490313939532 0 0.21702906166474581 0.5 0 0.20052981948398141 0.49999999999999989 0 0.213169792932182 0.46047172596691099 0 0.221321310837439 0.47674074212904899 0 0.19211155850092579 0.47790980627879082 0 0.221321310837439 0.47674074212904899 0 0.2128199311732181 0.48895490313939532 0 0.19211155850092579 0.47790980627879082 0 0.2128199311732181 0.48895490313939532 0 0.19211155850092579 0.47790980627879082 0 0.2128199311732181 0.48895490313939532 0 0.20052981948398141 0.49999999999999989 0 0.19295831529489699 0.4905304616351287 0 0.2128199311732181 0.48895490313939532 0 0.19211155850092579 0.47790980627879082 0 0.19295831529489699 0.4905304616351287 0 0.20052981948398141 0.49999999999999989 0 0.1839227339461352 0.49861489743603538 0 0.20052981948398141 0.49999999999999989 0 0.19295831529489699 0.4905304616351287 0 0.1839227339461352 0.49861489743603538 0 0.19211155850092579 0.47790980627879082 0 0.19295831529489699 0.4905304616351287 0 0.1809625144841838 0.48570342190566712 0 0.1839227339461352 0.49861489743603538 0 0.1809625144841838 0.48570342190566712 0 0.16731564840828889 0.49722979487207219 0 0.1839227339461352 0.49861489743603538 0 0.16731564840828889 0.49722979487207219 0 0.1839227339461352 0.49861489743603538 0 0.1669427425872391 0.49999999999999922 0 0.16731564840828889 0.49722979487207219 0 0.19295831529489699 0.4905304616351287 0 0.1839227339461352 0.49861489743603538 0 0.1809625144841838 0.48570342190566712 0 0.1809625144841838 0.48570342190566712 0 0.16731564840828889 0.49722979487207219 0 0.16935941711846161 0.48204725214512889 0 0.16731564840828889 0.49722979487207219 0 0.157708884996551 0.48584061526662409 0 0.14611751268168829 0.49546177892012921 0 0.16731564840828889 0.49722979487207219 0 0.14611751268168829 0.49546177892012921 0 0.1669427425872391 0.49999999999999922 0 0.16731564840828889 0.49722979487207219 0 0.14611751268168829 0.49546177892012921 0 0.1669427425872391 0.49999999999999922 0 0.16731564840828889 0.49722979487207219 0 0.16731564840828889 0.49722979487207219 0 0.16935941711846161 0.48204725214512889 0 0.16731564840828889 0.49722979487207219 0 0.157708884996551 0.48584061526662409 0 0.16935941711846161 0.48204725214512889 0 0.16382575626869561 0.4735735187060508 0 0.15802571703479451 0.46684670821381258 0 0.1531189490294651 0.47544631339495541 0 0.157708884996551 0.48584061526662409 0 0.16382575626869561 0.4735735187060508 0 0.1531189490294651 0.47544631339495541 0 0.157708884996551 0.48584061526662409 0 0.16382575626869561 0.4735735187060508 0 0.16935941711846161 0.48204725214512889 0 0.16935941711846161 0.48204725214512889 0 0.17140318582863401 0.46686470941818559 0 0.16382575626869561 0.4735735187060508 0 0.16935941711846161 0.48204725214512889 0 0.17140318582863401 0.46686470941818559 0 0.1809625144841838 0.48570342190566712 0 0.16935941711846161 0.48204725214512889 0 0.17140318582863401 0.46686470941818559 0 0.19211155850092579 0.47790980627879082 0 0.1809625144841838 0.48570342190566712 0 0.17140318582863401 0.46686470941818559 0 0.19211155850092579 0.47790980627879082 0 0.17140318582863401 0.46686470941818559 0 0.19479511809318301 0.4526549487178691 0 0.18348770279874721 0.46143911161818069 0 0.17341546959919829 0.45191605883299152 0 0.19211155850092579 0.47790980627879082 0 0.18348770279874721 0.46143911161818069 0 0.17140318582863401 0.46686470941818559 0 0.18348770279874721 0.46143911161818069 0 0.17341546959919829 0.45191605883299152 0 0.17140318582863401 0.46686470941818559 0 0.17341546959919829 0.45191605883299152 0 0.17140318582863401 0.46686470941818559 0 0.19479511809318301 0.4526549487178691 0 0.1809560021812836 0.43814832633623357 0 0.17341546959919829 0.45191605883299152 0 0.1809560021812836 0.43814832633623357 0 0.17341546959919829 0.45191605883299152 0 0.16598328874466911 0.44273574664910909 0 0.17341546959919829 0.45191605883299152 0 0.16598328874466911 0.44273574664910909 0 0.15954778128093949 0.4508222386347599 0 0.16598328874466911 0.44273574664910909 0 0.15954778128093949 0.4508222386347599 0 0.1507341445198021 0.44370602134863157 0 0.16526304614212209 0.42908608809292892 0 0.16598328874466911 0.44273574664910909 0 0.1507341445198021 0.44370602134863157 0 0.16382575626869561 0.4735735187060508 0 0.1651762257979181 0.46354347419730452 0 0.17140318582863401 0.46686470941818559 0 0.1651762257979181 0.46354347419730452 0 0.17140318582863401 0.46686470941818559 0 0.17341546959919829 0.45191605883299152 0 0.1651762257979181 0.46354347419730452 0 0.17140318582863401 0.46686470941818559 0 0.17341546959919829 0.45191605883299152 0 0.15954778128093949 0.4508222386347599 0 0.1651762257979181 0.46354347419730452 0 0.15954778128093949 0.4508222386347599 0 0.1651762257979181 0.46354347419730452 0 0.1582471669695637 0.45974252444074731 0 0.16382575626869561 0.4735735187060508 0 0.1651762257979181 0.46354347419730452 0 0.15802571703479451 0.46684670821381258 0 0.1651762257979181 0.46354347419730452 0 0.1582471669695637 0.45974252444074731 0 0.15802571703479451 0.46684670821381258 0 0.14976048710833001 0.46192771033000529 0 0.1507341445198021 0.44370602134863157 0 0.136404492151351 0.45486193181106682 0 0.1582471669695637 0.45974252444074731 0 0.15802571703479451 0.46684670821381258 0 0.14976048710833001 0.46192771033000529 0 0.15802571703479451 0.46684670821381258 0 0.14976048710833001 0.46192771033000529 0 0.1531189490294651 0.47544631339495541 0 0.15954778128093949 0.4508222386347599 0 0.1582471669695637 0.45974252444074731 0 0.14976048710833001 0.46192771033000529 0 0.14976048710833001 0.46192771033000529 0 0.136404492151351 0.45486193181106682 0 0.13663143795624749 0.46910754811773492 0 0.15954778128093949 0.4508222386347599 0 0.14976048710833001 0.46192771033000529 0 0.1507341445198021 0.44370602134863157 0 0.1507341445198021 0.44370602134863157 0 0.13510526379757609 0.44116740875256688 0 0.136404492151351 0.45486193181106682 0 0.1221607865463437 0.4507156547582637 0 0.12259086230274099 0.42947812748907283 0 0.13510526379757609 0.44116740875256688 0 0.1221607865463437 0.4507156547582637 0 0.13510526379757609 0.44116740875256688 0 0.136404492151351 0.45486193181106682 0 0.136404492151351 0.45486193181106682 0 0.1267882431275838 0.46370707134437261 0 0.13663143795624749 0.46910754811773492 0 0.1221607865463437 0.4507156547582637 0 0.136404492151351 0.45486193181106682 0 0.1267882431275838 0.46370707134437261 0 0.1267882431275838 0.46370707134437261 0 0.12569724768963239 0.47617993877849962 0 0.13663143795624749 0.46910754811773492 0 0.12569724768963239 0.47617993877849962 0 0.13663143795624749 0.46910754811773492 0 0.1364132019148096 0.48384982340983701 0 0.13663143795624749 0.46910754811773492 0 0.1364132019148096 0.48384982340983701 0 0.14361111091913481 0.47574478002545789 0 0.1249193769550877 0.49369376296818718 0 0.1364132019148096 0.48384982340983701 0 0.14611751268168829 0.49546177892012921 0 0.1249193769550877 0.49369376296818718 0 0.14611751268168829 0.49546177892012921 0 0.1249193769550877 0.49369376296818718 0 0.12569724768963239 0.47617993877849962 0 0.1364132019148096 0.48384982340983701 0 0.1249193769550877 0.49369376296818718 0 0.13738437864054501 0.5 0 0.14611751268168829 0.49546177892012921 0 0.1364132019148096 0.48384982340983701 0 0.14611751268168829 0.49546177892012921 0 0.14718343377546941 0.48347361591025501 0 0.1669427425872391 0.49999999999999922 0 0.13738437864054501 0.5 0 0.14611751268168829 0.49546177892012921 0 0.157708884996551 0.48584061526662409 0 0.14611751268168829 0.49546177892012921 0 0.14718343377546941 0.48347361591025501 0 0.157708884996551 0.48584061526662409 0 0.1531189490294651 0.47544631339495541 0 0.14718343377546941 0.48347361591025501 0 0.14976048710833001 0.46192771033000529 0 0.1531189490294651 0.47544631339495541 0 0.14361111091913481 0.47574478002545789 0 0.14976048710833001 0.46192771033000529 0 0.13663143795624749 0.46910754811773492 0 0.14361111091913481 0.47574478002545789 0 0.1364132019148096 0.48384982340983701 0 0.14361111091913481 0.47574478002545789 0 0.14718343377546941 0.48347361591025501 0 0.1531189490294651 0.47544631339495541 0 0.14361111091913481 0.47574478002545789 0 0.14718343377546941 0.48347361591025501 0 0.35832214194920592 0.47929915408112939 0 0.34611268429232461 0.46591887339206078 0 0.3375369348076922 0.4829399206954248 0 0.35832214194920592 0.47929915408112939 0 0.35850557312216419 0.5 0 0.3375369348076922 0.4829399206954248 0 0.35850557312216419 0.5 0 0.37801407526051067 0.48065415083330842 0 0.38797204790529932 0.5 0 0.35832214194920592 0.47929915408112939 0 0.35850557312216419 0.5 0 0.37801407526051067 0.48065415083330842 0 0.35832214194920592 0.47929915408112939 0 0.36980735363827261 0.46050290225189661 0 0.37801407526051067 0.48065415083330842 0 0.36980735363827261 0.46050290225189661 0 0.34502769605759259 0.44546544446971242 0 0.36959298495063608 0.43610817863788948 0 0.35832214194920592 0.47929915408112939 0 0.36980735363827261 0.46050290225189661 0 0.34611268429232461 0.46591887339206078 0 0.36980735363827261 0.46050290225189661 0 0.34502769605759259 0.44546544446971242 0 0.34611268429232461 0.46591887339206078 0 0.36980735363827261 0.46050290225189661 0 0.34611268429232461 0.46591887339206078 0 0.34611268429232461 0.46591887339206078 0 0.3317687487832644 0.45597005559148451 0 0.32241801494637662 0.47133484453222518 0 0.34502769605759259 0.44546544446971242 0 0.34611268429232461 0.46591887339206078 0 0.3317687487832644 0.45597005559148451 0 0.34611268429232461 0.46591887339206078 0 0.32241801494637662 0.47133484453222518 0 0.34502769605759259 0.44546544446971242 0 0.3317687487832644 0.45597005559148451 0 0.32480939915707069 0.44218818576869201 0 0.34502769605759259 0.44546544446971242 0 0.32480939915707069 0.44218818576869201 0 0.33523501366627878 0.43221560569608392 0 0.3107318966111981 0.4514989769174147 0 0.3227404476219688 0.42624713816244092 0 0.3317687487832644 0.45597005559148451 0 0.32480939915707069 0.44218818576869201 0 0.3107318966111981 0.4514989769174147 0 0.32480939915707069 0.44218818576869201 0 0.3107318966111981 0.4514989769174147 0 0.3227404476219688 0.42624713816244092 0 0.3317687487832644 0.45597005559148451 0 0.32241801494637662 0.47133484453222518 0 0.3107318966111981 0.4514989769174147 0 0.32241801494637662 0.47133484453222518 0 0.3375369348076922 0.4829399206954248 0 0.31372501333874958 0.48784291822244708 0 0.34611268429232461 0.46591887339206078 0 0.32241801494637662 0.47133484453222518 0 0.3375369348076922 0.4829399206954248 0 0.35850557312216419 0.5 0 0.3375369348076922 0.4829399206954248 0 0.32903909833902928 0.5 0 0.32903909833902928 0.5 0 0.31372501333874958 0.48784291822244708 0 0.29957262355589431 0.5 0 0.3375369348076922 0.4829399206954248 0 0.32903909833902928 0.5 0 0.31372501333874958 0.48784291822244708 0 0.31372501333874958 0.48784291822244708 0 0.30130976803097798 0.48891801032572652 0 0.29957262355589431 0.5 0 0.31372501333874958 0.48784291822244708 0 0.30130976803097798 0.48891801032572652 0 0.29872334560042851 0.47675081567238892 0 0.30130976803097798 0.48891801032572652 0 0.29957262355589431 0.5 0 0.28978827390519868 0.49553967616935518 0 0.32241801494637662 0.47133484453222518 0 0.29872334560042851 0.47675081567238892 0 0.32241801494637662 0.47133484453222518 0 0.31372501333874958 0.48784291822244708 0 0.29872334560042851 0.47675081567238892 0 0.29872334560042851 0.47675081567238892 0 0.28397488520641462 0.48012192141307769 0 0.28978827390519868 0.49553967616935518 0 0.29872334560042851 0.47675081567238892 0 0.28929399795500932 0.47058792179259418 0 0.29703527816799058 0.46117092995693892 0 0.29872334560042851 0.47675081567238892 0 0.28929399795500932 0.47058792179259418 0 0.28397488520641462 0.48012192141307769 0 0.29872334560042851 0.47675081567238892 0 0.28397488520641462 0.48012192141307769 0 0.28929399795500932 0.47058792179259418 0 0.28397488520641462 0.48012192141307769 0 0.27920072977811172 0.47805830749059319 0 0.28397488520641462 0.48012192141307769 0 0.28978827390519868 0.49553967616935518 0 0.27010614877275918 0.50000000000000067 0 0.29957262355589431 0.5 0 0.28978827390519868 0.49553967616935518 0 0.27010614877275918 0.50000000000000067 0 0.30130976803097798 0.48891801032572652 0 0.29872334560042851 0.47675081567238892 0 0.28978827390519868 0.49553967616935518 0 0.29872334560042851 0.47675081567238892 0 0.28978827390519868 0.49553967616935518 0 0.28397488520641462 0.48012192141307769 0 0.27010614877275918 0.50000000000000067 0 0.27920072977811172 0.47805830749059319 0 0.27010614877275918 0.50000000000000067 0 0.26909437115437917 0.48384867389528768 0 0.26130641782501518 0.49139676135406141 0 0.27010614877275918 0.50000000000000067 0 0.27920072977811172 0.47805830749059319 0 0.26909437115437917 0.48384867389528768 0 0.27010614877275918 0.50000000000000067 0 0.27920072977811172 0.47805830749059319 0 0.27920072977811172 0.47805830749059319 0 0.27306774476234302 0.47644699960251641 0 0.26909437115437917 0.48384867389528768 0 0.27920072977811172 0.47805830749059319 0 0.27306774476234302 0.47644699960251641 0 0.27643472525740193 0.46726539210963169 0 0.26824582816420722 0.47348896141386071 0 0.27306774476234302 0.47644699960251641 0 0.27643472525740193 0.46726539210963169 0 0.26824582816420722 0.47348896141386071 0 0.26909437115437917 0.48384867389528768 0 0.25993240985832161 0.47939275616227872 0 0.26824582816420722 0.47348896141386071 0 0.27306774476234302 0.47644699960251641 0 0.26909437115437917 0.48384867389528768 0 0.24904418528453851 0.48634810883828161 0 0.25993240985832161 0.47939275616227872 0 0.25047151807745072 0.47036873115219768 0 0.26824582816420722 0.47348896141386071 0 0.25993240985832161 0.47939275616227872 0 0.26165523792153211 0.46576309323832682 0 0.25993240985832161 0.47939275616227872 0 0.25047151807745072 0.47036873115219768 0 0.26165523792153211 0.46576309323832682 0 0.27010614877275918 0.50000000000000067 0 0.25181722630913472 0.5 0 0.26130641782501518 0.49139676135406141 0 0.24904418528453851 0.48634810883828161 0 0.25993240985832161 0.47939275616227872 0 0.26130641782501518 0.49139676135406141 0 0.24904418528453851 0.48634810883828161 0 0.25181722630913472 0.5 0 0.26130641782501518 0.49139676135406141 0 0.26909437115437917 0.48384867389528768 0 0.25993240985832161 0.47939275616227872 0 0.26130641782501518 0.49139676135406141 0 0.26490489917960358 0.45079530358348557 0 0.25548676926057468 0.44017180441404491 0 0.26331147225899149 0.43380076267102891 0 0.24946733303660301 0.43176723098649622 0 0.24583280085865111 0.44361242472787987 0 0.25548676926057468 0.44017180441404491 0 0.24583280085865111 0.44361242472787987 0 0.25548676926057468 0.44017180441404491 0 0.25282491994113748 0.44831200937164878 0 0.26490489917960358 0.45079530358348557 0 0.25548676926057468 0.44017180441404491 0 0.25282491994113748 0.44831200937164878 0 0.26490489917960358 0.45079530358348557 0 0.25282491994113748 0.44831200937164878 0 0.25477099823403621 0.45804476415031298 0 0.25047151807745072 0.47036873115219768 0 0.25477099823403621 0.45804476415031298 0 0.26165523792153211 0.46576309323832682 0 0.26490489917960358 0.45079530358348557 0 0.25477099823403621 0.45804476415031298 0 0.26165523792153211 0.46576309323832682 0 0.26490489917960358 0.45079530358348557 0 0.27160577401557351 0.46248804296782559 0 0.27679169795675967 0.45600994403837303 0 0.26490489917960358 0.45079530358348557 0 0.26165523792153211 0.46576309323832682 0 0.27160577401557351 0.46248804296782559 0 0.26824582816420722 0.47348896141386071 0 0.27160577401557351 0.46248804296782559 0 0.27643472525740193 0.46726539210963169 0 0.26824582816420722 0.47348896141386071 0 0.26165523792153211 0.46576309323832682 0 0.27160577401557351 0.46248804296782559 0 0.27160577401557351 0.46248804296782559 0 0.27643472525740193 0.46726539210963169 0 0.27679169795675967 0.45600994403837303 0 0.27643472525740193 0.46726539210963169 0 0.27679169795675967 0.45600994403837303 0 0.28829531078346382 0.45611661498118572 0 0.27903440424894049 0.4453257315987294 0 0.26331147225899149 0.43380076267102891 0 0.26490489917960358 0.45079530358348557 0 0.27903440424894049 0.4453257315987294 0 0.26331147225899149 0.43380076267102891 0 0.26490489917960358 0.45079530358348557 0 0.27679169795675967 0.45600994403837303 0 0.27903440424894049 0.4453257315987294 0 0.27903440424894049 0.4453257315987294 0 0.2917470315179379 0.44281751567604499 0 0.28179675760275558 0.42932557237874241 0 0.27679169795675967 0.45600994403837303 0 0.27903440424894049 0.4453257315987294 0 0.28829531078346382 0.45611661498118572 0 0.27903440424894049 0.4453257315987294 0 0.2917470315179379 0.44281751567604499 0 0.28829531078346382 0.45611661498118572 0 0.2917470315179379 0.44281751567604499 0 0.28829531078346382 0.45611661498118572 0 0.29813183988985342 0.45090032042111128 0 0.27920072977811172 0.47805830749059319 0 0.27643472525740193 0.46726539210963169 0 0.28829531078346382 0.45611661498118572 0 0.28929399795500932 0.47058792179259418 0 0.27920072977811172 0.47805830749059319 0 0.28829531078346382 0.45611661498118572 0 0.27920072977811172 0.47805830749059319 0 0.28829531078346382 0.45611661498118572 0 0.28829531078346382 0.45611661498118572 0 0.29703527816799058 0.46117092995693892 0 0.29813183988985342 0.45090032042111128 0 0.28929399795500932 0.47058792179259418 0 0.28829531078346382 0.45611661498118572 0 0.29703527816799058 0.46117092995693892 0 0.29872334560042851 0.47675081567238892 0 0.29703527816799058 0.46117092995693892 0 0.3107318966111981 0.4514989769174147 0 0.29872334560042851 0.47675081567238892 0 0.3107318966111981 0.4514989769174147 0 0.32241801494637662 0.47133484453222518 0 0.29872334560042851 0.47675081567238892 0 0.3107318966111981 0.4514989769174147 0 0.29703527816799058 0.46117092995693892 0 0.29813183988985342 0.45090032042111128 0 0.3107318966111981 0.4514989769174147 0 0.30159082278473881 0.44219288247638061 0 0.3107318966111981 0.4514989769174147 0 0.30884109342504262 0.43428586920116352 0 0.2917470315179379 0.44281751567604499 0 0.30159082278473881 0.44219288247638061 0 0.29850225247966211 0.43146173016616862 0 0.2917470315179379 0.44281751567604499 0 0.30159082278473881 0.44219288247638061 0 0.29813183988985342 0.45090032042111128 0 0.30159082278473881 0.44219288247638061 0 0.29813183988985342 0.45090032042111128 0 0.3107318966111981 0.4514989769174147 0 0.30884109342504262 0.43428586920116352 0 0.29850225247966211 0.43146173016616862 0 0.30862162828234507 0.42004495563460759 0 0.29850225247966211 0.43146173016616862 0 0.30862162828234507 0.42004495563460759 0 0.29547148538100448 0.41817397575591742 0 0.30159082278473881 0.44219288247638061 0 0.30884109342504262 0.43428586920116352 0 0.29850225247966211 0.43146173016616862 0 0.30862162828234507 0.42004495563460759 0 0.30304430461131138 0.40735012112542651 0 0.3196782615082488 0.40265332564926309 0 0.30862162828234507 0.42004495563460759 0 0.30304430461131138 0.40735012112542651 0 0.29547148538100448 0.41817397575591742 0 0.30304430461131138 0.40735012112542651 0 0.29062365375375682 0.40708788978866228 0 0.29547148538100448 0.41817397575591742 0 0.29062365375375682 0.40708788978866228 0 0.29547148538100448 0.41817397575591742 0 0.28288479604298378 0.41446876034122271 0 0.29547148538100448 0.41817397575591742 0 0.28288479604298378 0.41446876034122271 0 0.28179675760275558 0.42932557237874241 0 0.29062365375375682 0.40708788978866228 0 0.28288479604298378 0.41446876034122271 0 0.28001120465417539 0.40182109974822727 0 0.29850225247966211 0.43146173016616862 0 0.29547148538100448 0.41817397575591742 0 0.28179675760275558 0.42932557237874241 0 0.2917470315179379 0.44281751567604499 0 0.29850225247966211 0.43146173016616862 0 0.28179675760275558 0.42932557237874241 0 0.28179675760275558 0.42932557237874241 0 0.27042562322166658 0.41684269204638819 0 0.26331147225899149 0.43380076267102891 0 0.27903440424894049 0.4453257315987294 0 0.28179675760275558 0.42932557237874241 0 0.26331147225899149 0.43380076267102891 0 0.27042562322166658 0.41684269204638819 0 0.26380858941988822 0.4002294757553399 0 0.28001120465417539 0.40182109974822727 0 0.28288479604298378 0.41446876034122271 0 0.28179675760275558 0.42932557237874241 0 0.27042562322166658 0.41684269204638819 0 0.28288479604298378 0.41446876034122271 0 0.27042562322166658 0.41684269204638819 0 0.28001120465417539 0.40182109974822727 0 0.24649952449278431 0.42147754103885982 0 0.25492995388566009 0.41993008507457552 0 0.26380858941988822 0.4002294757553399 0 0.27042562322166658 0.41684269204638819 0 0.25492995388566009 0.41993008507457552 0 0.26380858941988822 0.4002294757553399 0 0.24649952449278431 0.42147754103885982 0 0.26380858941988822 0.4002294757553399 0 0.2429624777480478 0.39890547698508871 0 0.24649952449278431 0.42147754103885982 0 0.26380858941988822 0.4002294757553399 0 0.24946733303660301 0.43176723098649622 0 0.24649952449278431 0.42147754103885982 0 0.26331147225899149 0.43380076267102891 0 0.24649952449278431 0.42147754103885982 0 0.25492995388566009 0.41993008507457552 0 0.26331147225899149 0.43380076267102891 0 0.24649952449278431 0.42147754103885982 0 0.26331147225899149 0.43380076267102891 0 0.27042562322166658 0.41684269204638819 0 0.25492995388566009 0.41993008507457552 0 0.26331147225899149 0.43380076267102891 0 0.24946733303660301 0.43176723098649622 0 0.25548676926057468 0.44017180441404491 0 0.26331147225899149 0.43380076267102891 0 0.26350653962281989 0.38010735630523079 0 0.25341304662754638 0.38974012394171498 0 0.26380858941988822 0.4002294757553399 0 0.26350653962281989 0.38010735630523079 0 0.25383912625151372 0.37755129754335942 0 0.25710864090743918 0.37145542319719338 0 0.26350653962281989 0.38010735630523079 0 0.25383912625151372 0.37755129754335942 0 0.25341304662754638 0.38974012394171498 0 0.2429624777480478 0.39890547698508871 0 0.25341304662754638 0.38974012394171498 0 0.26380858941988822 0.4002294757553399 0 0.26380858941988822 0.4002294757553399 0 0.28001120465417539 0.40182109974822727 0 0.28036865154730628 0.37990086281960789 0 0.26350653962281989 0.38010735630523079 0 0.28036865154730628 0.37990086281960789 0 0.2641967246118288 0.36596915937278562 0 0.26380858941988822 0.4002294757553399 0 0.28036865154730628 0.37990086281960789 0 0.26350653962281989 0.38010735630523079 0 0.26380858941988822 0.4002294757553399 0 0.28036865154730628 0.37990086281960789 0 0.28036865154730628 0.37990086281960789 0 0.29170647807930872 0.39362549197251728 0 0.2987730087010142 0.37934426936791982 0 0.28036865154730628 0.37990086281960789 0 0.29170647807930872 0.39362549197251728 0 0.28001120465417539 0.40182109974822727 0 0.28036865154730628 0.37990086281960789 0 0.29170647807930872 0.39362549197251728 0 0.29062365375375682 0.40708788978866228 0 0.28001120465417539 0.40182109974822727 0 0.29170647807930872 0.39362549197251728 0 0.30304430461131138 0.40735012112542651 0 0.29062365375375682 0.40708788978866228 0 0.29170647807930872 0.39362549197251728 0 0.30304430461131138 0.40735012112542651 0 0.30637452063024528 0.39219955594670219 0 0.3196782615082488 0.40265332564926309 0 0.30304430461131138 0.40735012112542651 0 0.29170647807930872 0.39362549197251728 0 0.30304430461131138 0.40735012112542651 0 0.29170647807930872 0.39362549197251728 0 0.30637452063024528 0.39219955594670219 0 0.30637452063024528 0.39219955594670219 0 0.2987730087010142 0.37934426936791982 0 0.31661607539452802 0.37905951313608538 0 0.29170647807930872 0.39362549197251728 0 0.30637452063024528 0.39219955594670219 0 0.2987730087010142 0.37934426936791982 0 0.31661607539452802 0.37905951313608538 0 0.32905198958534931 0.38831461949406398 0 0.3196782615082488 0.40265332564926309 0 0.31661607539452802 0.37905951313608538 0 0.32905198958534931 0.38831461949406398 0 0.33389487655237682 0.3658352592629312 0 0.32905198958534931 0.38831461949406398 0 0.34270248502322931 0.38427053755298168 0 0.33389487655237682 0.3658352592629312 0 0.32905198958534931 0.38831461949406398 0 0.34270248502322931 0.38427053755298168 0 0.33272146632259869 0.40525883785771122 0 0.34270248502322931 0.38427053755298168 0 0.33272146632259869 0.40525883785771122 0 0.34270248502322931 0.38427053755298168 0 0.33272146632259869 0.40525883785771122 0 0.34670895149724801 0.40816004440777182 0 0.31661607539452802 0.37905951313608538 0 0.3196782615082488 0.40265332564926309 0 0.32905198958534931 0.38831461949406398 0 0.33272146632259869 0.40525883785771122 0 0.3196782615082488 0.40265332564926309 0 0.30637452063024528 0.39219955594670219 0 0.31661607539452802 0.37905951313608538 0 0.3196782615082488 0.40265332564926309 0 0.3196782615082488 0.40265332564926309 0 0.3227404476219688 0.42624713816244092 0 0.30862162828234507 0.42004495563460759 0 0.3196782615082488 0.40265332564926309 0 0.3227404476219688 0.42624713816244092 0 0.33272146632259869 0.40525883785771122 0 0.3196782615082488 0.40265332564926309 0 0.3227404476219688 0.42624713816244092 0 0.33272146632259869 0.40525883785771122 0 0.3227404476219688 0.42624713816244092 0 0.32480939915707069 0.44218818576869201 0 0.3227404476219688 0.42624713816244092 0 0.3107318966111981 0.4514989769174147 0 0.30884109342504262 0.43428586920116352 0 0.3227404476219688 0.42624713816244092 0 0.32480939915707069 0.44218818576869201 0 0.3227404476219688 0.42624713816244092 0 0.33523501366627878 0.43221560569608392 0 0.30884109342504262 0.43428586920116352 0 0.30862162828234507 0.42004495563460759 0 0.3227404476219688 0.42624713816244092 0 0.34502769605759259 0.44546544446971242 0 0.33523501366627878 0.43221560569608392 0 0.34795858503051302 0.425881111768525 0 0.3227404476219688 0.42624713816244092 0 0.33523501366627878 0.43221560569608392 0 0.33659904832278342 0.4201421825902541 0 0.33523501366627878 0.43221560569608392 0 0.33659904832278342 0.4201421825902541 0 0.34795858503051302 0.425881111768525 0 0.33272146632259869 0.40525883785771122 0 0.3227404476219688 0.42624713816244092 0 0.33659904832278342 0.4201421825902541 0 0.33272146632259869 0.40525883785771122 0 0.33659904832278342 0.4201421825902541 0 0.34670895149724801 0.40816004440777182 0 0.33659904832278342 0.4201421825902541 0 0.34670895149724801 0.40816004440777182 0 0.34795858503051302 0.425881111768525 0 0.34670895149724801 0.40816004440777182 0 0.34795858503051302 0.425881111768525 0 0.36336601300371613 0.41450991002864218 0 0.34670895149724801 0.40816004440777182 0 0.36336601300371613 0.41450991002864218 0 0.35690611128064731 0.3988976866485166 0 0.34502769605759259 0.44546544446971242 0 0.34795858503051302 0.425881111768525 0 0.36959298495063608 0.43610817863788948 0 0.34795858503051302 0.425881111768525 0 0.36959298495063608 0.43610817863788948 0 0.36336601300371613 0.41450991002864218 0 0.36959298495063608 0.43610817863788948 0 0.36336601300371613 0.41450991002864218 0 0.38530342098431941 0.41064856824057122 0 0.36336601300371613 0.41450991002864218 0 0.3736470799201031 0.39378130610698531 0 0.38530342098431941 0.41064856824057122 0 0.3736470799201031 0.39378130610698531 0 0.3601059063978746 0.38125551426405008 0 0.35690611128064731 0.3988976866485166 0 0.36336601300371613 0.41450991002864218 0 0.3736470799201031 0.39378130610698531 0 0.35690611128064731 0.3988976866485166 0 0.3736470799201031 0.39378130610698531 0 0.3601059063978746 0.38125551426405008 0 0.37414389550204002 0.36898578533419818 0 0.34270248502322931 0.38427053755298168 0 0.3601059063978746 0.38125551426405008 0 0.35690611128064731 0.3988976866485166 0 0.34270248502322931 0.38427053755298168 0 0.3601059063978746 0.38125551426405008 0 0.35268350372385993 0.36328223724825232 0 0.34270248502322931 0.38427053755298168 0 0.34670895149724801 0.40816004440777182 0 0.35690611128064731 0.3988976866485166 0 0.35268350372385993 0.36328223724825232 0 0.36266452242448938 0.34229393694352239 0 0.35030182712711511 0.35130594720886232 0 0.35268350372385993 0.36328223724825232 0 0.36266452242448938 0.34229393694352239 0 0.35030182712711511 0.35130594720886232 0 0.35146565257524442 0.34420791440797271 0 0.36266452242448938 0.34229393694352239 0 0.35030182712711511 0.35130594720886232 0 0.35146565257524442 0.34420791440797271 0 0.34269927497721508 0.34493512072036142 0 0.35030182712711511 0.35130594720886232 0 0.35268350372385993 0.36328223724825232 0 0.33389487655237682 0.3658352592629312 0 0.34270248502322931 0.38427053755298168 0 0.35268350372385993 0.36328223724825232 0 0.3601059063978746 0.38125551426405008 0 0.35268350372385993 0.36328223724825232 0 0.37414389550204002 0.36898578533419818 0 0.35268350372385993 0.36328223724825232 0 0.37414389550204002 0.36898578533419818 0 0.36300645299402812 0.35604351837507042 0 0.37414389550204002 0.36898578533419818 0 0.37228166628853332 0.35471301169251829 0 0.36300645299402812 0.35604351837507042 0 0.35268350372385993 0.36328223724825232 0 0.36300645299402812 0.35604351837507042 0 0.36266452242448938 0.34229393694352239 0 0.37228166628853332 0.35471301169251829 0 0.36300645299402812 0.35604351837507042 0 0.36840829020790361 0.34668560051738673 0 0.36300645299402812 0.35604351837507042 0 0.36840829020790361 0.34668560051738673 0 0.36266452242448938 0.34229393694352239 0 0.36840829020790361 0.34668560051738673 0 0.36266452242448938 0.34229393694352239 0 0.36587418437400321 0.34278907974668538 0 0.37228166628853332 0.35471301169251829 0 0.36840829020790361 0.34668560051738673 0 0.37486749369974542 0.34694596905823039 0 0.37486749369974542 0.34694596905823039 0 0.37256750073976291 0.34304532959464751 0 0.37670219357667811 0.34177383067972761 0 0.36840829020790361 0.34668560051738673 0 0.37486749369974542 0.34694596905823039 0 0.37256750073976291 0.34304532959464751 0 0.36124897776362869 0.33531944770056321 0 0.36266452242448938 0.34229393694352239 0 0.36411885078159001 0.32644375487552563 0 0.37256750073976291 0.34304532959464751 0 0.36916640720496519 0.34145859007673351 0 0.37369311900952262 0.33836265764115908 0 0.37256750073976291 0.34304532959464751 0 0.37369311900952262 0.33836265764115908 0 0.37670219357667811 0.34177383067972761 0 0.36266452242448938 0.34229393694352239 0 0.37014896644917339 0.316543878568457 0 0.36770298492566261 0.33637877995368609 0 0.36266452242448938 0.34229393694352239 0 0.37368960646642962 0.31911015363466272 0 0.36770298492566261 0.33637877995368609 0 0.36985494237623989 0.33311962493185521 0 0.37368960646642962 0.31911015363466272 0 0.36266452242448938 0.34229393694352239 0 0.37368960646642962 0.31911015363466272 0 0.36266452242448938 0.34229393694352239 0 0.37014896644917339 0.316543878568457 0 0.36411885078159001 0.32644375487552563 0 0.36840829020790361 0.34668560051738673 0 0.36916640720496519 0.34145859007673351 0 0.36587418437400321 0.34278907974668538 0 0.36840829020790361 0.34668560051738673 0 0.37256750073976291 0.34304532959464751 0 0.36916640720496519 0.34145859007673351 0 0.36916640720496519 0.34145859007673351 0 0.36587418437400321 0.34278907974668538 0 0.36708394454210669 0.33994961910346172 0 0.36916640720496519 0.34145859007673351 0 0.37010024416019238 0.33739894816112592 0 0.36708394454210669 0.33994961910346172 0 0.36916640720496519 0.34145859007673351 0 0.37010024416019238 0.33739894816112592 0 0.37369311900952262 0.33836265764115908 0 0.36770298492566261 0.33637877995368609 0 0.37010024416019238 0.33739894816112592 0 0.36708394454210669 0.33994961910346172 0 0.37010024416019238 0.33739894816112592 0 0.37369311900952262 0.33836265764115908 0 0.3722735272100694 0.33425106354392481 0 0.3722735272100694 0.33425106354392481 0 0.37245621682226088 0.32924087979990557 0 0.375263113682131 0.33313320718557798 0 0.37369311900952262 0.33836265764115908 0 0.3722735272100694 0.33425106354392481 0 0.375263113682131 0.33313320718557798 0 0.3722735272100694 0.33425106354392481 0 0.37245621682226088 0.32924087979990557 0 0.36985494237623989 0.33311962493185521 0 0.37245621682226088 0.32924087979990557 0 0.37577016905582622 0.32787937856968757 0 0.375263113682131 0.33313320718557798 0 0.37010024416019238 0.33739894816112592 0 0.3722735272100694 0.33425106354392481 0 0.36985494237623989 0.33311962493185521 0 0.36770298492566261 0.33637877995368609 0 0.37010024416019238 0.33739894816112592 0 0.36985494237623989 0.33311962493185521 0 0.36128237795215928 0.33126347269122047 0 0.36124897776362869 0.33531944770056321 0 0.36411885078159001 0.32644375487552563 0 0.36150631125237548 0.32912422255951068 0 0.36128237795215928 0.33126347269122047 0 0.36411885078159001 0.32644375487552563 0 0.36150631125237548 0.32912422255951068 0 0.35994194411877378 0.32646204206530971 0 0.35835984371964152 0.33045614064968309 0 0.36128237795215928 0.33126347269122047 0 0.35899626180536931 0.33430086833413269 0 0.35835984371964152 0.33045614064968309 0 0.36150631125237548 0.32912422255951068 0 0.36128237795215928 0.33126347269122047 0 0.35835984371964152 0.33045614064968309 0 0.36128237795215928 0.33126347269122047 0 0.36124897776362869 0.33531944770056321 0 0.35899626180536931 0.33430086833413269 0 0.36124897776362869 0.33531944770056321 0 0.36001134864139028 0.33778823672905661 0 0.35899626180536931 0.33430086833413269 0 0.36124897776362869 0.33531944770056321 0 0.36001134864139028 0.33778823672905661 0 0.36266452242448938 0.34229393694352239 0 0.36001134864139028 0.33778823672905661 0 0.36266452242448938 0.34229393694352239 0 0.3582225103283424 0.33883319475427592 0 0.36266452242448938 0.34229393694352239 0 0.36587418437400321 0.34278907974668538 0 0.36708394454210669 0.33994961910346172 0 0.36770298492566261 0.33637877995368609 0 0.36266452242448938 0.34229393694352239 0 0.36708394454210669 0.33994961910346172 0 0.36266452242448938 0.34229393694352239 0 0.37368960646642962 0.31911015363466272 0 0.37014896644917339 0.316543878568457 0 0.37014896644917339 0.316543878568457 0 0.36604953812300478 0.31497278055865852 0 0.36630954626425261 0.31087512405144152 0 0.37499251130121058 0.31593455150060828 0 0.37014896644917339 0.316543878568457 0 0.37695808612291098 0.31120865645681561 0 0.37499251130121058 0.31593455150060828 0 0.37368960646642962 0.31911015363466272 0 0.37014896644917339 0.316543878568457 0 0.37014896644917339 0.316543878568457 0 0.36646072203027302 0.32009490443849897 0 0.3659238024377004 0.31770243144255911 0 0.37014896644917339 0.316543878568457 0 0.3659238024377004 0.31770243144255911 0 0.36604953812300478 0.31497278055865852 0 0.37245621682226088 0.32924087979990557 0 0.36985494237623989 0.33311962493185521 0 0.37368960646642962 0.31911015363466272 0 0.37245621682226088 0.32924087979990557 0 0.37368960646642962 0.31911015363466272 0 0.37506056064123422 0.32471797871916308 0 0.37245621682226088 0.32924087979990557 0 0.37577016905582622 0.32787937856968757 0 0.37506056064123422 0.32471797871916308 0 0.37014896644917339 0.316543878568457 0 0.36411885078159001 0.32644375487552563 0 0.36646072203027302 0.32009490443849897 0 0.36411885078159001 0.32644375487552563 0 0.35994194411877378 0.32646204206530971 0 0.36132202517978662 0.32303080634539388 0 0.36150631125237548 0.32912422255951068 0 0.36411885078159001 0.32644375487552563 0 0.35994194411877378 0.32646204206530971 0 0.36132202517978662 0.32303080634539388 0 0.36348301458407639 0.32047903077872458 0 0.35962675317161102 0.31893041505789499 0 0.36411885078159001 0.32644375487552563 0 0.36132202517978662 0.32303080634539388 0 0.36348301458407639 0.32047903077872458 0 0.36411885078159001 0.32644375487552563 0 0.36348301458407639 0.32047903077872458 0 0.36646072203027302 0.32009490443849897 0 0.36348301458407639 0.32047903077872458 0 0.36646072203027302 0.32009490443849897 0 0.3659238024377004 0.31770243144255911 0 0.3659238024377004 0.31770243144255911 0 0.36344593390349789 0.31667187251247519 0 0.36604953812300478 0.31497278055865852 0 0.36348301458407639 0.32047903077872458 0 0.3659238024377004 0.31770243144255911 0 0.36344593390349789 0.31667187251247519 0 0.36348301458407639 0.32047903077872458 0 0.36344593390349789 0.31667187251247519 0 0.35962675317161102 0.31893041505789499 0 0.36344593390349789 0.31667187251247519 0 0.35962675317161102 0.31893041505789499 0 0.35878641637012221 0.31305233625990619 0 0.36344593390349789 0.31667187251247519 0 0.36331333565659901 0.31283202127524651 0 0.35878641637012221 0.31305233625990619 0 0.36331333565659901 0.31283202127524651 0 0.36604953812300478 0.31497278055865852 0 0.36630954626425261 0.31087512405144152 0 0.36344593390349789 0.31667187251247519 0 0.36331333565659901 0.31283202127524651 0 0.36604953812300478 0.31497278055865852 0 0.35878641637012221 0.31305233625990619 0 0.35512602374864599 0.31718053618965047 0 0.35090510471213721 0.31152713165908658 0 0.35512602374864599 0.31718053618965047 0 0.34983435518440159 0.31943204998396652 0 0.35090510471213721 0.31152713165908658 0 0.35962675317161102 0.31893041505789499 0 0.35878641637012221 0.31305233625990619 0 0.35512602374864599 0.31718053618965047 0 0.35962675317161102 0.31893041505789499 0 0.35512602374864599 0.31718053618965047 0 0.35673455485560862 0.32229528426682241 0 0.35512602374864599 0.31718053618965047 0 0.35673455485560862 0.32229528426682241 0 0.34983435518440159 0.31943204998396652 0 0.35673455485560862 0.32229528426682241 0 0.35060422568955008 0.32587015674736058 0 0.34983435518440159 0.31943204998396652 0 0.35994194411877378 0.32646204206530971 0 0.36132202517978662 0.32303080634539388 0 0.35673455485560862 0.32229528426682241 0 0.36132202517978662 0.32303080634539388 0 0.35962675317161102 0.31893041505789499 0 0.35673455485560862 0.32229528426682241 0 0.35994194411877378 0.32646204206530971 0 0.35673455485560862 0.32229528426682241 0 0.35627338036128769 0.32705738058013539 0 0.35994194411877378 0.32646204206530971 0 0.35627338036128769 0.32705738058013539 0 0.35835984371964152 0.33045614064968309 0 0.35627338036128769 0.32705738058013539 0 0.35060422568955008 0.32587015674736058 0 0.35398721241228231 0.33095327650953749 0 0.35673455485560862 0.32229528426682241 0 0.35627338036128769 0.32705738058013539 0 0.35060422568955008 0.32587015674736058 0 0.35060422568955008 0.32587015674736058 0 0.34514221143703899 0.32919058107390442 0 0.34284551192874652 0.32364904383841531 0 0.35060422568955008 0.32587015674736058 0 0.34983435518440159 0.31943204998396652 0 0.34284551192874652 0.32364904383841531 0 0.34983435518440159 0.31943204998396652 0 0.34480088275632298 0.31606258733578418 0 0.35090510471213721 0.31152713165908658 0 0.34983435518440159 0.31943204998396652 0 0.34480088275632298 0.31606258733578418 0 0.34284551192874652 0.32364904383841531 0 0.35146565257524442 0.34420791440797271 0 0.36266452242448938 0.34229393694352239 0 0.35562031764263757 0.34031424282986023 0 0.35302683950207769 0.33602013814058929 0 0.35562031764263757 0.34031424282986023 0 0.35672120529774148 0.33684362974708199 0 0.35202203774268331 0.33965573310897551 0 0.35302683950207769 0.33602013814058929 0 0.35562031764263757 0.34031424282986023 0 0.35146565257524442 0.34420791440797271 0 0.35202203774268331 0.33965573310897551 0 0.35562031764263757 0.34031424282986023 0 0.36266452242448938 0.34229393694352239 0 0.35562031764263757 0.34031424282986023 0 0.3582225103283424 0.33883319475427592 0 0.35562031764263757 0.34031424282986023 0 0.3582225103283424 0.33883319475427592 0 0.35672120529774148 0.33684362974708199 0 0.36001134864139028 0.33778823672905661 0 0.3582225103283424 0.33883319475427592 0 0.35672120529774148 0.33684362974708199 0 0.36001134864139028 0.33778823672905661 0 0.35672120529774148 0.33684362974708199 0 0.35899626180536931 0.33430086833413269 0 0.35899626180536931 0.33430086833413269 0 0.35641212776078268 0.33381706902087938 0 0.35835984371964152 0.33045614064968309 0 0.35672120529774148 0.33684362974708199 0 0.35899626180536931 0.33430086833413269 0 0.35641212776078268 0.33381706902087938 0 0.35627338036128769 0.32705738058013539 0 0.35835984371964152 0.33045614064968309 0 0.35398721241228231 0.33095327650953749 0 0.35641212776078268 0.33381706902087938 0 0.35835984371964152 0.33045614064968309 0 0.35398721241228231 0.33095327650953749 0 0.35302683950207769 0.33602013814058929 0 0.35641212776078268 0.33381706902087938 0 0.35398721241228231 0.33095327650953749 0 0.35302683950207769 0.33602013814058929 0 0.35398721241228231 0.33095327650953749 0 0.34924685744035389 0.33249877391857741 0 0.35302683950207769 0.33602013814058929 0 0.35672120529774148 0.33684362974708199 0 0.35641212776078268 0.33381706902087938 0 0.35302683950207769 0.33602013814058929 0 0.34924685744035389 0.33249877391857741 0 0.34788509595764172 0.33882226599831611 0 0.35060422568955008 0.32587015674736058 0 0.34924685744035389 0.33249877391857741 0 0.34514221143703899 0.32919058107390442 0 0.35060422568955008 0.32587015674736058 0 0.35398721241228231 0.33095327650953749 0 0.34924685744035389 0.33249877391857741 0 0.34924685744035389 0.33249877391857741 0 0.34514221143703899 0.32919058107390442 0 0.34474234507332802 0.33433591834825649 0 0.34924685744035389 0.33249877391857741 0 0.34474234507332802 0.33433591834825649 0 0.34788509595764172 0.33882226599831611 0 0.34474234507332802 0.33433591834825649 0 0.34788509595764172 0.33882226599831611 0 0.34057592936449049 0.33809639891542392 0 0.35146565257524442 0.34420791440797271 0 0.34788509595764172 0.33882226599831611 0 0.34269927497721508 0.34493512072036142 0 0.35202203774268331 0.33965573310897551 0 0.35302683950207769 0.33602013814058929 0 0.34788509595764172 0.33882226599831611 0 0.35146565257524442 0.34420791440797271 0 0.35202203774268331 0.33965573310897551 0 0.34788509595764172 0.33882226599831611 0 0.34057592936449049 0.33809639891542392 0 0.33318390910610529 0.34358855052096038 0 0.34269927497721508 0.34493512072036142 0 0.34788509595764172 0.33882226599831611 0 0.34057592936449049 0.33809639891542392 0 0.34269927497721508 0.34493512072036142 0 0.34474234507332802 0.33433591834825649 0 0.34057592936449049 0.33809639891542392 0 0.33946855119551672 0.33096103471374028 0 0.34514221143703899 0.32919058107390442 0 0.34474234507332802 0.33433591834825649 0 0.33946855119551672 0.33096103471374028 0 0.34057592936449049 0.33809639891542392 0 0.33946855119551672 0.33096103471374028 0 0.33283637980140879 0.33469331179832718 0 0.33946855119551672 0.33096103471374028 0 0.33283637980140879 0.33469331179832718 0 0.33464693517381472 0.32630086361949601 0 0.33283637980140879 0.33469331179832718 0 0.33464693517381472 0.32630086361949601 0 0.3250964778074269 0.32978689602061512 0 0.34057592936449049 0.33809639891542392 0 0.33283637980140879 0.33469331179832718 0 0.33318390910610529 0.34358855052096038 0 0.33283637980140879 0.33469331179832718 0 0.33318390910610529 0.34358855052096038 0 0.32611481079287369 0.33974729713420021 0 0.34480088275632298 0.31606258733578418 0 0.33769186663180051 0.31814262317354819 0 0.34192449374142192 0.30753297203612773 0 0.34480088275632298 0.31606258733578418 0 0.33769186663180051 0.31814262317354819 0 0.34284551192874652 0.32364904383841531 0 0.33946855119551672 0.33096103471374028 0 0.34284551192874652 0.32364904383841531 0 0.33464693517381472 0.32630086361949601 0 0.33769186663180051 0.31814262317354819 0 0.34284551192874652 0.32364904383841531 0 0.33464693517381472 0.32630086361949601 0 0.34514221143703899 0.32919058107390442 0 0.33946855119551672 0.33096103471374028 0 0.34284551192874652 0.32364904383841531 0 0.33769186663180051 0.31814262317354819 0 0.33464693517381472 0.32630086361949601 0 0.32994282367798861 0.32057227217232959 0 0.33464693517381472 0.32630086361949601 0 0.32994282367798861 0.32057227217232959 0 0.3250964778074269 0.32978689602061512 0 0.33769186663180051 0.31814262317354819 0 0.32994282367798861 0.32057227217232959 0 0.32867162081685902 0.31028670060733149 0 0.32176892132522322 0.32006025561378759 0 0.31440941436971798 0.31242774502049953 0 0.32867162081685902 0.31028670060733149 0 0.32994282367798861 0.32057227217232959 0 0.32176892132522322 0.32006025561378759 0 0.32867162081685902 0.31028670060733149 0 0.32176892132522322 0.32006025561378759 0 0.31484893044661 0.32778579360563193 0 0.3250964778074269 0.32978689602061512 0 0.32994282367798861 0.32057227217232959 0 0.32176892132522322 0.32006025561378759 0 0.3250964778074269 0.32978689602061512 0 0.32176892132522322 0.32006025561378759 0 0.31484893044661 0.32778579360563193 0 0.31440941436971798 0.31242774502049953 0 0.32611481079287369 0.33974729713420021 0 0.3250964778074269 0.32978689602061512 0 0.31767498628904178 0.33862919533695518 0 0.32611481079287369 0.33974729713420021 0 0.31767498628904178 0.33862919533695518 0 0.32336406622478242 0.34852958887145069 0 0.33283637980140879 0.33469331179832718 0 0.32611481079287369 0.33974729713420021 0 0.3250964778074269 0.32978689602061512 0 0.31484893044661 0.32778579360563193 0 0.31767498628904178 0.33862919533695518 0 0.30654896287530792 0.34033791233229299 0 0.31484893044661 0.32778579360563193 0 0.3250964778074269 0.32978689602061512 0 0.31767498628904178 0.33862919533695518 0 0.31767498628904178 0.33862919533695518 0 0.31315570067328902 0.3464643712977632 0 0.32336406622478242 0.34852958887145069 0 0.31315570067328902 0.3464643712977632 0 0.31355388928080707 0.35546570062290778 0 0.32336406622478242 0.34852958887145069 0 0.32336406622478242 0.34852958887145069 0 0.33442175170730049 0.35218858713626039 0 0.32437013183195901 0.3602157298059272 0 0.31355388928080707 0.35546570062290778 0 0.32336406622478242 0.34852958887145069 0 0.32437013183195901 0.3602157298059272 0 0.33318390910610529 0.34358855052096038 0 0.32611481079287369 0.33974729713420021 0 0.32336406622478242 0.34852958887145069 0 0.35030182712711511 0.35130594720886232 0 0.33442175170730049 0.35218858713626039 0 0.33389487655237682 0.3658352592629312 0 0.33318390910610529 0.34358855052096038 0 0.32336406622478242 0.34852958887145069 0 0.33442175170730049 0.35218858713626039 0 0.35030182712711511 0.35130594720886232 0 0.33442175170730049 0.35218858713626039 0 0.34269927497721508 0.34493512072036142 0 0.33318390910610529 0.34358855052096038 0 0.33442175170730049 0.35218858713626039 0 0.34269927497721508 0.34493512072036142 0 0.34270248502322931 0.38427053755298168 0 0.35268350372385993 0.36328223724825232 0 0.33389487655237682 0.3658352592629312 0 0.33442175170730049 0.35218858713626039 0 0.33389487655237682 0.3658352592629312 0 0.32437013183195901 0.3602157298059272 0 0.31661607539452802 0.37905951313608538 0 0.33389487655237682 0.3658352592629312 0 0.32437013183195901 0.3602157298059272 0 0.31661607539452802 0.37905951313608538 0 0.31355388928080707 0.35546570062290778 0 0.32437013183195901 0.3602157298059272 0 0.31661607539452802 0.37905951313608538 0 0.31355388928080707 0.35546570062290778 0 0.31661607539452802 0.37905951313608538 0 0.31355388928080707 0.35546570062290778 0 0.30541822204374358 0.36584678197342768 0 0.2987730087010142 0.37934426936791982 0 0.31661607539452802 0.37905951313608538 0 0.30541822204374358 0.36584678197342768 0 0.30541822204374358 0.36584678197342768 0 0.30393955747459928 0.35096595789874813 0 0.29215410451095353 0.36543341035917859 0 0.2987730087010142 0.37934426936791982 0 0.30541822204374358 0.36584678197342768 0 0.29215410451095353 0.36543341035917859 0 0.31315570067328902 0.3464643712977632 0 0.30393955747459928 0.35096595789874813 0 0.30654896287530792 0.34033791233229299 0 0.31315570067328902 0.3464643712977632 0 0.31355388928080707 0.35546570062290778 0 0.30393955747459928 0.35096595789874813 0 0.31355388928080707 0.35546570062290778 0 0.30541822204374358 0.36584678197342768 0 0.30393955747459928 0.35096595789874813 0 0.30393955747459928 0.35096595789874813 0 0.29215410451095353 0.36543341035917859 0 0.30393955747459928 0.35096595789874813 0 0.29720735802849829 0.34424744790442102 0 0.29027641861796738 0.35164951467646482 0 0.30393955747459928 0.35096595789874813 0 0.29720735802849829 0.34424744790442102 0 0.30654896287530792 0.34033791233229299 0 0.29720735802849829 0.34424744790442102 0 0.29027641861796738 0.35164951467646482 0 0.28998304713239348 0.34105976447064218 0 0.30393955747459928 0.35096595789874813 0 0.29027641861796738 0.35164951467646482 0 0.29215410451095353 0.36543341035917859 0 0.29027641861796738 0.35164951467646482 0 0.29215410451095353 0.36543341035917859 0 0.27920137084664282 0.3573603676334649 0 0.29027641861796738 0.35164951467646482 0 0.27920137084664282 0.3573603676334649 0 0.28068773357058369 0.34198453751068081 0 0.29027641861796738 0.35164951467646482 0 0.28068773357058369 0.34198453751068081 0 0.28998304713239348 0.34105976447064218 0 0.28036865154730628 0.37990086281960789 0 0.29215410451095353 0.36543341035917859 0 0.27920137084664282 0.3573603676334649 0 0.28036865154730628 0.37990086281960789 0 0.2987730087010142 0.37934426936791982 0 0.29215410451095353 0.36543341035917859 0 0.28036865154730628 0.37990086281960789 0 0.29215410451095353 0.36543341035917859 0 0.28036865154730628 0.37990086281960789 0 0.27920137084664282 0.3573603676334649 0 0.26173146881309822 0.35734024057335978 0 0.28036865154730628 0.37990086281960789 0 0.26173146881309822 0.35734024057335978 0 0.28036865154730628 0.37990086281960789 0 0.26173146881309822 0.35734024057335978 0 0.2641967246118288 0.36596915937278562 0 0.27920137084664282 0.3573603676334649 0 0.27030047393074008 0.3474963096498429 0 0.26173146881309822 0.35734024057335978 0 0.27920137084664282 0.3573603676334649 0 0.27030047393074008 0.3474963096498429 0 0.28068773357058369 0.34198453751068081 0 0.2430942860788903 0.33477961832711151 0 0.26173146881309822 0.35734024057335978 0 0.27030047393074008 0.3474963096498429 0 0.26173146881309822 0.35734024057335978 0 0.26240083601839698 0.33727672217147331 0 0.23816107804029091 0.35120524212074949 0 0.26173146881309822 0.35734024057335978 0 0.2641967246118288 0.36596915937278562 0 0.23816107804029091 0.35120524212074949 0 0.2641967246118288 0.36596915937278562 0 0.2492643002430574 0.365916522193315 0 0.24311907173897271 0.36013203008567057 0 0.2641967246118288 0.36596915937278562 0 0.2492643002430574 0.365916522193315 0 0.25710864090743918 0.37145542319719338 0 0.2641967246118288 0.36596915937278562 0 0.2492643002430574 0.365916522193315 0 0.25383912625151372 0.37755129754335942 0 0.25710864090743918 0.37145542319719338 0 0.26350653962281989 0.38010735630523079 0 0.25710864090743918 0.37145542319719338 0 0.2641967246118288 0.36596915937278562 0 0.2484846271056145 0.31037308609574782 0 0.25508783524565293 0.32209220201309929 0 0.26836904206483531 0.31075971332937607 0 0.25508783524565293 0.32209220201309929 0 0.26240083601839698 0.33727672217147331 0 0.26677092012209491 0.32204036282613252 0 0.25508783524565293 0.32209220201309929 0 0.26677092012209491 0.32204036282613252 0 0.26836904206483531 0.31075971332937607 0 0.2430942860788903 0.33477961832711151 0 0.25508783524565293 0.32209220201309929 0 0.26240083601839698 0.33727672217147331 0 0.2430942860788903 0.33477961832711151 0 0.26173146881309822 0.35734024057335978 0 0.26240083601839698 0.33727672217147331 0 0.26240083601839698 0.33727672217147331 0 0.27184092000699639 0.33891315949469752 0 0.27388917516664008 0.32964775149744319 0 0.26240083601839698 0.33727672217147331 0 0.27388917516664008 0.32964775149744319 0 0.26677092012209491 0.32204036282613252 0 0.27030047393074008 0.3474963096498429 0 0.26240083601839698 0.33727672217147331 0 0.27184092000699639 0.33891315949469752 0 0.27030047393074008 0.3474963096498429 0 0.27184092000699639 0.33891315949469752 0 0.28068773357058369 0.34198453751068081 0 0.27184092000699639 0.33891315949469752 0 0.28068773357058369 0.34198453751068081 0 0.27388917516664008 0.32964775149744319 0 0.28068773357058369 0.34198453751068081 0 0.27388917516664008 0.32964775149744319 0 0.28570907475377572 0.33188311037056872 0 0.27388917516664008 0.32964775149744319 0 0.26677092012209491 0.32204036282613252 0 0.28178409254690689 0.31684790712797722 0 0.27388917516664008 0.32964775149744319 0 0.28178409254690689 0.31684790712797722 0 0.28570907475377572 0.33188311037056872 0 0.26677092012209491 0.32204036282613252 0 0.28178409254690689 0.31684790712797722 0 0.26836904206483531 0.31075971332937607 0 0.28178409254690689 0.31684790712797722 0 0.29262159606390598 0.32453461147271162 0 0.29660332646403359 0.30785121346786842 0 0.28178409254690689 0.31684790712797722 0 0.29262159606390598 0.32453461147271162 0 0.28570907475377572 0.33188311037056872 0 0.28068773357058369 0.34198453751068081 0 0.28570907475377572 0.33188311037056872 0 0.28998304713239348 0.34105976447064218 0 0.29262159606390598 0.32453461147271162 0 0.28570907475377572 0.33188311037056872 0 0.29603465069114282 0.33553421189107618 0 0.29720735802849829 0.34424744790442102 0 0.29603465069114282 0.33553421189107618 0 0.28998304713239348 0.34105976447064218 0 0.28570907475377572 0.33188311037056872 0 0.29603465069114282 0.33553421189107618 0 0.28998304713239348 0.34105976447064218 0 0.29720735802849829 0.34424744790442102 0 0.29603465069114282 0.33553421189107618 0 0.30654896287530792 0.34033791233229299 0 0.29603465069114282 0.33553421189107618 0 0.30654896287530792 0.34033791233229299 0 0.30445412428221041 0.32558903425911379 0 0.29262159606390598 0.32453461147271162 0 0.29603465069114282 0.33553421189107618 0 0.30445412428221041 0.32558903425911379 0 0.31484893044661 0.32778579360563193 0 0.30654896287530792 0.34033791233229299 0 0.30445412428221041 0.32558903425911379 0 0.31767498628904178 0.33862919533695518 0 0.31315570067328902 0.3464643712977632 0 0.30654896287530792 0.34033791233229299 0 0.30445412428221041 0.32558903425911379 0 0.29660332646403359 0.30785121346786842 0 0.31440941436971798 0.31242774502049953 0 0.29262159606390598 0.32453461147271162 0 0.30445412428221041 0.32558903425911379 0 0.29660332646403359 0.30785121346786842 0 0.31484893044661 0.32778579360563193 0 0.30445412428221041 0.32558903425911379 0 0.31440941436971798 0.31242774502049953 0 0.30822946874662033 0.29998271616579031 0 0.29660332646403359 0.30785121346786842 0 0.31440941436971798 0.31242774502049953 0 0.30822946874662033 0.29998271616579031 0 0.30055108247350393 0.28416894361273021 0 0.29660332646403359 0.30785121346786842 0 0.30822946874662033 0.29998271616579031 0 0.30055108247350393 0.28416894361273021 0 0.32109763140443309 0.29547610107375327 0 0.30055108247350393 0.28416894361273021 0 0.29660332646403359 0.30785121346786842 0 0.27430616976337108 0.29100628718303567 0 0.30055108247350393 0.28416894361273021 0 0.27430616976337108 0.29100628718303567 0 0.28443506245096839 0.27205148705280008 0 0.30055108247350393 0.28416894361273021 0 0.27430616976337108 0.29100628718303567 0 0.28178409254690689 0.31684790712797722 0 0.29660332646403359 0.30785121346786842 0 0.27430616976337108 0.29100628718303567 0 0.28178409254690689 0.31684790712797722 0 0.26836904206483531 0.31075971332937607 0 0.27430616976337108 0.29100628718303567 0 0.28178409254690689 0.31684790712797722 0 0.27430616976337108 0.29100628718303567 0 0.27430616976337108 0.29100628718303567 0 0.25121587924780342 0.29702178630611242 0 0.27430616976337108 0.29100628718303567 0 0.25953152444998728 0.28294166139542631 0 0.25121587924780342 0.29702178630611242 0 0.26836904206483531 0.31075971332937607 0 0.27430616976337108 0.29100628718303567 0 0.25121587924780342 0.29702178630611242 0 0.26836904206483531 0.31075971332937607 0 0.25121587924780342 0.29702178630611242 0 0.2484846271056145 0.31037308609574782 0 0.26836904206483531 0.31075971332937607 0 0.25121587924780342 0.29702178630611242 0 0.25102838231212438 0.26850893423506528 0 0.26790857605335527 0.26889798384773289 0 0.26221447651104962 0.2479993693513689 0 0.26790857605335527 0.26889798384773289 0 0.26221447651104962 0.2479993693513689 0 0.25953152444998728 0.28294166139542631 0 0.25102838231212438 0.26850893423506528 0 0.26790857605335527 0.26889798384773289 0 0.27430616976337108 0.29100628718303567 0 0.26790857605335527 0.26889798384773289 0 0.28443506245096839 0.27205148705280008 0 0.27430616976337108 0.29100628718303567 0 0.25953152444998728 0.28294166139542631 0 0.26790857605335527 0.26889798384773289 0 0.27430616976337108 0.29100628718303567 0 0.26790857605335527 0.26889798384773289 0 0.26790857605335527 0.26889798384773289 0 0.28119448123381058 0.25405304303149878 0 0.26221447651104962 0.2479993693513689 0 0.26790857605335527 0.26889798384773289 0 0.28119448123381058 0.25405304303149878 0 0.28443506245096839 0.27205148705280008 0 0.28119448123381058 0.25405304303149878 0 0.28443506245096839 0.27205148705280008 0 0.2982150027308012 0.26213117758900317 0 0.28119448123381058 0.25405304303149878 0 0.2982150027308012 0.26213117758900317 0 0.30328699804120918 0.24394477185791469 0 0.30055108247350393 0.28416894361273021 0 0.28443506245096839 0.27205148705280008 0 0.2982150027308012 0.26213117758900317 0 0.30055108247350393 0.28416894361273021 0 0.2982150027308012 0.26213117758900317 0 0.31879452400631653 0.25919465198291952 0 0.2982150027308012 0.26213117758900317 0 0.31879452400631653 0.25919465198291952 0 0.30328699804120918 0.24394477185791469 0 0.31879452400631653 0.25919465198291952 0 0.33092809789354199 0.24744869965648561 0 0.31845456220733243 0.24449663650262579 0 0.31879452400631653 0.25919465198291952 0 0.33565265393095528 0.25675142138279861 0 0.33982225619875311 0.26765994074234428 0 0.31879452400631653 0.25919465198291952 0 0.33982225619875311 0.26765994074234428 0 0.31879452400631653 0.25919465198291952 0 0.33565265393095528 0.25675142138279861 0 0.33092809789354199 0.24744869965648561 0 0.33565265393095528 0.25675142138279861 0 0.33982225619875311 0.26765994074234428 0 0.34536281311255052 0.25941060478944128 0 0.33565265393095528 0.25675142138279861 0 0.3433555784436142 0.25004320974280247 0 0.33092809789354199 0.24744869965648561 0 0.33565265393095528 0.25675142138279861 0 0.3433555784436142 0.25004320974280247 0 0.34536281311255052 0.25941060478944128 0 0.31879452400631653 0.25919465198291952 0 0.33982225619875311 0.26765994074234428 0 0.32679599518363661 0.27733160004242491 0 0.33982225619875311 0.26765994074234428 0 0.32679599518363661 0.27733160004242491 0 0.34056182851336592 0.28206143899133118 0 0.30055108247350393 0.28416894361273021 0 0.32679599518363661 0.27733160004242491 0 0.30055108247350393 0.28416894361273021 0 0.31879452400631653 0.25919465198291952 0 0.32679599518363661 0.27733160004242491 0 0.32679599518363661 0.27733160004242491 0 0.32109763140443309 0.29547610107375327 0 0.33248404658197278 0.28876668272462419 0 0.30055108247350393 0.28416894361273021 0 0.32679599518363661 0.27733160004242491 0 0.32109763140443309 0.29547610107375327 0 0.32109763140443309 0.29547610107375327 0 0.31440941436971798 0.31242774502049953 0 0.32867162081685902 0.31028670060733149 0 0.30822946874662033 0.29998271616579031 0 0.32109763140443309 0.29547610107375327 0 0.31440941436971798 0.31242774502049953 0 0.32867162081685902 0.31028670060733149 0 0.33472549883669622 0.29791121211074773 0 0.34192449374142192 0.30753297203612773 0 0.32109763140443309 0.29547610107375327 0 0.32867162081685902 0.31028670060733149 0 0.33472549883669622 0.29791121211074773 0 0.33472549883669622 0.29791121211074773 0 0.34281583705185747 0.29966479619329672 0 0.34192449374142192 0.30753297203612773 0 0.33769186663180051 0.31814262317354819 0 0.32867162081685902 0.31028670060733149 0 0.34192449374142192 0.30753297203612773 0 0.32679599518363661 0.27733160004242491 0 0.33248404658197278 0.28876668272462419 0 0.34056182851336592 0.28206143899133118 0 0.32109763140443309 0.29547610107375327 0 0.33472549883669622 0.29791121211074773 0 0.33248404658197278 0.28876668272462419 0 0.33472549883669622 0.29791121211074773 0 0.33248404658197278 0.28876668272462419 0 0.34417327957572558 0.29277050597204329 0 0.33472549883669622 0.29791121211074773 0 0.34281583705185747 0.29966479619329672 0 0.34417327957572558 0.29277050597204329 0 0.33248404658197278 0.28876668272462419 0 0.34056182851336592 0.28206143899133118 0 0.34417327957572558 0.29277050597204329 0 0.34056182851336592 0.28206143899133118 0 0.34979868535227071 0.28728326233729501 0 0.34417327957572558 0.29277050597204329 0 0.34056182851336592 0.28206143899133118 0 0.34979868535227071 0.28728326233729501 0 0.35183199075491411 0.27966461044832719 0 0.34417327957572558 0.29277050597204329 0 0.35334053836337709 0.29410458558147129 0 0.34972900846361488 0.30172704795696642 0 0.34979868535227071 0.28728326233729501 0 0.34417327957572558 0.29277050597204329 0 0.35334053836337709 0.29410458558147129 0 0.34979868535227071 0.28728326233729501 0 0.35334053836337709 0.29410458558147129 0 0.35722235408413222 0.28831366276426512 0 0.35334053836337709 0.29410458558147129 0 0.35826071325737319 0.3003277240158499 0 0.36091512844171192 0.29433704443458902 0 0.35334053836337709 0.29410458558147129 0 0.35722235408413222 0.28831366276426512 0 0.36091512844171192 0.29433704443458902 0 0.34979868535227071 0.28728326233729501 0 0.35722235408413222 0.28831366276426512 0 0.35183199075491411 0.27966461044832719 0 0.35722235408413222 0.28831366276426512 0 0.36152496379752869 0.28359539021876212 0 0.35183199075491411 0.27966461044832719 0 0.34480088275632298 0.31606258733578418 0 0.34192449374142192 0.30753297203612773 0 0.35090510471213721 0.31152713165908658 0 0.34192449374142192 0.30753297203612773 0 0.35090510471213721 0.31152713165908658 0 0.34972900846361488 0.30172704795696642 0 0.34281583705185747 0.29966479619329672 0 0.34417327957572558 0.29277050597204329 0 0.34972900846361488 0.30172704795696642 0 0.34281583705185747 0.29966479619329672 0 0.34192449374142192 0.30753297203612773 0 0.34972900846361488 0.30172704795696642 0 0.34972900846361488 0.30172704795696642 0 0.35826071325737319 0.3003277240158499 0 0.35721607615581658 0.30656573559573969 0 0.35334053836337709 0.29410458558147129 0 0.34972900846361488 0.30172704795696642 0 0.35826071325737319 0.3003277240158499 0 0.35090510471213721 0.31152713165908658 0 0.34972900846361488 0.30172704795696642 0 0.35721607615581658 0.30656573559573969 0 0.35878641637012221 0.31305233625990619 0 0.35090510471213721 0.31152713165908658 0 0.35721607615581658 0.30656573559573969 0 0.37014896644917339 0.316543878568457 0 0.37763341047385651 0.29079382019339128 0 0.37014896644917339 0.316543878568457 0 0.37108481648816682 0.30013899891886681 0 0.36845835323010317 0.30596496181531441 0 0.37014896644917339 0.316543878568457 0 0.37763341047385651 0.29079382019339128 0 0.37695808612291098 0.31120865645681561 0 0.37014896644917339 0.316543878568457 0 0.37108481648816682 0.30013899891886681 0 0.37763341047385651 0.29079382019339128 0 0.36630954626425261 0.31087512405144152 0 0.36228941999803421 0.30896529616435242 0 0.36543096483439103 0.3064802843427199 0 0.36331333565659901 0.31283202127524651 0 0.36630954626425261 0.31087512405144152 0 0.36228941999803421 0.30896529616435242 0 0.36331333565659901 0.31283202127524651 0 0.35878641637012221 0.31305233625990619 0 0.36228941999803421 0.30896529616435242 0 0.35878641637012221 0.31305233625990619 0 0.35721607615581658 0.30656573559573969 0 0.36228941999803421 0.30896529616435242 0 0.35721607615581658 0.30656573559573969 0 0.36228941999803421 0.30896529616435242 0 0.36268018070702418 0.30398627546106088 0 0.36630954626425261 0.31087512405144152 0 0.36543096483439103 0.3064802843427199 0 0.36845835323010317 0.30596496181531441 0 0.36228941999803421 0.30896529616435242 0 0.36543096483439103 0.3064802843427199 0 0.36268018070702418 0.30398627546106088 0 0.36543096483439103 0.3064802843427199 0 0.36607900901995372 0.30349396637540749 0 0.36845835323010317 0.30596496181531441 0 0.36607900901995372 0.30349396637540749 0 0.36268018070702418 0.30398627546106088 0 0.36558719123160882 0.29969948119116269 0 0.36607900901995372 0.30349396637540749 0 0.36558719123160882 0.29969948119116269 0 0.36823835509664099 0.30133882906677939 0 0.36543096483439103 0.3064802843427199 0 0.36607900901995372 0.30349396637540749 0 0.36268018070702418 0.30398627546106088 0 0.35826071325737319 0.3003277240158499 0 0.35721607615581658 0.30656573559573969 0 0.36268018070702418 0.30398627546106088 0 0.35826071325737319 0.3003277240158499 0 0.36268018070702418 0.30398627546106088 0 0.36558719123160882 0.29969948119116269 0 0.35826071325737319 0.3003277240158499 0 0.36558719123160882 0.29969948119116269 0 0.36091512844171192 0.29433704443458902 0 0.36871223371641282 0.29817542324200702 0 0.37108481648816682 0.30013899891886681 0 0.37014933742706652 0.29575476169949788 0 0.36558719123160882 0.29969948119116269 0 0.36871223371641282 0.29817542324200702 0 0.36734652779664789 0.29411680932906442 0 0.36558719123160882 0.29969948119116269 0 0.36871223371641282 0.29817542324200702 0 0.36823835509664099 0.30133882906677939 0 0.36871223371641282 0.29817542324200702 0 0.37108481648816682 0.30013899891886681 0 0.36823835509664099 0.30133882906677939 0 0.37108481648816682 0.30013899891886681 0 0.36823835509664099 0.30133882906677939 0 0.36845835323010317 0.30596496181531441 0 0.36607900901995372 0.30349396637540749 0 0.36823835509664099 0.30133882906677939 0 0.36845835323010317 0.30596496181531441 0 0.37014896644917339 0.316543878568457 0 0.36630954626425261 0.31087512405144152 0 0.36845835323010317 0.30596496181531441 0 0.36812955944888692 0.28419813691800921 0 0.36084998839118931 0.2761252295017701 0 0.37969218042614078 0.28371066929036243 0 0.36152496379752869 0.28359539021876212 0 0.36812955944888692 0.28419813691800921 0 0.36084998839118931 0.2761252295017701 0 0.36414496955441777 0.28941104037434479 0 0.36911771796651938 0.28986917351547109 0 0.36812955944888692 0.28419813691800921 0 0.36152496379752869 0.28359539021876212 0 0.36414496955441777 0.28941104037434479 0 0.36812955944888692 0.28419813691800921 0 0.35722235408413222 0.28831366276426512 0 0.36152496379752869 0.28359539021876212 0 0.36414496955441777 0.28941104037434479 0 0.35722235408413222 0.28831366276426512 0 0.36091512844171192 0.29433704443458902 0 0.36414496955441777 0.28941104037434479 0 0.36558719123160882 0.29969948119116269 0 0.36091512844171192 0.29433704443458902 0 0.36734652779664789 0.29411680932906442 0 0.36091512844171192 0.29433704443458902 0 0.36414496955441777 0.28941104037434479 0 0.36734652779664789 0.29411680932906442 0 0.36414496955441777 0.28941104037434479 0 0.36911771796651938 0.28986917351547109 0 0.36734652779664789 0.29411680932906442 0 0.36911771796651938 0.28986917351547109 0 0.37026464520563152 0.29279186409727531 0 0.36734652779664789 0.29411680932906442 0 0.37108481648816682 0.30013899891886681 0 0.37306860395079622 0.29341917559567809 0 0.37763341047385651 0.29079382019339128 0 0.36911771796651938 0.28986917351547109 0 0.37026464520563152 0.29279186409727531 0 0.37237913536365119 0.29056320862162688 0 0.36871223371641282 0.29817542324200702 0 0.36734652779664789 0.29411680932906442 0 0.37014933742706652 0.29575476169949788 0 0.37026464520563152 0.29279186409727531 0 0.36734652779664789 0.29411680932906442 0 0.37014933742706652 0.29575476169949788 0 0.37108481648816682 0.30013899891886681 0 0.37014933742706652 0.29575476169949788 0 0.37306860395079622 0.29341917559567809 0 0.37026464520563152 0.29279186409727531 0 0.37014933742706652 0.29575476169949788 0 0.37306860395079622 0.29341917559567809 0 0.36911771796651938 0.28986917351547109 0 0.37237913536365119 0.29056320862162688 0 0.37333201972158658 0.2878654242033048 0 0.37306860395079622 0.29341917559567809 0 0.37237913536365119 0.29056320862162688 0 0.37763341047385651 0.29079382019339128 0 0.37237913536365119 0.29056320862162688 0 0.37333201972158658 0.2878654242033048 0 0.37763341047385651 0.29079382019339128 0 0.37026464520563152 0.29279186409727531 0 0.37306860395079622 0.29341917559567809 0 0.37237913536365119 0.29056320862162688 0 0.37333201972158658 0.2878654242033048 0 0.36812955944888692 0.28419813691800921 0 0.37969218042614078 0.28371066929036243 0 0.36911771796651938 0.28986917351547109 0 0.37333201972158658 0.2878654242033048 0 0.36812955944888692 0.28419813691800921 0 0.36084998839118931 0.2761252295017701 0 0.37969218042614078 0.28371066929036243 0 0.36084998839118931 0.2761252295017701 0 0.37017340450925651 0.266060206293324 0 0.3539366042426153 0.26554047293381039 0 0.36084998839118931 0.2761252295017701 0 0.38460708535355081 0.26680105137204091 0 0.36084998839118931 0.2761252295017701 0 0.37017340450925651 0.266060206293324 0 0.38460708535355081 0.26680105137204091 0 0.3539366042426153 0.26554047293381039 0 0.38129994004966872 0.25577407136566988 0 0.37169426656027921 0.24972740256563611 0 0.37017340450925651 0.266060206293324 0 0.3539366042426153 0.26554047293381039 0 0.38129994004966872 0.25577407136566988 0 0.3539366042426153 0.26554047293381039 0 0.37169426656027921 0.24972740256563611 0 0.36205361842742478 0.24882498742118489 0 0.3539366042426153 0.26554047293381039 0 0.38129994004966872 0.25577407136566988 0 0.3539366042426153 0.26554047293381039 0 0.35175757775775729 0.2532797976346674 0 0.36205361842742478 0.24882498742118489 0 0.3433555784436142 0.25004320974280247 0 0.35175757775775729 0.2532797976346674 0 0.34536281311255052 0.25941060478944128 0 0.33982225619875311 0.26765994074234428 0 0.3539366042426153 0.26554047293381039 0 0.34536281311255052 0.25941060478944128 0 0.3539366042426153 0.26554047293381039 0 0.35175757775775729 0.2532797976346674 0 0.34536281311255052 0.25941060478944128 0 0.33982225619875311 0.26765994074234428 0 0.36084998839118931 0.2761252295017701 0 0.33982225619875311 0.26765994074234428 0 0.36084998839118931 0.2761252295017701 0 0.3539366042426153 0.26554047293381039 0 0.33982225619875311 0.26765994074234428 0 0.36084998839118931 0.2761252295017701 0 0.35183199075491411 0.27966461044832719 0 0.33982225619875311 0.26765994074234428 0 0.34056182851336592 0.28206143899133118 0 0.35183199075491411 0.27966461044832719 0 0.36152496379752869 0.28359539021876212 0 0.36084998839118931 0.2761252295017701 0 0.35183199075491411 0.27966461044832719 0 0.36084998839118931 0.2761252295017701 0 0.35183199075491411 0.27966461044832719 0 0.39945440726228237 0.27350419034528239 0 0.38460708535355081 0.26680105137204091 0 0.40768566828284042 0.25774317622192677 0 0.39945440726228237 0.27350419034528239 0 0.4092682188351508 0.26816031590002881 0 0.40768566828284042 0.25774317622192677 0 0.39945440726228237 0.27350419034528239 0 0.38460708535355081 0.26680105137204091 0 0.3904751567012596 0.27530993325585928 0 0.39945440726228237 0.27350419034528239 0 0.3904751567012596 0.27530993325585928 0 0.39488150240831521 0.28173053148540511 0 0.39945440726228237 0.27350419034528239 0 0.40366985246608472 0.28285995447659418 0 0.40929088926209078 0.279020096056181 0 0.39945440726228237 0.27350419034528239 0 0.4092682188351508 0.26816031590002881 0 0.40929088926209078 0.279020096056181 0 0.39945440726228237 0.27350419034528239 0 0.39488150240831521 0.28173053148540511 0 0.40366985246608472 0.28285995447659418 0 0.38783836144724232 0.2556839199238965 0 0.38129994004966872 0.25577407136566988 0 0.40866327585672191 0.24600766979752939 0 0.38460708535355081 0.26680105137204091 0 0.40768566828284042 0.25774317622192677 0 0.38783836144724232 0.2556839199238965 0 0.40768566828284042 0.25774317622192677 0 0.40866327585672191 0.24600766979752939 0 0.38783836144724232 0.2556839199238965 0 0.38460708535355081 0.26680105137204091 0 0.40768566828284042 0.25774317622192677 0 0.38129994004966872 0.25577407136566988 0 0.40866327585672191 0.24600766979752939 0 0.38783836144724232 0.2556839199238965 0 0.38129994004966872 0.25577407136566988 0 0.38460708535355081 0.26680105137204091 0 0.38783836144724232 0.2556839199238965 0 0.38460708535355081 0.26680105137204091 0 0.38129994004966872 0.25577407136566988 0 0.37169426656027921 0.24972740256563611 0 0.38106847269238292 0.24536179082341181 0 0.37017340450925651 0.266060206293324 0 0.38129994004966872 0.25577407136566988 0 0.38460708535355081 0.26680105137204091 0 0.36084998839118931 0.2761252295017701 0 0.38460708535355081 0.26680105137204091 0 0.37969218042614078 0.28371066929036243 0 0.38460708535355081 0.26680105137204091 0 0.3904751567012596 0.27530993325585928 0 0.37969218042614078 0.28371066929036243 0 0.38460708535355081 0.26680105137204091 0 0.37969218042614078 0.28371066929036243 0 0.3904751567012596 0.27530993325585928 0 0.37969218042614078 0.28371066929036243 0 0.39488150240831521 0.28173053148540511 0 0.37969218042614078 0.28371066929036243 0 0.37763341047385651 0.29079382019339128 0 0.40259214502479168 0.29292967641552992 0 0.37763341047385651 0.29079382019339128 0 0.4027243230010164 0.30147339632314252 0 0.37969218042614078 0.28371066929036243 0 0.37763341047385651 0.29079382019339128 0 0.37333201972158658 0.2878654242033048 0 0.37969218042614078 0.28371066929036243 0 0.37763341047385651 0.29079382019339128 0 0.37763341047385651 0.29079382019339128 0 0.37695808612291098 0.31120865645681561 0 0.38599374742651271 0.30414296713942529 0 0.37763341047385651 0.29079382019339128 0 0.38599374742651271 0.30414296713942529 0 0.4027243230010164 0.30147339632314252 0 0.37695808612291098 0.31120865645681561 0 0.38599374742651271 0.30414296713942529 0 0.38754735899376969 0.31282171123814728 0 0.38599374742651271 0.30414296713942529 0 0.4027243230010164 0.30147339632314252 0 0.38754735899376969 0.31282171123814728 0 0.4027243230010164 0.30147339632314252 0 0.3956366020903157 0.32248231082130752 0 0.38754735899376969 0.31282171123814728 0 0.37969218042614078 0.28371066929036243 0 0.40259214502479168 0.29292967641552992 0 0.37969218042614078 0.28371066929036243 0 0.39488150240831521 0.28173053148540511 0 0.40259214502479168 0.29292967641552992 0 0.37763341047385651 0.29079382019339128 0 0.4027243230010164 0.30147339632314252 0 0.40259214502479168 0.29292967641552992 0 0.4027243230010164 0.30147339632314252 0 0.40259214502479168 0.29292967641552992 0 0.41139710839419091 0.29189735433941028 0 0.40259214502479168 0.29292967641552992 0 0.40366985246608472 0.28285995447659418 0 0.41139710839419091 0.29189735433941028 0 0.39488150240831521 0.28173053148540511 0 0.40259214502479168 0.29292967641552992 0 0.40366985246608472 0.28285995447659418 0 0.40366985246608472 0.28285995447659418 0 0.41139710839419091 0.29189735433941028 0 0.40929088926209078 0.279020096056181 0 0.41139710839419091 0.29189735433941028 0 0.42781523552817591 0.31215297245289481 0 0.42226183937510081 0.28327127115801121 0 0.41139710839419091 0.29189735433941028 0 0.42226183937510081 0.28327127115801121 0 0.40929088926209078 0.279020096056181 0 0.4027243230010164 0.30147339632314252 0 0.41139710839419091 0.29189735433941028 0 0.42781523552817591 0.31215297245289481 0 0.4027243230010164 0.30147339632314252 0 0.42781523552817591 0.31215297245289481 0 0.41357021602424721 0.32279281759874212 0 0.4027243230010164 0.30147339632314252 0 0.42781523552817591 0.31215297245289481 0 0.42781523552817591 0.31215297245289481 0 0.42226183937510081 0.28327127115801121 0 0.42781523552817591 0.31215297245289481 0 0.42226183937510081 0.28327127115801121 0 0.44120727567718632 0.28746005308771089 0 0.42226183937510081 0.28327127115801121 0 0.43023391716603732 0.27040224467912161 0 0.44120727567718632 0.28746005308771089 0 0.42226183937510081 0.28327127115801121 0 0.43023391716603732 0.27040224467912161 0 0.41664462513020523 0.25422696758609492 0 0.43023391716603732 0.27040224467912161 0 0.43692075095235122 0.26433370861442979 0 0.44373838257505849 0.27050131303512348 0 0.42226183937510081 0.28327127115801121 0 0.4092682188351508 0.26816031590002881 0 0.41664462513020523 0.25422696758609492 0 0.42226183937510081 0.28327127115801121 0 0.41664462513020523 0.25422696758609492 0 0.42226183937510081 0.28327127115801121 0 0.4092682188351508 0.26816031590002881 0 0.40929088926209078 0.279020096056181 0 0.40768566828284042 0.25774317622192677 0 0.41664462513020523 0.25422696758609492 0 0.40866327585672191 0.24600766979752939 0 0.40768566828284042 0.25774317622192677 0 0.41664462513020523 0.25422696758609492 0 0.4092682188351508 0.26816031590002881 0 0.40768566828284042 0.25774317622192677 0 0.41664462513020523 0.25422696758609492 0 0.42749544465446981 0.25699566217507153 0 0.45166362976964691 0.25106894999712381 0 0.43076425121212841 0.2486853010718087 0 0.41664462513020523 0.25422696758609492 0 0.42749544465446981 0.25699566217507153 0 0.43076425121212841 0.2486853010718087 0 0.43023391716603732 0.27040224467912161 0 0.41664462513020523 0.25422696758609492 0 0.42749544465446981 0.25699566217507153 0 0.41664462513020523 0.25422696758609492 0 0.43076425121212841 0.2486853010718087 0 0.42749544465446981 0.25699566217507153 0 0.43692075095235122 0.26433370861442979 0 0.44456450099631911 0.26043047377218492 0 0.43023391716603732 0.27040224467912161 0 0.42749544465446981 0.25699566217507153 0 0.43692075095235122 0.26433370861442979 0 0.42749544465446981 0.25699566217507153 0 0.45166362976964691 0.25106894999712381 0 0.42749544465446981 0.25699566217507153 0 0.44456450099631911 0.26043047377218492 0 0.45166362976964691 0.25106894999712381 0 0.43692075095235122 0.26433370861442979 0 0.44456450099631911 0.26043047377218492 0 0.44373838257505849 0.27050131303512348 0 0.44456450099631911 0.26043047377218492 0 0.44373838257505849 0.27050131303512348 0 0.45508065662597141 0.26402805921732958 0 0.44456450099631911 0.26043047377218492 0 0.45166362976964691 0.25106894999712381 0 0.45508065662597141 0.26402805921732958 0 0.44373838257505849 0.27050131303512348 0 0.45472874274978531 0.27586911806656422 0 0.44120727567718632 0.28746005308771089 0 0.43023391716603732 0.27040224467912161 0 0.44373838257505849 0.27050131303512348 0 0.44120727567718632 0.28746005308771089 0 0.44373838257505849 0.27050131303512348 0 0.45472874274978531 0.27586911806656422 0 0.45508065662597141 0.26402805921732958 0 0.45472874274978531 0.27586911806656422 0 0.46665275363318931 0.27127710252775639 0 0.46192346945889701 0.28817835066990299 0 0.45472874274978531 0.27586911806656422 0 0.46665275363318931 0.27127710252775639 0 0.45508065662597141 0.26402805921732958 0 0.45166362976964691 0.25106894999712381 0 0.46652816171208539 0.25830808769848879 0 0.47583181488482379 0.2451422378191761 0 0.45166362976964691 0.25106894999712381 0 0.45508065662597141 0.26402805921732958 0 0.46652816171208539 0.25830808769848879 0 0.46665275363318931 0.27127710252775639 0 0.45508065662597141 0.26402805921732958 0 0.46652816171208539 0.25830808769848879 0 0.46665275363318931 0.27127710252775639 0 0.46652816171208539 0.25830808769848879 0 0.48341195364679568 0.26002408893105827 0 0.46652816171208539 0.25830808769848879 0 0.48341195364679568 0.26002408893105827 0 0.47583181488482379 0.2451422378191761 0 0.46665275363318931 0.27127710252775639 0 0.48341195364679568 0.26002408893105827 0 0.48138518434246891 0.28130646820503019 0 0.46665275363318931 0.27127710252775639 0 0.48138518434246891 0.28130646820503019 0 0.46192346945889701 0.28817835066990299 0 0.5 0.26671351767664991 0 0.5 0.29421150971207138 0 0.48138518434246891 0.28130646820503019 0 0.48341195364679568 0.26002408893105827 0 0.5 0.26671351767664991 0 0.48138518434246891 0.28130646820503019 0 0.48341195364679568 0.26002408893105827 0 0.5 0.26671351767664991 0 0.50000000000000067 0.2392155256412283 0 0.5 0.29421150971207138 0 0.47556093647901088 0.30733800586058863 0 0.5 0.32170950174749302 0 0.5 0.29421150971207138 0 0.48138518434246891 0.28130646820503019 0 0.47556093647901088 0.30733800586058863 0 0.48138518434246891 0.28130646820503019 0 0.47556093647901088 0.30733800586058863 0 0.46192346945889701 0.28817835066990299 0 0.47556093647901088 0.30733800586058863 0 0.45214514511688908 0.30370412902975941 0 0.45421880844117613 0.32339126307769928 0 0.47556093647901088 0.30733800586058863 0 0.46192346945889701 0.28817835066990299 0 0.45214514511688908 0.30370412902975941 0 0.46192346945889701 0.28817835066990299 0 0.44120727567718632 0.28746005308771089 0 0.45214514511688908 0.30370412902975941 0 0.45472874274978531 0.27586911806656422 0 0.46192346945889701 0.28817835066990299 0 0.44120727567718632 0.28746005308771089 0 0.42781523552817591 0.31215297245289481 0 0.44120727567718632 0.28746005308771089 0 0.45214514511688908 0.30370412902975941 0 0.42781523552817591 0.31215297245289481 0 0.45421880844117613 0.32339126307769928 0 0.43298436918619881 0.33903622913929549 0 0.42781523552817591 0.31215297245289481 0 0.45214514511688908 0.30370412902975941 0 0.45421880844117613 0.32339126307769928 0 0.42781523552817591 0.31215297245289481 0 0.45421880844117613 0.32339126307769928 0 0.45421880844117613 0.32339126307769928 0 0.45970761232660212 0.34692044601787542 0 0.43298436918619881 0.33903622913929549 0 0.45421880844117613 0.32339126307769928 0 0.48062238135417568 0.33462955370250519 0 0.45421880844117613 0.32339126307769928 0 0.48062238135417568 0.33462955370250519 0 0.45970761232660212 0.34692044601787542 0 0.47556093647901088 0.30733800586058863 0 0.45421880844117613 0.32339126307769928 0 0.48062238135417568 0.33462955370250519 0 0.48062238135417568 0.33462955370250519 0 0.5 0.32170950174749302 0 0.5 0.34920749378291471 0 0.47556093647901088 0.30733800586058863 0 0.48062238135417568 0.33462955370250519 0 0.5 0.32170950174749302 0 0.5 0.34920749378291471 0 0.48254603458521478 0.3522402998402685 0 0.5 0.37670548581833618 0 0.48062238135417568 0.33462955370250519 0 0.5 0.34920749378291471 0 0.48254603458521478 0.3522402998402685 0 0.48254603458521478 0.3522402998402685 0 0.46972057754862501 0.36630584452178799 0 0.45970761232660212 0.34692044601787542 0 0.48062238135417568 0.33462955370250519 0 0.48254603458521478 0.3522402998402685 0 0.45970761232660212 0.34692044601787542 0 0.48254603458521478 0.3522402998402685 0 0.46972057754862501 0.36630584452178799 0 0.5 0.37670548581833618 0 0.46972057754862501 0.36630584452178799 0 0.43815350284422228 0.36591948582569622 0 0.45848938469160699 0.38276388730883248 0 0.46972057754862501 0.36630584452178799 0 0.45970761232660212 0.34692044601787542 0 0.43815350284422228 0.36591948582569622 0 0.45970761232660212 0.34692044601787542 0 0.43815350284422228 0.36591948582569622 0 0.43298436918619881 0.33903622913929549 0 0.43815350284422228 0.36591948582569622 0 0.4167242930516859 0.35972934744593471 0 0.42344095457037051 0.38268701701273461 0 0.4167242930516859 0.35972934744593471 0 0.40101385701800268 0.38518895784325291 0 0.4167242930516859 0.35972934744593471 0 0.40181680918128981 0.35947395412181382 0 0.40101385701800268 0.38518895784325291 0 0.4167242930516859 0.35972934744593471 0 0.40869055031553031 0.33881917925707022 0 0.40181680918128981 0.35947395412181382 0 0.4167242930516859 0.35972934744593471 0 0.43298436918619881 0.33903622913929549 0 0.40869055031553031 0.33881917925707022 0 0.43815350284422228 0.36591948582569622 0 0.4167242930516859 0.35972934744593471 0 0.43298436918619881 0.33903622913929549 0 0.43815350284422228 0.36591948582569622 0 0.43298436918619881 0.33903622913929549 0 0.42781523552817591 0.31215297245289481 0 0.43298436918619881 0.33903622913929549 0 0.42781523552817591 0.31215297245289481 0 0.43298436918619881 0.33903622913929549 0 0.41357021602424721 0.32279281759874212 0 0.43298436918619881 0.33903622913929549 0 0.41357021602424721 0.32279281759874212 0 0.40869055031553031 0.33881917925707022 0 0.40869055031553031 0.33881917925707022 0 0.39369601167170543 0.33564153172070438 0 0.39209274976778918 0.34814598654190299 0 0.40869055031553031 0.33881917925707022 0 0.39369601167170543 0.33564153172070438 0 0.3956366020903157 0.32248231082130752 0 0.39369601167170543 0.33564153172070438 0 0.3956366020903157 0.32248231082130752 0 0.38362385659697051 0.32926172455430031 0 0.39369601167170543 0.33564153172070438 0 0.38635485741833753 0.33883185827426582 0 0.39209274976778918 0.34814598654190299 0 0.41357021602424721 0.32279281759874212 0 0.40869055031553031 0.33881917925707022 0 0.3956366020903157 0.32248231082130752 0 0.4027243230010164 0.30147339632314252 0 0.41357021602424721 0.32279281759874212 0 0.3956366020903157 0.32248231082130752 0 0.3956366020903157 0.32248231082130752 0 0.38754735899376969 0.31282171123814728 0 0.38479800915553353 0.32074741934569512 0 0.38754735899376969 0.31282171123814728 0 0.38479800915553353 0.32074741934569512 0 0.37917338616632867 0.3168755173424983 0 0.3956366020903157 0.32248231082130752 0 0.38479800915553353 0.32074741934569512 0 0.38362385659697051 0.32926172455430031 0 0.38479800915553353 0.32074741934569512 0 0.37832625022041982 0.32264150287239662 0 0.38362385659697051 0.32926172455430031 0 0.37577016905582622 0.32787937856968757 0 0.37832625022041982 0.32264150287239662 0 0.38362385659697051 0.32926172455430031 0 0.37577016905582622 0.32787937856968757 0 0.37506056064123422 0.32471797871916308 0 0.37832625022041982 0.32264150287239662 0 0.37368960646642962 0.31911015363466272 0 0.37506056064123422 0.32471797871916308 0 0.37832625022041982 0.32264150287239662 0 0.37695808612291098 0.31120865645681561 0 0.38754735899376969 0.31282171123814728 0 0.37917338616632867 0.3168755173424983 0 0.38479800915553353 0.32074741934569512 0 0.37832625022041982 0.32264150287239662 0 0.37917338616632867 0.3168755173424983 0 0.37368960646642962 0.31911015363466272 0 0.37832625022041982 0.32264150287239662 0 0.37917338616632867 0.3168755173424983 0 0.37499251130121058 0.31593455150060828 0 0.37368960646642962 0.31911015363466272 0 0.37917338616632867 0.3168755173424983 0 0.37499251130121058 0.31593455150060828 0 0.37695808612291098 0.31120865645681561 0 0.37917338616632867 0.3168755173424983 0 0.38635485741833753 0.33883185827426582 0 0.3795813787571668 0.3363772241379393 0 0.38278029029805521 0.34473282441648212 0 0.39369601167170543 0.33564153172070438 0 0.38635485741833753 0.33883185827426582 0 0.38362385659697051 0.32926172455430031 0 0.38635485741833753 0.33883185827426582 0 0.38362385659697051 0.32926172455430031 0 0.3795813787571668 0.3363772241379393 0 0.37577016905582622 0.32787937856968757 0 0.38362385659697051 0.32926172455430031 0 0.37868435463470768 0.3315773541462857 0 0.38362385659697051 0.32926172455430031 0 0.37868435463470768 0.3315773541462857 0 0.3795813787571668 0.3363772241379393 0 0.37577016905582622 0.32787937856968757 0 0.37868435463470768 0.3315773541462857 0 0.375263113682131 0.33313320718557798 0 0.37868435463470768 0.3315773541462857 0 0.375263113682131 0.33313320718557798 0 0.3795813787571668 0.3363772241379393 0 0.37369311900952262 0.33836265764115908 0 0.3795813787571668 0.3363772241379393 0 0.37670219357667811 0.34177383067972761 0 0.3795813787571668 0.3363772241379393 0 0.37670219357667811 0.34177383067972761 0 0.38278029029805521 0.34473282441648212 0 0.37369311900952262 0.33836265764115908 0 0.375263113682131 0.33313320718557798 0 0.3795813787571668 0.3363772241379393 0 0.3809821990389497 0.35490418517770578 0 0.39056259575344082 0.36548629952090861 0 0.39209274976778918 0.34814598654190299 0 0.37486749369974542 0.34694596905823039 0 0.37670219357667811 0.34177383067972761 0 0.38278029029805521 0.34473282441648212 0 0.37486749369974542 0.34694596905823039 0 0.38278029029805521 0.34473282441648212 0 0.3809821990389497 0.35490418517770578 0 0.38278029029805521 0.34473282441648212 0 0.3809821990389497 0.35490418517770578 0 0.39209274976778918 0.34814598654190299 0 0.38635485741833753 0.33883185827426582 0 0.38278029029805521 0.34473282441648212 0 0.39209274976778918 0.34814598654190299 0 0.37228166628853332 0.35471301169251829 0 0.37486749369974542 0.34694596905823039 0 0.3809821990389497 0.35490418517770578 0 0.37414389550204002 0.36898578533419818 0 0.3809821990389497 0.35490418517770578 0 0.39056259575344082 0.36548629952090861 0 0.37414389550204002 0.36898578533419818 0 0.39056259575344082 0.36548629952090861 0 0.40101385701800268 0.38518895784325291 0 0.37414389550204002 0.36898578533419818 0 0.37228166628853332 0.35471301169251829 0 0.3809821990389497 0.35490418517770578 0 0.39056259575344082 0.36548629952090861 0 0.40181680918128981 0.35947395412181382 0 0.40101385701800268 0.38518895784325291 0 0.39056259575344082 0.36548629952090861 0 0.40181680918128981 0.35947395412181382 0 0.39209274976778918 0.34814598654190299 0 0.40869055031553031 0.33881917925707022 0 0.40181680918128981 0.35947395412181382 0 0.39209274976778918 0.34814598654190299 0 0.40101385701800268 0.38518895784325291 0 0.38530342098431941 0.41064856824057122 0 0.40101385701800268 0.38518895784325291 0 0.38530342098431941 0.41064856824057122 0 0.41521715527738928 0.40390661881175682 0 0.3736470799201031 0.39378130610698531 0 0.37414389550204002 0.36898578533419818 0 0.40101385701800268 0.38518895784325291 0 0.3736470799201031 0.39378130610698531 0 0.40101385701800268 0.38518895784325291 0 0.38530342098431941 0.41064856824057122 0 0.36959298495063608 0.43610817863788948 0 0.38530342098431941 0.41064856824057122 0 0.36959298495063608 0.43610817863788948 0 0.38530342098431941 0.41064856824057122 0 0.3889231515195431 0.43141286456833011 0 0.3889231515195431 0.43141286456833011 0 0.40362265567455102 0.42304679086704539 0 0.39942544658573009 0.43872588670818857 0 0.40362265567455102 0.42304679086704539 0 0.41248490446316177 0.43293377153942381 0 0.39942544658573009 0.43872588670818857 0 0.38530342098431941 0.41064856824057122 0 0.3889231515195431 0.43141286456833011 0 0.40362265567455102 0.42304679086704539 0 0.38530342098431941 0.41064856824057122 0 0.40362265567455102 0.42304679086704539 0 0.41521715527738928 0.40390661881175682 0 0.40362265567455102 0.42304679086704539 0 0.42233359500988371 0.42307221464191669 0 0.41521715527738928 0.40390661881175682 0 0.40362265567455102 0.42304679086704539 0 0.41248490446316177 0.43293377153942381 0 0.42233359500988371 0.42307221464191669 0 0.41248490446316177 0.43293377153942381 0 0.42233359500988371 0.42307221464191669 0 0.42326813014219627 0.43909650749986368 0 0.42233359500988371 0.42307221464191669 0 0.43681876433844857 0.43497208046478802 0 0.42326813014219627 0.43909650749986368 0 0.42233359500988371 0.42307221464191669 0 0.43681876433844857 0.43497208046478802 0 0.43655617137350622 0.42038510460191503 0 0.42233359500988371 0.42307221464191669 0 0.42830887421762198 0.41018013153495869 0 0.41521715527738928 0.40390661881175682 0 0.42233359500988371 0.42307221464191669 0 0.42830887421762198 0.41018013153495869 0 0.43655617137350622 0.42038510460191503 0 0.42830887421762198 0.41018013153495869 0 0.43655617137350622 0.42038510460191503 0 0.439625884597032 0.40642404903869822 0 0.42978568865087441 0.39901034440009059 0 0.42344095457037051 0.38268701701273461 0 0.4433226365022459 0.39280274251209668 0 0.42978568865087441 0.39901034440009059 0 0.41521715527738928 0.40390661881175682 0 0.42344095457037051 0.38268701701273461 0 0.42830887421762198 0.41018013153495869 0 0.42978568865087441 0.39901034440009059 0 0.439625884597032 0.40642404903869822 0 0.42830887421762198 0.41018013153495869 0 0.42978568865087441 0.39901034440009059 0 0.41521715527738928 0.40390661881175682 0 0.4167242930516859 0.35972934744593471 0 0.40101385701800268 0.38518895784325291 0 0.42344095457037051 0.38268701701273461 0 0.40101385701800268 0.38518895784325291 0 0.41521715527738928 0.40390661881175682 0 0.42344095457037051 0.38268701701273461 0 0.43815350284422228 0.36591948582569622 0 0.42344095457037051 0.38268701701273461 0 0.4433226365022459 0.39280274251209668 0 0.43815350284422228 0.36591948582569622 0 0.4433226365022459 0.39280274251209668 0 0.43815350284422228 0.36591948582569622 0 0.4433226365022459 0.39280274251209668 0 0.45848938469160699 0.38276388730883248 0 0.4433226365022459 0.39280274251209668 0 0.4587292321942566 0.40377894109977869 0 0.44849177016026981 0.41968599919849731 0 0.4433226365022459 0.39280274251209668 0 0.44849177016026981 0.41968599919849731 0 0.42978568865087441 0.39901034440009059 0 0.4433226365022459 0.39280274251209668 0 0.439625884597032 0.40642404903869822 0 0.4433226365022459 0.39280274251209668 0 0.4587292321942566 0.40377894109977869 0 0.45848938469160699 0.38276388730883248 0 0.4587292321942566 0.40377894109977869 0 0.45848938469160699 0.38276388730883248 0 0.47720201034463561 0.39055994944820821 0 0.46972057754862501 0.36630584452178799 0 0.45848938469160699 0.38276388730883248 0 0.47720201034463561 0.39055994944820821 0 0.46972057754862501 0.36630584452178799 0 0.47720201034463561 0.39055994944820821 0 0.5 0.37670548581833618 0 0.47720201034463561 0.39055994944820821 0 0.5 0.40420347785375749 0 0.47329291580914951 0.41490179660840648 0 0.4587292321942566 0.40377894109977869 0 0.47720201034463561 0.39055994944820821 0 0.47329291580914951 0.41490179660840648 0 0.47720201034463561 0.39055994944820821 0 0.5 0.40420347785375749 0 0.5 0.37670548581833618 0 0.48546521128148462 0.42572005307568972 0 0.49999999999999828 0.43170146988917901 0 0.48502495584706629 0.44181750450007778 0 0.49999999999999828 0.43170146988917901 0 0.48502495584706629 0.44181750450007778 0 0.5 0.40420347785375749 0 0.48546521128148462 0.42572005307568972 0 0.47329291580914951 0.41490179660840648 0 0.5 0.40420347785375749 0 0.48546521128148462 0.42572005307568972 0 0.49999999999999828 0.43170146988917901 0 0.48546521128148462 0.42572005307568972 0 0.47462076711180717 0.43403653248997731 0 0.48502495584706629 0.44181750450007778 0 0.47329291580914951 0.41490179660840648 0 0.47462076711180717 0.43403653248997731 0 0.45927084092720188 0.43580976915473651 0 0.48546521128148462 0.42572005307568972 0 0.47329291580914951 0.41490179660840648 0 0.47462076711180717 0.43403653248997731 0 0.45927084092720188 0.43580976915473651 0 0.44849177016026981 0.41968599919849731 0 0.47329291580914951 0.41490179660840648 0 0.45927084092720188 0.43580976915473651 0 0.44849177016026981 0.41968599919849731 0 0.45927084092720188 0.43580976915473651 0 0.44849177016026981 0.41968599919849731 0 0.45165089640657707 0.43611575462809582 0 0.4587292321942566 0.40377894109977869 0 0.47329291580914951 0.41490179660840648 0 0.44849177016026981 0.41968599919849731 0 0.4433226365022459 0.39280274251209668 0 0.44849177016026981 0.41968599919849731 0 0.439625884597032 0.40642404903869822 0 0.43655617137350622 0.42038510460191503 0 0.44849177016026981 0.41968599919849731 0 0.439625884597032 0.40642404903869822 0 0.44849177016026981 0.41968599919849731 0 0.439625884597032 0.40642404903869822 0 0.44849177016026981 0.41968599919849731 0 0.45165089640657707 0.43611575462809582 0 0.44386952542921521 0.4295111469185629 0 0.44849177016026981 0.41968599919849731 0 0.45165089640657707 0.43611575462809582 0 0.45165089640657707 0.43611575462809582 0 0.44386952542921521 0.4295111469185629 0 0.44519082659473158 0.43782150968735878 0 0.43655617137350622 0.42038510460191503 0 0.44849177016026981 0.41968599919849731 0 0.44386952542921521 0.4295111469185629 0 0.43681876433844857 0.43497208046478802 0 0.43655617137350622 0.42038510460191503 0 0.44386952542921521 0.4295111469185629 0 0.43681876433844857 0.43497208046478802 0 0.44386952542921521 0.4295111469185629 0 0.44519082659473158 0.43782150968735878 0 0.43681876433844857 0.43497208046478802 0 0.44519082659473158 0.43782150968735878 0 0.44362096681603608 0.44566090358066651 0 0.43681876433844857 0.43497208046478802 0 0.44362096681603608 0.44566090358066651 0 0.43343701099378978 0.44857281610427868 0 0.44362096681603608 0.44566090358066651 0 0.44110505044236059 0.45564825146568327 0 0.43343701099378978 0.44857281610427868 0 0.44362096681603608 0.44566090358066651 0 0.45255374853073171 0.45216262504332899 0 0.45221828903371142 0.44335246171580328 0 0.44362096681603608 0.44566090358066651 0 0.45255374853073171 0.45216262504332899 0 0.44110505044236059 0.45564825146568327 0 0.44519082659473158 0.43782150968735878 0 0.44362096681603608 0.44566090358066651 0 0.45221828903371142 0.44335246171580328 0 0.45165089640657707 0.43611575462809582 0 0.44519082659473158 0.43782150968735878 0 0.45221828903371142 0.44335246171580328 0 0.45255374853073171 0.45216262504332899 0 0.44518446721829791 0.46873079822848901 0 0.44110505044236059 0.45564825146568327 0 0.44518446721829791 0.46873079822848901 0 0.44110505044236059 0.45564825146568327 0 0.43072905865294731 0.46311411437165317 0 0.47284597636140308 0.45611600571247141 0 0.46302896313844299 0.47272331085799019 0 0.45255374853073171 0.45216262504332899 0 0.44518446721829791 0.46873079822848901 0 0.47004991169413368 0.45193353911097589 0 0.47004991169413368 0.45193353911097589 0 0.47284597636140308 0.45611600571247141 0 0.46302896313844299 0.47272331085799019 0 0.44518446721829791 0.46873079822848901 0 0.47004991169413368 0.45193353911097589 0 0.46302896313844299 0.47272331085799019 0 0.44518446721829791 0.46873079822848901 0 0.47004991169413368 0.45193353911097589 0 0.45927084092720188 0.43580976915473651 0 0.47004991169413368 0.45193353911097589 0 0.45927084092720188 0.43580976915473651 0 0.45930684530103161 0.44617181272829648 0 0.47004991169413368 0.45193353911097589 0 0.47462076711180717 0.43403653248997731 0 0.45927084092720188 0.43580976915473651 0 0.47004991169413368 0.45193353911097589 0 0.45255374853073171 0.45216262504332899 0 0.45930684530103161 0.44617181272829648 0 0.47004991169413368 0.45193353911097589 0 0.45927084092720188 0.43580976915473651 0 0.45221828903371142 0.44335246171580328 0 0.45930684530103161 0.44617181272829648 0 0.45927084092720188 0.43580976915473651 0 0.45165089640657707 0.43611575462809582 0 0.45221828903371142 0.44335246171580328 0 0.45255374853073171 0.45216262504332899 0 0.45221828903371142 0.44335246171580328 0 0.45930684530103161 0.44617181272829648 0 0.47462076711180717 0.43403653248997731 0 0.47004991169413368 0.45193353911097589 0 0.48502495584706629 0.44181750450007778 0 0.48189680466807888 0.45106209462173341 0 0.47450081081676521 0.45331654521044668 0 0.48502495584706629 0.44181750450007778 0 0.47004991169413368 0.45193353911097589 0 0.48502495584706629 0.44181750450007778 0 0.47004991169413368 0.45193353911097589 0 0.47450081081676521 0.45331654521044668 0 0.48502495584706629 0.44181750450007778 0 0.47284597636140308 0.45611600571247141 0 0.48050552008400071 0.46757346096286262 0 0.46302896313844299 0.47272331085799019 0 0.47004991169413368 0.45193353911097589 0 0.47284597636140308 0.45611600571247141 0 0.47004991169413368 0.45193353911097589 0 0.47450081081676521 0.45331654521044668 0 0.47284597636140308 0.45611600571247141 0 0.47450081081676521 0.45331654521044668 0 0.47284597636140308 0.45611600571247141 0 0.47951191807974908 0.45654698881850991 0 0.47450081081676521 0.45331654521044668 0 0.47284597636140308 0.45611600571247141 0 0.47284597636140308 0.45611600571247141 0 0.48050552008400071 0.46757346096286262 0 0.47284597636140308 0.45611600571247141 0 0.48050552008400071 0.46757346096286262 0 0.47951191807974908 0.45654698881850991 0 0.48189680466807888 0.45106209462173341 0 0.47951191807974908 0.45654698881850991 0 0.4878104784684959 0.4546668375850359 0 0.48050552008400071 0.46757346096286262 0 0.47951191807974908 0.45654698881850991 0 0.4878104784684959 0.4546668375850359 0 0.48189680466807888 0.45106209462173341 0 0.47450081081676521 0.45331654521044668 0 0.47951191807974908 0.45654698881850991 0 0.48050552008400071 0.46757346096286262 0 0.4878104784684959 0.4546668375850359 0 0.49999999999999928 0.46182898591187349 0 0.48050552008400071 0.46757346096286262 0 0.49999999999999928 0.46182898591187349 0 0.49999999999999828 0.43170146988917901 0 0.4878104784684959 0.4546668375850359 0 0.49999999999999928 0.46182898591187349 0 0.49999999999999828 0.43170146988917901 0 0.4878104784684959 0.4546668375850359 0 0.48502495584706629 0.44181750450007778 0 0.48189680466807888 0.45106209462173341 0 0.4878104784684959 0.4546668375850359 0 0.48502495584706629 0.44181750450007778 0 0.49999999999999928 0.46182898591187349 0 0.5 0.5 0 0.49753071700976492 0.4930404390193398 0 0.5 0.5 0 0.47501141284236448 0.48698608464618232 0 0.44690499747156931 0.4999999999999995 0 0.5 0.5 0 0.49753071700976492 0.4930404390193398 0 0.47501141284236448 0.48698608464618232 0 0.49753071700976492 0.4930404390193398 0 0.48901811854688337 0.4803069499911008 0 0.47501141284236448 0.48698608464618232 0 0.49753071700976492 0.4930404390193398 0 0.48901811854688337 0.4803069499911008 0 0.48050552008400071 0.46757346096286262 0 0.49999999999999928 0.46182898591187349 0 0.48901811854688337 0.4803069499911008 0 0.49999999999999928 0.46182898591187349 0 0.49753071700976492 0.4930404390193398 0 0.48901811854688337 0.4803069499911008 0 0.48050552008400071 0.46757346096286262 0 0.48901811854688337 0.4803069499911008 0 0.48050552008400071 0.46757346096286262 0 0.46302896313844299 0.47272331085799019 0 0.48901811854688337 0.4803069499911008 0 0.47689100365292297 0.47689745161453417 0 0.47501141284236448 0.48698608464618232 0 0.48050552008400071 0.46757346096286262 0 0.47689100365292297 0.47689745161453417 0 0.46302896313844299 0.47272331085799019 0 0.48050552008400071 0.46757346096286262 0 0.48901811854688337 0.4803069499911008 0 0.47689100365292297 0.47689745161453417 0 0.47689100365292297 0.47689745161453417 0 0.47501141284236448 0.48698608464618232 0 0.46302896313844299 0.47272331085799019 0 0.47501141284236448 0.48698608464618232 0 0.45496698030500621 0.48636165542899479 0 0.44690499747156931 0.4999999999999995 0 0.47501141284236448 0.48698608464618232 0 0.45496698030500621 0.48636165542899479 0 0.46302896313844299 0.47272331085799019 0 0.45496698030500621 0.48636165542899479 0 0.46302896313844299 0.47272331085799019 0 0.46302896313844299 0.47272331085799019 0 0.43620850627812668 0.48062654530969717 0 0.44518446721829791 0.46873079822848901 0 0.46302896313844299 0.47272331085799019 0 0.43620850627812668 0.48062654530969717 0 0.45496698030500621 0.48636165542899479 0 0.46302896313844299 0.47272331085799019 0 0.43620850627812668 0.48062654530969717 0 0.45496698030500621 0.48636165542899479 0 0.44690499747156931 0.4999999999999995 0 0.43620850627812668 0.48062654530969717 0 0.45496698030500621 0.48636165542899479 0 0.44690499747156931 0.4999999999999995 0 0.42031902274246069 0.48552805734600057 0 0.41743852268843429 0.5 0 0.43620850627812668 0.48062654530969717 0 0.44690499747156931 0.4999999999999995 0 0.41743852268843429 0.5 0 0.43620850627812668 0.48062654530969717 0 0.42031902274246069 0.48552805734600057 0 0.41743852268843429 0.5 0 0.40134209412993838 0.48520307466421098 0 0.42031902274246069 0.48552805734600057 0 0.40973563488985532 0.47579104778557152 0 0.40134209412993838 0.48520307466421098 0 0.42031902274246069 0.48552805734600057 0 0.40973563488985532 0.47579104778557152 0 0.41789473538963601 0.46705380048502582 0 0.44518446721829791 0.46873079822848901 0 0.42031902274246069 0.48552805734600057 0 0.43072905865294731 0.46311411437165317 0 0.44518446721829791 0.46873079822848901 0 0.42031902274246069 0.48552805734600057 0 0.43620850627812668 0.48062654530969717 0 0.44518446721829791 0.46873079822848901 0 0.42031902274246069 0.48552805734600057 0 0.42031902274246069 0.48552805734600057 0 0.43072905865294731 0.46311411437165317 0 0.41789473538963601 0.46705380048502582 0 0.44110505044236059 0.45564825146568327 0 0.43072905865294731 0.46311411437165317 0 0.43343701099378978 0.44857281610427868 0 0.43072905865294731 0.46311411437165317 0 0.43343701099378978 0.44857281610427868 0 0.42053980660522761 0.45341513910658388 0 0.43072905865294731 0.46311411437165317 0 0.41789473538963601 0.46705380048502582 0 0.42053980660522761 0.45341513910658388 0 0.43681876433844857 0.43497208046478802 0 0.43343701099378978 0.44857281610427868 0 0.42326813014219627 0.43909650749986368 0 0.43343701099378978 0.44857281610427868 0 0.42326813014219627 0.43909650749986368 0 0.42053980660522761 0.45341513910658388 0 0.41248490446316177 0.43293377153942381 0 0.42326813014219627 0.43909650749986368 0 0.41215324011006321 0.44426916471351768 0 0.42326813014219627 0.43909650749986368 0 0.41215324011006321 0.44426916471351768 0 0.42053980660522761 0.45341513910658388 0 0.41215324011006321 0.44426916471351768 0 0.42053980660522761 0.45341513910658388 0 0.40575666434273311 0.45838443146516472 0 0.41248490446316177 0.43293377153942381 0 0.41215324011006321 0.44426916471351768 0 0.39942544658573009 0.43872588670818857 0 0.40973563488985532 0.47579104778557152 0 0.41789473538963601 0.46705380048502582 0 0.40575666434273311 0.45838443146516472 0 0.41789473538963601 0.46705380048502582 0 0.42053980660522761 0.45341513910658388 0 0.40575666434273311 0.45838443146516472 0 0.40973563488985532 0.47579104778557152 0 0.40575666434273311 0.45838443146516472 0 0.39457326129307041 0.46924519202038539 0 0.40575666434273311 0.45838443146516472 0 0.38748492612950952 0.44892285829301931 0 0.39457326129307041 0.46924519202038539 0 0.40575666434273311 0.45838443146516472 0 0.39942544658573009 0.43872588670818857 0 0.38748492612950952 0.44892285829301931 0 0.3889231515195431 0.43141286456833011 0 0.39942544658573009 0.43872588670818857 0 0.38748492612950952 0.44892285829301931 0 0.41215324011006321 0.44426916471351768 0 0.40575666434273311 0.45838443146516472 0 0.39942544658573009 0.43872588670818857 0 0.36980735363827261 0.46050290225189661 0 0.36959298495063608 0.43610817863788948 0 0.38748492612950952 0.44892285829301931 0 0.36959298495063608 0.43610817863788948 0 0.3889231515195431 0.43141286456833011 0 0.38748492612950952 0.44892285829301931 0 0.36980735363827261 0.46050290225189661 0 0.38748492612950952 0.44892285829301931 0 0.39457326129307041 0.46924519202038539 0 0.36980735363827261 0.46050290225189661 0 0.37801407526051067 0.48065415083330842 0 0.39457326129307041 0.46924519202038539 0 0.37801407526051067 0.48065415083330842 0 0.38797204790529932 0.5 0 0.40134209412993838 0.48520307466421098 0 0.41743852268843429 0.5 0 0.38797204790529932 0.5 0 0.40134209412993838 0.48520307466421098 0 0.40973563488985532 0.47579104778557152 0 0.40134209412993838 0.48520307466421098 0 0.39457326129307041 0.46924519202038539 0 0.37801407526051067 0.48065415083330842 0 0.40134209412993838 0.48520307466421098 0 0.39457326129307041 0.46924519202038539 0 0.33471388977496319 0.083869725553476451 0 0.32003772732572838 0.080925826065863432 0 0.34163206045391592 0.099703108374672819 0 0.32003772732572838 0.080925826065863432 0 0.34163206045391592 0.099703108374672819 0 0.33471388977496319 0.083869725553476451 0 0.34163206045391592 0.099703108374672819 0 0.35085433501378249 0.086695181415402722 0 0.33471388977496319 0.083869725553476451 0 0.34209731100959018 0.06531632876058778 0 0.3490795063897344 0.076610282135673974 0 0.33471388977496319 0.083869725553476451 0 0.34209731100959018 0.06531632876058778 0 0.32721969837032222 0.069259436753723466 0 0.33471388977496319 0.083869725553476451 0 0.32721969837032222 0.069259436753723466 0 0.32003772732572838 0.080925826065863432 0 0.31518448171420999 0.065085558788002928 0 0.32721969837032222 0.069259436753723466 0 0.32003772732572838 0.080925826065863432 0 0.32003772732572838 0.080925826065863432 0 0.31657863646219547 0.093324099257994786 0 0.34163206045391592 0.099703108374672819 0 0.32003772732572838 0.080925826065863432 0 0.31657863646219547 0.093324099257994786 0 0.30227411453462139 0.089652133027170247 0 0.33471388977496319 0.083869725553476451 0 0.32003772732572838 0.080925826065863432 0 0.31657863646219547 0.093324099257994786 0 0.32025759602694659 0.1047776340902011 0 0.34163206045391592 0.099703108374672819 0 0.31657863646219547 0.093324099257994786 0 0.32025759602694659 0.1047776340902011 0 0.30640852481201453 0.1024735992044304 0 0.32025759602694659 0.1047776340902011 0 0.31114536757858358 0.11742006929579971 0 0.30640852481201453 0.1024735992044304 0 0.32606950933900308 0.1158177097477945 0 0.31114536757858358 0.11742006929579971 0 0.3195478300457561 0.1332621056988223 0 0.32025759602694659 0.1047776340902011 0 0.32606950933900308 0.1158177097477945 0 0.31114536757858358 0.11742006929579971 0 0.33761965874988609 0.1186889285033586 0 0.34163206045391592 0.099703108374672819 0 0.34956654336434939 0.1234914401014125 0 0.32606950933900308 0.1158177097477945 0 0.33761965874988609 0.1186889285033586 0 0.34163206045391592 0.099703108374672819 0 0.32606950933900308 0.1158177097477945 0 0.33761965874988609 0.1186889285033586 0 0.33436770153514289 0.13112975471366969 0 0.33761965874988609 0.1186889285033586 0 0.34956654336434939 0.1234914401014125 0 0.33436770153514289 0.13112975471366969 0 0.32025759602694659 0.1047776340902011 0 0.32606950933900308 0.1158177097477945 0 0.34163206045391592 0.099703108374672819 0 0.34163206045391592 0.099703108374672819 0 0.35755874922647762 0.098360434014750309 0 0.36322639358210312 0.11848039068348271 0 0.34163206045391592 0.099703108374672819 0 0.36322639358210312 0.11848039068348271 0 0.34163206045391592 0.099703108374672819 0 0.35755874922647762 0.098360434014750309 0 0.35085433501378249 0.086695181415402722 0 0.34163206045391592 0.099703108374672819 0 0.34956654336434939 0.1234914401014125 0 0.36322639358210312 0.11848039068348271 0 0.36322639358210312 0.11848039068348271 0 0.37045299287494049 0.09679375479102828 0 0.38005682511468147 0.12140739343396729 0 0.35755874922647762 0.098360434014750309 0 0.36322639358210312 0.11848039068348271 0 0.37045299287494049 0.09679375479102828 0 0.35755874922647762 0.098360434014750309 0 0.37045299287494049 0.09679375479102828 0 0.35979627253246887 0.087956112087811941 0 0.37045299287494049 0.09679375479102828 0 0.36986657419494789 0.075759843690150083 0 0.37682589963749002 0.081332762740894418 0 0.37045299287494049 0.09679375479102828 0 0.35979627253246887 0.087956112087811941 0 0.36084916063519962 0.072180116148089279 0 0.37045299287494049 0.09679375479102828 0 0.36084916063519962 0.072180116148089279 0 0.36986657419494789 0.075759843690150083 0 0.37045299287494049 0.09679375479102828 0 0.36084916063519962 0.072180116148089279 0 0.35755874922647762 0.098360434014750309 0 0.35979627253246887 0.087956112087811941 0 0.35085433501378249 0.086695181415402722 0 0.35979627253246887 0.087956112087811941 0 0.35560274156159061 0.081403828627082772 0 0.36084916063519962 0.072180116148089279 0 0.33471388977496319 0.083869725553476451 0 0.35085433501378249 0.086695181415402722 0 0.3490795063897344 0.076610282135673974 0 0.35979627253246887 0.087956112087811941 0 0.35560274156159061 0.081403828627082772 0 0.35085433501378249 0.086695181415402722 0 0.35560274156159061 0.081403828627082772 0 0.35085433501378249 0.086695181415402722 0 0.3490795063897344 0.076610282135673974 0 0.34209731100959018 0.06531632876058778 0 0.3490795063897344 0.076610282135673974 0 0.36084916063519962 0.072180116148089279 0 0.36448270712015302 0.068442951443566186 0 0.36084916063519962 0.072180116148089279 0 0.35124532839545858 0.047566477505150237 0 0.35560274156159061 0.081403828627082772 0 0.3490795063897344 0.076610282135673974 0 0.36084916063519962 0.072180116148089279 0 0.36448270712015302 0.068442951443566186 0 0.36084916063519962 0.072180116148089279 0 0.36986657419494789 0.075759843690150083 0 0.36986657419494789 0.075759843690150083 0 0.37596532967213542 0.069868995675824025 0 0.37682589963749002 0.081332762740894418 0 0.36448270712015302 0.068442951443566186 0 0.36986657419494789 0.075759843690150083 0 0.37084641292541748 0.06878424193773866 0 0.36986657419494789 0.075759843690150083 0 0.37084641292541748 0.06878424193773866 0 0.37596532967213542 0.069868995675824025 0 0.36448270712015302 0.068442951443566186 0 0.37084641292541748 0.06878424193773866 0 0.37307104071443398 0.061065176941414383 0 0.37084641292541748 0.06878424193773866 0 0.37307104071443398 0.061065176941414383 0 0.37596532967213542 0.069868995675824025 0 0.36448270712015302 0.068442951443566186 0 0.37307104071443398 0.061065176941414383 0 0.37146335928247548 0.04052602251159599 0 0.36448270712015302 0.068442951443566186 0 0.37146335928247548 0.04052602251159599 0 0.35124532839545858 0.047566477505150237 0 0.36448270712015302 0.068442951443566186 0 0.37146335928247548 0.04052602251159599 0 0.37146335928247548 0.04052602251159599 0 0.35572529983931911 0.032753521421585163 0 0.36312657459820519 0.022962182453169309 0 0.37146335928247548 0.04052602251159599 0 0.35572529983931911 0.032753521421585163 0 0.35124532839545858 0.047566477505150237 0 0.35572529983931911 0.032753521421585163 0 0.35124532839545858 0.047566477505150237 0 0.3321968515854315 0.028027004478648001 0 0.36084916063519962 0.072180116148089279 0 0.35124532839545858 0.047566477505150237 0 0.34209731100959018 0.06531632876058778 0 0.36084916063519962 0.072180116148089279 0 0.35124532839545858 0.047566477505150237 0 0.36312657459820519 0.022962182453169309 0 0.35936362748920009 0.0091271431172253586 0 0.37844401144479839 0.012609093579625891 0 0.35936362748920009 0.0091271431172253586 0 0.37844401144479839 0.012609093579625891 0 0.36665723294200347 -0.001883505129568449 0 0.35936362748920009 0.0091271431172253586 0 0.36665723294200347 -0.001883505129568449 0 0.35531676971978082 -0.0033532784323768001 0 0.37146335928247548 0.04052602251159599 0 0.36312657459820519 0.022962182453169309 0 0.37844401144479839 0.012609093579625891 0 0.37146335928247548 0.04052602251159599 0 0.37844401144479839 0.012609093579625891 0 0.35572529983931911 0.032753521421585163 0 0.35063657493523293 0.0197951316358141 0 0.3321968515854315 0.028027004478648001 0 0.35572529983931911 0.032753521421585163 0 0.36312657459820519 0.022962182453169309 0 0.35063657493523293 0.0197951316358141 0 0.36312657459820519 0.022962182453169309 0 0.35063657493523293 0.0197951316358141 0 0.35936362748920009 0.0091271431172253586 0 0.35936362748920009 0.0091271431172253586 0 0.33689267375143878 0.0039255003288513873 0 0.35531676971978082 -0.0033532784323768001 0 0.35063657493523293 0.0197951316358141 0 0.35936362748920009 0.0091271431172253586 0 0.33689267375143878 0.0039255003288513873 0 0.33689267375143878 0.0039255003288513873 0 0.3321968515854315 0.028027004478648001 0 0.30352242257352219 0.0039185454548519476 0 0.35063657493523293 0.0197951316358141 0 0.33689267375143878 0.0039255003288513873 0 0.3321968515854315 0.028027004478648001 0 0.3321968515854315 0.028027004478648001 0 0.32406508202711942 0.05109974460068676 0 0.30086563814790429 0.035038583275740692 0 0.34209731100959018 0.06531632876058778 0 0.32721969837032222 0.069259436753723466 0 0.32406508202711942 0.05109974460068676 0 0.34209731100959018 0.06531632876058778 0 0.35124532839545858 0.047566477505150237 0 0.32406508202711942 0.05109974460068676 0 0.35124532839545858 0.047566477505150237 0 0.3321968515854315 0.028027004478648001 0 0.32406508202711942 0.05109974460068676 0 0.31518448171420999 0.065085558788002928 0 0.32721969837032222 0.069259436753723466 0 0.32406508202711942 0.05109974460068676 0 0.31518448171420999 0.065085558788002928 0 0.32406508202711942 0.05109974460068676 0 0.29882370077581188 0.062479238108283437 0 0.32406508202711942 0.05109974460068676 0 0.29882370077581188 0.062479238108283437 0 0.30086563814790429 0.035038583275740692 0 0.32406508202711942 0.05109974460068676 0 0.30086563814790429 0.035038583275740692 0 0.30086563814790429 0.035038583275740692 0 0.28350496565293731 0.043820562147367653 0 0.27766619426868899 0.018977421950794569 0 0.29882370077581188 0.062479238108283437 0 0.30086563814790429 0.035038583275740692 0 0.28350496565293731 0.043820562147367653 0 0.29882370077581188 0.062479238108283437 0 0.28350496565293731 0.043820562147367653 0 0.28339325744793759 0.061338593161917712 0 0.3321968515854315 0.028027004478648001 0 0.30086563814790429 0.035038583275740692 0 0.30352242257352219 0.0039185454548519476 0 0.30086563814790429 0.035038583275740692 0 0.27766619426868899 0.018977421950794569 0 0.30086563814790429 0.035038583275740692 0 0.30352242257352219 0.0039185454548519476 0 0.27766619426868899 0.018977421950794569 0 0.30352242257352219 0.0039185454548519476 0 0.27766619426868899 0.018977421950794569 0 0.27708695819087842 -0.0025378708656911609 0 0.27766619426868899 0.018977421950794569 0 0.25446675038947358 0.0029162606258486688 0 0.27766619426868899 0.018977421950794569 0 0.26047117107291767 -0.0019720443344692288 0 0.27708695819087842 -0.0025378708656911609 0 0.27766619426868899 0.018977421950794569 0 0.2600935707136679 0.019574361616358959 0 0.26464981823601458 0.038183209123269009 0 0.2600935707136679 0.019574361616358959 0 0.26464981823601458 0.038183209123269009 0 0.25044211127373811 0.032849993626191502 0 0.27766619426868899 0.018977421950794569 0 0.2600935707136679 0.019574361616358959 0 0.25446675038947358 0.0029162606258486688 0 0.27766619426868899 0.018977421950794569 0 0.25446675038947358 0.0029162606258486688 0 0.26047117107291767 -0.0019720443344692288 0 0.25446675038947358 0.0029162606258486688 0 0.26047117107291767 -0.0019720443344692288 0 0.28339325744793759 0.061338593161917712 0 0.2699795556074106 0.054659435659755229 0 0.26514968559830832 0.069915803624621298 0 0.28350496565293731 0.043820562147367653 0 0.28339325744793759 0.061338593161917712 0 0.2699795556074106 0.054659435659755229 0 0.28350496565293731 0.043820562147367653 0 0.27766619426868899 0.018977421950794569 0 0.26464981823601458 0.038183209123269009 0 0.28350496565293731 0.043820562147367653 0 0.2699795556074106 0.054659435659755229 0 0.26464981823601458 0.038183209123269009 0 0.26464981823601458 0.038183209123269009 0 0.25174039047255609 0.044464402284776217 0 0.2585751734657834 0.052327775232976027 0 0.26464981823601458 0.038183209123269009 0 0.25044211127373811 0.032849993626191502 0 0.25174039047255609 0.044464402284776217 0 0.25174039047255609 0.044464402284776217 0 0.25102243244437311 0.053297338652025752 0 0.2585751734657834 0.052327775232976027 0 0.2699795556074106 0.054659435659755229 0 0.26464981823601458 0.038183209123269009 0 0.2585751734657834 0.052327775232976027 0 0.2699795556074106 0.054659435659755229 0 0.2585751734657834 0.052327775232976027 0 0.26000268679747079 0.061003988239662958 0 0.2699795556074106 0.054659435659755229 0 0.26000268679747079 0.061003988239662958 0 0.26514968559830832 0.069915803624621298 0 0.2585751734657834 0.052327775232976027 0 0.26000268679747079 0.061003988239662958 0 0.2530174900015254 0.0600809219264858 0 0.25102243244437311 0.053297338652025752 0 0.2585751734657834 0.052327775232976027 0 0.2530174900015254 0.0600809219264858 0 0.24751669685985911 0.059618880130872708 0 0.25102243244437311 0.053297338652025752 0 0.2530174900015254 0.0600809219264858 0 0.24853219730195361 0.063845178725116872 0 0.2530174900015254 0.0600809219264858 0 0.25274476311700622 0.067427493409812952 0 0.2530174900015254 0.0600809219264858 0 0.25274476311700622 0.067427493409812952 0 0.26000268679747079 0.061003988239662958 0 0.2530174900015254 0.0600809219264858 0 0.25274476311700622 0.067427493409812952 0 0.25274476311700622 0.067427493409812952 0 0.25243039498113262 0.075895774732197205 0 0.24842415088314279 0.069033451464499671 0 0.25274476311700622 0.067427493409812952 0 0.25243039498113262 0.075895774732197205 0 0.25274476311700622 0.067427493409812952 0 0.25243039498113262 0.075895774732197205 0 0.26514968559830832 0.069915803624621298 0 0.25243039498113262 0.075895774732197205 0 0.26514968559830832 0.069915803624621298 0 0.26417250328098718 0.085299079350852347 0 0.25243039498113262 0.075895774732197205 0 0.26514968559830832 0.069915803624621298 0 0.26000268679747079 0.061003988239662958 0 0.25274476311700622 0.067427493409812952 0 0.26514968559830832 0.069915803624621298 0 0.25274476311700622 0.067427493409812952 0 0.26514968559830832 0.069915803624621298 0 0.25243039498113262 0.075895774732197205 0 0.26417250328098718 0.085299079350852347 0 0.25158482098595109 0.098673396421397969 0 0.25243039498113262 0.075895774732197205 0 0.25158482098595109 0.098673396421397969 0 0.26417250328098718 0.085299079350852347 0 0.27563544099652842 0.091217529053328833 0 0.26597619666038957 0.098681263799979324 0 0.26417250328098718 0.085299079350852347 0 0.27658940398852799 0.081360569412953818 0 0.27563544099652842 0.091217529053328833 0 0.26514968559830832 0.069915803624621298 0 0.26417250328098718 0.085299079350852347 0 0.27658940398852799 0.081360569412953818 0 0.27658940398852799 0.081360569412953818 0 0.27563544099652842 0.091217529053328833 0 0.28742128170162778 0.087331448045782731 0 0.28339325744793759 0.061338593161917712 0 0.26514968559830832 0.069915803624621298 0 0.29259370646201821 0.075420814845242989 0 0.26514968559830832 0.069915803624621298 0 0.27658940398852799 0.081360569412953818 0 0.29259370646201821 0.075420814845242989 0 0.28339325744793759 0.061338593161917712 0 0.26514968559830832 0.069915803624621298 0 0.26514968559830832 0.069915803624621298 0 0.29259370646201821 0.075420814845242989 0 0.29882370077581188 0.062479238108283437 0 0.28339325744793759 0.061338593161917712 0 0.29259370646201821 0.075420814845242989 0 0.27658940398852799 0.081360569412953818 0 0.29259370646201821 0.075420814845242989 0 0.28742128170162778 0.087331448045782731 0 0.27563544099652842 0.091217529053328833 0 0.28742128170162778 0.087331448045782731 0 0.29001374252644291 0.099006193890217781 0 0.28742128170162778 0.087331448045782731 0 0.30227411453462139 0.089652133027170247 0 0.29001374252644291 0.099006193890217781 0 0.29259370646201821 0.075420814845242989 0 0.28742128170162778 0.087331448045782731 0 0.30227411453462139 0.089652133027170247 0 0.32003772732572838 0.080925826065863432 0 0.29259370646201821 0.075420814845242989 0 0.30227411453462139 0.089652133027170247 0 0.32003772732572838 0.080925826065863432 0 0.29259370646201821 0.075420814845242989 0 0.32003772732572838 0.080925826065863432 0 0.29882370077581188 0.062479238108283437 0 0.29259370646201821 0.075420814845242989 0 0.32003772732572838 0.080925826065863432 0 0.29882370077581188 0.062479238108283437 0 0.31518448171420999 0.065085558788002928 0 0.32003772732572838 0.080925826065863432 0 0.29882370077581188 0.062479238108283437 0 0.29818169174329712 0.11066146566519899 0 0.31114536757858358 0.11742006929579971 0 0.294250496481684 0.12267566802032639 0 0.31114536757858358 0.11742006929579971 0 0.294250496481684 0.12267566802032639 0 0.30313841955192899 0.13260249050964579 0 0.29818169174329712 0.11066146566519899 0 0.31114536757858358 0.11742006929579971 0 0.30640852481201453 0.1024735992044304 0 0.30227411453462139 0.089652133027170247 0 0.30640852481201453 0.1024735992044304 0 0.29001374252644291 0.099006193890217781 0 0.29818169174329712 0.11066146566519899 0 0.30640852481201453 0.1024735992044304 0 0.29001374252644291 0.099006193890217781 0 0.31657863646219547 0.093324099257994786 0 0.30227411453462139 0.089652133027170247 0 0.30640852481201453 0.1024735992044304 0 0.29818169174329712 0.11066146566519899 0 0.29001374252644291 0.099006193890217781 0 0.28729541733308872 0.1128284558108848 0 0.29001374252644291 0.099006193890217781 0 0.28729541733308872 0.1128284558108848 0 0.27577858748266387 0.1072301355245756 0 0.29818169174329712 0.11066146566519899 0 0.28729541733308872 0.1128284558108848 0 0.294250496481684 0.12267566802032639 0 0.28729541733308872 0.1128284558108848 0 0.294250496481684 0.12267566802032639 0 0.28067449336876182 0.1220521091494646 0 0.28067449336876182 0.1220521091494646 0 0.26956705708048567 0.1198361090660386 0 0.27577858748266387 0.1072301355245756 0 0.28729541733308872 0.1128284558108848 0 0.28067449336876182 0.1220521091494646 0 0.27577858748266387 0.1072301355245756 0 0.26956705708048567 0.1198361090660386 0 0.27577858748266387 0.1072301355245756 0 0.26270963055581759 0.11098617864974181 0 0.27563544099652842 0.091217529053328833 0 0.27577858748266387 0.1072301355245756 0 0.26597619666038957 0.098681263799979324 0 0.27563544099652842 0.091217529053328833 0 0.29001374252644291 0.099006193890217781 0 0.27577858748266387 0.1072301355245756 0 0.27577858748266387 0.1072301355245756 0 0.26597619666038957 0.098681263799979324 0 0.26270963055581759 0.11098617864974181 0 0.25158482098595109 0.098673396421397969 0 0.25094552198087999 0.11589449234768209 0 0.25158482098595109 0.098673396421397969 0 0.26270963055581759 0.11098617864974181 0 0.25094552198087999 0.11589449234768209 0 0.26417250328098718 0.085299079350852347 0 0.26597619666038957 0.098681263799979324 0 0.25158482098595109 0.098673396421397969 0 0.26597619666038957 0.098681263799979324 0 0.25158482098595109 0.098673396421397969 0 0.26270963055581759 0.11098617864974181 0 0.25158482098595109 0.098673396421397969 0 0.26270963055581759 0.11098617864974181 0 0.25094552198087999 0.11589449234768209 0 0.25030622297580962 0.13311558827396619 0 0.26022612795132161 0.12333036834530881 0 0.25094552198087999 0.11589449234768209 0 0.25030622297580962 0.13311558827396619 0 0.26956705708048567 0.1198361090660386 0 0.26022612795132161 0.12333036834530881 0 0.26270963055581759 0.11098617864974181 0 0.26022612795132161 0.12333036834530881 0 0.26270963055581759 0.11098617864974181 0 0.25094552198087999 0.11589449234768209 0 0.26956705708048567 0.1198361090660386 0 0.26022612795132161 0.12333036834530881 0 0.26675796828336718 0.1380571931171293 0 0.26022612795132161 0.12333036834530881 0 0.25030622297580962 0.13311558827396619 0 0.26675796828336718 0.1380571931171293 0 0.25030622297580962 0.13311558827396619 0 0.26675796828336718 0.1380571931171293 0 0.25030622297580962 0.13311558827396619 0 0.26675796828336718 0.1380571931171293 0 0.25638724149227848 0.14295410589973731 0 0.25004344172447263 0.14019424959050239 0 0.25030622297580962 0.13311558827396619 0 0.25638724149227848 0.14295410589973731 0 0.25004344172447263 0.14019424959050239 0 0.25030622297580962 0.13311558827396619 0 0.26675796828336718 0.1380571931171293 0 0.28320971359092417 0.1429987979602943 0 0.26675796828336718 0.1380571931171293 0 0.28666270206708028 0.1324408374186071 0 0.28320971359092417 0.1429987979602943 0 0.28067449336876182 0.1220521091494646 0 0.26956705708048567 0.1198361090660386 0 0.26675796828336718 0.1380571931171293 0 0.28067449336876182 0.1220521091494646 0 0.26675796828336718 0.1380571931171293 0 0.28666270206708028 0.1324408374186071 0 0.26675796828336718 0.1380571931171293 0 0.27436529468354132 0.15433220537778311 0 0.26010861073109098 0.15248373785575309 0 0.26675796828336718 0.1380571931171293 0 0.27436529468354132 0.15433220537778311 0 0.28320971359092417 0.1429987979602943 0 0.26675796828336718 0.1380571931171293 0 0.26010861073109098 0.15248373785575309 0 0.25638724149227848 0.14295410589973731 0 0.2496536413094039 0.15044712256699261 0 0.25004344172447263 0.14019424959050239 0 0.25638724149227848 0.14295410589973731 0 0.24653130607993951 0.16237692388552691 0 0.2496536413094039 0.15044712256699261 0 0.26010861073109098 0.15248373785575309 0 0.2496536413094039 0.15044712256699261 0 0.26010861073109098 0.15248373785575309 0 0.25638724149227848 0.14295410589973731 0 0.24653130607993951 0.16237692388552691 0 0.25292738168467233 0.17649485219682931 0 0.26638423851283249 0.16867758561061549 0 0.24653130607993951 0.16237692388552691 0 0.26010861073109098 0.15248373785575309 0 0.26638423851283249 0.16867758561061549 0 0.24528107816237801 0.1907036486386274 0 0.25292738168467233 0.17649485219682931 0 0.26633433714882182 0.18577592949096661 0 0.25292738168467233 0.17649485219682931 0 0.26633433714882182 0.18577592949096661 0 0.26638423851283249 0.16867758561061549 0 0.27723266788850742 0.181048228772968 0 0.26638423851283249 0.16867758561061549 0 0.28391425324491287 0.17071999404263091 0 0.26633433714882182 0.18577592949096661 0 0.27723266788850742 0.181048228772968 0 0.26638423851283249 0.16867758561061549 0 0.27436529468354132 0.15433220537778311 0 0.26010861073109098 0.15248373785575309 0 0.26638423851283249 0.16867758561061549 0 0.27436529468354132 0.15433220537778311 0 0.26638423851283249 0.16867758561061549 0 0.28391425324491287 0.17071999404263091 0 0.27436529468354132 0.15433220537778311 0 0.28391425324491287 0.17071999404263091 0 0.29097703849613438 0.15773848939083679 0 0.28391425324491287 0.17071999404263091 0 0.2931647794093819 0.16879209887591959 0 0.29097703849613438 0.15773848939083679 0 0.2931647794093819 0.16879209887591959 0 0.29097703849613438 0.15773848939083679 0 0.30040947706207388 0.16512632217721829 0 0.28391425324491287 0.17071999404263091 0 0.28743664533084129 0.187357279865842 0 0.29743995151898561 0.17866098634217961 0 0.27723266788850742 0.181048228772968 0 0.28391425324491287 0.17071999404263091 0 0.28743664533084129 0.187357279865842 0 0.28391425324491287 0.17071999404263091 0 0.2931647794093819 0.16879209887591959 0 0.29743995151898561 0.17866098634217961 0 0.28743664533084129 0.187357279865842 0 0.29743995151898561 0.17866098634217961 0 0.29971043857951379 0.19298806906372529 0 0.29743995151898561 0.17866098634217961 0 0.30929675685570829 0.1858318568065235 0 0.29971043857951379 0.19298806906372529 0 0.29743995151898561 0.17866098634217961 0 0.3101655001798202 0.17563615506282959 0 0.30040947706207388 0.16512632217721829 0 0.29743995151898561 0.17866098634217961 0 0.3101655001798202 0.17563615506282959 0 0.30929675685570829 0.1858318568065235 0 0.30040947706207388 0.16512632217721829 0 0.30453528129870422 0.15487579661148021 0 0.32848741365188411 0.1727716232507491 0 0.29097703849613438 0.15773848939083679 0 0.30040947706207388 0.16512632217721829 0 0.30453528129870422 0.15487579661148021 0 0.2931647794093819 0.16879209887591959 0 0.29743995151898561 0.17866098634217961 0 0.30040947706207388 0.16512632217721829 0 0.29097703849613438 0.15773848939083679 0 0.30453528129870422 0.15487579661148021 0 0.29618567382365713 0.14404403195872001 0 0.30453528129870422 0.15487579661148021 0 0.30873747279203018 0.14281046260302349 0 0.29618567382365713 0.14404403195872001 0 0.30453528129870422 0.15487579661148021 0 0.30873747279203018 0.14281046260302349 0 0.32007589174333823 0.14676000458717811 0 0.30873747279203018 0.14281046260302349 0 0.30313841955192899 0.13260249050964579 0 0.3195478300457561 0.1332621056988223 0 0.31114536757858358 0.11742006929579971 0 0.30313841955192899 0.13260249050964579 0 0.3195478300457561 0.1332621056988223 0 0.30873747279203018 0.14281046260302349 0 0.30313841955192899 0.13260249050964579 0 0.29618567382365713 0.14404403195872001 0 0.294250496481684 0.12267566802032639 0 0.30313841955192899 0.13260249050964579 0 0.28666270206708028 0.1324408374186071 0 0.30313841955192899 0.13260249050964579 0 0.28666270206708028 0.1324408374186071 0 0.29618567382365713 0.14404403195872001 0 0.294250496481684 0.12267566802032639 0 0.28067449336876182 0.1220521091494646 0 0.28666270206708028 0.1324408374186071 0 0.28666270206708028 0.1324408374186071 0 0.28320971359092417 0.1429987979602943 0 0.29618567382365713 0.14404403195872001 0 0.27436529468354132 0.15433220537778311 0 0.29097703849613438 0.15773848939083679 0 0.28320971359092417 0.1429987979602943 0 0.29097703849613438 0.15773848939083679 0 0.28320971359092417 0.1429987979602943 0 0.29618567382365713 0.14404403195872001 0 0.28119448123381058 0.25405304303149878 0 0.26221447651104962 0.2479993693513689 0 0.28440499104296979 0.23439140090611099 0 0.26221447651104962 0.2479993693513689 0 0.26853130556434218 0.23400660741274959 0 0.28440499104296979 0.23439140090611099 0 0.26221447651104962 0.2479993693513689 0 0.28440499104296979 0.23439140090611099 0 0.2457442494512444 0.24022391879071339 0 0.26221447651104962 0.2479993693513689 0 0.25511338863332461 0.22468137717712711 0 0.26221447651104962 0.2479993693513689 0 0.25511338863332461 0.22468137717712711 0 0.26853130556434218 0.23400660741274959 0 0.26221447651104962 0.2479993693513689 0 0.25511338863332461 0.22468137717712711 0 0.25511338863332461 0.22468137717712711 0 0.25242827713160498 0.21540237912569379 0 0.25511338863332461 0.22468137717712711 0 0.2794126892910288 0.21617120911671081 0 0.25511338863332461 0.22468137717712711 0 0.26853130556434218 0.23400660741274959 0 0.2794126892910288 0.21617120911671081 0 0.26853130556434218 0.23400660741274959 0 0.2794126892910288 0.21617120911671081 0 0.28440499104296979 0.23439140090611099 0 0.25511338863332461 0.22468137717712711 0 0.2794126892910288 0.21617120911671081 0 0.26644318031571418 0.20408753099865831 0 0.2794126892910288 0.21617120911671081 0 0.26644318031571418 0.20408753099865831 0 0.27722953884408802 0.19656269719262509 0 0.24528107816237801 0.1907036486386274 0 0.26644318031571418 0.20408753099865831 0 0.25242827713160498 0.21540237912569379 0 0.25511338863332461 0.22468137717712711 0 0.26644318031571418 0.20408753099865831 0 0.25242827713160498 0.21540237912569379 0 0.26644318031571418 0.20408753099865831 0 0.25242827713160498 0.21540237912569379 0 0.24528107816237801 0.1907036486386274 0 0.26633433714882182 0.18577592949096661 0 0.26644318031571418 0.20408753099865831 0 0.26633433714882182 0.18577592949096661 0 0.26644318031571418 0.20408753099865831 0 0.27722953884408802 0.19656269719262509 0 0.27723266788850742 0.181048228772968 0 0.28743664533084129 0.187357279865842 0 0.27722953884408802 0.19656269719262509 0 0.26633433714882182 0.18577592949096661 0 0.27723266788850742 0.181048228772968 0 0.27722953884408802 0.19656269719262509 0 0.28743664533084129 0.187357279865842 0 0.27722953884408802 0.19656269719262509 0 0.28939512316467059 0.2005252056429343 0 0.28743664533084129 0.187357279865842 0 0.28939512316467059 0.2005252056429343 0 0.29971043857951379 0.19298806906372529 0 0.30929675685570829 0.1858318568065235 0 0.29971043857951379 0.19298806906372529 0 0.31162694501442678 0.19735313208654229 0 0.29971043857951379 0.19298806906372529 0 0.31162694501442678 0.19735313208654229 0 0.30371198994873311 0.20766104105629449 0 0.28939512316467059 0.2005252056429343 0 0.29971043857951379 0.19298806906372529 0 0.30371198994873311 0.20766104105629449 0 0.2794126892910288 0.21617120911671081 0 0.30371198994873311 0.20766104105629449 0 0.2794126892910288 0.21617120911671081 0 0.30371198994873311 0.20766104105629449 0 0.30659550557489001 0.220783432460853 0 0.2794126892910288 0.21617120911671081 0 0.27722953884408802 0.19656269719262509 0 0.28939512316467059 0.2005252056429343 0 0.2794126892910288 0.21617120911671081 0 0.28939512316467059 0.2005252056429343 0 0.30371198994873311 0.20766104105629449 0 0.30659550557489001 0.220783432460853 0 0.28440499104296979 0.23439140090611099 0 0.2794126892910288 0.21617120911671081 0 0.30659550557489001 0.220783432460853 0 0.28440499104296979 0.23439140090611099 0 0.30659550557489001 0.220783432460853 0 0.30328699804120918 0.24394477185791469 0 0.28440499104296979 0.23439140090611099 0 0.30659550557489001 0.220783432460853 0 0.30328699804120918 0.24394477185791469 0 0.31607427666693672 0.2331905299380852 0 0.28119448123381058 0.25405304303149878 0 0.30328699804120918 0.24394477185791469 0 0.28440499104296979 0.23439140090611099 0 0.3433555784436142 0.25004320974280247 0 0.34183468199228573 0.23727684870966961 0 0.33092809789354199 0.24744869965648561 0 0.34183468199228573 0.23727684870966961 0 0.3288410404878227 0.2348757256337824 0 0.33092809789354199 0.24744869965648561 0 0.3288410404878227 0.2348757256337824 0 0.33092809789354199 0.24744869965648561 0 0.31845456220733243 0.24449663650262579 0 0.31879452400631653 0.25919465198291952 0 0.30328699804120918 0.24394477185791469 0 0.31845456220733243 0.24449663650262579 0 0.30328699804120918 0.24394477185791469 0 0.31845456220733243 0.24449663650262579 0 0.31607427666693672 0.2331905299380852 0 0.3288410404878227 0.2348757256337824 0 0.31845456220733243 0.24449663650262579 0 0.31607427666693672 0.2331905299380852 0 0.3288410404878227 0.2348757256337824 0 0.31607427666693672 0.2331905299380852 0 0.32372534117020862 0.22390137225637691 0 0.30659550557489001 0.220783432460853 0 0.31607427666693672 0.2331905299380852 0 0.32372534117020862 0.22390137225637691 0 0.3288410404878227 0.2348757256337824 0 0.32372534117020862 0.22390137225637691 0 0.33832986301458301 0.22348170923356889 0 0.34183468199228573 0.23727684870966961 0 0.3288410404878227 0.2348757256337824 0 0.33832986301458301 0.22348170923356889 0 0.32372534117020862 0.22390137225637691 0 0.33832986301458301 0.22348170923356889 0 0.32878602010681029 0.20717546401559489 0 0.33832986301458301 0.22348170923356889 0 0.32878602010681029 0.20717546401559489 0 0.35089693608391498 0.21212819010674691 0 0.32878602010681029 0.20717546401559489 0 0.35097653463873058 0.19356749557033681 0 0.35089693608391498 0.21212819010674691 0 0.30659550557489001 0.220783432460853 0 0.32372534117020862 0.22390137225637691 0 0.32878602010681029 0.20717546401559489 0 0.31162694501442678 0.19735313208654229 0 0.30371198994873311 0.20766104105629449 0 0.32878602010681029 0.20717546401559489 0 0.30371198994873311 0.20766104105629449 0 0.30659550557489001 0.220783432460853 0 0.32878602010681029 0.20717546401559489 0 0.30659550557489001 0.220783432460853 0 0.32878602010681029 0.20717546401559489 0 0.32878602010681029 0.20717546401559489 0 0.31972446529152482 0.19052244909679969 0 0.3336272658304279 0.18895925974375941 0 0.31162694501442678 0.19735313208654229 0 0.32878602010681029 0.20717546401559489 0 0.31972446529152482 0.19052244909679969 0 0.30929675685570829 0.1858318568065235 0 0.31162694501442678 0.19735313208654229 0 0.31972446529152482 0.19052244909679969 0 0.32878602010681029 0.20717546401559489 0 0.3336272658304279 0.18895925974375941 0 0.35097653463873058 0.19356749557033681 0 0.32878602010681029 0.20717546401559489 0 0.35097653463873058 0.19356749557033681 0 0.3336272658304279 0.18895925974375941 0 0.35097653463873058 0.19356749557033681 0 0.35656535024169428 0.1804169243242798 0 0.35097653463873058 0.19356749557033681 0 0.35896651107905142 0.20360726904620211 0 0.35089693608391498 0.21212819010674691 0 0.35097653463873058 0.19356749557033681 0 0.36405518175537521 0.19484170215684679 0 0.35896651107905142 0.20360726904620211 0 0.35097653463873058 0.19356749557033681 0 0.36405518175537521 0.19484170215684679 0 0.35656535024169428 0.1804169243242798 0 0.36405518175537521 0.19484170215684679 0 0.35656535024169428 0.1804169243242798 0 0.38464328683150451 0.18806222539781059 0 0.36405518175537521 0.19484170215684679 0 0.36923798170140371 0.20928007436804161 0 0.38464328683150451 0.18806222539781059 0 0.36405518175537521 0.19484170215684679 0 0.36923798170140371 0.20928007436804161 0 0.35896651107905142 0.20360726904620211 0 0.36923798170140371 0.20928007436804161 0 0.36132702422268731 0.21787493872225441 0 0.35896651107905142 0.20360726904620211 0 0.36923798170140371 0.20928007436804161 0 0.36132702422268731 0.21787493872225441 0 0.37292139258550783 0.22672254500020811 0 0.36132702422268731 0.21787493872225441 0 0.35896651107905142 0.20360726904620211 0 0.35089693608391498 0.21212819010674691 0 0.34183468199228573 0.23727684870966961 0 0.33832986301458301 0.22348170923356889 0 0.35524969613090918 0.22837961108452459 0 0.36132702422268731 0.21787493872225441 0 0.35089693608391498 0.21212819010674691 0 0.35524969613090918 0.22837961108452459 0 0.33832986301458301 0.22348170923356889 0 0.35089693608391498 0.21212819010674691 0 0.35524969613090918 0.22837961108452459 0 0.36132702422268731 0.21787493872225441 0 0.35524969613090918 0.22837961108452459 0 0.37292139258550783 0.22672254500020811 0 0.35524969613090918 0.22837961108452459 0 0.37292139258550783 0.22672254500020811 0 0.36587213359177301 0.2378375665458646 0 0.37292139258550783 0.22672254500020811 0 0.36587213359177301 0.2378375665458646 0 0.3757768555661396 0.240133652284411 0 0.36587213359177301 0.2378375665458646 0 0.37169426656027921 0.24972740256563611 0 0.3757768555661396 0.240133652284411 0 0.36587213359177301 0.2378375665458646 0 0.37169426656027921 0.24972740256563611 0 0.36205361842742478 0.24882498742118489 0 0.36587213359177301 0.2378375665458646 0 0.36205361842742478 0.24882498742118489 0 0.35356337405553911 0.24205426642971811 0 0.35175757775775729 0.2532797976346674 0 0.36205361842742478 0.24882498742118489 0 0.35356337405553911 0.24205426642971811 0 0.35524969613090918 0.22837961108452459 0 0.36587213359177301 0.2378375665458646 0 0.35356337405553911 0.24205426642971811 0 0.34183468199228573 0.23727684870966961 0 0.35524969613090918 0.22837961108452459 0 0.35356337405553911 0.24205426642971811 0 0.3433555784436142 0.25004320974280247 0 0.34183468199228573 0.23727684870966961 0 0.35356337405553911 0.24205426642971811 0 0.3433555784436142 0.25004320974280247 0 0.35175757775775729 0.2532797976346674 0 0.35356337405553911 0.24205426642971811 0 0.33379856680907583 0.1437068241164389 0 0.32007589174333823 0.14676000458717811 0 0.33365817402274128 0.15789089208148979 0 0.33379856680907583 0.1437068241164389 0 0.33365817402274128 0.15789089208148979 0 0.34780073530519279 0.14835628742565241 0 0.33379856680907583 0.1437068241164389 0 0.34780073530519279 0.14835628742565241 0 0.34586764947947463 0.1362539899128139 0 0.33379856680907583 0.1437068241164389 0 0.33436770153514289 0.13112975471366969 0 0.34586764947947463 0.1362539899128139 0 0.34956654336434939 0.1234914401014125 0 0.33436770153514289 0.13112975471366969 0 0.34586764947947463 0.1362539899128139 0 0.33379856680907583 0.1437068241164389 0 0.33436770153514289 0.13112975471366969 0 0.3195478300457561 0.1332621056988223 0 0.32606950933900308 0.1158177097477945 0 0.33436770153514289 0.13112975471366969 0 0.3195478300457561 0.1332621056988223 0 0.30873747279203018 0.14281046260302349 0 0.3195478300457561 0.1332621056988223 0 0.32007589174333823 0.14676000458717811 0 0.30453528129870422 0.15487579661148021 0 0.32007589174333823 0.14676000458717811 0 0.33365817402274128 0.15789089208148979 0 0.33379856680907583 0.1437068241164389 0 0.3195478300457561 0.1332621056988223 0 0.32007589174333823 0.14676000458717811 0 0.30453528129870422 0.15487579661148021 0 0.33365817402274128 0.15789089208148979 0 0.30453528129870422 0.15487579661148021 0 0.32848741365188411 0.1727716232507491 0 0.33365817402274128 0.15789089208148979 0 0.30040947706207388 0.16512632217721829 0 0.32848741365188411 0.1727716232507491 0 0.3101655001798202 0.17563615506282959 0 0.30040947706207388 0.16512632217721829 0 0.32848741365188411 0.1727716232507491 0 0.3101655001798202 0.17563615506282959 0 0.31983557186529732 0.18171103000860481 0 0.32848741365188411 0.1727716232507491 0 0.3336272658304279 0.18895925974375941 0 0.31983557186529732 0.18171103000860481 0 0.32848741365188411 0.1727716232507491 0 0.3101655001798202 0.17563615506282959 0 0.30929675685570829 0.1858318568065235 0 0.31983557186529732 0.18171103000860481 0 0.30929675685570829 0.1858318568065235 0 0.31972446529152482 0.19052244909679969 0 0.31983557186529732 0.18171103000860481 0 0.31972446529152482 0.19052244909679969 0 0.3336272658304279 0.18895925974375941 0 0.31983557186529732 0.18171103000860481 0 0.32848741365188411 0.1727716232507491 0 0.34507730906385942 0.16855187839241309 0 0.35656535024169428 0.1804169243242798 0 0.3336272658304279 0.18895925974375941 0 0.32848741365188411 0.1727716232507491 0 0.35656535024169428 0.1804169243242798 0 0.32848741365188411 0.1727716232507491 0 0.35656535024169428 0.1804169243242798 0 0.32848741365188411 0.1727716232507491 0 0.33365817402274128 0.15789089208148979 0 0.34507730906385942 0.16855187839241309 0 0.33365817402274128 0.15789089208148979 0 0.34507730906385942 0.16855187839241309 0 0.36278106674677829 0.1609059875514994 0 0.34507730906385942 0.16855187839241309 0 0.35656535024169428 0.1804169243242798 0 0.36278106674677829 0.1609059875514994 0 0.33365817402274128 0.15789089208148979 0 0.36278106674677829 0.1609059875514994 0 0.35656535024169428 0.1804169243242798 0 0.37356219856206202 0.1741215612114578 0 0.38464328683150451 0.18806222539781059 0 0.35656535024169428 0.1804169243242798 0 0.38464328683150451 0.18806222539781059 0 0.35656535024169428 0.1804169243242798 0 0.37356219856206202 0.1741215612114578 0 0.36278106674677829 0.1609059875514994 0 0.36278106674677829 0.1609059875514994 0 0.36531512046589693 0.1378839500987098 0 0.37680076681991098 0.15092733218095339 0 0.36278106674677829 0.1609059875514994 0 0.34780073530519279 0.14835628742565241 0 0.36531512046589693 0.1378839500987098 0 0.34780073530519279 0.14835628742565241 0 0.34586764947947463 0.1362539899128139 0 0.36531512046589693 0.1378839500987098 0 0.33365817402274128 0.15789089208148979 0 0.36278106674677829 0.1609059875514994 0 0.34780073530519279 0.14835628742565241 0 0.34956654336434939 0.1234914401014125 0 0.34586764947947463 0.1362539899128139 0 0.36531512046589693 0.1378839500987098 0 0.34956654336434939 0.1234914401014125 0 0.36322639358210312 0.11848039068348271 0 0.36531512046589693 0.1378839500987098 0 0.36322639358210312 0.11848039068348271 0 0.36531512046589693 0.1378839500987098 0 0.38482072671029011 0.13725767299229241 0 0.36322639358210312 0.11848039068348271 0 0.38482072671029011 0.13725767299229241 0 0.36322639358210312 0.11848039068348271 0 0.38482072671029011 0.13725767299229241 0 0.38005682511468147 0.12140739343396729 0 0.38482072671029011 0.13725767299229241 0 0.39398634319161102 0.12556361147638159 0 0.38005682511468147 0.12140739343396729 0 0.38482072671029011 0.13725767299229241 0 0.39398634319161102 0.12556361147638159 0 0.40386822996399702 0.1370092008917044 0 0.39398634319161102 0.12556361147638159 0 0.40386822996399702 0.1370092008917044 0 0.40630256149234217 0.12337914253670321 0 0.38482072671029011 0.13725767299229241 0 0.40641505983847698 0.15603495530110209 0 0.38482072671029011 0.13725767299229241 0 0.40386822996399702 0.1370092008917044 0 0.40641505983847698 0.15603495530110209 0 0.38482072671029011 0.13725767299229241 0 0.39190395947081519 0.16392108302150901 0 0.40641505983847698 0.15603495530110209 0 0.36531512046589693 0.1378839500987098 0 0.38482072671029011 0.13725767299229241 0 0.37680076681991098 0.15092733218095339 0 0.38482072671029011 0.13725767299229241 0 0.37680076681991098 0.15092733218095339 0 0.39190395947081519 0.16392108302150901 0 0.36278106674677829 0.1609059875514994 0 0.39190395947081519 0.16392108302150901 0 0.36278106674677829 0.1609059875514994 0 0.37680076681991098 0.15092733218095339 0 0.39190395947081519 0.16392108302150901 0 0.37356219856206202 0.1741215612114578 0 0.36278106674677829 0.1609059875514994 0 0.39190395947081519 0.16392108302150901 0 0.37356219856206202 0.1741215612114578 0 0.39190395947081519 0.16392108302150901 0 0.38464328683150451 0.18806222539781059 0 0.4059128807594603 0.17981630131623391 0 0.39190395947081519 0.16392108302150901 0 0.38464328683150451 0.18806222539781059 0 0.39190395947081519 0.16392108302150901 0 0.42102685219485209 0.16693617849151851 0 0.40641505983847698 0.15603495530110209 0 0.4059128807594603 0.17981630131623391 0 0.39190395947081519 0.16392108302150901 0 0.42102685219485209 0.16693617849151851 0 0.42102685219485209 0.16693617849151851 0 0.40641505983847698 0.15603495530110209 0 0.41490094777653419 0.14712571815411829 0 0.39190395947081519 0.16392108302150901 0 0.42102685219485209 0.16693617849151851 0 0.4059128807594603 0.17981630131623391 0 0.42102685219485209 0.16693617849151851 0 0.42759287120751482 0.1799189573059411 0 0.4059128807594603 0.17981630131623391 0 0.42759287120751482 0.1799189573059411 0 0.42045703890892938 0.19185412915784311 0 0.42102685219485209 0.16693617849151851 0 0.42759287120751482 0.1799189573059411 0 0.45014974491888898 0.16995127396152809 0 0.42759287120751482 0.1799189573059411 0 0.42045703890892938 0.19185412915784311 0 0.43799329450951457 0.1898848624547933 0 0.42102685219485209 0.16693617849151851 0 0.45014974491888898 0.16995127396152809 0 0.42102685219485209 0.16693617849151851 0 0.43641214087317609 0.15776157540708571 0 0.42820809332857229 0.14540676379554701 0 0.42102685219485209 0.16693617849151851 0 0.43641214087317609 0.15776157540708571 0 0.45014974491888898 0.16995127396152809 0 0.43641214087317609 0.15776157540708571 0 0.42820809332857229 0.14540676379554701 0 0.44305345270963392 0.14224085277467549 0 0.42820809332857229 0.14540676379554701 0 0.43267139290449452 0.12562392175117529 0 0.41815906511665779 0.13368892679480551 0 0.42820809332857229 0.14540676379554701 0 0.43267139290449452 0.12562392175117529 0 0.44305345270963392 0.14224085277467549 0 0.43267139290449452 0.12562392175117529 0 0.41815906511665779 0.13368892679480551 0 0.41840244549433692 0.1204435227777134 0 0.41815906511665779 0.13368892679480551 0 0.41840244549433692 0.1204435227777134 0 0.40630256149234217 0.12337914253670321 0 0.40386822996399702 0.1370092008917044 0 0.41815906511665779 0.13368892679480551 0 0.40630256149234217 0.12337914253670321 0 0.40386822996399702 0.1370092008917044 0 0.41815906511665779 0.13368892679480551 0 0.41490094777653419 0.14712571815411829 0 0.42102685219485209 0.16693617849151851 0 0.42820809332857229 0.14540676379554701 0 0.41490094777653419 0.14712571815411829 0 0.40386822996399702 0.1370092008917044 0 0.40641505983847698 0.15603495530110209 0 0.41490094777653419 0.14712571815411829 0 0.42820809332857229 0.14540676379554701 0 0.41815906511665779 0.13368892679480551 0 0.41490094777653419 0.14712571815411829 0 0.39196586341458151 0.242441409442547 0 0.40329821407583749 0.23025496453590971 0 0.40866327585672191 0.24600766979752939 0 0.38129994004966872 0.25577407136566988 0 0.39196586341458151 0.242441409442547 0 0.40866327585672191 0.24600766979752939 0 0.38129994004966872 0.25577407136566988 0 0.39196586341458151 0.242441409442547 0 0.38106847269238292 0.24536179082341181 0 0.37169426656027921 0.24972740256563611 0 0.38106847269238292 0.24536179082341181 0 0.3757768555661396 0.240133652284411 0 0.37292139258550783 0.22672254500020811 0 0.3757768555661396 0.240133652284411 0 0.38460543787124563 0.238732418458795 0 0.38106847269238292 0.24536179082341181 0 0.3757768555661396 0.240133652284411 0 0.38460543787124563 0.238732418458795 0 0.39196586341458151 0.242441409442547 0 0.38106847269238292 0.24536179082341181 0 0.38460543787124563 0.238732418458795 0 0.39196586341458151 0.242441409442547 0 0.38460543787124563 0.238732418458795 0 0.38844350160088592 0.2284985707660753 0 0.37292139258550783 0.22672254500020811 0 0.38460543787124563 0.238732418458795 0 0.38844350160088592 0.2284985707660753 0 0.37292139258550783 0.22672254500020811 0 0.38844350160088592 0.2284985707660753 0 0.38369130631537601 0.21297307403445409 0 0.38844350160088592 0.2284985707660753 0 0.39679964264504158 0.21937630878092959 0 0.38369130631537601 0.21297307403445409 0 0.38844350160088592 0.2284985707660753 0 0.39679964264504158 0.21937630878092959 0 0.40329821407583749 0.23025496453590971 0 0.39196586341458151 0.242441409442547 0 0.38844350160088592 0.2284985707660753 0 0.40329821407583749 0.23025496453590971 0 0.39679964264504158 0.21937630878092959 0 0.40329821407583749 0.23025496453590971 0 0.41066806580544729 0.2160617609406458 0 0.39598296716959969 0.20626700748070109 0 0.40513352984814438 0.19492560706685999 0 0.41066806580544729 0.2160617609406458 0 0.39679964264504158 0.21937630878092959 0 0.39598296716959969 0.20626700748070109 0 0.41066806580544729 0.2160617609406458 0 0.39679964264504158 0.21937630878092959 0 0.39598296716959969 0.20626700748070109 0 0.38369130631537601 0.21297307403445409 0 0.36923798170140371 0.20928007436804161 0 0.37292139258550783 0.22672254500020811 0 0.38369130631537601 0.21297307403445409 0 0.36923798170140371 0.20928007436804161 0 0.38369130631537601 0.21297307403445409 0 0.38464328683150451 0.18806222539781059 0 0.39598296716959969 0.20626700748070109 0 0.38369130631537601 0.21297307403445409 0 0.38464328683150451 0.18806222539781059 0 0.39598296716959969 0.20626700748070109 0 0.38464328683150451 0.18806222539781059 0 0.40513352984814438 0.19492560706685999 0 0.4059128807594603 0.17981630131623391 0 0.38464328683150451 0.18806222539781059 0 0.40513352984814438 0.19492560706685999 0 0.40513352984814438 0.19492560706685999 0 0.42045703890892938 0.19185412915784311 0 0.42444067869502011 0.20693424997503959 0 0.4059128807594603 0.17981630131623391 0 0.40513352984814438 0.19492560706685999 0 0.42045703890892938 0.19185412915784311 0 0.42045703890892938 0.19185412915784311 0 0.42444067869502011 0.20693424997503959 0 0.43799329450951457 0.1898848624547933 0 0.42444067869502011 0.20693424997503959 0 0.44184419378540352 0.2076794424592901 0 0.43799329450951457 0.1898848624547933 0 0.42444067869502011 0.20693424997503959 0 0.4302098735549707 0.2206458244329694 0 0.44184419378540352 0.2076794424592901 0 0.42444067869502011 0.20693424997503959 0 0.41066806580544729 0.2160617609406458 0 0.4302098735549707 0.2206458244329694 0 0.40513352984814438 0.19492560706685999 0 0.42444067869502011 0.20693424997503959 0 0.41066806580544729 0.2160617609406458 0 0.41066806580544729 0.2160617609406458 0 0.41777320819135039 0.22984229758728861 0 0.4302098735549707 0.2206458244329694 0 0.40329821407583749 0.23025496453590971 0 0.41066806580544729 0.2160617609406458 0 0.41777320819135039 0.22984229758728861 0 0.4302098735549707 0.2206458244329694 0 0.43602661166377499 0.2362412682293889 0 0.44584438813649652 0.2203436080528294 0 0.41777320819135039 0.22984229758728861 0 0.4302098735549707 0.2206458244329694 0 0.43602661166377499 0.2362412682293889 0 0.43602661166377499 0.2362412682293889 0 0.43076425121212841 0.2486853010718087 0 0.40866327585672191 0.24600766979752939 0 0.43602661166377499 0.2362412682293889 0 0.40866327585672191 0.24600766979752939 0 0.41777320819135039 0.22984229758728861 0 0.43602661166377499 0.2362412682293889 0 0.40866327585672191 0.24600766979752939 0 0.41664462513020523 0.25422696758609492 0 0.43076425121212841 0.2486853010718087 0 0.40866327585672191 0.24600766979752939 0 0.40329821407583749 0.23025496453590971 0 0.41777320819135039 0.22984229758728861 0 0.40866327585672191 0.24600766979752939 0 0.45166362976964691 0.25106894999712381 0 0.45384283414141641 0.23962742592169059 0 0.47583181488482379 0.2451422378191761 0 0.45166362976964691 0.25106894999712381 0 0.47583181488482379 0.2451422378191761 0 0.45384283414141641 0.23962742592169059 0 0.47692141707070451 0.23056955077157251 0 0.45166362976964691 0.25106894999712381 0 0.43076425121212841 0.2486853010718087 0 0.45384283414141641 0.23962742592169059 0 0.43602661166377499 0.2362412682293889 0 0.43076425121212841 0.2486853010718087 0 0.45384283414141641 0.23962742592169059 0 0.43076425121212841 0.2486853010718087 0 0.45384283414141641 0.23962742592169059 0 0.43602661166377499 0.2362412682293889 0 0.46338994747082818 0.22647486666124839 0 0.43602661166377499 0.2362412682293889 0 0.44584438813649652 0.2203436080528294 0 0.46338994747082818 0.22647486666124839 0 0.43602661166377499 0.2362412682293889 0 0.45384283414141641 0.23962742592169059 0 0.46338994747082818 0.22647486666124839 0 0.44584438813649652 0.2203436080528294 0 0.46338994747082818 0.22647486666124839 0 0.4574246187180494 0.20998202225832771 0 0.45384283414141641 0.23962742592169059 0 0.46338994747082818 0.22647486666124839 0 0.47692141707070451 0.23056955077157251 0 0.46338994747082818 0.22647486666124839 0 0.4574246187180494 0.20998202225832771 0 0.47311107537994651 0.21060674662752529 0 0.4574246187180494 0.20998202225832771 0 0.46861366351278472 0.19789432193598561 0 0.47311107537994651 0.21060674662752529 0 0.44584438813649652 0.2203436080528294 0 0.4574246187180494 0.20998202225832771 0 0.44184419378540352 0.2076794424592901 0 0.4302098735549707 0.2206458244329694 0 0.44584438813649652 0.2203436080528294 0 0.44184419378540352 0.2076794424592901 0 0.4574246187180494 0.20998202225832771 0 0.44184419378540352 0.2076794424592901 0 0.45120510308892831 0.19507838461398491 0 0.44184419378540352 0.2076794424592901 0 0.43799329450951457 0.1898848624547933 0 0.45120510308892831 0.19507838461398491 0 0.4574246187180494 0.20998202225832771 0 0.45120510308892831 0.19507838461398491 0 0.46861366351278472 0.19789432193598561 0 0.45120510308892831 0.19507838461398491 0 0.46861366351278472 0.19789432193598561 0 0.45014974491888898 0.16995127396152809 0 0.46861366351278472 0.19789432193598561 0 0.48377650321145821 0.20030440734603891 0 0.47890777313388699 0.17818810929941131 0 0.46861366351278472 0.19789432193598561 0 0.48377650321145821 0.20030440734603891 0 0.47311107537994651 0.21060674662752529 0 0.48377650321145821 0.20030440734603891 0 0.5 0.19442179120654851 0 0.47890777313388699 0.17818810929941131 0 0.48377650321145821 0.20030440734603891 0 0.5 0.19442179120654851 0 0.49075328327788142 0.2167084650931079 0 0.5 0.19442179120654851 0 0.49075328327788142 0.2167084650931079 0 0.49999999999999339 0.2215116756214566 0 0.48377650321145821 0.20030440734603891 0 0.49075328327788142 0.2167084650931079 0 0.47311107537994651 0.21060674662752529 0 0.46338994747082818 0.22647486666124839 0 0.49075328327788142 0.2167084650931079 0 0.47311107537994651 0.21060674662752529 0 0.46338994747082818 0.22647486666124839 0 0.49075328327788142 0.2167084650931079 0 0.46338994747082818 0.22647486666124839 0 0.49075328327788142 0.2167084650931079 0 0.47692141707070451 0.23056955077157251 0 0.47692141707070451 0.23056955077157251 0 0.49999999999999339 0.2215116756214566 0 0.50000000000000067 0.2392155256412283 0 0.49075328327788142 0.2167084650931079 0 0.47692141707070451 0.23056955077157251 0 0.49999999999999339 0.2215116756214566 0 0.47692141707070451 0.23056955077157251 0 0.49999999999999339 0.2215116756214566 0 0.50000000000000067 0.2392155256412283 0 0.47583181488482379 0.2451422378191761 0 0.48341195364679568 0.26002408893105827 0 0.50000000000000067 0.2392155256412283 0 0.47583181488482379 0.2451422378191761 0 0.47692141707070451 0.23056955077157251 0 0.50000000000000067 0.2392155256412283 0 0.47583181488482379 0.2451422378191761 0 0.45384283414141641 0.23962742592169059 0 0.47692141707070451 0.23056955077157251 0 0.47583181488482379 0.2451422378191761 0 0.46053260521531592 0.14091734283165991 0 0.45014974491888898 0.16995127396152809 0 0.47759274938693741 0.15337993901402261 0 0.46053260521531592 0.14091734283165991 0 0.47596637305353268 0.1236489788231635 0 0.45094723062946279 0.12208098845927939 0 0.46053260521531592 0.14091734283165991 0 0.44305345270963392 0.14224085277467549 0 0.45094723062946279 0.12208098845927939 0 0.43267139290449452 0.12562392175117529 0 0.44305345270963392 0.14224085277467549 0 0.45094723062946279 0.12208098845927939 0 0.46053260521531592 0.14091734283165991 0 0.44305345270963392 0.14224085277467549 0 0.45014974491888898 0.16995127396152809 0 0.43641214087317609 0.15776157540708571 0 0.44305345270963392 0.14224085277467549 0 0.45014974491888898 0.16995127396152809 0 0.42759287120751482 0.1799189573059411 0 0.43799329450951457 0.1898848624547933 0 0.45014974491888898 0.16995127396152809 0 0.43799329450951457 0.1898848624547933 0 0.45120510308892831 0.19507838461398491 0 0.45014974491888898 0.16995127396152809 0 0.46861366351278472 0.19789432193598561 0 0.45014974491888898 0.16995127396152809 0 0.47890777313388699 0.17818810929941131 0 0.45014974491888898 0.16995127396152809 0 0.47890777313388699 0.17818810929941131 0 0.47759274938693741 0.15337993901402261 0 0.5 0.19442179120654851 0 0.47890777313388699 0.17818810929941131 0 0.5 0.16733190679164031 0 0.47890777313388699 0.17818810929941131 0 0.5 0.16733190679164031 0 0.47759274938693741 0.15337993901402261 0 0.5 0.16733190679164031 0 0.47759274938693741 0.15337993901402261 0 0.5 0.14024202237673219 0 0.46053260521531592 0.14091734283165991 0 0.47759274938693741 0.15337993901402261 0 0.47596637305353268 0.1236489788231635 0 0.5 0.14024202237673219 0 0.5 0.11315213796182411 0 0.47596637305353268 0.1236489788231635 0 0.47759274938693741 0.15337993901402261 0 0.5 0.14024202237673219 0 0.47596637305353268 0.1236489788231635 0 0.5 0.11315213796182411 0 0.48146508414057748 0.097867616362435003 0 0.47596637305353268 0.1236489788231635 0 0.5 0.11315213796182411 0 0.48146508414057748 0.097867616362435003 0 0.5 0.08606225354691599 0 0.48146508414057748 0.097867616362435003 0 0.46684480345772023 0.083704774648097419 0 0.46085076100455152 0.1051260388446932 0 0.48146508414057748 0.097867616362435003 0 0.47596637305353268 0.1236489788231635 0 0.46085076100455152 0.1051260388446932 0 0.5 0.08606225354691599 0 0.48297411160829701 0.071419164250366693 0 0.5 0.058972369132007867 0 0.48146508414057748 0.097867616362435003 0 0.5 0.08606225354691599 0 0.48297411160829701 0.071419164250366693 0 0.48146508414057748 0.097867616362435003 0 0.48297411160829701 0.071419164250366693 0 0.46684480345772023 0.083704774648097419 0 0.48297411160829701 0.071419164250366693 0 0.46368779630991369 0.062884433647911922 0 0.46684480345772023 0.083704774648097419 0 0.46368779630991369 0.062884433647911922 0 0.4455316944648699 0.078385408113317706 0 0.46368779630991369 0.062884433647911922 0 0.46684480345772023 0.083704774648097419 0 0.4455316944648699 0.078385408113317706 0 0.46684480345772023 0.083704774648097419 0 0.4455316944648699 0.078385408113317706 0 0.46085076100455152 0.1051260388446932 0 0.4455316944648699 0.078385408113317706 0 0.46085076100455152 0.1051260388446932 0 0.43655847815144871 0.087567909291679069 0 0.4455316944648699 0.078385408113317706 0 0.43655847815144871 0.087567909291679069 0 0.43300293116684879 0.070359854062556224 0 0.4455316944648699 0.078385408113317706 0 0.43300293116684879 0.070359854062556224 0 0.44432728466234178 0.059795406129610977 0 0.46368779630991369 0.062884433647911922 0 0.4455316944648699 0.078385408113317706 0 0.44432728466234178 0.059795406129610977 0 0.47596637305353268 0.1236489788231635 0 0.46085076100455152 0.1051260388446932 0 0.45094723062946279 0.12208098845927939 0 0.46085076100455152 0.1051260388446932 0 0.43655847815144871 0.087567909291679069 0 0.46085076100455152 0.1051260388446932 0 0.43845481143497073 0.110031162788742 0 0.43302597451412722 0.09911942802672713 0 0.46085076100455152 0.1051260388446932 0 0.43302597451412722 0.09911942802672713 0 0.43655847815144871 0.087567909291679069 0 0.43267139290449452 0.12562392175117529 0 0.45094723062946279 0.12208098845927939 0 0.43845481143497073 0.110031162788742 0 0.46085076100455152 0.1051260388446932 0 0.45094723062946279 0.12208098845927939 0 0.43845481143497073 0.110031162788742 0 0.43267139290449452 0.12562392175117529 0 0.43845481143497073 0.110031162788742 0 0.42512360996164289 0.1101942667169049 0 0.43267139290449452 0.12562392175117529 0 0.42512360996164289 0.1101942667169049 0 0.41840244549433692 0.1204435227777134 0 0.42512360996164289 0.1101942667169049 0 0.41840244549433692 0.1204435227777134 0 0.41145911669595331 0.1096997076075869 0 0.41840244549433692 0.1204435227777134 0 0.41145911669595331 0.1096997076075869 0 0.40630256149234217 0.12337914253670321 0 0.41145911669595331 0.1096997076075869 0 0.41782870111656589 0.098086010242617663 0 0.40188519574572068 0.098349840232826835 0 0.41782870111656589 0.098086010242617663 0 0.41132824907511162 0.087668761689670915 0 0.40188519574572068 0.098349840232826835 0 0.42512360996164289 0.1101942667169049 0 0.41145911669595331 0.1096997076075869 0 0.41782870111656589 0.098086010242617663 0 0.41782870111656589 0.098086010242617663 0 0.43302597451412722 0.09911942802672713 0 0.42198136315300161 0.08812274721924529 0 0.42512360996164289 0.1101942667169049 0 0.41782870111656589 0.098086010242617663 0 0.43302597451412722 0.09911942802672713 0 0.43845481143497073 0.110031162788742 0 0.42512360996164289 0.1101942667169049 0 0.43302597451412722 0.09911942802672713 0 0.43655847815144871 0.087567909291679069 0 0.42198136315300161 0.08812274721924529 0 0.41226619529834591 0.070009779738664735 0 0.43655847815144871 0.087567909291679069 0 0.41226619529834591 0.070009779738664735 0 0.43302597451412722 0.09911942802672713 0 0.43655847815144871 0.087567909291679069 0 0.42198136315300161 0.08812274721924529 0 0.43300293116684879 0.070359854062556224 0 0.41226619529834591 0.070009779738664735 0 0.42739758089851382 0.054541393999090262 0 0.43655847815144871 0.087567909291679069 0 0.43300293116684879 0.070359854062556224 0 0.41226619529834591 0.070009779738664735 0 0.42198136315300161 0.08812274721924529 0 0.41226619529834591 0.070009779738664735 0 0.41132824907511162 0.087668761689670915 0 0.41226619529834591 0.070009779738664735 0 0.41132824907511162 0.087668761689670915 0 0.39992923875424519 0.082621500021195282 0 0.41782870111656589 0.098086010242617663 0 0.42198136315300161 0.08812274721924529 0 0.41132824907511162 0.087668761689670915 0 0.41132824907511162 0.087668761689670915 0 0.39992923875424519 0.082621500021195282 0 0.40188519574572068 0.098349840232826835 0 0.39992923875424519 0.082621500021195282 0 0.38759228221014619 0.095233220303727467 0 0.40188519574572068 0.098349840232826835 0 0.39992923875424519 0.082621500021195282 0 0.38759228221014619 0.095233220303727467 0 0.41226619529834591 0.070009779738664735 0 0.39707386889515511 0.070908779594843374 0 0.39683376059791597 0.058855427163935138 0 0.41226619529834591 0.070009779738664735 0 0.39683376059791597 0.058855427163935138 0 0.41226619529834591 0.070009779738664735 0 0.39992923875424519 0.082621500021195282 0 0.41226619529834591 0.070009779738664735 0 0.39992923875424519 0.082621500021195282 0 0.39707386889515511 0.070908779594843374 0 0.39992923875424519 0.082621500021195282 0 0.39707386889515511 0.070908779594843374 0 0.38583977896057609 0.075316135258006081 0 0.39707386889515511 0.070908779594843374 0 0.38282045226763678 0.060547433734587333 0 0.39683376059791597 0.058855427163935138 0 0.39707386889515511 0.070908779594843374 0 0.38583977896057609 0.075316135258006081 0 0.38282045226763678 0.060547433734587333 0 0.38583977896057609 0.075316135258006081 0 0.37596532967213542 0.069868995675824025 0 0.37682589963749002 0.081332762740894418 0 0.37307104071443398 0.061065176941414383 0 0.37596532967213542 0.069868995675824025 0 0.38282045226763678 0.060547433734587333 0 0.38583977896057609 0.075316135258006081 0 0.37596532967213542 0.069868995675824025 0 0.38282045226763678 0.060547433734587333 0 0.39992923875424519 0.082621500021195282 0 0.38412803848747967 0.086259474622970303 0 0.38759228221014619 0.095233220303727467 0 0.39992923875424519 0.082621500021195282 0 0.38583977896057609 0.075316135258006081 0 0.38412803848747967 0.086259474622970303 0 0.37045299287494049 0.09679375479102828 0 0.38412803848747967 0.086259474622970303 0 0.38759228221014619 0.095233220303727467 0 0.38583977896057609 0.075316135258006081 0 0.38412803848747967 0.086259474622970303 0 0.37682589963749002 0.081332762740894418 0 0.37045299287494049 0.09679375479102828 0 0.38412803848747967 0.086259474622970303 0 0.37682589963749002 0.081332762740894418 0 0.37045299287494049 0.09679375479102828 0 0.38005682511468147 0.12140739343396729 0 0.37045299287494049 0.09679375479102828 0 0.38759228221014619 0.095233220303727467 0 0.38890959528695412 0.1083938038889192 0 0.37045299287494049 0.09679375479102828 0 0.38890959528695412 0.1083938038889192 0 0.38005682511468147 0.12140739343396729 0 0.39398634319161102 0.12556361147638159 0 0.38890959528695412 0.1083938038889192 0 0.38005682511468147 0.12140739343396729 0 0.39398634319161102 0.12556361147638159 0 0.38890959528695412 0.1083938038889192 0 0.39948393258462489 0.11301500309558379 0 0.39398634319161102 0.12556361147638159 0 0.40630256149234217 0.12337914253670321 0 0.39948393258462489 0.11301500309558379 0 0.41145911669595331 0.1096997076075869 0 0.40630256149234217 0.12337914253670321 0 0.39948393258462489 0.11301500309558379 0 0.41145911669595331 0.1096997076075869 0 0.39948393258462489 0.11301500309558379 0 0.40188519574572068 0.098349840232826835 0 0.38759228221014619 0.095233220303727467 0 0.38890959528695412 0.1083938038889192 0 0.40188519574572068 0.098349840232826835 0 0.38890959528695412 0.1083938038889192 0 0.39948393258462489 0.11301500309558379 0 0.40188519574572068 0.098349840232826835 0 0.3912475249538237 0.025882868266216091 0 0.40325323122183843 0.024352223252143548 0 0.39536881189699241 0.01378873843063998 0 0.3912475249538237 0.025882868266216091 0 0.40325323122183843 0.024352223252143548 0 0.39805180056669343 0.032772735105760037 0 0.40325323122183843 0.024352223252143548 0 0.39805180056669343 0.032772735105760037 0 0.40655765028286611 0.035582104639029083 0 0.40325323122183843 0.024352223252143548 0 0.39536881189699241 0.01378873843063998 0 0.40720094273855439 0.01372602960598159 0 0.40060323373222451 0.0042547197705496897 0 0.39536881189699241 0.01378873843063998 0 0.40720094273855439 0.01372602960598159 0 0.40060323373222451 0.0042547197705496897 0 0.41081432206005303 0.0037114498956348132 0 0.4046584776842293 -0.0050702490882302163 0 0.40060323373222451 0.0042547197705496897 0 0.41081432206005303 0.0037114498956348132 0 0.40720094273855439 0.01372602960598159 0 0.40060323373222451 0.0042547197705496897 0 0.39025836247721268 0.0036292771787240202 0 0.39531848553630572 -0.0042569273994520467 0 0.40060323373222451 0.0042547197705496897 0 0.39536881189699241 0.01378873843063998 0 0.39025836247721268 0.0036292771787240202 0 0.37844401144479839 0.012609093579625891 0 0.38356146703633898 -0.0078565650350033434 0 0.37844401144479839 0.012609093579625891 0 0.39025836247721268 0.0036292771787240202 0 0.38356146703633898 -0.0078565650350033434 0 0.39536881189699241 0.01378873843063998 0 0.37844401144479839 0.012609093579625891 0 0.39025836247721268 0.0036292771787240202 0 0.3912475249538237 0.025882868266216091 0 0.37844401144479839 0.012609093579625891 0 0.38063223185621792 0.036578263657106522 0 0.37844401144479839 0.012609093579625891 0 0.38063223185621792 0.036578263657106522 0 0.37146335928247548 0.04052602251159599 0 0.37844401144479839 0.012609093579625891 0 0.38063223185621792 0.036578263657106522 0 0.3912475249538237 0.025882868266216091 0 0.39536881189699241 0.01378873843063998 0 0.37844401144479839 0.012609093579625891 0 0.37146335928247548 0.04052602251159599 0 0.38063223185621792 0.036578263657106522 0 0.38282045226763678 0.060547433734587333 0 0.3912475249538237 0.025882868266216091 0 0.38063223185621792 0.036578263657106522 0 0.3908528121234538 0.035995570554822158 0 0.38063223185621792 0.036578263657106522 0 0.38791705742610771 0.044539104287684539 0 0.3908528121234538 0.035995570554822158 0 0.38791705742610771 0.044539104287684539 0 0.38282045226763678 0.060547433734587333 0 0.39079668350586277 0.051215399393808793 0 0.37307104071443398 0.061065176941414383 0 0.37146335928247548 0.04052602251159599 0 0.38282045226763678 0.060547433734587333 0 0.38063223185621792 0.036578263657106522 0 0.38791705742610771 0.044539104287684539 0 0.38282045226763678 0.060547433734587333 0 0.38063223185621792 0.036578263657106522 0 0.38282045226763678 0.060547433734587333 0 0.38282045226763678 0.060547433734587333 0 0.39683376059791597 0.058855427163935138 0 0.39079668350586277 0.051215399393808793 0 0.41226619529834591 0.070009779738664735 0 0.39683376059791597 0.058855427163935138 0 0.40948896714378957 0.05055434744181983 0 0.39683376059791597 0.058855427163935138 0 0.39079668350586277 0.051215399393808793 0 0.39674782008621368 0.04348041067995833 0 0.39683376059791597 0.058855427163935138 0 0.39674782008621368 0.04348041067995833 0 0.40948896714378957 0.05055434744181983 0 0.3908528121234538 0.035995570554822158 0 0.39805180056669343 0.032772735105760037 0 0.39674782008621368 0.04348041067995833 0 0.3912475249538237 0.025882868266216091 0 0.3908528121234538 0.035995570554822158 0 0.39805180056669343 0.032772735105760037 0 0.38791705742610771 0.044539104287684539 0 0.3908528121234538 0.035995570554822158 0 0.39674782008621368 0.04348041067995833 0 0.38791705742610771 0.044539104287684539 0 0.39079668350586277 0.051215399393808793 0 0.39674782008621368 0.04348041067995833 0 0.39674782008621368 0.04348041067995833 0 0.40655765028286611 0.035582104639029083 0 0.40948896714378957 0.05055434744181983 0 0.39805180056669343 0.032772735105760037 0 0.39674782008621368 0.04348041067995833 0 0.40655765028286611 0.035582104639029083 0 0.40655765028286611 0.035582104639029083 0 0.41713079569888262 0.040856968430241461 0 0.41557099838193923 0.024039796491718179 0 0.41713079569888262 0.040856968430241461 0 0.42755741698364552 0.032815777208855347 0 0.41557099838193923 0.024039796491718179 0 0.40655765028286611 0.035582104639029083 0 0.41713079569888262 0.040856968430241461 0 0.40948896714378957 0.05055434744181983 0 0.41226619529834591 0.070009779738664735 0 0.40948896714378957 0.05055434744181983 0 0.42739758089851382 0.054541393999090262 0 0.41713079569888262 0.040856968430241461 0 0.40948896714378957 0.05055434744181983 0 0.42739758089851382 0.054541393999090262 0 0.41226619529834591 0.070009779738664735 0 0.42739758089851382 0.054541393999090262 0 0.43300293116684879 0.070359854062556224 0 0.42739758089851382 0.054541393999090262 0 0.44432728466234178 0.059795406129610977 0 0.41713079569888262 0.040856968430241461 0 0.42739758089851382 0.054541393999090262 0 0.42755741698364552 0.032815777208855347 0 0.42739758089851382 0.054541393999090262 0 0.42755741698364552 0.032815777208855347 0 0.44252896649868317 0.039073008259517338 0 0.42739758089851382 0.054541393999090262 0 0.44252896649868317 0.039073008259517338 0 0.42755741698364552 0.032815777208855347 0 0.4358194844604939 0.024219735287320941 0 0.44252896649868317 0.039073008259517338 0 0.42755741698364552 0.032815777208855347 0 0.41557099838193923 0.024039796491718179 0 0.4265644217351573 0.014684511896395219 0 0.4358194844604939 0.024219735287320941 0 0.4265644217351573 0.014684511896395219 0 0.44548351627008242 0.01642882659412407 0 0.42755741698364552 0.032815777208855347 0 0.4358194844604939 0.024219735287320941 0 0.4265644217351573 0.014684511896395219 0 0.41557099838193923 0.024039796491718179 0 0.4165272652869268 0.01155925859927168 0 0.4265644217351573 0.014684511896395219 0 0.41557099838193923 0.024039796491718179 0 0.40720094273855439 0.01372602960598159 0 0.4165272652869268 0.01155925859927168 0 0.40325323122183843 0.024352223252143548 0 0.41557099838193923 0.024039796491718179 0 0.40720094273855439 0.01372602960598159 0 0.40325323122183843 0.024352223252143548 0 0.40655765028286611 0.035582104639029083 0 0.41557099838193923 0.024039796491718179 0 0.41081432206005303 0.0037114498956348132 0 0.40720094273855439 0.01372602960598159 0 0.4165272652869268 0.01155925859927168 0 0.4165272652869268 0.01155925859927168 0 0.42248564151892998 0.0016345051066286029 0 0.4265644217351573 0.014684511896395219 0 0.41081432206005303 0.0037114498956348132 0 0.4165272652869268 0.01155925859927168 0 0.42248564151892998 0.0016345051066286029 0 0.42248564151892998 0.0016345051066286029 0 0.4265644217351573 0.014684511896395219 0 0.4382820622288856 -0.0014159552958160841 0 0.4265644217351573 0.014684511896395219 0 0.44548351627008242 0.01642882659412407 0 0.4382820622288856 -0.0014159552958160841 0 0.45100246047295739 0.0046664116742636159 0 0.44548351627008242 0.01642882659412407 0 0.4382820622288856 -0.0014159552958160841 0 0.45100246047295739 0.0046664116742636159 0 0.44548351627008242 0.01642882659412407 0 0.4580470330794123 0.0188547641718908 0 0.4358194844604939 0.024219735287320941 0 0.4514029071021442 0.02821869916314456 0 0.44548351627008242 0.01642882659412407 0 0.4358194844604939 0.024219735287320941 0 0.4514029071021442 0.02821869916314456 0 0.44252896649868317 0.039073008259517338 0 0.4514029071021442 0.02821869916314456 0 0.44548351627008242 0.01642882659412407 0 0.4580470330794123 0.0188547641718908 0 0.4514029071021442 0.02821869916314456 0 0.4580470330794123 0.0188547641718908 0 0.46553563141862692 0.027383902935855992 0 0.4580470330794123 0.0188547641718908 0 0.46553563141862692 0.027383902935855992 0 0.471035018561343 0.01684384088441979 0 0.4580470330794123 0.0188547641718908 0 0.4620271672997433 0.0081957990277541914 0 0.471035018561343 0.01684384088441979 0 0.4620271672997433 0.0081957990277541914 0 0.47207727543944228 0.0077163925679632076 0 0.45540766643685782 -0.0078732224449345398 0 0.4620271672997433 0.0081957990277541914 0 0.47207727543944228 0.0077163925679632076 0 0.471035018561343 0.01684384088441979 0 0.45100246047295739 0.0046664116742636159 0 0.4620271672997433 0.0081957990277541914 0 0.45540766643685782 -0.0078732224449345398 0 0.45100246047295739 0.0046664116742636159 0 0.4580470330794123 0.0188547641718908 0 0.4620271672997433 0.0081957990277541914 0 0.42739758089851382 0.054541393999090262 0 0.44432728466234178 0.059795406129610977 0 0.44252896649868317 0.039073008259517338 0 0.44432728466234178 0.059795406129610977 0 0.44252896649868317 0.039073008259517338 0 0.46100281088556699 0.043351957730158222 0 0.4514029071021442 0.02821869916314456 0 0.44252896649868317 0.039073008259517338 0 0.46100281088556699 0.043351957730158222 0 0.4514029071021442 0.02821869916314456 0 0.46553563141862692 0.027383902935855992 0 0.46100281088556699 0.043351957730158222 0 0.46553563141862692 0.027383902935855992 0 0.46100281088556699 0.043351957730158222 0 0.4764725540003833 0.035303178421407518 0 0.46368779630991369 0.062884433647911922 0 0.44432728466234178 0.059795406129610977 0 0.46100281088556699 0.043351957730158222 0 0.48297411160829701 0.071419164250366693 0 0.46368779630991369 0.062884433647911922 0 0.48184389815495748 0.047383459182506117 0 0.46368779630991369 0.062884433647911922 0 0.46100281088556699 0.043351957730158222 0 0.48184389815495748 0.047383459182506117 0 0.46368779630991369 0.062884433647911922 0 0.48184389815495748 0.047383459182506117 0 0.46100281088556699 0.043351957730158222 0 0.48184389815495748 0.047383459182506117 0 0.4764725540003833 0.035303178421407518 0 0.48184389815495748 0.047383459182506117 0 0.50000000000000089 0.031882484717099757 0 0.48184389815495748 0.047383459182506117 0 0.50000000000000089 0.031882484717099757 0 0.5 0.058972369132007867 0 0.48184389815495748 0.047383459182506117 0 0.4764725540003833 0.035303178421407518 0 0.50000000000000089 0.031882484717099757 0 0.48297411160829701 0.071419164250366693 0 0.48184389815495748 0.047383459182506117 0 0.5 0.058972369132007867 0 0.48173822001607031 0.002441982684480838 0 0.47207727543944228 0.0077163925679632076 0 0.45540766643685782 -0.0078732224449345398 0 0.48073089036299149 0.01447516008145705 0 0.48088876464914698 0.0066420825236524483 0 0.47207727543944228 0.0077163925679632076 0 0.48088876464914698 0.0066420825236524483 0 0.48173822001607031 0.002441982684480838 0 0.48944624590280772 0.014576472087587141 0 0.48073089036299149 0.01447516008145705 0 0.48088876464914698 0.0066420825236524483 0 0.48944624590280772 0.014576472087587141 0 0.48088876464914698 0.0066420825236524483 0 0.48173822001607031 0.002441982684480838 0 0.47207727543944228 0.0077163925679632076 0 0.48088876464914698 0.0066420825236524483 0 0.48173822001607031 0.002441982684480838 0 0.48073089036299149 0.01447516008145705 0 0.47207727543944228 0.0077163925679632076 0 0.471035018561343 0.01684384088441979 0 0.46553563141862692 0.027383902935855992 0 0.471035018561343 0.01684384088441979 0 0.48098968552297122 0.023479159592672289 0 0.46553563141862692 0.027383902935855992 0 0.4764725540003833 0.035303178421407518 0 0.48098968552297122 0.023479159592672289 0 0.48073089036299149 0.01447516008145705 0 0.471035018561343 0.01684384088441979 0 0.48098968552297122 0.023479159592672289 0 0.48073089036299149 0.01447516008145705 0 0.48098968552297122 0.023479159592672289 0 0.48944624590280772 0.014576472087587141 0 0.50000000000000089 0.031882484717099757 0 0.50000000000000044 0.0095961811708810997 0 0.48944624590280772 0.014576472087587141 0 0.4764725540003833 0.035303178421407518 0 0.50000000000000089 0.031882484717099757 0 0.48098968552297122 0.023479159592672289 0 0.50000000000000089 0.031882484717099757 0 0.48098968552297122 0.023479159592672289 0 0.48944624590280772 0.014576472087587141 0 0.48173822001607031 0.002441982684480838 0 0.50000000000000044 0.0095961811708810997 0 0.48944624590280772 0.014576472087587141 0 0.48173822001607031 0.002441982684480838 0 0.50000000000000044 0.0095961811708810997 0 0.48173822001607031 0.002441982684480838 0 0.50000000000000044 0.0095961811708810997 0 0.5 -0.01553848795347695 0 0.48173822001607031 0.002441982684480838 0 0.5 -0.01553848795347695 0 0.48723509010938909 -0.024737082977995831 0 0.48173822001607031 0.002441982684480838 0 0.48723509010938909 -0.024737082977995831 0 0.48173822001607031 0.002441982684480838 0 0.46944239540012012 -0.021901386132034111 0 0.45540766643685782 -0.0078732224449345398 0 0.48173822001607031 0.002441982684480838 0 0.46944239540012012 -0.021901386132034111 0 0.48723509010938909 -0.024737082977995831 0 0.46944239540012012 -0.021901386132034111 0 0.48723509010938909 -0.024737082977995831 0 0.47311684284700922 -0.039980301183512167 0 0.5 -0.01553848795347695 0 0.48723509010938909 -0.024737082977995831 0 0.5 -0.040673157077835087 0 0.48723509010938909 -0.024737082977995831 0 0.49273196020270971 -0.051916148640471983 0 0.48034048547664182 -0.050194577481915269 0 0.48723509010938909 -0.024737082977995831 0 0.49273196020270971 -0.051916148640471983 0 0.48723509010938909 -0.024737082977995831 0 0.5 -0.040673157077835087 0 0.49273196020270971 -0.051916148640471983 0 0.5 -0.040673157077835087 0 0.49273196020270971 -0.051916148640471983 0 0.5 -0.065807826202193331 0 0.49273196020270971 -0.051916148640471983 0 0.48384360039889979 -0.062204599920787272 0 0.48034048547664182 -0.050194577481915269 0 0.48034048547664182 -0.050194577481915269 0 0.47035120232490191 -0.060528185902064997 0 0.47311684284700922 -0.039980301183512167 0 0.47035120232490191 -0.060528185902064997 0 0.47311684284700922 -0.039980301183512167 0 0.48384360039889979 -0.062204599920787272 0 0.48034048547664182 -0.050194577481915269 0 0.47035120232490191 -0.060528185902064997 0 0.48723509010938909 -0.024737082977995831 0 0.48034048547664182 -0.050194577481915269 0 0.47311684284700922 -0.039980301183512167 0 0.46944239540012012 -0.021901386132034111 0 0.47311684284700922 -0.039980301183512167 0 0.44971415759127392 -0.039358306738208573 0 0.47035120232490191 -0.060528185902064997 0 0.47311684284700922 -0.039980301183512167 0 0.44971415759127392 -0.039358306738208573 0 0.47035120232490191 -0.060528185902064997 0 0.44971415759127392 -0.039358306738208573 0 0.47035120232490191 -0.060528185902064997 0 0.43963483674523918 -0.055334607978488382 0 0.44971415759127392 -0.039358306738208573 0 0.43963483674523918 -0.055334607978488382 0 0.44971415759127392 -0.039358306738208573 0 0.42419530264354072 -0.042652000491910397 0 0.46944239540012012 -0.021901386132034111 0 0.44971415759127392 -0.039358306738208573 0 0.45540766643685782 -0.0078732224449345398 0 0.44971415759127392 -0.039358306738208573 0 0.42907711285764621 -0.01818842757435184 0 0.44971415759127392 -0.039358306738208573 0 0.45540766643685782 -0.0078732224449345398 0 0.42907711285764621 -0.01818842757435184 0 0.45540766643685782 -0.0078732224449345398 0 0.42907711285764621 -0.01818842757435184 0 0.45100246047295739 0.0046664116742636159 0 0.4382820622288856 -0.0014159552958160841 0 0.45540766643685782 -0.0078732224449345398 0 0.4382820622288856 -0.0014159552958160841 0 0.45540766643685782 -0.0078732224449345398 0 0.42907711285764621 -0.01818842757435184 0 0.48173822001607031 0.002441982684480838 0 0.45540766643685782 -0.0078732224449345398 0 0.47129126618897188 -0.1223351355815797 0 0.47148248434309947 -0.114916285604633 0 0.48087269318342413 -0.1216818802472065 0 0.47148248434309947 -0.114916285604633 0 0.48087269318342413 -0.1216818802472065 0 0.47838814501791832 -0.1066654575105275 0 0.48087269318342413 -0.1216818802472065 0 0.48924328608656842 -0.1141618265083332 0 0.47838814501791832 -0.1066654575105275 0 0.5 -0.1122204549214597 0 0.48924328608656842 -0.1141618265083332 0 0.5 -0.13349841451636779 0 0.48087269318342413 -0.1216818802472065 0 0.48924328608656842 -0.1141618265083332 0 0.5 -0.13349841451636779 0 0.5 -0.1122204549214597 0 0.48924328608656842 -0.1141618265083332 0 0.48827073793524339 -0.097774102912636218 0 0.48924328608656842 -0.1141618265083332 0 0.48827073793524339 -0.097774102912636218 0 0.47838814501791832 -0.1066654575105275 0 0.5 -0.1122204549214597 0 0.48827073793524339 -0.097774102912636218 0 0.50000000000000266 -0.090942495326551576 0 0.47652975213937199 -0.091635549067057065 0 0.46683976751390588 -0.086617099886465918 0 0.46456669494636288 -0.10350535152343909 0 0.48827073793524339 -0.097774102912636218 0 0.47838814501791832 -0.1066654575105275 0 0.47652975213937199 -0.091635549067057065 0 0.47148248434309947 -0.114916285604633 0 0.47838814501791832 -0.1066654575105275 0 0.46456669494636288 -0.10350535152343909 0 0.47838814501791832 -0.1066654575105275 0 0.47652975213937199 -0.091635549067057065 0 0.46456669494636288 -0.10350535152343909 0 0.48827073793524339 -0.097774102912636218 0 0.47652975213937199 -0.091635549067057065 0 0.48517560116245317 -0.075735340614307423 0 0.47652975213937199 -0.091635549067057065 0 0.48517560116245317 -0.075735340614307423 0 0.46683976751390588 -0.086617099886465918 0 0.47652975213937199 -0.091635549067057065 0 0.46683976751390588 -0.086617099886465918 0 0.50000000000000266 -0.090942495326551576 0 0.49822883029603021 -0.079095214302948247 0 0.5 -0.065807826202193331 0 0.48827073793524339 -0.097774102912636218 0 0.50000000000000266 -0.090942495326551576 0 0.48517560116245317 -0.075735340614307423 0 0.50000000000000266 -0.090942495326551576 0 0.48517560116245317 -0.075735340614307423 0 0.50000000000000266 -0.090942495326551576 0 0.49822883029603021 -0.079095214302948247 0 0.48517560116245317 -0.075735340614307423 0 0.49273196020270971 -0.051916148640471983 0 0.49822883029603021 -0.079095214302948247 0 0.48384360039889979 -0.062204599920787272 0 0.49822883029603021 -0.079095214302948247 0 0.48517560116245317 -0.075735340614307423 0 0.49273196020270971 -0.051916148640471983 0 0.48384360039889979 -0.062204599920787272 0 0.49822883029603021 -0.079095214302948247 0 0.49273196020270971 -0.051916148640471983 0 0.49822883029603021 -0.079095214302948247 0 0.5 -0.065807826202193331 0 0.47035120232490191 -0.060528185902064997 0 0.48517560116245317 -0.075735340614307423 0 0.47035120232490191 -0.060528185902064997 0 0.48517560116245317 -0.075735340614307423 0 0.46683976751390588 -0.086617099886465918 0 0.48384360039889979 -0.062204599920787272 0 0.47035120232490191 -0.060528185902064997 0 0.48517560116245317 -0.075735340614307423 0 0.47035120232490191 -0.060528185902064997 0 0.46683976751390588 -0.086617099886465918 0 0.47035120232490191 -0.060528185902064997 0 0.44249197108241189 -0.074007360679063244 0 0.46683976751390588 -0.086617099886465918 0 0.47035120232490191 -0.060528185902064997 0 0.43963483674523918 -0.055334607978488382 0 0.44249197108241189 -0.074007360679063244 0 0.44249197108241189 -0.074007360679063244 0 0.46683976751390588 -0.086617099886465918 0 0.4490662803509099 -0.094083529251462475 0 0.44249197108241189 -0.074007360679063244 0 0.4490662803509099 -0.094083529251462475 0 0.42834270349958448 -0.099226311759436261 0 0.44249197108241189 -0.074007360679063244 0 0.46683976751390588 -0.086617099886465918 0 0.46683976751390588 -0.086617099886465918 0 0.46456669494636288 -0.10350535152343909 0 0.4490662803509099 -0.094083529251462475 0 0.46683976751390588 -0.086617099886465918 0 0.46456669494636288 -0.10350535152343909 0 0.46456669494636288 -0.10350535152343909 0 0.4490662803509099 -0.094083529251462475 0 0.44386094964032902 -0.11054798122052439 0 0.4490662803509099 -0.094083529251462475 0 0.44386094964032902 -0.11054798122052439 0 0.42834270349958448 -0.099226311759436261 0 0.44386094964032902 -0.11054798122052439 0 0.46257396642688631 -0.12529077885077469 0 0.45239247298790419 -0.125419693033265 0 0.44386094964032902 -0.11054798122052439 0 0.42916935431308728 -0.1205456085246996 0 0.4435038969132965 -0.12540022695152131 0 0.44386094964032902 -0.11054798122052439 0 0.45239247298790419 -0.125419693033265 0 0.4435038969132965 -0.12540022695152131 0 0.44386094964032902 -0.11054798122052439 0 0.46229362237882032 -0.1203936031604123 0 0.46257396642688631 -0.12529077885077469 0 0.46456669494636288 -0.10350535152343909 0 0.46229362237882032 -0.1203936031604123 0 0.46456669494636288 -0.10350535152343909 0 0.44386094964032902 -0.11054798122052439 0 0.46229362237882032 -0.1203936031604123 0 0.44386094964032902 -0.11054798122052439 0 0.46257396642688631 -0.12529077885077469 0 0.47148248434309947 -0.114916285604633 0 0.46456669494636288 -0.10350535152343909 0 0.46229362237882032 -0.1203936031604123 0 0.47129126618897188 -0.1223351355815797 0 0.46229362237882032 -0.1203936031604123 0 0.46257396642688631 -0.12529077885077469 0 0.47129126618897188 -0.1223351355815797 0 0.47148248434309947 -0.114916285604633 0 0.46229362237882032 -0.1203936031604123 0 0.44386094964032902 -0.11054798122052439 0 0.42916935431308728 -0.1205456085246996 0 0.42834270349958448 -0.099226311759436261 0 0.41143930547928681 -0.11934523636421419 0 0.42916935431308728 -0.1205456085246996 0 0.42834270349958448 -0.099226311759436261 0 0.41143930547928681 -0.11934523636421419 0 0.40555832972599831 -0.095826118330896617 0 0.41143930547928681 -0.11934523636421419 0 0.42834270349958448 -0.099226311759436261 0 0.40555832972599831 -0.095826118330896617 0 0.42834270349958448 -0.099226311759436261 0 0.41884290658632428 -0.080552882507727325 0 0.40555832972599831 -0.095826118330896617 0 0.41884290658632428 -0.080552882507727325 0 0.39967735397270959 -0.072307000297579083 0 0.40555832972599831 -0.095826118330896617 0 0.44249197108241189 -0.074007360679063244 0 0.42834270349958448 -0.099226311759436261 0 0.41884290658632428 -0.080552882507727325 0 0.44249197108241189 -0.074007360679063244 0 0.41814417465091752 -0.061397621471661459 0 0.43963483674523918 -0.055334607978488382 0 0.44249197108241189 -0.074007360679063244 0 0.41814417465091752 -0.061397621471661459 0 0.44249197108241189 -0.074007360679063244 0 0.41884290658632428 -0.080552882507727325 0 0.41814417465091752 -0.061397621471661459 0 0.41884290658632428 -0.080552882507727325 0 0.39967735397270959 -0.072307000297579083 0 0.41814417465091752 -0.061397621471661459 0 0.39967735397270959 -0.072307000297579083 0 0.38669795957132042 -0.057310603286660967 0 0.37240766699872252 -0.068318548019290964 0 0.39967735397270959 -0.072307000297579083 0 0.37781097748786241 -0.089314889372882261 0 0.37240766699872252 -0.068318548019290964 0 0.39967735397270959 -0.072307000297579083 0 0.37781097748786241 -0.089314889372882261 0 0.40555832972599831 -0.095826118330896617 0 0.39967735397270959 -0.072307000297579083 0 0.40555832972599831 -0.095826118330896617 0 0.40555832972599831 -0.095826118330896617 0 0.38953803654933628 -0.10754997095337659 0 0.39823574772599779 -0.11763079726210079 0 0.37781097748786241 -0.089314889372882261 0 0.40555832972599831 -0.095826118330896617 0 0.38953803654933628 -0.10754997095337659 0 0.37781097748786241 -0.089314889372882261 0 0.38953803654933628 -0.10754997095337659 0 0.37644505785585192 -0.1058120404938334 0 0.38953803654933628 -0.10754997095337659 0 0.37644505785585192 -0.1058120404938334 0 0.37720890243704291 -0.12310924361699779 0 0.38953803654933628 -0.10754997095337659 0 0.37720890243704291 -0.12310924361699779 0 0.38918813321375051 -0.12739880168557821 0 0.38953803654933628 -0.10754997095337659 0 0.39823574772599779 -0.11763079726210079 0 0.38918813321375051 -0.12739880168557821 0 0.41143930547928681 -0.11934523636421419 0 0.39823574772599779 -0.11763079726210079 0 0.40257569972698831 -0.13396225485532559 0 0.41143930547928681 -0.11934523636421419 0 0.40555832972599831 -0.095826118330896617 0 0.39823574772599779 -0.11763079726210079 0 0.42011428296152808 -0.02169968792975261 0 0.41401194260749391 -0.028450411104576211 0 0.41343304557213612 -0.018371446868227208 0 0.42011428296152808 -0.02169968792975261 0 0.41343304557213612 -0.018371446868227208 0 0.41928481904255338 -0.01548900553927589 0 0.42011428296152808 -0.02169968792975261 0 0.41928481904255338 -0.01548900553927589 0 0.42542521438275183 -0.0144422395697206 0 0.42011428296152808 -0.02169968792975261 0 0.41401194260749391 -0.028450411104576211 0 0.42742255973229643 -0.030069766767760062 0 0.41401194260749391 -0.028450411104576211 0 0.40522076275047969 -0.019933987949522329 0 0.40044964155059998 -0.029094842751199331 0 0.41401194260749391 -0.028450411104576211 0 0.41343304557213612 -0.018371446868227208 0 0.40522076275047969 -0.019933987949522329 0 0.41343304557213612 -0.018371446868227208 0 0.40806592415966281 -0.01253819616599721 0 0.40522076275047969 -0.019933987949522329 0 0.40806592415966281 -0.01253819616599721 0 0.4135204533098043 -0.0054466611181140526 0 0.41498054603746559 -0.011947546426581419 0 0.41343304557213612 -0.018371446868227208 0 0.40806592415966281 -0.01253819616599721 0 0.41498054603746559 -0.011947546426581419 0 0.41081432206005303 0.0037114498956348132 0 0.4135204533098043 -0.0054466611181140526 0 0.4046584776842293 -0.0050702490882302163 0 0.40806592415966281 -0.01253819616599721 0 0.4135204533098043 -0.0054466611181140526 0 0.4046584776842293 -0.0050702490882302163 0 0.41081432206005303 0.0037114498956348132 0 0.42248564151892998 0.0016345051066286029 0 0.4135204533098043 -0.0054466611181140526 0 0.42248564151892998 0.0016345051066286029 0 0.4135204533098043 -0.0054466611181140526 0 0.42119781252485211 -0.0083000839364812864 0 0.41343304557213612 -0.018371446868227208 0 0.41498054603746559 -0.011947546426581419 0 0.41928481904255338 -0.01548900553927589 0 0.4135204533098043 -0.0054466611181140526 0 0.41498054603746559 -0.011947546426581419 0 0.42119781252485211 -0.0083000839364812864 0 0.41498054603746559 -0.011947546426581419 0 0.42119781252485211 -0.0083000839364812864 0 0.41928481904255338 -0.01548900553927589 0 0.42542521438275183 -0.0144422395697206 0 0.42820760236351979 -0.0076976995852137747 0 0.42907711285764621 -0.01818842757435184 0 0.4382820622288856 -0.0014159552958160841 0 0.42820760236351979 -0.0076976995852137747 0 0.42907711285764621 -0.01818842757435184 0 0.42119781252485211 -0.0083000839364812864 0 0.41928481904255338 -0.01548900553927589 0 0.42542521438275183 -0.0144422395697206 0 0.42248564151892998 0.0016345051066286029 0 0.4382820622288856 -0.0014159552958160841 0 0.42820760236351979 -0.0076976995852137747 0 0.42119781252485211 -0.0083000839364812864 0 0.42542521438275183 -0.0144422395697206 0 0.42820760236351979 -0.0076976995852137747 0 0.42248564151892998 0.0016345051066286029 0 0.42119781252485211 -0.0083000839364812864 0 0.42820760236351979 -0.0076976995852137747 0 0.44971415759127392 -0.039358306738208573 0 0.42907711285764621 -0.01818842757435184 0 0.42742255973229643 -0.030069766767760062 0 0.42011428296152808 -0.02169968792975261 0 0.42907711285764621 -0.01818842757435184 0 0.42742255973229643 -0.030069766767760062 0 0.42011428296152808 -0.02169968792975261 0 0.42542521438275183 -0.0144422395697206 0 0.42907711285764621 -0.01818842757435184 0 0.42011428296152808 -0.02169968792975261 0 0.42907711285764621 -0.01818842757435184 0 0.42542521438275183 -0.0144422395697206 0 0.42907711285764621 -0.01818842757435184 0 0.44971415759127392 -0.039358306738208573 0 0.42742255973229643 -0.030069766767760062 0 0.42419530264354072 -0.042652000491910397 0 0.41401194260749391 -0.028450411104576211 0 0.42742255973229643 -0.030069766767760062 0 0.42419530264354072 -0.042652000491910397 0 0.43963483674523918 -0.055334607978488382 0 0.42419530264354072 -0.042652000491910397 0 0.41814417465091752 -0.061397621471661459 0 0.41814417465091752 -0.061397621471661459 0 0.41107184061272262 -0.047596707948501772 0 0.39379637821942232 -0.04878788226426127 0 0.42419530264354072 -0.042652000491910397 0 0.41814417465091752 -0.061397621471661459 0 0.41107184061272262 -0.047596707948501772 0 0.41401194260749391 -0.028450411104576211 0 0.42419530264354072 -0.042652000491910397 0 0.40815150693701141 -0.037549327566173699 0 0.42419530264354072 -0.042652000491910397 0 0.41107184061272262 -0.047596707948501772 0 0.40815150693701141 -0.037549327566173699 0 0.41401194260749391 -0.028450411104576211 0 0.40815150693701141 -0.037549327566173699 0 0.40044964155059998 -0.029094842751199331 0 0.41107184061272262 -0.047596707948501772 0 0.40815150693701141 -0.037549327566173699 0 0.39379637821942232 -0.04878788226426127 0 0.40815150693701141 -0.037549327566173699 0 0.39379637821942232 -0.04878788226426127 0 0.40044964155059998 -0.029094842751199331 0 0.39379637821942232 -0.04878788226426127 0 0.38867892262788012 -0.028322223649632432 0 0.39379637821942232 -0.04878788226426127 0 0.38867892262788012 -0.028322223649632432 0 0.40044964155059998 -0.029094842751199331 0 0.39967735397270959 -0.072307000297579083 0 0.39379637821942232 -0.04878788226426127 0 0.38669795957132042 -0.057310603286660967 0 0.41814417465091752 -0.061397621471661459 0 0.39379637821942232 -0.04878788226426127 0 0.39967735397270959 -0.072307000297579083 0 0.39379637821942232 -0.04878788226426127 0 0.39967735397270959 -0.072307000297579083 0 0.41814417465091752 -0.061397621471661459 0 0.39379637821942232 -0.04878788226426127 0 0.39379637821942232 -0.04878788226426127 0 0.38896036142985008 -0.046283306103098283 0 0.38669795957132042 -0.057310603286660967 0 0.37839056082150663 -0.050608978831784571 0 0.37240766699872252 -0.068318548019290964 0 0.38669795957132042 -0.057310603286660967 0 0.37839056082150663 -0.050608978831784571 0 0.38896036142985008 -0.046283306103098283 0 0.39379637821942232 -0.04878788226426127 0 0.38669795957132042 -0.057310603286660967 0 0.38896036142985008 -0.046283306103098283 0 0.39379637821942232 -0.04878788226426127 0 0.38896036142985008 -0.046283306103098283 0 0.38867892262788012 -0.028322223649632432 0 0.3834615598562825 -0.037386722635115492 0 0.38896036142985008 -0.046283306103098283 0 0.38867892262788012 -0.028322223649632432 0 0.37839056082150663 -0.050608978831784571 0 0.3834615598562825 -0.037386722635115492 0 0.38896036142985008 -0.046283306103098283 0 0.37839056082150663 -0.050608978831784571 0 0.3834615598562825 -0.037386722635115492 0 0.37356965880113402 -0.040783236975350308 0 0.38867892262788012 -0.028322223649632432 0 0.38356146703633898 -0.0078565650350033434 0 0.3834615598562825 -0.037386722635115492 0 0.37600683512296651 -0.014087071697862221 0 0.37356965880113402 -0.040783236975350308 0 0.3834615598562825 -0.037386722635115492 0 0.38867892262788012 -0.028322223649632432 0 0.37600683512296651 -0.014087071697862221 0 0.38867892262788012 -0.028322223649632432 0 0.37600683512296651 -0.014087071697862221 0 0.38356146703633898 -0.0078565650350033434 0 0.38867892262788012 -0.028322223649632432 0 0.39658225960386179 -0.014459285545308009 0 0.38356146703633898 -0.0078565650350033434 0 0.38867892262788012 -0.028322223649632432 0 0.40044964155059998 -0.029094842751199331 0 0.39658225960386179 -0.014459285545308009 0 0.40522076275047969 -0.019933987949522329 0 0.40044964155059998 -0.029094842751199331 0 0.39658225960386179 -0.014459285545308009 0 0.40806592415966281 -0.01253819616599721 0 0.40522076275047969 -0.019933987949522329 0 0.39658225960386179 -0.014459285545308009 0 0.40060323373222451 0.0042547197705496897 0 0.4046584776842293 -0.0050702490882302163 0 0.39531848553630572 -0.0042569273994520467 0 0.40806592415966281 -0.01253819616599721 0 0.4046584776842293 -0.0050702490882302163 0 0.39658225960386179 -0.014459285545308009 0 0.4046584776842293 -0.0050702490882302163 0 0.39658225960386179 -0.014459285545308009 0 0.39531848553630572 -0.0042569273994520467 0 0.39658225960386179 -0.014459285545308009 0 0.39531848553630572 -0.0042569273994520467 0 0.38356146703633898 -0.0078565650350033434 0 0.39025836247721268 0.0036292771787240202 0 0.39531848553630572 -0.0042569273994520467 0 0.38356146703633898 -0.0078565650350033434 0 0.37844401144479839 0.012609093579625891 0 0.37600683512296651 -0.014087071697862221 0 0.37844401144479839 0.012609093579625891 0 0.37600683512296651 -0.014087071697862221 0 0.38356146703633898 -0.0078565650350033434 0 0.37600683512296651 -0.014087071697862221 0 0.36665723294200347 -0.001883505129568449 0 0.35850646790810559 -0.01395473468271459 0 0.37844401144479839 0.012609093579625891 0 0.37600683512296651 -0.014087071697862221 0 0.36665723294200347 -0.001883505129568449 0 0.36665723294200347 -0.001883505129568449 0 0.35531676971978082 -0.0033532784323768001 0 0.35850646790810559 -0.01395473468271459 0 0.37600683512296651 -0.014087071697862221 0 0.37356965880113402 -0.040783236975350308 0 0.37600683512296651 -0.014087071697862221 0 0.36404947753274258 -0.026706798856440471 0 0.35850646790810559 -0.01395473468271459 0 0.37600683512296651 -0.014087071697862221 0 0.36404947753274258 -0.026706798856440471 0 0.37356965880113402 -0.040783236975350308 0 0.34748556133762742 -0.02738266599094942 0 0.35850646790810559 -0.01395473468271459 0 0.34370628527030811 -0.0115647124322744 0 0.36404947753274258 -0.026706798856440471 0 0.34748556133762742 -0.02738266599094942 0 0.35850646790810559 -0.01395473468271459 0 0.36404947753274258 -0.026706798856440471 0 0.34748556133762742 -0.02738266599094942 0 0.36012817770438982 -0.039413746555128387 0 0.33689267375143878 0.0039255003288513873 0 0.35531676971978082 -0.0033532784323768001 0 0.34370628527030811 -0.0115647124322744 0 0.35531676971978082 -0.0033532784323768001 0 0.35850646790810559 -0.01395473468271459 0 0.34370628527030811 -0.0115647124322744 0 0.33689267375143878 0.0039255003288513873 0 0.34370628527030811 -0.0115647124322744 0 0.32469666258817742 -0.019557632270551 0 0.33689267375143878 0.0039255003288513873 0 0.30352242257352219 0.0039185454548519476 0 0.32469666258817742 -0.019557632270551 0 0.34748556133762742 -0.02738266599094942 0 0.34370628527030811 -0.0115647124322744 0 0.32469666258817742 -0.019557632270551 0 0.34748556133762742 -0.02738266599094942 0 0.32469666258817742 -0.019557632270551 0 0.33457477032001748 -0.043965109755099818 0 0.31326255248553708 -0.043768501277314603 0 0.32924913997341337 -0.063603686862235317 0 0.31014365419524398 -0.06072536978512106 0 0.31326255248553708 -0.043768501277314603 0 0.32924913997341337 -0.063603686862235317 0 0.31326255248553708 -0.043768501277314603 0 0.33457477032001748 -0.043965109755099818 0 0.32924913997341337 -0.063603686862235317 0 0.32469666258817742 -0.019557632270551 0 0.31326255248553708 -0.043768501277314603 0 0.33457477032001748 -0.043965109755099818 0 0.33457477032001748 -0.043965109755099818 0 0.34313363496153881 -0.061193084728204693 0 0.35029003257871461 -0.048624574981710279 0 0.33457477032001748 -0.043965109755099818 0 0.34313363496153881 -0.061193084728204693 0 0.32924913997341337 -0.063603686862235317 0 0.35029003257871461 -0.048624574981710279 0 0.36524615827173029 -0.053571455971191423 0 0.35631850447425872 -0.066333179594821989 0 0.34313363496153881 -0.061193084728204693 0 0.35029003257871461 -0.048624574981710279 0 0.35631850447425872 -0.066333179594821989 0 0.35029003257871461 -0.048624574981710279 0 0.36012817770438982 -0.039413746555128387 0 0.36524615827173029 -0.053571455971191423 0 0.34748556133762742 -0.02738266599094942 0 0.33457477032001748 -0.043965109755099818 0 0.35029003257871461 -0.048624574981710279 0 0.34748556133762742 -0.02738266599094942 0 0.35029003257871461 -0.048624574981710279 0 0.36012817770438982 -0.039413746555128387 0 0.36404947753274258 -0.026706798856440471 0 0.36012817770438982 -0.039413746555128387 0 0.37356965880113402 -0.040783236975350308 0 0.36012817770438982 -0.039413746555128387 0 0.37356965880113402 -0.040783236975350308 0 0.36524615827173029 -0.053571455971191423 0 0.37839056082150663 -0.050608978831784571 0 0.36524615827173029 -0.053571455971191423 0 0.37240766699872252 -0.068318548019290964 0 0.37839056082150663 -0.050608978831784571 0 0.37356965880113402 -0.040783236975350308 0 0.36524615827173029 -0.053571455971191423 0 0.36524615827173029 -0.053571455971191423 0 0.37240766699872252 -0.068318548019290964 0 0.35631850447425872 -0.066333179594821989 0 0.37240766699872252 -0.068318548019290964 0 0.36259903827425999 -0.08213590949324566 0 0.35631850447425872 -0.066333179594821989 0 0.37781097748786241 -0.089314889372882261 0 0.37240766699872252 -0.068318548019290964 0 0.36259903827425999 -0.08213590949324566 0 0.37781097748786241 -0.089314889372882261 0 0.36259903827425999 -0.08213590949324566 0 0.3612223149491664 -0.1032740580320769 0 0.34523572746128989 -0.083438872447156087 0 0.3612223149491664 -0.1032740580320769 0 0.36259903827425999 -0.08213590949324566 0 0.34523572746128989 -0.083438872447156087 0 0.3612223149491664 -0.1032740580320769 0 0.34313363496153881 -0.061193084728204693 0 0.34523572746128989 -0.083438872447156087 0 0.35631850447425872 -0.066333179594821989 0 0.36259903827425999 -0.08213590949324566 0 0.34523572746128989 -0.083438872447156087 0 0.35631850447425872 -0.066333179594821989 0 0.37720890243704291 -0.12310924361699779 0 0.36253108037134668 -0.1248744885805331 0 0.3612223149491664 -0.1032740580320769 0 0.37644505785585192 -0.1058120404938334 0 0.37720890243704291 -0.12310924361699779 0 0.3612223149491664 -0.1032740580320769 0 0.37720890243704291 -0.12310924361699779 0 0.3612223149491664 -0.1032740580320769 0 0.37781097748786241 -0.089314889372882261 0 0.37644505785585192 -0.1058120404938334 0 0.3612223149491664 -0.1032740580320769 0 0.34523572746128989 -0.083438872447156087 0 0.3612223149491664 -0.1032740580320769 0 0.33932087337301742 -0.1007066993955318 0 0.3612223149491664 -0.1032740580320769 0 0.34941185211170689 -0.1127717253903176 0 0.33932087337301742 -0.1007066993955318 0 0.36253108037134668 -0.1248744885805331 0 0.33587402752894302 -0.122350175475488 0 0.36253108037134668 -0.1248744885805331 0 0.34941185211170689 -0.1127717253903176 0 0.33587402752894302 -0.122350175475488 0 0.36253108037134668 -0.1248744885805331 0 0.3612223149491664 -0.1032740580320769 0 0.34941185211170689 -0.1127717253903176 0 0.34941185211170689 -0.1127717253903176 0 0.33587402752894302 -0.122350175475488 0 0.33932087337301742 -0.1007066993955318 0 0.33587402752894302 -0.122350175475488 0 0.33932087337301742 -0.1007066993955318 0 0.31943204723016899 -0.10139701157958859 0 0.33932087337301742 -0.1007066993955318 0 0.31943204723016899 -0.10139701157958859 0 0.32474927095682959 -0.081008353448563344 0 0.33587402752894302 -0.122350175475488 0 0.31943204723016899 -0.10139701157958859 0 0.3092169746865393 -0.1198258623704429 0 0.33587402752894302 -0.122350175475488 0 0.3092169746865393 -0.1198258623704429 0 0.34523572746128989 -0.083438872447156087 0 0.32924913997341337 -0.063603686862235317 0 0.32474927095682959 -0.081008353448563344 0 0.34523572746128989 -0.083438872447156087 0 0.32924913997341337 -0.063603686862235317 0 0.34313363496153881 -0.061193084728204693 0 0.34523572746128989 -0.083438872447156087 0 0.32924913997341337 -0.063603686862235317 0 0.34523572746128989 -0.083438872447156087 0 0.33932087337301742 -0.1007066993955318 0 0.32474927095682959 -0.081008353448563344 0 0.31943204723016899 -0.10139701157958859 0 0.32474927095682959 -0.081008353448563344 0 0.31117343018006932 -0.08835554327446378 0 0.32474927095682959 -0.081008353448563344 0 0.30201438303726968 -0.075929904193525521 0 0.32474927095682959 -0.081008353448563344 0 0.30201438303726968 -0.075929904193525521 0 0.31117343018006932 -0.08835554327446378 0 0.32924913997341337 -0.063603686862235317 0 0.32474927095682959 -0.081008353448563344 0 0.31014365419524398 -0.06072536978512106 0 0.32474927095682959 -0.081008353448563344 0 0.30201438303726968 -0.075929904193525521 0 0.31014365419524398 -0.06072536978512106 0 0.30201438303726968 -0.075929904193525521 0 0.31014365419524398 -0.06072536978512106 0 0.29222542489931519 -0.060978945333093171 0 0.31117343018006932 -0.08835554327446378 0 0.29442961060618023 -0.089764156713605506 0 0.30306705175182019 -0.101009202806625 0 0.30201438303726968 -0.075929904193525521 0 0.31117343018006932 -0.08835554327446378 0 0.29442961060618023 -0.089764156713605506 0 0.29442961060618023 -0.089764156713605506 0 0.28691460331806928 -0.079185378374353493 0 0.27734124638624891 -0.089737863242296378 0 0.30201438303726968 -0.075929904193525521 0 0.29442961060618023 -0.089764156713605506 0 0.28691460331806928 -0.079185378374353493 0 0.30201438303726968 -0.075929904193525521 0 0.27927949511770961 -0.070851454938488739 0 0.29222542489931519 -0.060978945333093171 0 0.30201438303726968 -0.075929904193525521 0 0.27927949511770961 -0.070851454938488739 0 0.30201438303726968 -0.075929904193525521 0 0.28691460331806928 -0.079185378374353493 0 0.27927949511770961 -0.070851454938488739 0 0.28691460331806928 -0.079185378374353493 0 0.27927949511770961 -0.070851454938488739 0 0.27809334201771629 -0.079209584513290715 0 0.28691460331806928 -0.079185378374353493 0 0.27927949511770961 -0.070851454938488739 0 0.27927949511770961 -0.070851454938488739 0 0.27868582307562201 -0.055886184139343542 0 0.29222542489931519 -0.060978945333093171 0 0.31943204723016899 -0.10139701157958859 0 0.3092169746865393 -0.1198258623704429 0 0.30306705175182019 -0.101009202806625 0 0.3092169746865393 -0.1198258623704429 0 0.30306705175182019 -0.101009202806625 0 0.28879183359809052 -0.10393054527906551 0 0.31943204723016899 -0.10139701157958859 0 0.31117343018006932 -0.08835554327446378 0 0.30306705175182019 -0.101009202806625 0 0.28879183359809052 -0.10393054527906551 0 0.28255992184413548 -0.11730154926539781 0 0.27267591943638608 -0.1048970298088977 0 0.29442961060618023 -0.089764156713605506 0 0.28879183359809052 -0.10393054527906551 0 0.27734124638624891 -0.089737863242296378 0 0.29442961060618023 -0.089764156713605506 0 0.30306705175182019 -0.101009202806625 0 0.28879183359809052 -0.10393054527906551 0 0.3092169746865393 -0.1198258623704429 0 0.28255992184413548 -0.11730154926539781 0 0.3092169746865393 -0.1198258623704429 0 0.28879183359809052 -0.10393054527906551 0 0.28255992184413548 -0.11730154926539781 0 0.3092169746865393 -0.1198258623704429 0 0.28255992184413548 -0.11730154926539781 0 0.28721398294742878 -0.13035474923543569 0 0.28255992184413548 -0.11730154926539781 0 0.26776517015272971 -0.1222840496799191 0 0.28721398294742878 -0.13035474923543569 0 0.28255992184413548 -0.11730154926539781 0 0.26776517015272971 -0.1222840496799191 0 0.27267591943638608 -0.1048970298088977 0 0.26776517015272971 -0.1222840496799191 0 0.27267591943638608 -0.1048970298088977 0 0.26047800574605201 -0.11084537767631369 0 0.28879183359809052 -0.10393054527906551 0 0.27267591943638608 -0.1048970298088977 0 0.27734124638624891 -0.089737863242296378 0 0.27267591943638608 -0.1048970298088977 0 0.27734124638624891 -0.089737863242296378 0 0.26256105175446781 -0.092679464148907056 0 0.25771864553297669 -0.099620140202181948 0 0.26047800574605201 -0.11084537767631369 0 0.24375228786211539 -0.116580291014256 0 0.27267591943638608 -0.1048970298088977 0 0.25771864553297669 -0.099620140202181948 0 0.26256105175446781 -0.092679464148907056 0 0.25771864553297669 -0.099620140202181948 0 0.25304747237378489 -0.090741332181114118 0 0.24292322406264641 -0.096552741650977186 0 0.25771864553297669 -0.099620140202181948 0 0.26256105175446781 -0.092679464148907056 0 0.25304747237378489 -0.090741332181114118 0 0.27267591943638608 -0.1048970298088977 0 0.25771864553297669 -0.099620140202181948 0 0.26047800574605201 -0.11084537767631369 0 0.26776517015272971 -0.1222840496799191 0 0.26153006621115998 -0.13421007507225571 0 0.24375228786211539 -0.116580291014256 0 0.26776517015272971 -0.1222840496799191 0 0.24375228786211539 -0.116580291014256 0 0.26776517015272971 -0.1222840496799191 0 0.26047800574605201 -0.11084537767631369 0 0.24375228786211539 -0.116580291014256 0 0.27927949511770961 -0.070851454938488739 0 0.25811154610651499 -0.066123023671663908 0 0.26329678137076351 -0.053405898285071182 0 0.27927949511770961 -0.070851454938488739 0 0.25811154610651499 -0.066123023671663908 0 0.26883802324883782 -0.077063641498024305 0 0.27927949511770961 -0.070851454938488739 0 0.25811154610651499 -0.066123023671663908 0 0.26883802324883782 -0.077063641498024305 0 0.27927949511770961 -0.070851454938488739 0 0.27809334201771629 -0.079209584513290715 0 0.26883802324883782 -0.077063641498024305 0 0.27809334201771629 -0.079209584513290715 0 0.27734124638624891 -0.089737863242296378 0 0.26883802324883782 -0.077063641498024305 0 0.27734124638624891 -0.089737863242296378 0 0.25202197504294188 -0.078400955310045109 0 0.28691460331806928 -0.079185378374353493 0 0.27809334201771629 -0.079209584513290715 0 0.27734124638624891 -0.089737863242296378 0 0.27734124638624891 -0.089737863242296378 0 0.26256105175446781 -0.092679464148907056 0 0.25202197504294188 -0.078400955310045109 0 0.27734124638624891 -0.089737863242296378 0 0.25202197504294188 -0.078400955310045109 0 0.26256105175446781 -0.092679464148907056 0 0.25304747237378489 -0.090741332181114118 0 0.25202197504294188 -0.078400955310045109 0 0.25304747237378489 -0.090741332181114118 0 0.25202197504294188 -0.078400955310045109 0 0.24624903761231479 -0.086847438891893419 0 0.26883802324883782 -0.077063641498024305 0 0.25202197504294188 -0.078400955310045109 0 0.25811154610651499 -0.066123023671663908 0 0.25811154610651499 -0.066123023671663908 0 0.26329678137076351 -0.053405898285071182 0 0.24870160087168189 -0.052882304334001928 0 0.26329678137076351 -0.053405898285071182 0 0.24870160087168189 -0.052882304334001928 0 0.24731406762381819 -0.035960341631652723 0 0.27927949511770961 -0.070851454938488739 0 0.26329678137076351 -0.053405898285071182 0 0.27868582307562201 -0.055886184139343542 0 0.27927949511770961 -0.070851454938488739 0 0.26329678137076351 -0.053405898285071182 0 0.26329678137076351 -0.053405898285071182 0 0.27868582307562201 -0.055886184139343542 0 0.27337213238318842 -0.044040078526876879 0 0.27868582307562201 -0.055886184139343542 0 0.27337213238318842 -0.044040078526876879 0 0.28525528160713332 -0.050154543613187753 0 0.26329678137076351 -0.053405898285071182 0 0.27337213238318842 -0.044040078526876879 0 0.26311483972878968 -0.036713614733010089 0 0.27337213238318842 -0.044040078526876879 0 0.27217486102646721 -0.027861542379398439 0 0.28494473946257981 -0.034556038004921102 0 0.27337213238318842 -0.044040078526876879 0 0.26311483972878968 -0.036713614733010089 0 0.27217486102646721 -0.027861542379398439 0 0.27337213238318842 -0.044040078526876879 0 0.28525528160713332 -0.050154543613187753 0 0.28494473946257981 -0.034556038004921102 0 0.26311483972878968 -0.036713614733010089 0 0.25941635623971138 -0.02230021284205122 0 0.24731406762381819 -0.035960341631652723 0 0.26329678137076351 -0.053405898285071182 0 0.24731406762381819 -0.035960341631652723 0 0.26329678137076351 -0.053405898285071182 0 0.26311483972878968 -0.036713614733010089 0 0.24731406762381819 -0.035960341631652723 0 0.25941635623971138 -0.02230021284205122 0 0.24731406762381819 -0.035960341631652723 0 0.2482857443068576 -0.021714794414400052 0 0.25941635623971138 -0.02230021284205122 0 0.25508119948702751 -0.010083838205662381 0 0.2482857443068576 -0.021714794414400052 0 0.26311483972878968 -0.036713614733010089 0 0.25941635623971138 -0.02230021284205122 0 0.27217486102646721 -0.027861542379398439 0 0.2541426920980116 -0.0036136263454906951 0 0.25508119948702751 -0.010083838205662381 0 0.24138147174972829 -0.0061427828714447699 0 0.2541426920980116 -0.0036136263454906951 0 0.25508119948702751 -0.010083838205662381 0 0.26047117107291767 -0.0019720443344692288 0 0.25446675038947358 0.0029162606258486688 0 0.2541426920980116 -0.0036136263454906951 0 0.26047117107291767 -0.0019720443344692288 0 0.25941635623971138 -0.02230021284205122 0 0.25508119948702751 -0.010083838205662381 0 0.26474460583379889 -0.01023883548432745 0 0.25941635623971138 -0.02230021284205122 0 0.26474460583379889 -0.01023883548432745 0 0.27166734417845928 -0.01430021117376327 0 0.25508119948702751 -0.010083838205662381 0 0.26474460583379889 -0.01023883548432745 0 0.26047117107291767 -0.0019720443344692288 0 0.26474460583379889 -0.01023883548432745 0 0.26047117107291767 -0.0019720443344692288 0 0.27708695819087842 -0.0025378708656911609 0 0.26474460583379889 -0.01023883548432745 0 0.27166734417845928 -0.01430021117376327 0 0.27708695819087842 -0.0025378708656911609 0 0.27166734417845928 -0.01430021117376327 0 0.27708695819087842 -0.0025378708656911609 0 0.28469269166600031 -0.01545933141113482 0 0.27217486102646721 -0.027861542379398439 0 0.28469269166600031 -0.01545933141113482 0 0.28494473946257981 -0.034556038004921102 0 0.25941635623971138 -0.02230021284205122 0 0.27166734417845928 -0.01430021117376327 0 0.27217486102646721 -0.027861542379398439 0 0.27166734417845928 -0.01430021117376327 0 0.27217486102646721 -0.027861542379398439 0 0.28469269166600031 -0.01545933141113482 0 0.28469269166600031 -0.01545933141113482 0 0.29727596499766062 -0.023933315692393788 0 0.28494473946257981 -0.034556038004921102 0 0.30352242257352219 0.0039185454548519476 0 0.28469269166600031 -0.01545933141113482 0 0.29727596499766062 -0.023933315692393788 0 0.30352242257352219 0.0039185454548519476 0 0.27708695819087842 -0.0025378708656911609 0 0.28469269166600031 -0.01545933141113482 0 0.30352242257352219 0.0039185454548519476 0 0.32469666258817742 -0.019557632270551 0 0.29727596499766062 -0.023933315692393788 0 0.32469666258817742 -0.019557632270551 0 0.31326255248553708 -0.043768501277314603 0 0.29727596499766062 -0.023933315692393788 0 0.31326255248553708 -0.043768501277314603 0 0.29727596499766062 -0.023933315692393788 0 0.2968975050950291 -0.045887416406534938 0 0.31326255248553708 -0.043768501277314603 0 0.29727596499766062 -0.023933315692393788 0 0.31326255248553708 -0.043768501277314603 0 0.2968975050950291 -0.045887416406534938 0 0.31014365419524398 -0.06072536978512106 0 0.2968975050950291 -0.045887416406534938 0 0.31014365419524398 -0.06072536978512106 0 0.29222542489931519 -0.060978945333093171 0 0.2968975050950291 -0.045887416406534938 0 0.29222542489931519 -0.060978945333093171 0 0.28525528160713332 -0.050154543613187753 0 0.27868582307562201 -0.055886184139343542 0 0.29222542489931519 -0.060978945333093171 0 0.28525528160713332 -0.050154543613187753 0 0.2968975050950291 -0.045887416406534938 0 0.28525528160713332 -0.050154543613187753 0 0.28494473946257981 -0.034556038004921102 0 0.29727596499766062 -0.023933315692393788 0 0.2968975050950291 -0.045887416406534938 0 0.28494473946257981 -0.034556038004921102 0 0.29579617193404978 -0.19432558104056491 0 0.30588539897632072 -0.22256652654210629 0 0.2776594049058328 -0.2175861504380624 0 0.29579617193404978 -0.19432558104056491 0 0.2776594049058328 -0.2175861504380624 0 0.2764107852420567 -0.19644220614923899 0 0.29579617193404978 -0.19432558104056491 0 0.2764107852420567 -0.19644220614923899 0 0.2792899687438003 -0.18116405860585089 0 0.29579617193404978 -0.19432558104056491 0 0.31045946319455608 -0.20263901644370941 0 0.31057073564158039 -0.17760626025882659 0 0.29579617193404978 -0.19432558104056491 0 0.30588539897632072 -0.22256652654210629 0 0.31045946319455608 -0.20263901644370941 0 0.30588539897632072 -0.22256652654210629 0 0.32020032842118662 -0.2136972324735969 0 0.29579617193404978 -0.19432558104056491 0 0.31045946319455608 -0.20263901644370941 0 0.30588539897632072 -0.22256652654210629 0 0.29681701546221179 -0.23419681124085551 0 0.31597462601859122 -0.25080747204364812 0 0.30111904597271899 -0.2536098058489899 0 0.30588539897632072 -0.22256652654210629 0 0.29681701546221179 -0.23419681124085551 0 0.31597462601859122 -0.25080747204364812 0 0.30588539897632072 -0.22256652654210629 0 0.31597462601859122 -0.25080747204364812 0 0.29681701546221179 -0.23419681124085551 0 0.31597462601859122 -0.25080747204364812 0 0.29681701546221179 -0.23419681124085551 0 0.30111904597271899 -0.2536098058489899 0 0.28456511698073272 -0.25518130134833977 0 0.29681701546221179 -0.23419681124085551 0 0.27830026498091959 -0.23745462562099759 0 0.28456511698073272 -0.25518130134833977 0 0.30588539897632072 -0.22256652654210629 0 0.29681701546221179 -0.23419681124085551 0 0.2776594049058328 -0.2175861504380624 0 0.29681701546221179 -0.23419681124085551 0 0.27830026498091959 -0.23745462562099759 0 0.2776594049058328 -0.2175861504380624 0 0.29681701546221179 -0.23419681124085551 0 0.2776594049058328 -0.2175861504380624 0 0.26584409390649738 -0.23415831621220631 0 0.27830026498091959 -0.23745462562099759 0 0.2776594049058328 -0.2175861504380624 0 0.26584409390649738 -0.23415831621220631 0 0.25658827463044448 -0.2222138965281123 0 0.2776594049058328 -0.2175861504380624 0 0.27830026498091959 -0.23745462562099759 0 0.28456511698073272 -0.25518130134833977 0 0.26629969424128969 -0.25192769388052821 0 0.26584409390649738 -0.23415831621220631 0 0.27830026498091959 -0.23745462562099759 0 0.26629969424128969 -0.25192769388052821 0 0.26584409390649738 -0.23415831621220631 0 0.25037283077400019 -0.2416092145933311 0 0.26629969424128969 -0.25192769388052821 0 0.25037283077400019 -0.2416092145933311 0 0.25658827463044448 -0.2222138965281123 0 0.2446094219978813 -0.2276121794933563 0 0.26584409390649738 -0.23415831621220631 0 0.25037283077400019 -0.2416092145933311 0 0.25658827463044448 -0.2222138965281123 0 0.25658827463044448 -0.2222138965281123 0 0.2776594049058328 -0.2175861504380624 0 0.25850179434945381 -0.20097548963526929 0 0.25658827463044448 -0.2222138965281123 0 0.25850179434945381 -0.20097548963526929 0 0.23907695871134879 -0.21289681242661959 0 0.2776594049058328 -0.2175861504380624 0 0.25850179434945381 -0.20097548963526929 0 0.2776594049058328 -0.2175861504380624 0 0.2764107852420567 -0.19644220614923899 0 0.25850179434945381 -0.20097548963526929 0 0.2764107852420567 -0.19644220614923899 0 0.25850179434945381 -0.20097548963526929 0 0.26539786460737957 -0.18100391429238191 0 0.25850179434945381 -0.20097548963526929 0 0.26539786460737957 -0.18100391429238191 0 0.23934418379307471 -0.18436482883247621 0 0.26539786460737957 -0.18100391429238191 0 0.25449645062408999 -0.16331052089379791 0 0.23934418379307471 -0.18436482883247621 0 0.26539786460737957 -0.18100391429238191 0 0.25449645062408999 -0.16331052089379791 0 0.27043371620885309 -0.16438603764101259 0 0.25449645062408999 -0.16331052089379791 0 0.27043371620885309 -0.16438603764101259 0 0.2633734196266177 -0.15149826902969399 0 0.27043371620885309 -0.16438603764101259 0 0.2792899687438003 -0.18116405860585089 0 0.28570694489177878 -0.1660846355390232 0 0.27043371620885309 -0.16438603764101259 0 0.27930784456020519 -0.15183985913025491 0 0.28570694489177878 -0.1660846355390232 0 0.26539786460737957 -0.18100391429238191 0 0.27043371620885309 -0.16438603764101259 0 0.2792899687438003 -0.18116405860585089 0 0.2764107852420567 -0.19644220614923899 0 0.26539786460737957 -0.18100391429238191 0 0.2792899687438003 -0.18116405860585089 0 0.26153006621115998 -0.13421007507225571 0 0.24375228786211539 -0.116580291014256 0 0.24955680073527009 -0.143898101237383 0 0.26153006621115998 -0.13421007507225571 0 0.24375228786211539 -0.116580291014256 0 0.25449645062408999 -0.16331052089379791 0 0.2633734196266177 -0.15149826902969399 0 0.24955680073527009 -0.143898101237383 0 0.26153006621115998 -0.13421007507225571 0 0.2633734196266177 -0.15149826902969399 0 0.24955680073527009 -0.143898101237383 0 0.27043371620885309 -0.16438603764101259 0 0.2633734196266177 -0.15149826902969399 0 0.27930784456020519 -0.15183985913025491 0 0.27561771784950778 -0.13784369003748159 0 0.28570694489177878 -0.1660846355390232 0 0.26153006621115998 -0.13421007507225571 0 0.27930784456020519 -0.15183985913025491 0 0.27561771784950778 -0.13784369003748159 0 0.27930784456020519 -0.15183985913025491 0 0.27561771784950778 -0.13784369003748159 0 0.28570694489177878 -0.1660846355390232 0 0.26153006621115998 -0.13421007507225571 0 0.2633734196266177 -0.15149826902969399 0 0.27930784456020519 -0.15183985913025491 0 0.26153006621115998 -0.13421007507225571 0 0.27930784456020519 -0.15183985913025491 0 0.26776517015272971 -0.1222840496799191 0 0.27561771784950778 -0.13784369003748159 0 0.28721398294742878 -0.13035474923543569 0 0.26776517015272971 -0.1222840496799191 0 0.26153006621115998 -0.13421007507225571 0 0.27561771784950778 -0.13784369003748159 0 0.27561771784950778 -0.13784369003748159 0 0.28721398294742878 -0.13035474923543569 0 0.28891568690104508 -0.14625428249578579 0 0.28721398294742878 -0.13035474923543569 0 0.28891568690104508 -0.14625428249578579 0 0.29920842625061578 -0.1386190615635868 0 0.28891568690104508 -0.14625428249578579 0 0.29920842625061578 -0.1386190615635868 0 0.29789574789403661 -0.15876522012859751 0 0.27561771784950778 -0.13784369003748159 0 0.28891568690104508 -0.14625428249578579 0 0.28570694489177878 -0.1660846355390232 0 0.30985117626407932 -0.1486491484402036 0 0.29920842625061578 -0.1386190615635868 0 0.29789574789403661 -0.15876522012859751 0 0.30985117626407932 -0.1486491484402036 0 0.29789574789403661 -0.15876522012859751 0 0.3134799250960158 -0.16133035304856411 0 0.30985117626407932 -0.1486491484402036 0 0.29920842625061578 -0.1386190615635868 0 0.31980994510895661 -0.13408045692276491 0 0.3092169746865393 -0.1198258623704429 0 0.28721398294742878 -0.13035474923543569 0 0.29920842625061578 -0.1386190615635868 0 0.3092169746865393 -0.1198258623704429 0 0.29920842625061578 -0.1386190615635868 0 0.31980994510895661 -0.13408045692276491 0 0.29579617193404978 -0.19432558104056491 0 0.2792899687438003 -0.18116405860585089 0 0.28570694489177878 -0.1660846355390232 0 0.29579617193404978 -0.19432558104056491 0 0.28570694489177878 -0.1660846355390232 0 0.29579617193404978 -0.19432558104056491 0 0.28570694489177878 -0.1660846355390232 0 0.29784246694311001 -0.17248502473641619 0 0.28891568690104508 -0.14625428249578579 0 0.28570694489177878 -0.1660846355390232 0 0.29789574789403661 -0.15876522012859751 0 0.28570694489177878 -0.1660846355390232 0 0.29789574789403661 -0.15876522012859751 0 0.29784246694311001 -0.17248502473641619 0 0.29789574789403661 -0.15876522012859751 0 0.31057073564158039 -0.17760626025882659 0 0.3134799250960158 -0.16133035304856411 0 0.29789574789403661 -0.15876522012859751 0 0.31057073564158039 -0.17760626025882659 0 0.29784246694311001 -0.17248502473641619 0 0.29789574789403661 -0.15876522012859751 0 0.31057073564158039 -0.17760626025882659 0 0.29579617193404978 -0.19432558104056491 0 0.31057073564158039 -0.17760626025882659 0 0.29784246694311001 -0.17248502473641619 0 0.31057073564158039 -0.17760626025882659 0 0.33117051957001492 -0.16690810347740409 0 0.33960500058918919 -0.18923554211963439 0 0.31057073564158039 -0.17760626025882659 0 0.32324572338912438 -0.19644730038905581 0 0.3134799250960158 -0.16133035304856411 0 0.33117051957001492 -0.16690810347740409 0 0.32297156368297691 -0.15191279281852399 0 0.31057073564158039 -0.17760626025882659 0 0.3134799250960158 -0.16133035304856411 0 0.33117051957001492 -0.16690810347740409 0 0.33117051957001492 -0.16690810347740409 0 0.34312821131240068 -0.1490342399984359 0 0.35150112372442083 -0.17432517416681301 0 0.33117051957001492 -0.16690810347740409 0 0.35150112372442083 -0.17432517416681301 0 0.33960500058918919 -0.18923554211963439 0 0.33587402752894302 -0.122350175475488 0 0.3092169746865393 -0.1198258623704429 0 0.31980994510895661 -0.13408045692276491 0 0.30985117626407932 -0.1486491484402036 0 0.31980994510895661 -0.13408045692276491 0 0.32297156368297691 -0.15191279281852399 0 0.30985117626407932 -0.1486491484402036 0 0.3134799250960158 -0.16133035304856411 0 0.32297156368297691 -0.15191279281852399 0 0.33117051957001492 -0.16690810347740409 0 0.32297156368297691 -0.15191279281852399 0 0.34312821131240068 -0.1490342399984359 0 0.31980994510895661 -0.13408045692276491 0 0.32297156368297691 -0.15191279281852399 0 0.34312821131240068 -0.1490342399984359 0 0.33587402752894302 -0.122350175475488 0 0.31980994510895661 -0.13408045692276491 0 0.34312821131240068 -0.1490342399984359 0 0.36253108037134668 -0.1248744885805331 0 0.33587402752894302 -0.122350175475488 0 0.3555623608711499 -0.1359942506039106 0 0.33587402752894302 -0.122350175475488 0 0.34312821131240068 -0.1490342399984359 0 0.3555623608711499 -0.1359942506039106 0 0.34312821131240068 -0.1490342399984359 0 0.3555623608711499 -0.1359942506039106 0 0.36858459771950869 -0.15733985743645959 0 0.3555623608711499 -0.1359942506039106 0 0.36652086356581781 -0.12946943863695781 0 0.36858459771950869 -0.15733985743645959 0 0.36652086356581781 -0.12946943863695781 0 0.36858459771950869 -0.15733985743645959 0 0.36652086356581781 -0.12946943863695781 0 0.36858459771950869 -0.15733985743645959 0 0.3787995421462832 -0.1425544525875144 0 0.36652086356581781 -0.12946943863695781 0 0.37808333446084269 -0.1309391893982525 0 0.3787995421462832 -0.1425544525875144 0 0.36253108037134668 -0.1248744885805331 0 0.36652086356581781 -0.12946943863695781 0 0.37808333446084269 -0.1309391893982525 0 0.36253108037134668 -0.1248744885805331 0 0.3555623608711499 -0.1359942506039106 0 0.36652086356581781 -0.12946943863695781 0 0.35150112372442083 -0.17432517416681301 0 0.37064833187319962 -0.1852102762359614 0 0.35587008128221181 -0.19822302573298239 0 0.35150112372442083 -0.17432517416681301 0 0.35587008128221181 -0.19822302573298239 0 0.33960500058918919 -0.18923554211963439 0 0.34312821131240068 -0.1490342399984359 0 0.35150112372442083 -0.17432517416681301 0 0.36858459771950869 -0.15733985743645959 0 0.36858459771950869 -0.15733985743645959 0 0.37064833187319962 -0.1852102762359614 0 0.35150112372442083 -0.17432517416681301 0 0.36858459771950869 -0.15733985743645959 0 0.37064833187319962 -0.1852102762359614 0 0.36858459771950869 -0.15733985743645959 0 0.37064833187319962 -0.1852102762359614 0 0.3834788620725188 -0.17954848884060079 0 0.37064833187319962 -0.1852102762359614 0 0.37271206602689039 -0.21308069503546309 0 0.38139900114097952 -0.20469292352659629 0 0.37064833187319962 -0.1852102762359614 0 0.37271206602689039 -0.21308069503546309 0 0.37064833187319962 -0.1852102762359614 0 0.37271206602689039 -0.21308069503546309 0 0.35587008128221181 -0.19822302573298239 0 0.37271206602689039 -0.21308069503546309 0 0.35603419272415182 -0.2169366224123114 0 0.35587008128221181 -0.19822302573298239 0 0.35603419272415182 -0.2169366224123114 0 0.35587008128221181 -0.19822302573298239 0 0.33592071113666833 -0.21528834051928489 0 0.35587008128221181 -0.19822302573298239 0 0.33960500058918919 -0.18923554211963439 0 0.33592071113666833 -0.21528834051928489 0 0.33960500058918919 -0.18923554211963439 0 0.33592071113666833 -0.21528834051928489 0 0.32324572338912438 -0.19644730038905581 0 0.33592071113666833 -0.21528834051928489 0 0.32324572338912438 -0.19644730038905581 0 0.33592071113666833 -0.21528834051928489 0 0.32020032842118662 -0.2136972324735969 0 0.32324572338912438 -0.19644730038905581 0 0.31045946319455608 -0.20263901644370941 0 0.32020032842118662 -0.2136972324735969 0 0.32324572338912438 -0.19644730038905581 0 0.31057073564158039 -0.17760626025882659 0 0.33960500058918919 -0.18923554211963439 0 0.32324572338912438 -0.19644730038905581 0 0.31045946319455608 -0.20263901644370941 0 0.31057073564158039 -0.17760626025882659 0 0.32324572338912438 -0.19644730038905581 0 0.32549034540926353 -0.23154497847382799 0 0.33517615116993849 -0.24743488902137309 0 0.31597462601859122 -0.25080747204364812 0 0.30588539897632072 -0.22256652654210629 0 0.32549034540926353 -0.23154497847382799 0 0.31597462601859122 -0.25080747204364812 0 0.30588539897632072 -0.22256652654210629 0 0.32020032842118662 -0.2136972324735969 0 0.32549034540926353 -0.23154497847382799 0 0.33592071113666833 -0.21528834051928489 0 0.32020032842118662 -0.2136972324735969 0 0.32549034540926353 -0.23154497847382799 0 0.33592071113666833 -0.21528834051928489 0 0.32549034540926353 -0.23154497847382799 0 0.34859569888421221 -0.23412938064951411 0 0.33592071113666833 -0.21528834051928489 0 0.34859569888421221 -0.23412938064951411 0 0.32549034540926353 -0.23154497847382799 0 0.33517615116993849 -0.24743488902137309 0 0.34859569888421221 -0.23412938064951411 0 0.33517615116993849 -0.24743488902137309 0 0.34859569888421221 -0.23412938064951411 0 0.35185333732921159 -0.25428502110151557 0 0.34859569888421221 -0.23412938064951411 0 0.36075586336603621 -0.2426037127049111 0 0.35185333732921159 -0.25428502110151557 0 0.34859569888421221 -0.23412938064951411 0 0.36291464790978972 -0.22902601310760301 0 0.36075586336603621 -0.2426037127049111 0 0.35603419272415182 -0.2169366224123114 0 0.34859569888421221 -0.23412938064951411 0 0.36291464790978972 -0.22902601310760301 0 0.35603419272415182 -0.2169366224123114 0 0.33592071113666833 -0.21528834051928489 0 0.34859569888421221 -0.23412938064951411 0 0.37271206602689039 -0.21308069503546309 0 0.35603419272415182 -0.2169366224123114 0 0.36291464790978972 -0.22902601310760301 0 0.37271206602689039 -0.21308069503546309 0 0.37477580018058132 -0.24095111383496479 0 0.37555308153547928 -0.22286467051027881 0 0.37271206602689039 -0.21308069503546309 0 0.37477580018058132 -0.24095111383496479 0 0.37271206602689039 -0.21308069503546309 0 0.36291464790978972 -0.22902601310760301 0 0.37477580018058132 -0.24095111383496479 0 0.36075586336603621 -0.2426037127049111 0 0.37477580018058132 -0.24095111383496479 0 0.36563983252638571 -0.25462703483095822 0 0.36291464790978972 -0.22902601310760301 0 0.36075586336603621 -0.2426037127049111 0 0.37477580018058132 -0.24095111383496479 0 0.37477580018058132 -0.24095111383496479 0 0.39321551516580561 -0.23618023300957031 0 0.38725375881062551 -0.25185160038302579 0 0.39321551516580561 -0.23618023300957031 0 0.41087794879613182 -0.2494957955088617 0 0.40741230325918792 -0.23450562481703699 0 0.39321551516580561 -0.23618023300957031 0 0.41087794879613182 -0.2494957955088617 0 0.39321551516580561 -0.23618023300957031 0 0.38725375881062551 -0.25185160038302579 0 0.39640803358832022 -0.25154779433757402 0 0.39321551516580561 -0.23618023300957031 0 0.41087794879613182 -0.2494957955088617 0 0.39640803358832022 -0.25154779433757402 0 0.4055308246994358 -0.22407667781788709 0 0.39424069285124719 -0.22310079746779379 0 0.40434357831770951 -0.21487406561090469 0 0.4055308246994358 -0.22407667781788709 0 0.39424069285124719 -0.22310079746779379 0 0.40741230325918792 -0.23450562481703699 0 0.39321551516580561 -0.23618023300957031 0 0.39424069285124719 -0.22310079746779379 0 0.40741230325918792 -0.23450562481703699 0 0.37477580018058132 -0.24095111383496479 0 0.39321551516580561 -0.23618023300957031 0 0.37555308153547928 -0.22286467051027881 0 0.39424069285124719 -0.22310079746779379 0 0.37555308153547928 -0.22286467051027881 0 0.38300691860546521 -0.21527996176244341 0 0.39321551516580561 -0.23618023300957031 0 0.37555308153547928 -0.22286467051027881 0 0.39321551516580561 -0.23618023300957031 0 0.39424069285124719 -0.22310079746779379 0 0.37555308153547928 -0.22286467051027881 0 0.37271206602689039 -0.21308069503546309 0 0.37555308153547928 -0.22286467051027881 0 0.38300691860546521 -0.21527996176244341 0 0.37271206602689039 -0.21308069503546309 0 0.38139900114097952 -0.20469292352659629 0 0.38300691860546521 -0.21527996176244341 0 0.38139900114097952 -0.20469292352659629 0 0.39078770323730427 -0.19674260859680251 0 0.39112975147272949 -0.2126607222720846 0 0.38139900114097952 -0.20469292352659629 0 0.38300691860546521 -0.21527996176244341 0 0.39112975147272949 -0.2126607222720846 0 0.39424069285124719 -0.22310079746779379 0 0.38300691860546521 -0.21527996176244341 0 0.39112975147272949 -0.2126607222720846 0 0.37064833187319962 -0.1852102762359614 0 0.38139900114097952 -0.20469292352659629 0 0.39078770323730427 -0.19674260859680251 0 0.39078770323730427 -0.19674260859680251 0 0.40475141021500721 -0.1910589369573561 0 0.39510197637232292 -0.1839605883432579 0 0.39078770323730427 -0.19674260859680251 0 0.40426546228868082 -0.20108352786525729 0 0.397631623829106 -0.20634023108626229 0 0.39078770323730427 -0.19674260859680251 0 0.40426546228868082 -0.20108352786525729 0 0.40475141021500721 -0.1910589369573561 0 0.39078770323730427 -0.19674260859680251 0 0.39112975147272949 -0.2126607222720846 0 0.397631623829106 -0.20634023108626229 0 0.39112975147272949 -0.2126607222720846 0 0.397631623829106 -0.20634023108626229 0 0.40434357831770951 -0.21487406561090469 0 0.39424069285124719 -0.22310079746779379 0 0.39112975147272949 -0.2126607222720846 0 0.40434357831770951 -0.21487406561090469 0 0.40426546228868082 -0.20108352786525729 0 0.397631623829106 -0.20634023108626229 0 0.40434357831770951 -0.21487406561090469 0 0.40434357831770951 -0.21487406561090469 0 0.41713092845542321 -0.20900944133272009 0 0.41612672436959858 -0.22382622337581301 0 0.40426546228868082 -0.20108352786525729 0 0.40434357831770951 -0.21487406561090469 0 0.41713092845542321 -0.20900944133272009 0 0.41713092845542321 -0.20900944133272009 0 0.42330136258736267 -0.2174116668913772 0 0.41612672436959858 -0.22382622337581301 0 0.40475141021500721 -0.1910589369573561 0 0.41487892771890261 -0.19826025474908979 0 0.4146572714410397 -0.186958864794112 0 0.40426546228868082 -0.20108352786525729 0 0.41713092845542321 -0.20900944133272009 0 0.41487892771890261 -0.19826025474908979 0 0.40426546228868082 -0.20108352786525729 0 0.40475141021500721 -0.1910589369573561 0 0.41487892771890261 -0.19826025474908979 0 0.41713092845542321 -0.20900944133272009 0 0.41487892771890261 -0.19826025474908979 0 0.42701217502226602 -0.19751647228806199 0 0.41487892771890261 -0.19826025474908979 0 0.42053294087941678 -0.1923617771039739 0 0.42701217502226602 -0.19751647228806199 0 0.42053294087941678 -0.1923617771039739 0 0.4146572714410397 -0.186958864794112 0 0.42558338933545942 -0.1867115165846317 0 0.41487892771890261 -0.19826025474908979 0 0.42053294087941678 -0.1923617771039739 0 0.4146572714410397 -0.186958864794112 0 0.42701217502226602 -0.19751647228806199 0 0.43844209377108118 -0.18689286854296691 0 0.44355474576021348 -0.2050869029196882 0 0.42053294087941678 -0.1923617771039739 0 0.42701217502226602 -0.19751647228806199 0 0.42558338933545942 -0.1867115165846317 0 0.42701217502226602 -0.19751647228806199 0 0.42558338933545942 -0.1867115165846317 0 0.43844209377108118 -0.18689286854296691 0 0.42701217502226602 -0.19751647228806199 0 0.43006687167525981 -0.21185300334864521 0 0.44355474576021348 -0.2050869029196882 0 0.41713092845542321 -0.20900944133272009 0 0.42330136258736267 -0.2174116668913772 0 0.43006687167525981 -0.21185300334864521 0 0.42330136258736267 -0.2174116668913772 0 0.43006687167525981 -0.21185300334864521 0 0.42988092584916948 -0.2249579995083304 0 0.41713092845542321 -0.20900944133272009 0 0.42701217502226602 -0.19751647228806199 0 0.43006687167525981 -0.21185300334864521 0 0.43006687167525981 -0.21185300334864521 0 0.42988092584916948 -0.2249579995083304 0 0.44009267276725389 -0.2176624614444449 0 0.42330136258736267 -0.2174116668913772 0 0.42988092584916948 -0.2249579995083304 0 0.41612672436959858 -0.22382622337581301 0 0.42988092584916948 -0.2249579995083304 0 0.43458399188612801 -0.2397076170126072 0 0.42159465327244361 -0.23640953485310751 0 0.42988092584916948 -0.2249579995083304 0 0.42159465327244361 -0.23640953485310751 0 0.41612672436959858 -0.22382622337581301 0 0.42988092584916948 -0.2249579995083304 0 0.43458399188612801 -0.2397076170126072 0 0.44416109061426973 -0.22983272991065171 0 0.43458399188612801 -0.2397076170126072 0 0.42656562700980838 -0.24831468624349931 0 0.4372088962240912 -0.25169219704383999 0 0.43458399188612801 -0.2397076170126072 0 0.42656562700980838 -0.24831468624349931 0 0.42159465327244361 -0.23640953485310751 0 0.42656562700980838 -0.24831468624349931 0 0.42159465327244361 -0.23640953485310751 0 0.41087794879613182 -0.2494957955088617 0 0.42159465327244361 -0.23640953485310751 0 0.41087794879613182 -0.2494957955088617 0 0.40741230325918792 -0.23450562481703699 0 0.4055308246994358 -0.22407667781788709 0 0.40741230325918792 -0.23450562481703699 0 0.41612672436959858 -0.22382622337581301 0 0.4055308246994358 -0.22407667781788709 0 0.40434357831770951 -0.21487406561090469 0 0.41612672436959858 -0.22382622337581301 0 0.42159465327244361 -0.23640953485310751 0 0.40741230325918792 -0.23450562481703699 0 0.41612672436959858 -0.22382622337581301 0 0.39823574772599779 -0.11763079726210079 0 0.40257569972698831 -0.13396225485532559 0 0.38918813321375051 -0.12739880168557821 0 0.40257569972698831 -0.13396225485532559 0 0.38918813321375051 -0.12739880168557821 0 0.39017348084279901 -0.13955387731924049 0 0.38918813321375051 -0.12739880168557821 0 0.37808333446084269 -0.1309391893982525 0 0.39017348084279901 -0.13955387731924049 0 0.37720890243704291 -0.12310924361699779 0 0.36253108037134668 -0.1248744885805331 0 0.38918813321375051 -0.12739880168557821 0 0.36253108037134668 -0.1248744885805331 0 0.38918813321375051 -0.12739880168557821 0 0.37808333446084269 -0.1309391893982525 0 0.36253108037134668 -0.1248744885805331 0 0.38918813321375051 -0.12739880168557821 0 0.37808333446084269 -0.1309391893982525 0 0.39017348084279901 -0.13955387731924049 0 0.3787995421462832 -0.1425544525875144 0 0.36858459771950869 -0.15733985743645959 0 0.3787995421462832 -0.1425544525875144 0 0.38535727780346091 -0.1527557998392445 0 0.39017348084279901 -0.13955387731924049 0 0.3787995421462832 -0.1425544525875144 0 0.38535727780346091 -0.1527557998392445 0 0.40257569972698831 -0.13396225485532559 0 0.39822107621443897 -0.1501202070538992 0 0.41732028123257531 -0.14286435439753159 0 0.40257569972698831 -0.13396225485532559 0 0.39017348084279901 -0.13955387731924049 0 0.39822107621443897 -0.1501202070538992 0 0.39017348084279901 -0.13955387731924049 0 0.38535727780346091 -0.1527557998392445 0 0.39822107621443897 -0.1501202070538992 0 0.39822107621443897 -0.1501202070538992 0 0.39107178753907162 -0.16851380255406381 0 0.40713652226246821 -0.16744863749245631 0 0.39107178753907162 -0.16851380255406381 0 0.40713652226246821 -0.16744863749245631 0 0.38535727780346091 -0.1527557998392445 0 0.39822107621443897 -0.1501202070538992 0 0.39107178753907162 -0.16851380255406381 0 0.39107178753907162 -0.16851380255406381 0 0.40460499843718001 -0.17902112385493851 0 0.40713652226246821 -0.16744863749245631 0 0.36858459771950869 -0.15733985743645959 0 0.38535727780346091 -0.1527557998392445 0 0.39107178753907162 -0.16851380255406381 0 0.36858459771950869 -0.15733985743645959 0 0.39107178753907162 -0.16851380255406381 0 0.3834788620725188 -0.17954848884060079 0 0.39107178753907162 -0.16851380255406381 0 0.3834788620725188 -0.17954848884060079 0 0.39510197637232292 -0.1839605883432579 0 0.39078770323730427 -0.19674260859680251 0 0.3834788620725188 -0.17954848884060079 0 0.39510197637232292 -0.1839605883432579 0 0.37064833187319962 -0.1852102762359614 0 0.39078770323730427 -0.19674260859680251 0 0.3834788620725188 -0.17954848884060079 0 0.39107178753907162 -0.16851380255406381 0 0.39510197637232292 -0.1839605883432579 0 0.40460499843718001 -0.17902112385493851 0 0.40475141021500721 -0.1910589369573561 0 0.39510197637232292 -0.1839605883432579 0 0.40460499843718001 -0.17902112385493851 0 0.40475141021500721 -0.1910589369573561 0 0.40460499843718001 -0.17902112385493851 0 0.4146572714410397 -0.186958864794112 0 0.40460499843718001 -0.17902112385493851 0 0.41491102279317088 -0.17618591298838529 0 0.4146572714410397 -0.186958864794112 0 0.40460499843718001 -0.17902112385493851 0 0.41491102279317088 -0.17618591298838529 0 0.40713652226246821 -0.16744863749245631 0 0.41491102279317088 -0.17618591298838529 0 0.42527009306055918 -0.1746571334479238 0 0.4232012569858648 -0.16638347243084889 0 0.41491102279317088 -0.17618591298838529 0 0.42095079563492938 -0.18072636251124541 0 0.42527009306055918 -0.1746571334479238 0 0.41491102279317088 -0.17618591298838529 0 0.42095079563492938 -0.18072636251124541 0 0.4146572714410397 -0.186958864794112 0 0.42095079563492938 -0.18072636251124541 0 0.4146572714410397 -0.186958864794112 0 0.42558338933545942 -0.1867115165846317 0 0.43180268423531071 -0.1802632517690351 0 0.42527009306055918 -0.1746571334479238 0 0.44880083799057491 -0.164686103644653 0 0.42095079563492938 -0.18072636251124541 0 0.42558338933545942 -0.1867115165846317 0 0.43180268423531071 -0.1802632517690351 0 0.42558338933545942 -0.1867115165846317 0 0.43180268423531071 -0.1802632517690351 0 0.43844209377108118 -0.18689286854296691 0 0.42095079563492938 -0.18072636251124541 0 0.43180268423531071 -0.1802632517690351 0 0.42527009306055918 -0.1746571334479238 0 0.42527009306055918 -0.1746571334479238 0 0.4232012569858648 -0.16638347243084889 0 0.44880083799057491 -0.164686103644653 0 0.4232012569858648 -0.16638347243084889 0 0.43334283997313311 -0.15135273030925811 0 0.44880083799057491 -0.164686103644653 0 0.4232012569858648 -0.16638347243084889 0 0.44880083799057491 -0.164686103644653 0 0.42527009306055918 -0.1746571334479238 0 0.4232012569858648 -0.16638347243084889 0 0.4232012569858648 -0.16638347243084889 0 0.40713652226246821 -0.16744863749245631 0 0.41732028123257531 -0.14286435439753159 0 0.41491102279317088 -0.17618591298838529 0 0.4232012569858648 -0.16638347243084889 0 0.40713652226246821 -0.16744863749245631 0 0.4232012569858648 -0.16638347243084889 0 0.40713652226246821 -0.16744863749245631 0 0.4232012569858648 -0.16638347243084889 0 0.41732028123257531 -0.14286435439753159 0 0.39822107621443897 -0.1501202070538992 0 0.40713652226246821 -0.16744863749245631 0 0.41732028123257531 -0.14286435439753159 0 0.41732028123257531 -0.14286435439753159 0 0.43334283997313311 -0.15135273030925811 0 0.43763345530417341 -0.13584027725706749 0 0.4232012569858648 -0.16638347243084889 0 0.41732028123257531 -0.14286435439753159 0 0.43334283997313311 -0.15135273030925811 0 0.42916935431308728 -0.1205456085246996 0 0.41732028123257531 -0.14286435439753159 0 0.43763345530417341 -0.13584027725706749 0 0.42916935431308728 -0.1205456085246996 0 0.4435038969132965 -0.12540022695152131 0 0.43763345530417341 -0.13584027725706749 0 0.41143930547928681 -0.11934523636421419 0 0.42916935431308728 -0.1205456085246996 0 0.41732028123257531 -0.14286435439753159 0 0.41143930547928681 -0.11934523636421419 0 0.40257569972698831 -0.13396225485532559 0 0.41732028123257531 -0.14286435439753159 0 0.41143930547928681 -0.11934523636421419 0 0.41732028123257531 -0.14286435439753159 0 0.46257396642688631 -0.12529077885077469 0 0.46381730130484328 -0.1363472541609663 0 0.4585659370706795 -0.1308283620105129 0 0.46381730130484328 -0.1363472541609663 0 0.4585659370706795 -0.1308283620105129 0 0.45274550479158487 -0.1345999168850856 0 0.46381730130484328 -0.1363472541609663 0 0.45274550479158487 -0.1345999168850856 0 0.46138481906560302 -0.14686228775601681 0 0.46257396642688631 -0.12529077885077469 0 0.4585659370706795 -0.1308283620105129 0 0.45239247298790419 -0.125419693033265 0 0.4585659370706795 -0.1308283620105129 0 0.45239247298790419 -0.125419693033265 0 0.45274550479158487 -0.1345999168850856 0 0.45239247298790419 -0.125419693033265 0 0.4435038969132965 -0.12540022695152131 0 0.45274550479158487 -0.1345999168850856 0 0.4435038969132965 -0.12540022695152131 0 0.43763345530417341 -0.13584027725706749 0 0.45274550479158487 -0.1345999168850856 0 0.43763345530417341 -0.13584027725706749 0 0.45274550479158487 -0.1345999168850856 0 0.44678149142501389 -0.1466682631704162 0 0.43334283997313311 -0.15135273030925811 0 0.44678149142501389 -0.1466682631704162 0 0.44880083799057491 -0.164686103644653 0 0.44678149142501389 -0.1466682631704162 0 0.46138481906560302 -0.14686228775601681 0 0.44880083799057491 -0.164686103644653 0 0.43334283997313311 -0.15135273030925811 0 0.43763345530417341 -0.13584027725706749 0 0.44678149142501389 -0.1466682631704162 0 0.45274550479158487 -0.1345999168850856 0 0.44678149142501389 -0.1466682631704162 0 0.46138481906560302 -0.14686228775601681 0 0.46138481906560302 -0.14686228775601681 0 0.44880083799057491 -0.164686103644653 0 0.47440041899528501 -0.16298873485845719 0 0.44880083799057491 -0.164686103644653 0 0.46834799031954211 -0.17915452781490099 0 0.47440041899528501 -0.16298873485845719 0 0.44880083799057491 -0.164686103644653 0 0.47440041899528501 -0.16298873485845719 0 0.43180268423531071 -0.1802632517690351 0 0.44880083799057491 -0.164686103644653 0 0.43844209377108118 -0.18689286854296691 0 0.44880083799057491 -0.164686103644653 0 0.43844209377108118 -0.18689286854296691 0 0.45508032593701309 -0.1914137801830845 0 0.44880083799057491 -0.164686103644653 0 0.46834799031954211 -0.17915452781490099 0 0.45508032593701309 -0.1914137801830845 0 0.46834799031954211 -0.17915452781490099 0 0.48419704391512092 -0.17843144908975531 0 0.47440041899528501 -0.16298873485845719 0 0.46834799031954211 -0.17915452781490099 0 0.48419704391512092 -0.17843144908975531 0 0.47823681026078202 -0.19812675643970101 0 0.48419704391512092 -0.17843144908975531 0 0.49999999999999523 -0.16129136607226169 0 0.5 -0.1905958602634561 0 0.49999999999999523 -0.16129136607226169 0 0.47440041899528501 -0.16298873485845719 0 0.50000000000000067 -0.1547763741112759 0 0.48419704391512092 -0.17843144908975531 0 0.49999999999999523 -0.16129136607226169 0 0.47440041899528501 -0.16298873485845719 0 0.49999999999999523 -0.16129136607226169 0 0.47440041899528501 -0.16298873485845719 0 0.46138481906560302 -0.14686228775601681 0 0.47440041899528501 -0.16298873485845719 0 0.48128698321344371 -0.14003357648102521 0 0.46381730130484328 -0.1363472541609663 0 0.46138481906560302 -0.14686228775601681 0 0.48128698321344371 -0.14003357648102521 0 0.50000000000000067 -0.1547763741112759 0 0.48128698321344371 -0.14003357648102521 0 0.50000000000000067 -0.1547763741112759 0 0.5 -0.13349841451636779 0 0.48128698321344371 -0.14003357648102521 0 0.47440041899528501 -0.16298873485845719 0 0.50000000000000067 -0.1547763741112759 0 0.48128698321344371 -0.14003357648102521 0 0.48087269318342413 -0.1216818802472065 0 0.5 -0.13349841451636779 0 0.48128698321344371 -0.14003357648102521 0 0.46257396642688631 -0.12529077885077469 0 0.48128698321344371 -0.14003357648102521 0 0.46257396642688631 -0.12529077885077469 0 0.46381730130484328 -0.1363472541609663 0 0.48128698321344371 -0.14003357648102521 0 0.47129126618897188 -0.1223351355815797 0 0.48087269318342413 -0.1216818802472065 0 0.48128698321344371 -0.14003357648102521 0 0.47129126618897188 -0.1223351355815797 0 0.46257396642688631 -0.12529077885077469 0 0.48128698321344371 -0.14003357648102521 0 0.46029750420545162 -0.23134667767863379 0 0.45079963313025367 -0.219495204315066 0 0.46126535540865482 -0.21094244298034759 0 0.46029750420545162 -0.23134667767863379 0 0.46126535540865482 -0.21094244298034759 0 0.47937109712497578 -0.22608105856418539 0 0.46029750420545162 -0.23134667767863379 0 0.44856132313442931 -0.24393079079591279 0 0.47387431588802909 -0.25499376211151131 0 0.46029750420545162 -0.23134667767863379 0 0.44856132313442931 -0.24393079079591279 0 0.44416109061426973 -0.22983272991065171 0 0.43458399188612801 -0.2397076170126072 0 0.44856132313442931 -0.24393079079591279 0 0.4372088962240912 -0.25169219704383999 0 0.43458399188612801 -0.2397076170126072 0 0.44856132313442931 -0.24393079079591279 0 0.44416109061426973 -0.22983272991065171 0 0.46029750420545162 -0.23134667767863379 0 0.44416109061426973 -0.22983272991065171 0 0.45079963313025367 -0.219495204315066 0 0.44416109061426973 -0.22983272991065171 0 0.45079963313025367 -0.219495204315066 0 0.44009267276725389 -0.2176624614444449 0 0.42988092584916948 -0.2249579995083304 0 0.44416109061426973 -0.22983272991065171 0 0.44009267276725389 -0.2176624614444449 0 0.45079963313025367 -0.219495204315066 0 0.44355474576021348 -0.2050869029196882 0 0.46126535540865482 -0.21094244298034759 0 0.43006687167525981 -0.21185300334864521 0 0.44009267276725389 -0.2176624614444449 0 0.44355474576021348 -0.2050869029196882 0 0.45079963313025367 -0.219495204315066 0 0.44009267276725389 -0.2176624614444449 0 0.44355474576021348 -0.2050869029196882 0 0.43844209377108118 -0.18689286854296691 0 0.44355474576021348 -0.2050869029196882 0 0.45508032593701309 -0.1914137801830845 0 0.46834799031954211 -0.17915452781490099 0 0.45508032593701309 -0.1914137801830845 0 0.47823681026078202 -0.19812675643970101 0 0.44355474576021348 -0.2050869029196882 0 0.45508032593701309 -0.1914137801830845 0 0.46126535540865482 -0.21094244298034759 0 0.45508032593701309 -0.1914137801830845 0 0.46126535540865482 -0.21094244298034759 0 0.47823681026078202 -0.19812675643970101 0 0.46126535540865482 -0.21094244298034759 0 0.47823681026078202 -0.19812675643970101 0 0.47937109712497578 -0.22608105856418539 0 0.48419704391512092 -0.17843144908975531 0 0.47823681026078202 -0.19812675643970101 0 0.5 -0.1905958602634561 0 0.47823681026078202 -0.19812675643970101 0 0.5 -0.1905958602634561 0 0.5 -0.21990035445465039 0 0.47823681026078202 -0.19812675643970101 0 0.5 -0.21990035445465039 0 0.47937109712497578 -0.22608105856418539 0 0.5 -0.21990035445465039 0 0.47937109712497578 -0.22608105856418539 0 0.50000000000000444 -0.24920484864584491 0 0.46029750420545162 -0.23134667767863379 0 0.47937109712497578 -0.22608105856418539 0 0.47387431588802909 -0.25499376211151131 0 0.47937109712497578 -0.22608105856418539 0 0.50000000000000444 -0.24920484864584491 0 0.47387431588802909 -0.25499376211151131 0 0.50000000000000444 -0.24920484864584491 0 0.4915669900217115 -0.25615479242606781 0 0.5 -0.27170772691138367 0 0.50000000000000444 -0.24920484864584491 0 0.4915669900217115 -0.25615479242606781 0 0.47387431588802909 -0.25499376211151131 0 0.50000000000000444 -0.24920484864584491 0 0.47387431588802909 -0.25499376211151131 0 0.4915669900217115 -0.25615479242606781 0 0.48280749151585822 -0.27129304150170008 0 0.47954864786353962 -0.26301133191085868 0 0.4915669900217115 -0.25615479242606781 0 0.5 -0.27170772691138367 0 0.48280749151585822 -0.27129304150170008 0 0.5 -0.27170772691138367 0 0.48280749151585822 -0.27129304150170008 0 0.48951500520952212 -0.28458010338455908 0 0.48280749151585822 -0.27129304150170008 0 0.47474596181800061 -0.28621450290334632 0 0.48951500520952212 -0.28458010338455908 0 0.48280749151585822 -0.27129304150170008 0 0.47416229901770612 -0.26612875971404459 0 0.47954864786353962 -0.26301133191085868 0 0.48280749151585822 -0.27129304150170008 0 0.47416229901770612 -0.26612875971404459 0 0.47052118473631321 -0.27447720361836658 0 0.47416229901770612 -0.26612875971404459 0 0.47052118473631321 -0.27447720361836658 0 0.46319689217890331 -0.26835660325056299 0 0.48280749151585822 -0.27129304150170008 0 0.47052118473631321 -0.27447720361836658 0 0.47474596181800061 -0.28621450290334632 0 0.4915669900217115 -0.25615479242606781 0 0.46965781089888248 -0.25846873400162218 0 0.4915669900217115 -0.25615479242606781 0 0.47387431588802909 -0.25499376211151131 0 0.46965781089888248 -0.25846873400162218 0 0.4915669900217115 -0.25615479242606781 0 0.47954864786353962 -0.26301133191085868 0 0.46965781089888248 -0.25846873400162218 0 0.47416229901770612 -0.26612875971404459 0 0.47954864786353962 -0.26301133191085868 0 0.46965781089888248 -0.25846873400162218 0 0.47416229901770612 -0.26612875971404459 0 0.46965781089888248 -0.25846873400162218 0 0.46319689217890331 -0.26835660325056299 0 0.46965781089888248 -0.25846873400162218 0 0.46319689217890331 -0.26835660325056299 0 0.4477486317760534 -0.26078267557717671 0 0.44856132313442931 -0.24393079079591279 0 0.47387431588802909 -0.25499376211151131 0 0.4477486317760534 -0.26078267557717671 0 0.47387431588802909 -0.25499376211151131 0 0.4477486317760534 -0.26078267557717671 0 0.46965781089888248 -0.25846873400162218 0 0.4477486317760534 -0.26078267557717671 0 0.47387431588802909 -0.25499376211151131 0 0.46965781089888248 -0.25846873400162218 0 0.4477486317760534 -0.26078267557717671 0 0.47052118473631321 -0.27447720361836658 0 0.45389453446556111 -0.28192564334160541 0 0.47474596181800061 -0.28621450290334632 0 0.47052118473631321 -0.27447720361836658 0 0.46319689217890331 -0.26835660325056299 0 0.45389453446556111 -0.28192564334160541 0 0.46319689217890331 -0.26835660325056299 0 0.4477486317760534 -0.26078267557717671 0 0.45389453446556111 -0.28192564334160541 0 0.45389453446556111 -0.28192564334160541 0 0.430823863629894 -0.26453285558412298 0 0.45389453446556111 -0.28192564334160541 0 0.430823863629894 -0.26453285558412298 0 0.43570592202634773 -0.28205449164250063 0 0.4477486317760534 -0.26078267557717671 0 0.45389453446556111 -0.28192564334160541 0 0.430823863629894 -0.26453285558412298 0 0.4477486317760534 -0.26078267557717671 0 0.42854038242645709 -0.26281135800815408 0 0.44856132313442931 -0.24393079079591279 0 0.4477486317760534 -0.26078267557717671 0 0.4372088962240912 -0.25169219704383999 0 0.4477486317760534 -0.26078267557717671 0 0.42854038242645709 -0.26281135800815408 0 0.4372088962240912 -0.25169219704383999 0 0.4477486317760534 -0.26078267557717671 0 0.430823863629894 -0.26453285558412298 0 0.44815314542162782 -0.30273998798419938 0 0.44271266904340639 -0.31513600928105973 0 0.43092107089682352 -0.30573631325696571 0 0.44815314542162782 -0.30273998798419938 0 0.43874415768382158 -0.29310671547163403 0 0.43092107089682352 -0.30573631325696571 0 0.43874415768382158 -0.29310671547163403 0 0.45389453446556111 -0.28192564334160541 0 0.43570592202634773 -0.28205449164250063 0 0.44815314542162782 -0.30273998798419938 0 0.43874415768382158 -0.29310671547163403 0 0.45389453446556111 -0.28192564334160541 0 0.45389453446556111 -0.28192564334160541 0 0.46668010371271101 -0.29937682325086112 0 0.47474596181800061 -0.28621450290334632 0 0.44815314542162782 -0.30273998798419938 0 0.45389453446556111 -0.28192564334160541 0 0.46668010371271101 -0.29937682325086112 0 0.46668010371271101 -0.29937682325086112 0 0.45907432653114449 -0.32014896664993769 0 0.44815314542162782 -0.30273998798419938 0 0.46668010371271101 -0.29937682325086112 0 0.45907432653114449 -0.32014896664993769 0 0.46668010371271101 -0.29937682325086112 0 0.48375110351916628 -0.30725513966339157 0 0.45907432653114449 -0.32014896664993769 0 0.46668010371271101 -0.29937682325086112 0 0.48375110351916628 -0.30725513966339157 0 0.47474596181800061 -0.28621450290334632 0 0.48375110351916628 -0.30725513966339157 0 0.47474596181800061 -0.28621450290334632 0 0.48951500520952212 -0.28458010338455908 0 0.48375110351916628 -0.30725513966339157 0 0.5 -0.29421060517692271 0 0.48951500520952212 -0.28458010338455908 0 0.5 -0.27170772691138367 0 0.5 -0.29421060517692271 0 0.48951500520952212 -0.28458010338455908 0 0.48375110351916628 -0.30725513966339157 0 0.5 -0.29421060517692271 0 0.49999999999999972 -0.31671348344246159 0 0.48375110351916628 -0.30725513966339157 0 0.49999999999999972 -0.31671348344246159 0 0.48658745812515303 -0.32591538654610069 0 0.49999999999999972 -0.31671348344246159 0 0.49107839048707969 -0.33844651150006611 0 0.49999999999999972 -0.31671348344246159 0 0.48658745812515303 -0.32591538654610069 0 0.49107839048707969 -0.33844651150006611 0 0.49999999999999972 -0.31671348344246159 0 0.5 -0.34354646621870782 0 0.49107839048707969 -0.33844651150006611 0 0.48658745812515303 -0.32591538654610069 0 0.49107839048707969 -0.33844651150006611 0 0.48013111160135669 -0.33592777501669763 0 0.48658745812515303 -0.32591538654610069 0 0.48013111160135669 -0.33592777501669763 0 0.47588582758327369 -0.32632043512378739 0 0.48013111160135669 -0.33592777501669763 0 0.46883970942210401 -0.33989811375075968 0 0.47588582758327369 -0.32632043512378739 0 0.48375110351916628 -0.30725513966339157 0 0.48658745812515303 -0.32591538654610069 0 0.47588582758327369 -0.32632043512378739 0 0.48375110351916628 -0.30725513966339157 0 0.47588582758327369 -0.32632043512378739 0 0.45907432653114449 -0.32014896664993769 0 0.5 -0.37037944899495368 0 0.48466784746851571 -0.3739080713738358 0 0.48215678097416009 -0.36017953955767068 0 0.5 -0.34354646621870782 0 0.49107839048707969 -0.33844651150006611 0 0.48215678097416009 -0.36017953955767068 0 0.49107839048707969 -0.33844651150006611 0 0.48013111160135669 -0.33592777501669763 0 0.48215678097416009 -0.36017953955767068 0 0.5 -0.34354646621870782 0 0.5 -0.37037944899495368 0 0.48215678097416009 -0.36017953955767068 0 0.49107839048707969 -0.33844651150006611 0 0.48215678097416009 -0.36017953955767068 0 0.48013111160135669 -0.33592777501669763 0 0.46883970942210401 -0.33989811375075968 0 0.48215678097416009 -0.36017953955767068 0 0.46883970942210401 -0.33989811375075968 0 0.48215678097416009 -0.36017953955767068 0 0.46166172922915721 -0.35810144835948332 0 0.48215678097416009 -0.36017953955767068 0 0.47323517146124039 -0.38191256761527542 0 0.48215678097416009 -0.36017953955767068 0 0.4671179630262795 -0.37324494563770522 0 0.47323517146124039 -0.38191256761527542 0 0.48466784746851571 -0.3739080713738358 0 0.48215678097416009 -0.36017953955767068 0 0.47323517146124039 -0.38191256761527542 0 0.48215678097416009 -0.36017953955767068 0 0.4671179630262795 -0.37324494563770522 0 0.46166172922915721 -0.35810144835948332 0 0.45652460043480969 -0.37267172771365881 0 0.46166172922915721 -0.35810144835948332 0 0.44386277216801179 -0.36169325344809122 0 0.45652460043480969 -0.37267172771365881 0 0.4671179630262795 -0.37324494563770522 0 0.46166172922915721 -0.35810144835948332 0 0.46883970942210401 -0.33989811375075968 0 0.46166172922915721 -0.35810144835948332 0 0.45146854934957792 -0.34092111004901438 0 0.43963091224731599 -0.34751792105314822 0 0.44386277216801179 -0.36169325344809122 0 0.45146854934957792 -0.34092111004901438 0 0.44386277216801179 -0.36169325344809122 0 0.45146854934957792 -0.34092111004901438 0 0.46166172922915721 -0.35810144835948332 0 0.44386277216801179 -0.36169325344809122 0 0.45146854934957792 -0.34092111004901438 0 0.44386277216801179 -0.36169325344809122 0 0.43376943787959182 -0.36708850497004442 0 0.43808065797110041 -0.37748478958974491 0 0.45652460043480969 -0.37267172771365881 0 0.44386277216801179 -0.36169325344809122 0 0.44783900322824399 -0.38008781189722518 0 0.44386277216801179 -0.36169325344809122 0 0.43808065797110041 -0.37748478958974491 0 0.44386277216801179 -0.36169325344809122 0 0.43808065797110041 -0.37748478958974491 0 0.44783900322824399 -0.38008781189722518 0 0.45652460043480969 -0.37267172771365881 0 0.44386277216801179 -0.36169325344809122 0 0.46883970942210401 -0.33989811375075968 0 0.45907432653114449 -0.32014896664993769 0 0.45146854934957792 -0.34092111004901438 0 0.45907432653114449 -0.32014896664993769 0 0.45146854934957792 -0.34092111004901438 0 0.46883970942210401 -0.33989811375075968 0 0.47588582758327369 -0.32632043512378739 0 0.45907432653114449 -0.32014896664993769 0 0.43963091224731599 -0.34751792105314822 0 0.45146854934957792 -0.34092111004901438 0 0.43565299676263758 -0.3352386806192425 0 0.45146854934957792 -0.34092111004901438 0 0.44493724809618768 -0.32603283426431229 0 0.43565299676263758 -0.3352386806192425 0 0.45907432653114449 -0.32014896664993769 0 0.45146854934957792 -0.34092111004901438 0 0.44493724809618768 -0.32603283426431229 0 0.45907432653114449 -0.32014896664993769 0 0.44493724809618768 -0.32603283426431229 0 0.44271266904340639 -0.31513600928105973 0 0.44493724809618768 -0.32603283426431229 0 0.44271266904340639 -0.31513600928105973 0 0.43047755427124879 -0.32102194424988317 0 0.44815314542162782 -0.30273998798419938 0 0.45907432653114449 -0.32014896664993769 0 0.44271266904340639 -0.31513600928105973 0 0.44271266904340639 -0.31513600928105973 0 0.43047755427124879 -0.32102194424988317 0 0.43092107089682352 -0.30573631325696571 0 0.43047755427124879 -0.32102194424988317 0 0.41919911313656122 -0.31385112706466711 0 0.41739686236043672 -0.32199345155319897 0 0.43047755427124879 -0.32102194424988317 0 0.41919911313656122 -0.31385112706466711 0 0.43092107089682352 -0.30573631325696571 0 0.43047755427124879 -0.32102194424988317 0 0.42053718701310799 -0.32957674384091618 0 0.41739686236043672 -0.32199345155319897 0 0.44493724809618768 -0.32603283426431229 0 0.43047755427124879 -0.32102194424988317 0 0.43565299676263758 -0.3352386806192425 0 0.43565299676263758 -0.3352386806192425 0 0.42053718701310799 -0.32957674384091618 0 0.4250793590774925 -0.34540704162396091 0 0.43963091224731599 -0.34751792105314822 0 0.43565299676263758 -0.3352386806192425 0 0.4250793590774925 -0.34540704162396091 0 0.43047755427124879 -0.32102194424988317 0 0.43565299676263758 -0.3352386806192425 0 0.42053718701310799 -0.32957674384091618 0 0.4062959459869725 -0.32912082979983148 0 0.4250793590774925 -0.34540704162396091 0 0.41055923831377589 -0.34398547157316572 0 0.42053718701310799 -0.32957674384091618 0 0.4062959459869725 -0.32912082979983148 0 0.4250793590774925 -0.34540704162396091 0 0.4062959459869725 -0.32912082979983148 0 0.4250793590774925 -0.34540704162396091 0 0.42053718701310799 -0.32957674384091618 0 0.4062959459869725 -0.32912082979983148 0 0.40802480504278882 -0.32457497099322458 0 0.4062959459869725 -0.32912082979983148 0 0.40802480504278882 -0.32457497099322458 0 0.4062959459869725 -0.32912082979983148 0 0.40802480504278882 -0.32457497099322458 0 0.40572459905769331 -0.31910551143285631 0 0.40802480504278882 -0.32457497099322458 0 0.4119015194344513 -0.31818912214386269 0 0.41739686236043672 -0.32199345155319897 0 0.40802480504278882 -0.32457497099322458 0 0.4119015194344513 -0.31818912214386269 0 0.40572459905769331 -0.31910551143285631 0 0.4119015194344513 -0.31818912214386269 0 0.41919911313656122 -0.31385112706466711 0 0.40916221757477672 -0.31142054967536659 0 0.4119015194344513 -0.31818912214386269 0 0.40572459905769331 -0.31910551143285631 0 0.40916221757477672 -0.31142054967536659 0 0.4119015194344513 -0.31818912214386269 0 0.41919911313656122 -0.31385112706466711 0 0.41739686236043672 -0.32199345155319897 0 0.42053718701310799 -0.32957674384091618 0 0.40802480504278882 -0.32457497099322458 0 0.41739686236043672 -0.32199345155319897 0 0.44386277216801179 -0.36169325344809122 0 0.43376943787959182 -0.36708850497004442 0 0.42728564025893462 -0.35958684797927032 0 0.42489657602010461 -0.37065940299189432 0 0.43376943787959182 -0.36708850497004442 0 0.43808065797110041 -0.37748478958974491 0 0.42489657602010461 -0.37065940299189432 0 0.43376943787959182 -0.36708850497004442 0 0.42728564025893462 -0.35958684797927032 0 0.44386277216801179 -0.36169325344809122 0 0.4250793590774925 -0.34540704162396091 0 0.43963091224731599 -0.34751792105314822 0 0.44386277216801179 -0.36169325344809122 0 0.4250793590774925 -0.34540704162396091 0 0.44386277216801179 -0.36169325344809122 0 0.42728564025893462 -0.35958684797927032 0 0.4250793590774925 -0.34540704162396091 0 0.42728564025893462 -0.35958684797927032 0 0.4250793590774925 -0.34540704162396091 0 0.41069622259092692 -0.35617360609135817 0 0.4250793590774925 -0.34540704162396091 0 0.41055923831377589 -0.34398547157316572 0 0.41069622259092692 -0.35617360609135817 0 0.41055923831377589 -0.34398547157316572 0 0.41069622259092692 -0.35617360609135817 0 0.40016542559971202 -0.34524040877751239 0 0.42489657602010461 -0.37065940299189432 0 0.42728564025893462 -0.35958684797927032 0 0.41069622259092692 -0.35617360609135817 0 0.42489657602010461 -0.37065940299189432 0 0.41069622259092692 -0.35617360609135817 0 0.4070765621089808 -0.37107032214525337 0 0.42489657602010461 -0.37065940299189432 0 0.41069622259092692 -0.35617360609135817 0 0.39585190457779329 -0.37201308858561799 0 0.3940349052124521 -0.36135998775519362 0 0.38601585554704992 -0.38244526212700758 0 0.41069622259092692 -0.35617360609135817 0 0.4070765621089808 -0.37107032214525337 0 0.3940349052124521 -0.36135998775519362 0 0.4070765621089808 -0.37107032214525337 0 0.39585190457779329 -0.37201308858561799 0 0.3940349052124521 -0.36135998775519362 0 0.39585190457779329 -0.37201308858561799 0 0.3940349052124521 -0.36135998775519362 0 0.3940349052124521 -0.36135998775519362 0 0.40016542559971202 -0.34524040877751239 0 0.38974443050024338 -0.33620485529262373 0 0.3940349052124521 -0.36135998775519362 0 0.38974443050024338 -0.33620485529262373 0 0.3940349052124521 -0.36135998775519362 0 0.40016542559971202 -0.34524040877751239 0 0.41069622259092692 -0.35617360609135817 0 0.3940349052124521 -0.36135998775519362 0 0.40016542559971202 -0.34524040877751239 0 0.3940349052124521 -0.36135998775519362 0 0.38974443050024338 -0.33620485529262373 0 0.37368731816096312 -0.34897020548070451 0 0.3940349052124521 -0.36135998775519362 0 0.38601585554704992 -0.38244526212700758 0 0.3940349052124521 -0.36135998775519362 0 0.38601585554704992 -0.38244526212700758 0 0.3689120952668708 -0.37284951495870189 0 0.3940349052124521 -0.36135998775519362 0 0.3689120952668708 -0.37284951495870189 0 0.37368731816096312 -0.34897020548070451 0 0.4062959459869725 -0.32912082979983148 0 0.40572459905769331 -0.31910551143285631 0 0.39816778062817881 -0.31191488097197773 0 0.4062959459869725 -0.32912082979983148 0 0.38974443050024338 -0.33620485529262373 0 0.38545395578803499 -0.31104972283005378 0 0.4062959459869725 -0.32912082979983148 0 0.38545395578803499 -0.31104972283005378 0 0.4062959459869725 -0.32912082979983148 0 0.38545395578803499 -0.31104972283005378 0 0.39816778062817881 -0.31191488097197773 0 0.40572459905769331 -0.31910551143285631 0 0.39816778062817881 -0.31191488097197773 0 0.40916221757477672 -0.31142054967536659 0 0.4062959459869725 -0.32912082979983148 0 0.40016542559971202 -0.34524040877751239 0 0.38974443050024338 -0.33620485529262373 0 0.4062959459869725 -0.32912082979983148 0 0.40016542559971202 -0.34524040877751239 0 0.4062959459869725 -0.32912082979983148 0 0.41055923831377589 -0.34398547157316572 0 0.40016542559971202 -0.34524040877751239 0 0.38974443050024338 -0.33620485529262373 0 0.36945761595668469 -0.32738841673247931 0 0.37368731816096312 -0.34897020548070451 0 0.38974443050024338 -0.33620485529262373 0 0.38545395578803499 -0.31104972283005378 0 0.36945761595668469 -0.32738841673247931 0 0.38974443050024338 -0.33620485529262373 0 0.38545395578803499 -0.31104972283005378 0 0.38545395578803499 -0.31104972283005378 0 0.38245755150739558 -0.29348174920317632 0 0.37101427446782781 -0.29852975601036341 0 0.38545395578803499 -0.31104972283005378 0 0.38245755150739558 -0.29348174920317632 0 0.38545395578803499 -0.31104972283005378 0 0.37101427446782781 -0.29852975601036341 0 0.38545395578803499 -0.31104972283005378 0 0.39567659353887108 -0.29306988619604551 0 0.38245755150739558 -0.29348174920317632 0 0.39816778062817881 -0.31191488097197773 0 0.40563314249086863 -0.30155395497769039 0 0.39567659353887108 -0.29306988619604551 0 0.38545395578803499 -0.31104972283005378 0 0.39816778062817881 -0.31191488097197773 0 0.39567659353887108 -0.29306988619604551 0 0.39816778062817881 -0.31191488097197773 0 0.40563314249086863 -0.30155395497769039 0 0.40916221757477672 -0.31142054967536659 0 0.39567659353887108 -0.29306988619604551 0 0.40514250542832608 -0.27022331558021301 0 0.41160024963212011 -0.28933460066763711 0 0.40563314249086863 -0.30155395497769039 0 0.39567659353887108 -0.29306988619604551 0 0.41160024963212011 -0.28933460066763711 0 0.38245755150739558 -0.29348174920317632 0 0.37946114722675722 -0.27591377557629859 0 0.39567659353887108 -0.29306988619604551 0 0.38245755150739558 -0.29348174920317632 0 0.37946114722675722 -0.27591377557629859 0 0.38245755150739558 -0.29348174920317632 0 0.37795999762798671 -0.28395322059410122 0 0.37946114722675722 -0.27591377557629859 0 0.37519981906117678 -0.29055939022370142 0 0.38245755150739558 -0.29348174920317632 0 0.37101427446782781 -0.29852975601036341 0 0.37519981906117678 -0.29055939022370142 0 0.38245755150739558 -0.29348174920317632 0 0.37795999762798671 -0.28395322059410122 0 0.37795999762798671 -0.28395322059410122 0 0.37946114722675722 -0.27591377557629859 0 0.37739853904771847 -0.27637080706343392 0 0.37739853904771847 -0.27637080706343392 0 0.37683953433427181 -0.26882153263446662 0 0.37273728942595791 -0.27740364396778311 0 0.37795999762798671 -0.28395322059410122 0 0.37739853904771847 -0.27637080706343392 0 0.37273728942595791 -0.27740364396778311 0 0.37946114722675722 -0.27591377557629859 0 0.38774772661347989 -0.26664574742688191 0 0.3964002279028962 -0.26984905957103239 0 0.37946114722675722 -0.27591377557629859 0 0.3964002279028962 -0.26984905957103239 0 0.37795999762798671 -0.28395322059410122 0 0.37739853904771847 -0.27637080706343392 0 0.37739853904771847 -0.27637080706343392 0 0.37273728942595791 -0.27740364396778311 0 0.37946114722675722 -0.27591377557629859 0 0.37739853904771847 -0.27637080706343392 0 0.37683953433427181 -0.26882153263446662 0 0.37946114722675722 -0.27591377557629859 0 0.37739853904771847 -0.27637080706343392 0 0.37946114722675722 -0.27591377557629859 0 0.37843581040967561 -0.26746760801825881 0 0.38284686623937531 -0.26497045393317709 0 0.37946114722675722 -0.27591377557629859 0 0.37683953433427181 -0.26882153263446662 0 0.37843581040967561 -0.26746760801825881 0 0.37739853904771847 -0.27637080706343392 0 0.37683953433427181 -0.26882153263446662 0 0.37683953433427181 -0.26882153263446662 0 0.37843581040967561 -0.26746760801825881 0 0.37946114722675722 -0.27591377557629859 0 0.38774772661347989 -0.26664574742688191 0 0.38284686623937531 -0.26497045393317709 0 0.37477580018058132 -0.24095111383496479 0 0.37683953433427181 -0.26882153263446662 0 0.38107906364546162 -0.25934379353391329 0 0.37477580018058132 -0.24095111383496479 0 0.37683953433427181 -0.26882153263446662 0 0.37477580018058132 -0.24095111383496479 0 0.38107906364546162 -0.25934379353391329 0 0.38725375881062551 -0.25185160038302579 0 0.37843581040967561 -0.26746760801825881 0 0.38107906364546162 -0.25934379353391329 0 0.38284686623937531 -0.26497045393317709 0 0.37683953433427181 -0.26882153263446662 0 0.37843581040967561 -0.26746760801825881 0 0.38107906364546162 -0.25934379353391329 0 0.38107906364546162 -0.25934379353391329 0 0.38632261189823958 -0.26200045239958702 0 0.38284686623937531 -0.26497045393317709 0 0.38774772661347989 -0.26664574742688191 0 0.38632261189823958 -0.26200045239958702 0 0.38284686623937531 -0.26497045393317709 0 0.38774772661347989 -0.26664574742688191 0 0.38955528694719099 -0.2630172622662057 0 0.39295554709344072 -0.26445586107842978 0 0.38774772661347989 -0.26664574742688191 0 0.38632261189823958 -0.26200045239958702 0 0.38955528694719099 -0.2630172622662057 0 0.38632261189823958 -0.26200045239958702 0 0.38955528694719099 -0.2630172622662057 0 0.39119526218360401 -0.25896698815992442 0 0.38632261189823958 -0.26200045239958702 0 0.38725375881062551 -0.25185160038302579 0 0.39119526218360401 -0.25896698815992442 0 0.38107906364546162 -0.25934379353391329 0 0.38632261189823958 -0.26200045239958702 0 0.38725375881062551 -0.25185160038302579 0 0.40314688718896508 -0.2619981766022052 0 0.39707581272688741 -0.26613449373937459 0 0.41345304600685079 -0.26440480953867462 0 0.39707581272688741 -0.26613449373937459 0 0.41345304600685079 -0.26440480953867462 0 0.38725375881062551 -0.25185160038302579 0 0.39640803358832022 -0.25154779433757402 0 0.39119526218360401 -0.25896698815992442 0 0.39640803358832022 -0.25154779433757402 0 0.39702034872720737 -0.26014738253762237 0 0.39119526218360401 -0.25896698815992442 0 0.39702034872720737 -0.26014738253762237 0 0.39119526218360401 -0.25896698815992442 0 0.39295554709344072 -0.26445586107842978 0 0.38955528694719099 -0.2630172622662057 0 0.39119526218360401 -0.25896698815992442 0 0.39295554709344072 -0.26445586107842978 0 0.39702034872720737 -0.26014738253762237 0 0.39295554709344072 -0.26445586107842978 0 0.39707581272688741 -0.26613449373937459 0 0.39702034872720737 -0.26014738253762237 0 0.40314688718896508 -0.2619981766022052 0 0.39707581272688741 -0.26613449373937459 0 0.40314688718896508 -0.2619981766022052 0 0.40257909468765629 -0.25704117102420471 0 0.40998094690083942 -0.2590606397541646 0 0.39702034872720737 -0.26014738253762237 0 0.40314688718896508 -0.2619981766022052 0 0.40257909468765629 -0.25704117102420471 0 0.39640803358832022 -0.25154779433757402 0 0.39702034872720737 -0.26014738253762237 0 0.40257909468765629 -0.25704117102420471 0 0.41087794879613182 -0.2494957955088617 0 0.39640803358832022 -0.25154779433757402 0 0.40257909468765629 -0.25704117102420471 0 0.40514250542832608 -0.27022331558021301 0 0.3964002279028962 -0.26984905957103239 0 0.41345304600685079 -0.26440480953867462 0 0.37946114722675722 -0.27591377557629859 0 0.40514250542832608 -0.27022331558021301 0 0.3964002279028962 -0.26984905957103239 0 0.39707581272688741 -0.26613449373937459 0 0.3964002279028962 -0.26984905957103239 0 0.41345304600685079 -0.26440480953867462 0 0.37946114722675722 -0.27591377557629859 0 0.40514250542832608 -0.27022331558021301 0 0.3964002279028962 -0.26984905957103239 0 0.41345304600685079 -0.26440480953867462 0 0.39567659353887108 -0.29306988619604551 0 0.37946114722675722 -0.27591377557629859 0 0.40514250542832608 -0.27022331558021301 0 0.38774772661347989 -0.26664574742688191 0 0.39295554709344072 -0.26445586107842978 0 0.3964002279028962 -0.26984905957103239 0 0.39295554709344072 -0.26445586107842978 0 0.39707581272688741 -0.26613449373937459 0 0.3964002279028962 -0.26984905957103239 0 0.40514250542832608 -0.27022331558021301 0 0.41345304600685079 -0.26440480953867462 0 0.430823863629894 -0.26453285558412298 0 0.40514250542832608 -0.27022331558021301 0 0.430823863629894 -0.26453285558412298 0 0.40514250542832608 -0.27022331558021301 0 0.42166373126508722 -0.27984448092147479 0 0.41160024963212011 -0.28933460066763711 0 0.40514250542832608 -0.27022331558021301 0 0.42166373126508722 -0.27984448092147479 0 0.430823863629894 -0.26453285558412298 0 0.41087794879613182 -0.2494957955088617 0 0.41984775782459283 -0.2623632460968765 0 0.42854038242645709 -0.26281135800815408 0 0.41087794879613182 -0.2494957955088617 0 0.42854038242645709 -0.26281135800815408 0 0.41087794879613182 -0.2494957955088617 0 0.40257909468765629 -0.25704117102420471 0 0.40998094690083942 -0.2590606397541646 0 0.41087794879613182 -0.2494957955088617 0 0.40998094690083942 -0.2590606397541646 0 0.41984775782459283 -0.2623632460968765 0 0.40314688718896508 -0.2619981766022052 0 0.40998094690083942 -0.2590606397541646 0 0.41345304600685079 -0.26440480953867462 0 0.41345304600685079 -0.26440480953867462 0 0.41984775782459283 -0.2623632460968765 0 0.42854038242645709 -0.26281135800815408 0 0.40998094690083942 -0.2590606397541646 0 0.41345304600685079 -0.26440480953867462 0 0.41984775782459283 -0.2623632460968765 0 0.41345304600685079 -0.26440480953867462 0 0.42854038242645709 -0.26281135800815408 0 0.41345304600685079 -0.26440480953867462 0 0.41984775782459283 -0.2623632460968765 0 0.42656562700980838 -0.24831468624349931 0 0.41087794879613182 -0.2494957955088617 0 0.42854038242645709 -0.26281135800815408 0 0.4477486317760534 -0.26078267557717671 0 0.42854038242645709 -0.26281135800815408 0 0.430823863629894 -0.26453285558412298 0 0.41345304600685079 -0.26440480953867462 0 0.42854038242645709 -0.26281135800815408 0 0.430823863629894 -0.26453285558412298 0 0.42854038242645709 -0.26281135800815408 0 0.430823863629894 -0.26453285558412298 0 0.42656562700980838 -0.24831468624349931 0 0.42854038242645709 -0.26281135800815408 0 0.4372088962240912 -0.25169219704383999 0 0.42166373126508722 -0.27984448092147479 0 0.430823863629894 -0.26453285558412298 0 0.43570592202634773 -0.28205449164250063 0 0.42166373126508722 -0.27984448092147479 0 0.43570592202634773 -0.28205449164250063 0 0.42504611560874761 -0.29307714113289868 0 0.43874415768382158 -0.29310671547163403 0 0.43570592202634773 -0.28205449164250063 0 0.42504611560874761 -0.29307714113289868 0 0.43874415768382158 -0.29310671547163403 0 0.42504611560874761 -0.29307714113289868 0 0.43092107089682352 -0.30573631325696571 0 0.41919911313656122 -0.31385112706466711 0 0.43092107089682352 -0.30573631325696571 0 0.41692698488998292 -0.30249561446253759 0 0.42504611560874761 -0.29307714113289868 0 0.43092107089682352 -0.30573631325696571 0 0.41692698488998292 -0.30249561446253759 0 0.41919911313656122 -0.31385112706466711 0 0.41692698488998292 -0.30249561446253759 0 0.40916221757477672 -0.31142054967536659 0 0.40563314249086863 -0.30155395497769039 0 0.41692698488998292 -0.30249561446253759 0 0.40916221757477672 -0.31142054967536659 0 0.40563314249086863 -0.30155395497769039 0 0.41692698488998292 -0.30249561446253759 0 0.41160024963212011 -0.28933460066763711 0 0.42166373126508722 -0.27984448092147479 0 0.42504611560874761 -0.29307714113289868 0 0.41160024963212011 -0.28933460066763711 0 0.42504611560874761 -0.29307714113289868 0 0.41692698488998292 -0.30249561446253759 0 0.41160024963212011 -0.28933460066763711 0 0.5 -0.5 0 0.47532784176218862 -0.47257481327436679 0 0.43264288253940292 -0.48275234633568048 0 0.5 -0.5 0 0.41749257905485199 -0.50000000000000033 0 0.43264288253940292 -0.48275234633568048 0 0.47532784176218862 -0.47257481327436679 0 0.44779318602395363 -0.46550469267136052 0 0.43264288253940292 -0.48275234633568048 0 0.44779318602395363 -0.46550469267136052 0 0.43264288253940292 -0.48275234633568048 0 0.5 -0.5 0 0.47532784176218862 -0.47257481327436679 0 0.49999999999999828 -0.44642064777577001 0 0.47532784176218862 -0.47257481327436679 0 0.47918453573141367 -0.4495963838019249 0 0.46294348950850428 -0.44825703900704061 0 0.47532784176218862 -0.47257481327436679 0 0.49999999999999828 -0.44642064777577001 0 0.47918453573141367 -0.4495963838019249 0 0.49999999999999828 -0.44642064777577001 0 0.47846681165496419 -0.4311330351505217 0 0.49999999999999828 -0.44642064777577001 0 0.47918453573141367 -0.4495963838019249 0 0.47846681165496419 -0.4311330351505217 0 0.47918453573141367 -0.4495963838019249 0 0.46294348950850428 -0.44825703900704061 0 0.47846681165496419 -0.4311330351505217 0 0.46294348950850428 -0.44825703900704061 0 0.44442683605218691 -0.44583817528272968 0 0.45721208074107311 -0.43281318479414382 0 0.46294348950850428 -0.44825703900704061 0 0.44779318602395363 -0.46550469267136052 0 0.47532784176218862 -0.47257481327436679 0 0.46294348950850428 -0.44825703900704061 0 0.44779318602395363 -0.46550469267136052 0 0.44779318602395363 -0.46550469267136052 0 0.44442683605218691 -0.44583817528272968 0 0.43057418754349119 -0.46211781715143319 0 0.46294348950850428 -0.44825703900704061 0 0.44779318602395363 -0.46550469267136052 0 0.44442683605218691 -0.44583817528272968 0 0.44442683605218691 -0.44583817528272968 0 0.44324354583686831 -0.42153379012121539 0 0.45721208074107311 -0.43281318479414382 0 0.44442683605218691 -0.44583817528272968 0 0.44324354583686831 -0.42153379012121539 0 0.42653452723640378 -0.44279137365393179 0 0.44324354583686831 -0.42153379012121539 0 0.45693362330993059 -0.41584542252527262 0 0.45721208074107311 -0.43281318479414382 0 0.45693362330993059 -0.41584542252527262 0 0.4354004349648965 -0.40055780990002432 0 0.44324354583686831 -0.42153379012121539 0 0.45693362330993059 -0.41584542252527262 0 0.4354004349648965 -0.40055780990002432 0 0.45693362330993059 -0.41584542252527262 0 0.46461049463358839 -0.41117161714406408 0 0.47846681165496419 -0.4311330351505217 0 0.45693362330993059 -0.41584542252527262 0 0.46461049463358839 -0.41117161714406408 0 0.45329728287846061 -0.39963099679296588 0 0.46294348950850428 -0.44825703900704061 0 0.45721208074107311 -0.43281318479414382 0 0.47846681165496419 -0.4311330351505217 0 0.45693362330993059 -0.41584542252527262 0 0.45721208074107311 -0.43281318479414382 0 0.47846681165496419 -0.4311330351505217 0 0.45693362330993059 -0.41584542252527262 0 0.47846681165496419 -0.4311330351505217 0 0.49999999999999828 -0.44642064777577001 0 0.47846681165496419 -0.4311330351505217 0 0.5 -0.42181653977348488 0 0.5 -0.42181653977348488 0 0.48394518954555588 -0.41195106762427058 0 0.49999999999999789 -0.3972124317711998 0 0.47846681165496419 -0.4311330351505217 0 0.5 -0.42181653977348488 0 0.48394518954555588 -0.41195106762427058 0 0.46461049463358839 -0.41117161714406408 0 0.47846681165496419 -0.4311330351505217 0 0.48394518954555588 -0.41195106762427058 0 0.46461049463358839 -0.41117161714406408 0 0.48394518954555588 -0.41195106762427058 0 0.47664864143922919 -0.39842171428208217 0 0.47664864143922919 -0.39842171428208217 0 0.47975395238035062 -0.3854291032725421 0 0.46812846895096999 -0.38912968091376021 0 0.47664864143922919 -0.39842171428208217 0 0.49999999999999789 -0.3972124317711998 0 0.48779058149940679 -0.38751051868815611 0 0.48394518954555588 -0.41195106762427058 0 0.47664864143922919 -0.39842171428208217 0 0.49999999999999789 -0.3972124317711998 0 0.47664864143922919 -0.39842171428208217 0 0.49999999999999789 -0.3972124317711998 0 0.5 -0.37037944899495368 0 0.49999999999999789 -0.3972124317711998 0 0.48779058149940679 -0.38751051868815611 0 0.5 -0.37037944899495368 0 0.48466784746851571 -0.3739080713738358 0 0.48779058149940679 -0.38751051868815611 0 0.48466784746851571 -0.3739080713738358 0 0.47975395238035062 -0.3854291032725421 0 0.47323517146124039 -0.38191256761527542 0 0.48466784746851571 -0.3739080713738358 0 0.48779058149940679 -0.38751051868815611 0 0.47975395238035062 -0.3854291032725421 0 0.47664864143922919 -0.39842171428208217 0 0.48779058149940679 -0.38751051868815611 0 0.47975395238035062 -0.3854291032725421 0 0.47975395238035062 -0.3854291032725421 0 0.47323517146124039 -0.38191256761527542 0 0.46812846895096999 -0.38912968091376021 0 0.46918642870160698 -0.38365020197922722 0 0.47323517146124039 -0.38191256761527542 0 0.46812846895096999 -0.38912968091376021 0 0.4671179630262795 -0.37324494563770522 0 0.46918642870160698 -0.38365020197922722 0 0.47323517146124039 -0.38191256761527542 0 0.45652460043480969 -0.37267172771365881 0 0.4671179630262795 -0.37324494563770522 0 0.46918642870160698 -0.38365020197922722 0 0.45652460043480969 -0.37267172771365881 0 0.46918642870160698 -0.38365020197922722 0 0.45652460043480969 -0.37267172771365881 0 0.45606522570456098 -0.38599652494351028 0 0.44783900322824399 -0.38008781189722518 0 0.45652460043480969 -0.37267172771365881 0 0.46918642870160698 -0.38365020197922722 0 0.45606522570456098 -0.38599652494351028 0 0.46918642870160698 -0.38365020197922722 0 0.45606522570456098 -0.38599652494351028 0 0.46812846895096999 -0.38912968091376021 0 0.46461049463358839 -0.41117161714406408 0 0.47664864143922919 -0.39842171428208217 0 0.45329728287846061 -0.39963099679296588 0 0.47664864143922919 -0.39842171428208217 0 0.45329728287846061 -0.39963099679296588 0 0.47664864143922919 -0.39842171428208217 0 0.46812846895096999 -0.38912968091376021 0 0.45329728287846061 -0.39963099679296588 0 0.46461049463358839 -0.41117161714406408 0 0.45329728287846061 -0.39963099679296588 0 0.45606522570456098 -0.38599652494351028 0 0.46812846895096999 -0.38912968091376021 0 0.45329728287846061 -0.39963099679296588 0 0.45693362330993059 -0.41584542252527262 0 0.45329728287846061 -0.39963099679296588 0 0.4354004349648965 -0.40055780990002432 0 0.45329728287846061 -0.39963099679296588 0 0.4354004349648965 -0.40055780990002432 0 0.45329728287846061 -0.39963099679296588 0 0.4390969294492823 -0.3851451998924304 0 0.4354004349648965 -0.40055780990002432 0 0.45329728287846061 -0.39963099679296588 0 0.4390969294492823 -0.3851451998924304 0 0.45606522570456098 -0.38599652494351028 0 0.4390969294492823 -0.3851451998924304 0 0.44783900322824399 -0.38008781189722518 0 0.45606522570456098 -0.38599652494351028 0 0.45329728287846061 -0.39963099679296588 0 0.4390969294492823 -0.3851451998924304 0 0.4390969294492823 -0.3851451998924304 0 0.43808065797110041 -0.37748478958974491 0 0.44783900322824399 -0.38008781189722518 0 0.42782015831496062 -0.38505662608606978 0 0.4354004349648965 -0.40055780990002432 0 0.41188669282555868 -0.38386409155992901 0 0.42489657602010461 -0.37065940299189432 0 0.4390969294492823 -0.3851451998924304 0 0.42782015831496062 -0.38505662608606978 0 0.42489657602010461 -0.37065940299189432 0 0.4390969294492823 -0.3851451998924304 0 0.43808065797110041 -0.37748478958974491 0 0.42489657602010461 -0.37065940299189432 0 0.4390969294492823 -0.3851451998924304 0 0.4390969294492823 -0.3851451998924304 0 0.42782015831496062 -0.38505662608606978 0 0.4354004349648965 -0.40055780990002432 0 0.4354004349648965 -0.40055780990002432 0 0.41188669282555868 -0.38386409155992901 0 0.4354004349648965 -0.40055780990002432 0 0.40669862042327182 -0.40204417319942209 0 0.4354004349648965 -0.40055780990002432 0 0.40669862042327182 -0.40204417319942209 0 0.41188669282555868 -0.38386409155992901 0 0.42489657602010461 -0.37065940299189432 0 0.42782015831496062 -0.38505662608606978 0 0.41188669282555868 -0.38386409155992901 0 0.42489657602010461 -0.37065940299189432 0 0.4070765621089808 -0.37107032214525337 0 0.41188669282555868 -0.38386409155992901 0 0.4070765621089808 -0.37107032214525337 0 0.39585190457779329 -0.37201308858561799 0 0.39886607975096749 -0.38470810625682389 0 0.40669862042327182 -0.40204417319942209 0 0.41188669282555868 -0.38386409155992901 0 0.39886607975096749 -0.38470810625682389 0 0.4070765621089808 -0.37107032214525337 0 0.41188669282555868 -0.38386409155992901 0 0.39886607975096749 -0.38470810625682389 0 0.39585190457779329 -0.37201308858561799 0 0.39886607975096749 -0.38470810625682389 0 0.38601585554704992 -0.38244526212700758 0 0.39886607975096749 -0.38470810625682389 0 0.38601585554704992 -0.38244526212700758 0 0.37799680588164719 -0.40353053649882148 0 0.38601585554704992 -0.38244526212700758 0 0.37799680588164719 -0.40353053649882148 0 0.38601585554704992 -0.38244526212700758 0 0.37799680588164719 -0.40353053649882148 0 0.36816388811638329 -0.39545065246060412 0 0.37799680588164719 -0.40353053649882148 0 0.37635446215448021 -0.40784891206015261 0 0.37799680588164719 -0.40353053649882148 0 0.37505152225636262 -0.40368306209891941 0 0.37635446215448021 -0.40784891206015261 0 0.37799680588164719 -0.40353053649882148 0 0.37505152225636262 -0.40368306209891941 0 0.40669862042327182 -0.40204417319942209 0 0.39886607975096749 -0.38470810625682389 0 0.37799680588164719 -0.40353053649882148 0 0.40669862042327182 -0.40204417319942209 0 0.37799680588164719 -0.40353053649882148 0 0.40669862042327182 -0.40204417319942209 0 0.38553791301154328 -0.41840677215457472 0 0.40567792500840172 -0.4277251834563135 0 0.40669862042327182 -0.40204417319942209 0 0.37799680588164719 -0.40353053649882148 0 0.38553791301154328 -0.41840677215457472 0 0.38553791301154328 -0.41840677215457472 0 0.36905142820508552 -0.42917232846767789 0 0.37241381966677689 -0.417360225696081 0 0.38553791301154328 -0.41840677215457472 0 0.37635446215448021 -0.40784891206015261 0 0.37241381966677689 -0.417360225696081 0 0.37799680588164719 -0.40353053649882148 0 0.38553791301154328 -0.41840677215457472 0 0.37635446215448021 -0.40784891206015261 0 0.38553791301154328 -0.41840677215457472 0 0.38807715457860831 -0.4388905332329941 0 0.36905142820508552 -0.42917232846767789 0 0.38553791301154328 -0.41840677215457472 0 0.40567792500840172 -0.4277251834563135 0 0.38807715457860831 -0.4388905332329941 0 0.40567792500840172 -0.4277251834563135 0 0.42351101069396863 -0.41893046606618117 0 0.42653452723640378 -0.44279137365393179 0 0.4354004349648965 -0.40055780990002432 0 0.40669862042327182 -0.40204417319942209 0 0.42351101069396863 -0.41893046606618117 0 0.40669862042327182 -0.40204417319942209 0 0.40567792500840172 -0.4277251834563135 0 0.42351101069396863 -0.41893046606618117 0 0.44324354583686831 -0.42153379012121539 0 0.4354004349648965 -0.40055780990002432 0 0.42351101069396863 -0.41893046606618117 0 0.44324354583686831 -0.42153379012121539 0 0.42653452723640378 -0.44279137365393179 0 0.44324354583686831 -0.42153379012121539 0 0.42351101069396863 -0.41893046606618117 0 0.42653452723640378 -0.44279137365393179 0 0.44442683605218691 -0.44583817528272968 0 0.42653452723640378 -0.44279137365393179 0 0.43057418754349119 -0.46211781715143319 0 0.42653452723640378 -0.44279137365393179 0 0.43057418754349119 -0.46211781715143319 0 0.40982550863593931 -0.46404895718664829 0 0.42653452723640378 -0.44279137365393179 0 0.40982550863593931 -0.46404895718664829 0 0.42653452723640378 -0.44279137365393179 0 0.40982550863593931 -0.46404895718664829 0 0.4036378289262339 -0.44671034290208689 0 0.40567792500840172 -0.4277251834563135 0 0.42653452723640378 -0.44279137365393179 0 0.4036378289262339 -0.44671034290208689 0 0.40567792500840172 -0.4277251834563135 0 0.4036378289262339 -0.44671034290208689 0 0.38807715457860831 -0.4388905332329941 0 0.4036378289262339 -0.44671034290208689 0 0.38807715457860831 -0.4388905332329941 0 0.38807402917181633 -0.46009566698054732 0 0.38807715457860831 -0.4388905332329941 0 0.3733961412993268 -0.45022493016754961 0 0.36905142820508552 -0.42917232846767789 0 0.38807715457860831 -0.4388905332329941 0 0.38807402917181633 -0.46009566698054732 0 0.3733961412993268 -0.45022493016754961 0 0.38807402917181633 -0.46009566698054732 0 0.36593927904035028 -0.47432204071884282 0 0.3733961412993268 -0.45022493016754961 0 0.40982550863593931 -0.46404895718664829 0 0.4036378289262339 -0.44671034290208689 0 0.38807402917181633 -0.46009566698054732 0 0.40982550863593931 -0.46404895718664829 0 0.39311649003547477 -0.48530654071936469 0 0.40982550863593931 -0.46404895718664829 0 0.38807402917181633 -0.46009566698054732 0 0.39311649003547477 -0.48530654071936469 0 0.38807402917181633 -0.46009566698054732 0 0.39311649003547477 -0.48530654071936469 0 0.36593927904035028 -0.47432204071884282 0 0.37603974257992701 -0.49999999999999978 0 0.39311649003547477 -0.48530654071936469 0 0.36593927904035028 -0.47432204071884282 0 0.37603974257992701 -0.49999999999999978 0 0.39676616081738958 -0.5 0 0.39311649003547477 -0.48530654071936469 0 0.39676616081738958 -0.5 0 0.39311649003547477 -0.48530654071936469 0 0.41749257905485199 -0.50000000000000033 0 0.40982550863593931 -0.46404895718664829 0 0.41749257905485199 -0.50000000000000033 0 0.43264288253940292 -0.48275234633568048 0 0.40982550863593931 -0.46404895718664829 0 0.39311649003547477 -0.48530654071936469 0 0.41749257905485199 -0.50000000000000033 0 0.43057418754349119 -0.46211781715143319 0 0.40982550863593931 -0.46404895718664829 0 0.43264288253940292 -0.48275234633568048 0 0.44779318602395363 -0.46550469267136052 0 0.43057418754349119 -0.46211781715143319 0 0.43264288253940292 -0.48275234633568048 0 0.41749257905485199 -0.50000000000000033 0 0.43264288253940292 -0.48275234633568048 0 0.32215468257820618 -0.5 0 0.33760568703239408 -0.47417818032706111 0 0.31005432530219129 -0.48106067464861729 0 0.33760568703239408 -0.47417818032706111 0 0.3189449745883719 -0.46117016543644002 0 0.31005432530219129 -0.48106067464861729 0 0.32215468257820618 -0.5 0 0.33760568703239408 -0.47417818032706111 0 0.34909721257906662 -0.5 0 0.37603974257992701 -0.49999999999999978 0 0.34909721257906662 -0.5 0 0.36593927904035028 -0.47432204071884282 0 0.37603974257992701 -0.49999999999999978 0 0.36593927904035028 -0.47432204071884282 0 0.33760568703239408 -0.47417818032706111 0 0.34909721257906662 -0.5 0 0.36593927904035028 -0.47432204071884282 0 0.33760568703239408 -0.47417818032706111 0 0.36593927904035028 -0.47432204071884282 0 0.35583881550077368 -0.44864408143768569 0 0.36593927904035028 -0.47432204071884282 0 0.35583881550077368 -0.44864408143768569 0 0.36593927904035028 -0.47432204071884282 0 0.3733961412993268 -0.45022493016754961 0 0.35583881550077368 -0.44864408143768569 0 0.3733961412993268 -0.45022493016754961 0 0.35583881550077368 -0.44864408143768569 0 0.36905142820508552 -0.42917232846767789 0 0.35583881550077368 -0.44864408143768569 0 0.33540415989768779 -0.44905252560006492 0 0.34573835196119679 -0.42296612215652868 0 0.33760568703239408 -0.47417818032706111 0 0.35583881550077368 -0.44864408143768569 0 0.33540415989768779 -0.44905252560006492 0 0.33760568703239408 -0.47417818032706111 0 0.33540415989768779 -0.44905252560006492 0 0.3189449745883719 -0.46117016543644002 0 0.33540415989768779 -0.44905252560006492 0 0.3189449745883719 -0.46117016543644002 0 0.32126124445813709 -0.43429719032362252 0 0.3189449745883719 -0.46117016543644002 0 0.32126124445813709 -0.43429719032362252 0 0.30480654487456732 -0.44641521679941309 0 0.32126124445813709 -0.43429719032362252 0 0.3193156137706864 -0.40941365839269389 0 0.29937418247959258 -0.41817563384508599 0 0.3193156137706864 -0.40941365839269389 0 0.34573835196119679 -0.42296612215652868 0 0.33563788842162012 -0.39728816287537172 0 0.34573835196119679 -0.42296612215652868 0 0.33563788842162012 -0.39728816287537172 0 0.33540415989768779 -0.44905252560006492 0 0.32126124445813709 -0.43429719032362252 0 0.34573835196119679 -0.42296612215652868 0 0.32126124445813709 -0.43429719032362252 0 0.3193156137706864 -0.40941365839269389 0 0.34573835196119679 -0.42296612215652868 0 0.35583881550077368 -0.44864408143768569 0 0.34573835196119679 -0.42296612215652868 0 0.36905142820508552 -0.42917232846767789 0 0.35583881550077368 -0.44864408143768569 0 0.34573835196119679 -0.42296612215652868 0 0.36905142820508552 -0.42917232846767789 0 0.37241381966677689 -0.417360225696081 0 0.36195200988480669 -0.41065981681110758 0 0.36990343230398692 -0.40830781576793279 0 0.37241381966677689 -0.417360225696081 0 0.36195200988480669 -0.41065981681110758 0 0.37635446215448021 -0.40784891206015261 0 0.36990343230398692 -0.40830781576793279 0 0.37241381966677689 -0.417360225696081 0 0.37505152225636262 -0.40368306209891941 0 0.37635446215448021 -0.40784891206015261 0 0.36990343230398692 -0.40830781576793279 0 0.36990343230398692 -0.40830781576793279 0 0.36195200988480669 -0.41065981681110758 0 0.36876771314038492 -0.40452533678464098 0 0.34573835196119679 -0.42296612215652868 0 0.36195200988480669 -0.41065981681110758 0 0.35211107663302149 -0.40015425695529971 0 0.34573835196119679 -0.42296612215652868 0 0.36905142820508552 -0.42917232846767789 0 0.36195200988480669 -0.41065981681110758 0 0.34573835196119679 -0.42296612215652868 0 0.35211107663302149 -0.40015425695529971 0 0.33563788842162012 -0.39728816287537172 0 0.35211107663302149 -0.40015425695529971 0 0.35352794608594401 -0.38791341326287138 0 0.33563788842162012 -0.39728816287537172 0 0.35211107663302149 -0.40015425695529971 0 0.36816388811638329 -0.39545065246060412 0 0.35352794608594401 -0.38791341326287138 0 0.36195200988480669 -0.41065981681110758 0 0.36816388811638329 -0.39545065246060412 0 0.36876771314038492 -0.40452533678464098 0 0.36195200988480669 -0.41065981681110758 0 0.35211107663302149 -0.40015425695529971 0 0.36816388811638329 -0.39545065246060412 0 0.37505152225636262 -0.40368306209891941 0 0.36816388811638329 -0.39545065246060412 0 0.36876771314038492 -0.40452533678464098 0 0.37799680588164719 -0.40353053649882148 0 0.37505152225636262 -0.40368306209891941 0 0.36816388811638329 -0.39545065246060412 0 0.37505152225636262 -0.40368306209891941 0 0.36990343230398692 -0.40830781576793279 0 0.36876771314038492 -0.40452533678464098 0 0.38601585554704992 -0.38244526212700758 0 0.36816388811638329 -0.39545065246060412 0 0.3689120952668708 -0.37284951495870189 0 0.36816388811638329 -0.39545065246060412 0 0.35352794608594401 -0.38791341326287138 0 0.3689120952668708 -0.37284951495870189 0 0.35352794608594401 -0.38791341326287138 0 0.33563788842162012 -0.39728816287537172 0 0.34467783115022588 -0.37252705130409253 0 0.35352794608594401 -0.38791341326287138 0 0.3689120952668708 -0.37284951495870189 0 0.34467783115022588 -0.37252705130409253 0 0.33563788842162012 -0.39728816287537172 0 0.3255374248820434 -0.37161020359421471 0 0.33563788842162012 -0.39728816287537172 0 0.34467783115022588 -0.37252705130409253 0 0.3255374248820434 -0.37161020359421471 0 0.3193156137706864 -0.40941365839269389 0 0.33563788842162012 -0.39728816287537172 0 0.30534853388527528 -0.38930881101125692 0 0.33563788842162012 -0.39728816287537172 0 0.30534853388527528 -0.38930881101125692 0 0.3255374248820434 -0.37161020359421471 0 0.30534853388527528 -0.38930881101125692 0 0.3255374248820434 -0.37161020359421471 0 0.30525369772634148 -0.37164386163485291 0 0.30534853388527528 -0.38930881101125692 0 0.28783989868818821 -0.37644057584389279 0 0.30525369772634148 -0.37164386163485291 0 0.3193156137706864 -0.40941365839269389 0 0.30534853388527528 -0.38930881101125692 0 0.29937418247959258 -0.41817563384508599 0 0.30534853388527528 -0.38930881101125692 0 0.28922044672054198 -0.39637746652331562 0 0.29937418247959258 -0.41817563384508599 0 0.28922044672054198 -0.39637746652331562 0 0.27510086349567708 -0.39798721671617321 0 0.28320928432356041 -0.41012407252970262 0 0.28922044672054198 -0.39637746652331562 0 0.28783989868818821 -0.37644057584389279 0 0.27924907625512951 -0.38731579260330862 0 0.30534853388527528 -0.38930881101125692 0 0.28922044672054198 -0.39637746652331562 0 0.28783989868818821 -0.37644057584389279 0 0.30534853388527528 -0.38930881101125692 0 0.28783989868818821 -0.37644057584389279 0 0.28783989868818821 -0.37644057584389279 0 0.27447250226623809 -0.37821124143188289 0 0.27924907625512951 -0.38731579260330862 0 0.27447250226623809 -0.37821124143188289 0 0.27924907625512951 -0.38731579260330862 0 0.26961167010500181 -0.38756246250127813 0 0.27447250226623809 -0.37821124143188289 0 0.26961167010500181 -0.38756246250127813 0 0.26423397132697279 -0.37890457124200982 0 0.26961167010500181 -0.38756246250127813 0 0.26423397132697279 -0.37890457124200982 0 0.25687819372407023 -0.38903915957053298 0 0.26423397132697279 -0.37890457124200982 0 0.25687819372407023 -0.38903915957053298 0 0.24987622704845311 -0.37613765202982719 0 0.25108303853213881 -0.40002667887407228 0 0.26390234922262928 -0.39930308446362528 0 0.256136481120742 -0.41447562176841068 0 0.25687819372407023 -0.38903915957053298 0 0.25108303853213881 -0.40002667887407228 0 0.24309899287842279 -0.39271330151873202 0 0.25687819372407023 -0.38903915957053298 0 0.25108303853213881 -0.40002667887407228 0 0.26390234922262928 -0.39930308446362528 0 0.26961167010500181 -0.38756246250127813 0 0.25687819372407023 -0.38903915957053298 0 0.26390234922262928 -0.39930308446362528 0 0.26390234922262928 -0.39930308446362528 0 0.27510086349567708 -0.39798721671617321 0 0.2708804648698091 -0.41009655218672442 0 0.26961167010500181 -0.38756246250127813 0 0.26390234922262928 -0.39930308446362528 0 0.27510086349567708 -0.39798721671617321 0 0.28922044672054198 -0.39637746652331562 0 0.27924907625512951 -0.38731579260330862 0 0.27510086349567708 -0.39798721671617321 0 0.27924907625512951 -0.38731579260330862 0 0.26961167010500181 -0.38756246250127813 0 0.27510086349567708 -0.39798721671617321 0 0.27510086349567708 -0.39798721671617321 0 0.2708804648698091 -0.41009655218672442 0 0.28320928432356041 -0.41012407252970262 0 0.2708804648698091 -0.41009655218672442 0 0.256136481120742 -0.41447562176841068 0 0.27433621812851161 -0.42550461519375637 0 0.2708804648698091 -0.41009655218672442 0 0.27433621812851161 -0.42550461519375637 0 0.28320928432356041 -0.41012407252970262 0 0.26390234922262928 -0.39930308446362528 0 0.2708804648698091 -0.41009655218672442 0 0.256136481120742 -0.41447562176841068 0 0.25108303853213881 -0.40002667887407228 0 0.256136481120742 -0.41447562176841068 0 0.24629253832767661 -0.41022035877505542 0 0.256136481120742 -0.41447562176841068 0 0.25513396950241118 -0.43290986753561628 0 0.2453827316299185 -0.42192330194190181 0 0.256136481120742 -0.41447562176841068 0 0.25513396950241118 -0.43290986753561628 0 0.27433621812851161 -0.42550461519375637 0 0.25513396950241118 -0.43290986753561628 0 0.27433621812851161 -0.42550461519375637 0 0.26752346795397081 -0.44788636482661331 0 0.27433621812851161 -0.42550461519375637 0 0.29937418247959258 -0.41817563384508599 0 0.28546596250580908 -0.44246723239800262 0 0.29937418247959258 -0.41817563384508599 0 0.30480654487456732 -0.44641521679941309 0 0.28546596250580908 -0.44246723239800262 0 0.28922044672054198 -0.39637746652331562 0 0.28320928432356041 -0.41012407252970262 0 0.29937418247959258 -0.41817563384508599 0 0.27433621812851161 -0.42550461519375637 0 0.28320928432356041 -0.41012407252970262 0 0.29937418247959258 -0.41817563384508599 0 0.32126124445813709 -0.43429719032362252 0 0.29937418247959258 -0.41817563384508599 0 0.30480654487456732 -0.44641521679941309 0 0.3189449745883719 -0.46117016543644002 0 0.30480654487456732 -0.44641521679941309 0 0.28880919487484108 -0.4658549053918814 0 0.30480654487456732 -0.44641521679941309 0 0.28880919487484108 -0.4658549053918814 0 0.28546596250580908 -0.44246723239800262 0 0.27433621812851161 -0.42550461519375637 0 0.28546596250580908 -0.44246723239800262 0 0.26752346795397081 -0.44788636482661331 0 0.28880919487484108 -0.4658549053918814 0 0.28546596250580908 -0.44246723239800262 0 0.26752346795397081 -0.44788636482661331 0 0.25513396950241118 -0.43290986753561628 0 0.26752346795397081 -0.44788636482661331 0 0.24480843210435321 -0.45079661158300749 0 0.26752346795397081 -0.44788636482661331 0 0.2588368117714554 -0.46700690363883102 0 0.24480843210435321 -0.45079661158300749 0 0.28880919487484108 -0.4658549053918814 0 0.26752346795397081 -0.44788636482661331 0 0.2588368117714554 -0.46700690363883102 0 0.28880919487484108 -0.4658549053918814 0 0.2588368117714554 -0.46700690363883102 0 0.27227655507569209 -0.48076744006000099 0 0.2588368117714554 -0.46700690363883102 0 0.27227655507569209 -0.48076744006000099 0 0.25270961841775552 -0.48460016746525392 0 0.2588368117714554 -0.46700690363883102 0 0.25270961841775552 -0.48460016746525392 0 0.23949561189523169 -0.47426551941090739 0 0.25270961841775552 -0.48460016746525392 0 0.26826962257648529 -0.5 0 0.2413270925756249 -0.5 0 0.27227655507569209 -0.48076744006000099 0 0.25270961841775552 -0.48460016746525392 0 0.26826962257648529 -0.5 0 0.27227655507569209 -0.48076744006000099 0 0.26826962257648529 -0.5 0 0.29521215257734579 -0.5 0 0.28880919487484108 -0.4658549053918814 0 0.27227655507569209 -0.48076744006000099 0 0.29521215257734579 -0.5 0 0.28880919487484108 -0.4658549053918814 0 0.29521215257734579 -0.5 0 0.31005432530219129 -0.48106067464861729 0 0.3189449745883719 -0.46117016543644002 0 0.28880919487484108 -0.4658549053918814 0 0.31005432530219129 -0.48106067464861729 0 0.32215468257820618 -0.5 0 0.29521215257734579 -0.5 0 0.31005432530219129 -0.48106067464861729 0 0.33463237856908817 -0.28956894479377399 0 0.33485830675890288 -0.30442904333306592 0 0.35657459314761941 -0.2860097891906741 0 0.33463237856908817 -0.28956894479377399 0 0.32894302133540282 -0.28710755170783531 0 0.35195887039823659 -0.28200771363307098 0 0.32894302133540282 -0.28710755170783531 0 0.35195887039823659 -0.28200771363307098 0 0.32894302133540282 -0.28710755170783531 0 0.33255663915089151 -0.29722249741805129 0 0.33463237856908817 -0.28956894479377399 0 0.32894302133540282 -0.28710755170783531 0 0.33255663915089151 -0.29722249741805129 0 0.32894302133540282 -0.28710755170783531 0 0.33255663915089151 -0.29722249741805129 0 0.32301709761150521 -0.2972128627914089 0 0.33485830675890288 -0.30442904333306592 0 0.34824447571033601 -0.30253517369681238 0 0.34533870308018377 -0.31598934501886372 0 0.33485830675890288 -0.30442904333306592 0 0.33255663915089151 -0.29722249741805129 0 0.32434770264142349 -0.30499280498860082 0 0.33463237856908817 -0.28956894479377399 0 0.33485830675890288 -0.30442904333306592 0 0.33255663915089151 -0.29722249741805129 0 0.32301709761150521 -0.2972128627914089 0 0.32434770264142349 -0.30499280498860082 0 0.3171485971304504 -0.30589952111326829 0 0.32434770264142349 -0.30499280498860082 0 0.3171485971304504 -0.30589952111326829 0 0.31314202037018413 -0.32284829747545468 0 0.33485830675890288 -0.30442904333306592 0 0.32434770264142349 -0.30499280498860082 0 0.31314202037018413 -0.32284829747545468 0 0.33255663915089151 -0.29722249741805129 0 0.32301709761150521 -0.2972128627914089 0 0.32434770264142349 -0.30499280498860082 0 0.3171485971304504 -0.30589952111326829 0 0.31208952779935789 -0.2908419387292881 0 0.30833746379913463 -0.30503745501229762 0 0.32301709761150521 -0.2972128627914089 0 0.3171485971304504 -0.30589952111326829 0 0.31208952779935789 -0.2908419387292881 0 0.32894302133540282 -0.28710755170783531 0 0.31611371382327402 -0.28007222207304999 0 0.31208952779935789 -0.2908419387292881 0 0.32894302133540282 -0.28710755170783531 0 0.32301709761150521 -0.2972128627914089 0 0.31208952779935789 -0.2908419387292881 0 0.32894302133540282 -0.28710755170783531 0 0.31208952779935789 -0.2908419387292881 0 0.32894302133540282 -0.28710755170783531 0 0.32245882367699719 -0.26895751187574157 0 0.32894302133540282 -0.28710755170783531 0 0.31611371382327402 -0.28007222207304999 0 0.32245882367699719 -0.26895751187574157 0 0.31611371382327402 -0.28007222207304999 0 0.32245882367699719 -0.26895751187574157 0 0.30706455279928557 -0.27339796693147528 0 0.32245882367699719 -0.26895751187574157 0 0.30981211567343969 -0.26250129009931661 0 0.30706455279928557 -0.27339796693147528 0 0.32245882367699719 -0.26895751187574157 0 0.31597462601859122 -0.25080747204364812 0 0.32245882367699719 -0.26895751187574157 0 0.31597462601859122 -0.25080747204364812 0 0.30981211567343969 -0.26250129009931661 0 0.32245882367699719 -0.26895751187574157 0 0.31597462601859122 -0.25080747204364812 0 0.33396674820841349 -0.26640759283836002 0 0.31597462601859122 -0.25080747204364812 0 0.33396674820841349 -0.26640759283836002 0 0.33517615116993849 -0.24743488902137309 0 0.33396674820841349 -0.26640759283836002 0 0.35185333732921159 -0.25428502110151557 0 0.33517615116993849 -0.24743488902137309 0 0.31597462601859122 -0.25080747204364812 0 0.33396674820841349 -0.26640759283836002 0 0.32894302133540282 -0.28710755170783531 0 0.32245882367699719 -0.26895751187574157 0 0.33396674820841349 -0.26640759283836002 0 0.33396674820841349 -0.26640759283836002 0 0.35195887039823659 -0.28200771363307098 0 0.32894302133540282 -0.28710755170783531 0 0.33396674820841349 -0.26640759283836002 0 0.35195887039823659 -0.28200771363307098 0 0.33396674820841349 -0.26640759283836002 0 0.35159414215374007 -0.26901089914998932 0 0.35195887039823659 -0.28200771363307098 0 0.35159414215374007 -0.26901089914998932 0 0.36459381448795669 -0.2792080702757721 0 0.35195887039823659 -0.28200771363307098 0 0.36459381448795669 -0.2792080702757721 0 0.35195887039823659 -0.28200771363307098 0 0.33396674820841349 -0.26640759283836002 0 0.35159414215374007 -0.26901089914998932 0 0.35185333732921159 -0.25428502110151557 0 0.35159414215374007 -0.26901089914998932 0 0.35185333732921159 -0.25428502110151557 0 0.36435388824524378 -0.26651308148643732 0 0.37477580018058132 -0.24095111383496479 0 0.37683953433427181 -0.26882153263446662 0 0.36563983252638571 -0.25462703483095822 0 0.36075586336603621 -0.2426037127049111 0 0.35185333732921159 -0.25428502110151557 0 0.36563983252638571 -0.25462703483095822 0 0.35185333732921159 -0.25428502110151557 0 0.36563983252638571 -0.25462703483095822 0 0.36435388824524378 -0.26651308148643732 0 0.37683953433427181 -0.26882153263446662 0 0.36563983252638571 -0.25462703483095822 0 0.36435388824524378 -0.26651308148643732 0 0.36459381448795669 -0.2792080702757721 0 0.36308990924476459 -0.28048364807874221 0 0.35195887039823659 -0.28200771363307098 0 0.36459381448795669 -0.2792080702757721 0 0.36308990924476459 -0.28048364807874221 0 0.37273728942595791 -0.27740364396778311 0 0.36459381448795669 -0.2792080702757721 0 0.36308990924476459 -0.28048364807874221 0 0.35159414215374007 -0.26901089914998932 0 0.36459381448795669 -0.2792080702757721 0 0.36435388824524378 -0.26651308148643732 0 0.37683953433427181 -0.26882153263446662 0 0.36459381448795669 -0.2792080702757721 0 0.36435388824524378 -0.26651308148643732 0 0.36459381448795669 -0.2792080702757721 0 0.37273728942595791 -0.27740364396778311 0 0.37683953433427181 -0.26882153263446662 0 0.36459381448795669 -0.2792080702757721 0 0.37273728942595791 -0.27740364396778311 0 0.37683953433427181 -0.26882153263446662 0 0.36459381448795669 -0.2792080702757721 0 0.36308990924476459 -0.28048364807874221 0 0.37273728942595791 -0.27740364396778311 0 0.37795999762798671 -0.28395322059410122 0 0.37273728942595791 -0.27740364396778311 0 0.36936745264149701 -0.28627283508716472 0 0.35657459314761941 -0.2860097891906741 0 0.35620629985463748 -0.30371251724464648 0 0.37101427446782781 -0.29852975601036341 0 0.36308990924476459 -0.28048364807874221 0 0.37273728942595791 -0.27740364396778311 0 0.36936745264149701 -0.28627283508716472 0 0.37519981906117678 -0.29055939022370142 0 0.37795999762798671 -0.28395322059410122 0 0.36936745264149701 -0.28627283508716472 0 0.37519981906117678 -0.29055939022370142 0 0.36936745264149701 -0.28627283508716472 0 0.37101427446782781 -0.29852975601036341 0 0.36936745264149701 -0.28627283508716472 0 0.35657459314761941 -0.2860097891906741 0 0.37101427446782781 -0.29852975601036341 0 0.35657459314761941 -0.2860097891906741 0 0.37101427446782781 -0.29852975601036341 0 0.36308990924476459 -0.28048364807874221 0 0.36936745264149701 -0.28627283508716472 0 0.35657459314761941 -0.2860097891906741 0 0.36308990924476459 -0.28048364807874221 0 0.35657459314761941 -0.2860097891906741 0 0.36308990924476459 -0.28048364807874221 0 0.35366972758071469 -0.28349111722646431 0 0.33463237856908817 -0.28956894479377399 0 0.35366972758071469 -0.28349111722646431 0 0.33463237856908817 -0.28956894479377399 0 0.35366972758071469 -0.28349111722646431 0 0.35195887039823659 -0.28200771363307098 0 0.36308990924476459 -0.28048364807874221 0 0.35366972758071469 -0.28349111722646431 0 0.35195887039823659 -0.28200771363307098 0 0.33485830675890288 -0.30442904333306592 0 0.35657459314761941 -0.2860097891906741 0 0.36308990924476459 -0.28048364807874221 0 0.35366972758071469 -0.28349111722646431 0 0.35657459314761941 -0.2860097891906741 0 0.33463237856908817 -0.28956894479377399 0 0.35366972758071469 -0.28349111722646431 0 0.35657459314761941 -0.2860097891906741 0 0.35366972758071469 -0.28349111722646431 0 0.35657459314761941 -0.2860097891906741 0 0.35366972758071469 -0.28349111722646431 0 0.35195887039823659 -0.28200771363307098 0 0.35620629985463748 -0.30371251724464648 0 0.36380134767337091 -0.31365371592763602 0 0.34533870308018377 -0.31598934501886372 0 0.35657459314761941 -0.2860097891906741 0 0.34824447571033601 -0.30253517369681238 0 0.35620629985463748 -0.30371251724464648 0 0.33485830675890288 -0.30442904333306592 0 0.35657459314761941 -0.2860097891906741 0 0.34824447571033601 -0.30253517369681238 0 0.34824447571033601 -0.30253517369681238 0 0.35620629985463748 -0.30371251724464648 0 0.34533870308018377 -0.31598934501886372 0 0.38545395578803499 -0.31104972283005378 0 0.37101427446782781 -0.29852975601036341 0 0.36380134767337091 -0.31365371592763602 0 0.35620629985463748 -0.30371251724464648 0 0.37101427446782781 -0.29852975601036341 0 0.36380134767337091 -0.31365371592763602 0 0.38545395578803499 -0.31104972283005378 0 0.36380134767337091 -0.31365371592763602 0 0.36945761595668469 -0.32738841673247931 0 0.36380134767337091 -0.31365371592763602 0 0.36945761595668469 -0.32738841673247931 0 0.35533723689285712 -0.32525253772940937 0 0.36945761595668469 -0.32738841673247931 0 0.35618710249729552 -0.34088690244721892 0 0.35533723689285712 -0.32525253772940937 0 0.36945761595668469 -0.32738841673247931 0 0.35618710249729552 -0.34088690244721892 0 0.37368731816096312 -0.34897020548070451 0 0.35618710249729552 -0.34088690244721892 0 0.33810128782584858 -0.35072533414536311 0 0.34064131712366241 -0.33181983138849169 0 0.35618710249729552 -0.34088690244721892 0 0.35533723689285712 -0.32525253772940937 0 0.34064131712366241 -0.33181983138849169 0 0.34533870308018377 -0.31598934501886372 0 0.35533723689285712 -0.32525253772940937 0 0.34064131712366241 -0.33181983138849169 0 0.36380134767337091 -0.31365371592763602 0 0.34533870308018377 -0.31598934501886372 0 0.35533723689285712 -0.32525253772940937 0 0.3689120952668708 -0.37284951495870189 0 0.37368731816096312 -0.34897020548070451 0 0.35738528973841999 -0.35772904562383351 0 0.35618710249729552 -0.34088690244721892 0 0.37368731816096312 -0.34897020548070451 0 0.35738528973841999 -0.35772904562383351 0 0.35618710249729552 -0.34088690244721892 0 0.35738528973841999 -0.35772904562383351 0 0.33810128782584858 -0.35072533414536311 0 0.35738528973841999 -0.35772904562383351 0 0.34467783115022588 -0.37252705130409253 0 0.33810128782584858 -0.35072533414536311 0 0.3689120952668708 -0.37284951495870189 0 0.35738528973841999 -0.35772904562383351 0 0.34467783115022588 -0.37252705130409253 0 0.34467783115022588 -0.37252705130409253 0 0.33810128782584858 -0.35072533414536311 0 0.3255374248820434 -0.37161020359421471 0 0.31543696134246668 -0.34593224431305769 0 0.3255374248820434 -0.37161020359421471 0 0.30900602422585888 -0.35865430802761772 0 0.31543696134246668 -0.34593224431305769 0 0.3255374248820434 -0.37161020359421471 0 0.33810128782584858 -0.35072533414536311 0 0.31543696134246668 -0.34593224431305769 0 0.3255374248820434 -0.37161020359421471 0 0.3255374248820434 -0.37161020359421471 0 0.30525369772634148 -0.37164386163485291 0 0.30900602422585888 -0.35865430802761772 0 0.34533870308018377 -0.31598934501886372 0 0.33130220335757699 -0.32186248444176119 0 0.34064131712366241 -0.33181983138849169 0 0.33485830675890288 -0.30442904333306592 0 0.34533870308018377 -0.31598934501886372 0 0.33130220335757699 -0.32186248444176119 0 0.33810128782584858 -0.35072533414536311 0 0.34064131712366241 -0.33181983138849169 0 0.3268430880468266 -0.33457206034663262 0 0.33130220335757699 -0.32186248444176119 0 0.34064131712366241 -0.33181983138849169 0 0.3268430880468266 -0.33457206034663262 0 0.31543696134246668 -0.34593224431305769 0 0.3268430880468266 -0.33457206034663262 0 0.31314202037018413 -0.32284829747545468 0 0.33810128782584858 -0.35072533414536311 0 0.31543696134246668 -0.34593224431305769 0 0.3268430880468266 -0.33457206034663262 0 0.33130220335757699 -0.32186248444176119 0 0.3268430880468266 -0.33457206034663262 0 0.31314202037018413 -0.32284829747545468 0 0.33485830675890288 -0.30442904333306592 0 0.31314202037018413 -0.32284829747545468 0 0.3171485971304504 -0.30589952111326829 0 0.31314202037018413 -0.32284829747545468 0 0.3109911447756647 -0.31350988965823029 0 0.33485830675890288 -0.30442904333306592 0 0.33130220335757699 -0.32186248444176119 0 0.31314202037018413 -0.32284829747545468 0 0.31314202037018413 -0.32284829747545468 0 0.30533649780288991 -0.32025428503190068 0 0.3109911447756647 -0.31350988965823029 0 0.30533649780288991 -0.32025428503190068 0 0.3109911447756647 -0.31350988965823029 0 0.30833746379913463 -0.30503745501229762 0 0.31543696134246668 -0.34593224431305769 0 0.30533649780288991 -0.32025428503190068 0 0.30314188851555429 -0.3464145030398364 0 0.30533649780288991 -0.32025428503190068 0 0.29792146783109758 -0.32077626486014349 0 0.30314188851555429 -0.3464145030398364 0 0.31543696134246668 -0.34593224431305769 0 0.31314202037018413 -0.32284829747545468 0 0.30533649780288991 -0.32025428503190068 0 0.29792146783109758 -0.32077626486014349 0 0.30314188851555429 -0.3464145030398364 0 0.31543696134246668 -0.34593224431305769 0 0.30533649780288991 -0.32025428503190068 0 0.29792146783109758 -0.32077626486014349 0 0.29422135484035322 -0.33366994296298719 0 0.30314188851555429 -0.3464145030398364 0 0.29422135484035322 -0.33366994296298719 0 0.29546103181119637 -0.34185893253319311 0 0.30314188851555429 -0.3464145030398364 0 0.29422135484035322 -0.33366994296298719 0 0.29546103181119637 -0.34185893253319311 0 0.28827175492889229 -0.34275780055790278 0 0.29546103181119637 -0.34185893253319311 0 0.28827175492889229 -0.34275780055790278 0 0.29811044553331972 -0.34650788457159087 0 0.29422135484035322 -0.33366994296298719 0 0.28827175492889229 -0.34275780055790278 0 0.27955848846152698 -0.33666113426449551 0 0.29422135484035322 -0.33366994296298719 0 0.28744860979629389 -0.32474860906702402 0 0.27955848846152698 -0.33666113426449551 0 0.28744860979629389 -0.32474860906702402 0 0.29019889155513462 -0.31620785207956748 0 0.28097437988070417 -0.31138482246715898 0 0.29792146783109758 -0.32077626486014349 0 0.29019889155513462 -0.31620785207956748 0 0.29244758100571983 -0.32385066724243061 0 0.29422135484035322 -0.33366994296298719 0 0.28744860979629389 -0.32474860906702402 0 0.29244758100571983 -0.32385066724243061 0 0.29792146783109758 -0.32077626486014349 0 0.29422135484035322 -0.33366994296298719 0 0.29244758100571983 -0.32385066724243061 0 0.28744860979629389 -0.32474860906702402 0 0.29019889155513462 -0.31620785207956748 0 0.29244758100571983 -0.32385066724243061 0 0.30525369772634148 -0.37164386163485291 0 0.30031449930387721 -0.36082981960256849 0 0.30900602422585888 -0.35865430802761772 0 0.30525369772634148 -0.37164386163485291 0 0.30031449930387721 -0.36082981960256849 0 0.29483415024835152 -0.36747827247447862 0 0.30080593951138668 -0.35381036279877531 0 0.30900602422585888 -0.35865430802761772 0 0.30314188851555429 -0.3464145030398364 0 0.30080593951138668 -0.35381036279877531 0 0.29811044553331972 -0.34650788457159087 0 0.29345683997832372 -0.35664529875226292 0 0.30031449930387721 -0.36082981960256849 0 0.30080593951138668 -0.35381036279877531 0 0.30900602422585888 -0.35865430802761772 0 0.30031449930387721 -0.36082981960256849 0 0.30080593951138668 -0.35381036279877531 0 0.29345683997832372 -0.35664529875226292 0 0.31543696134246668 -0.34593224431305769 0 0.30900602422585888 -0.35865430802761772 0 0.30314188851555429 -0.3464145030398364 0 0.30080593951138668 -0.35381036279877531 0 0.30314188851555429 -0.3464145030398364 0 0.29811044553331972 -0.34650788457159087 0 0.29546103181119637 -0.34185893253319311 0 0.30314188851555429 -0.3464145030398364 0 0.29811044553331972 -0.34650788457159087 0 0.29811044553331972 -0.34650788457159087 0 0.29345683997832372 -0.35664529875226292 0 0.28122462644821988 -0.35688066365974619 0 0.28827175492889229 -0.34275780055790278 0 0.29811044553331972 -0.34650788457159087 0 0.28122462644821988 -0.35688066365974619 0 0.28827175492889229 -0.34275780055790278 0 0.28122462644821988 -0.35688066365974619 0 0.27955848846152698 -0.33666113426449551 0 0.29811044553331972 -0.34650788457159087 0 0.28122462644821988 -0.35688066365974619 0 0.29345683997832372 -0.35664529875226292 0 0.28676543400443838 -0.36101512068260139 0 0.28122462644821988 -0.35688066365974619 0 0.28676543400443838 -0.36101512068260139 0 0.28122462644821988 -0.35688066365974619 0 0.28783989868818821 -0.37644057584389279 0 0.30525369772634148 -0.37164386163485291 0 0.29483415024835152 -0.36747827247447862 0 0.28783989868818821 -0.37644057584389279 0 0.28676543400443838 -0.36101512068260139 0 0.27033126349110148 -0.36357234067652822 0 0.29357505063040601 -0.36145191270551408 0 0.28676543400443838 -0.36101512068260139 0 0.29483415024835152 -0.36747827247447862 0 0.30031449930387721 -0.36082981960256849 0 0.29357505063040601 -0.36145191270551408 0 0.29483415024835152 -0.36747827247447862 0 0.30031449930387721 -0.36082981960256849 0 0.29345683997832372 -0.35664529875226292 0 0.29357505063040601 -0.36145191270551408 0 0.29345683997832372 -0.35664529875226292 0 0.29357505063040601 -0.36145191270551408 0 0.28676543400443838 -0.36101512068260139 0 0.28783989868818821 -0.37644057584389279 0 0.28676543400443838 -0.36101512068260139 0 0.29483415024835152 -0.36747827247447862 0 0.28783989868818821 -0.37644057584389279 0 0.27033126349110148 -0.36357234067652822 0 0.28783989868818821 -0.37644057584389279 0 0.27447250226623809 -0.37821124143188289 0 0.27033126349110148 -0.36357234067652822 0 0.28676543400443838 -0.36101512068260139 0 0.27033126349110148 -0.36357234067652822 0 0.28122462644821988 -0.35688066365974619 0 0.27447250226623809 -0.37821124143188289 0 0.26423397132697279 -0.37890457124200982 0 0.27033126349110148 -0.36357234067652822 0 0.27033126349110148 -0.36357234067652822 0 0.28122462644821988 -0.35688066365974619 0 0.28122462644821988 -0.35688066365974619 0 0.26082083375001269 -0.34165569813656432 0 0.27033126349110148 -0.36357234067652822 0 0.28122462644821988 -0.35688066365974619 0 0.26082083375001269 -0.34165569813656432 0 0.28122462644821988 -0.35688066365974619 0 0.27955848846152698 -0.33666113426449551 0 0.26082083375001269 -0.34165569813656432 0 0.27033126349110148 -0.36357234067652822 0 0.25099839141978419 -0.34936335514031408 0 0.27033126349110148 -0.36357234067652822 0 0.25099839141978419 -0.34936335514031408 0 0.26082083375001269 -0.34165569813656432 0 0.27033126349110148 -0.36357234067652822 0 0.25099839141978419 -0.34936335514031408 0 0.24534349961555019 -0.36253701182870851 0 0.26423397132697279 -0.37890457124200982 0 0.27033126349110148 -0.36357234067652822 0 0.24987622704845311 -0.37613765202982719 0 0.27033126349110148 -0.36357234067652822 0 0.24534349961555019 -0.36253701182870851 0 0.24987622704845311 -0.37613765202982719 0 0.27033126349110148 -0.36357234067652822 0 0.24987622704845311 -0.37613765202982719 0 0.28744860979629389 -0.32474860906702402 0 0.26598899428458778 -0.32103793389256657 0 0.27955848846152698 -0.33666113426449551 0 0.28744860979629389 -0.32474860906702402 0 0.26598899428458778 -0.32103793389256657 0 0.28097437988070417 -0.31138482246715898 0 0.26598899428458778 -0.32103793389256657 0 0.27955848846152698 -0.33666113426449551 0 0.26082083375001269 -0.34165569813656432 0 0.26082083375001269 -0.34165569813656432 0 0.2404170410518052 -0.32643073261338312 0 0.26598899428458778 -0.32103793389256657 0 0.26082083375001269 -0.34165569813656432 0 0.2404170410518052 -0.32643073261338312 0 0.25099839141978419 -0.34936335514031408 0 0.26082083375001269 -0.34165569813656432 0 0.2404170410518052 -0.32643073261338312 0 0.26598899428458778 -0.32103793389256657 0 0.24423538898563429 -0.30587701823941071 0 0.2404170410518052 -0.32643073261338312 0 0.26846821806613752 -0.30050752245993012 0 0.24423538898563429 -0.30587701823941071 0 0.25301376652256202 -0.2892367573709661 0 0.26846821806613752 -0.30050752245993012 0 0.24423538898563429 -0.30587701823941071 0 0.26598899428458778 -0.32103793389256657 0 0.26846821806613752 -0.30050752245993012 0 0.24423538898563429 -0.30587701823941071 0 0.25301376652256202 -0.2892367573709661 0 0.26500420865911251 -0.28331687632378699 0 0.26846821806613752 -0.30050752245993012 0 0.25301376652256202 -0.2892367573709661 0 0.26500420865911251 -0.28331687632378699 0 0.2507153324002197 -0.27704953531328702 0 0.26500420865911251 -0.28331687632378699 0 0.27805302037335089 -0.28584974436810762 0 0.26846821806613752 -0.30050752245993012 0 0.27805302037335089 -0.28584974436810762 0 0.26846821806613752 -0.30050752245993012 0 0.29270104714664102 -0.29513802668045069 0 0.26500420865911251 -0.28331687632378699 0 0.27805302037335089 -0.28584974436810762 0 0.27342558025451552 -0.27498979272208851 0 0.26598899428458778 -0.32103793389256657 0 0.26846821806613752 -0.30050752245993012 0 0.28097437988070417 -0.31138482246715898 0 0.26846821806613752 -0.30050752245993012 0 0.28097437988070417 -0.31138482246715898 0 0.29270104714664102 -0.29513802668045069 0 0.26846821806613752 -0.30050752245993012 0 0.29270104714664102 -0.29513802668045069 0 0.29792146783109758 -0.32077626486014349 0 0.29270104714664102 -0.29513802668045069 0 0.29019889155513462 -0.31620785207956748 0 0.28097437988070417 -0.31138482246715898 0 0.29270104714664102 -0.29513802668045069 0 0.29792146783109758 -0.32077626486014349 0 0.29019889155513462 -0.31620785207956748 0 0.29270104714664102 -0.29513802668045069 0 0.29792146783109758 -0.32077626486014349 0 0.29270104714664102 -0.29513802668045069 0 0.29523603426331357 -0.29457632575074338 0 0.27805302037335089 -0.28584974436810762 0 0.29026987947112831 -0.28319821192468808 0 0.29270104714664102 -0.29513802668045069 0 0.27805302037335089 -0.28584974436810762 0 0.29026987947112831 -0.28319821192468808 0 0.28863308206368682 -0.27515966401439529 0 0.29026987947112831 -0.28319821192468808 0 0.29523603426331357 -0.29457632575074338 0 0.29026987947112831 -0.28319821192468808 0 0.29523603426331357 -0.29457632575074338 0 0.30320790951940702 -0.28313078900162059 0 0.29026987947112831 -0.28319821192468808 0 0.29270104714664102 -0.29513802668045069 0 0.29523603426331357 -0.29457632575074338 0 0.29026987947112831 -0.28319821192468808 0 0.29270104714664102 -0.29513802668045069 0 0.29270104714664102 -0.29513802668045069 0 0.29523603426331357 -0.29457632575074338 0 0.29523603426331357 -0.29457632575074338 0 0.31208952779935789 -0.2908419387292881 0 0.29523603426331357 -0.29457632575074338 0 0.30320790951940702 -0.28313078900162059 0 0.31208952779935789 -0.2908419387292881 0 0.29523603426331357 -0.29457632575074338 0 0.31208952779935789 -0.2908419387292881 0 0.30833746379913463 -0.30503745501229762 0 0.31611371382327402 -0.28007222207304999 0 0.30320790951940702 -0.28313078900162059 0 0.31208952779935789 -0.2908419387292881 0 0.30533649780288991 -0.32025428503190068 0 0.29523603426331357 -0.29457632575074338 0 0.30833746379913463 -0.30503745501229762 0 0.30533649780288991 -0.32025428503190068 0 0.29792146783109758 -0.32077626486014349 0 0.29523603426331357 -0.29457632575074338 0 0.30533649780288991 -0.32025428503190068 0 0.29523603426331357 -0.29457632575074338 0 0.3171485971304504 -0.30589952111326829 0 0.3109911447756647 -0.31350988965823029 0 0.30833746379913463 -0.30503745501229762 0 0.29812220868357159 -0.26533402464574418 0 0.30111904597271899 -0.2536098058489899 0 0.30981211567343969 -0.26250129009931661 0 0.31597462601859122 -0.25080747204364812 0 0.30111904597271899 -0.2536098058489899 0 0.30981211567343969 -0.26250129009931661 0 0.29812220868357159 -0.26533402464574418 0 0.30981211567343969 -0.26250129009931661 0 0.30706455279928557 -0.27339796693147528 0 0.31611371382327402 -0.28007222207304999 0 0.30320790951940702 -0.28313078900162059 0 0.30706455279928557 -0.27339796693147528 0 0.29026987947112831 -0.28319821192468808 0 0.30320790951940702 -0.28313078900162059 0 0.29755036247591721 -0.27602563541609298 0 0.30320790951940702 -0.28313078900162059 0 0.30706455279928557 -0.27339796693147528 0 0.29755036247591721 -0.27602563541609298 0 0.29812220868357159 -0.26533402464574418 0 0.30706455279928557 -0.27339796693147528 0 0.29755036247591721 -0.27602563541609298 0 0.29812220868357159 -0.26533402464574418 0 0.29755036247591721 -0.27602563541609298 0 0.28863308206368682 -0.27515966401439529 0 0.29026987947112831 -0.28319821192468808 0 0.28863308206368682 -0.27515966401439529 0 0.29026987947112831 -0.28319821192468808 0 0.29755036247591721 -0.27602563541609298 0 0.28863308206368682 -0.27515966401439529 0 0.28863308206368682 -0.27515966401439529 0 0.28456511698073272 -0.25518130134833977 0 0.29812220868357159 -0.26533402464574418 0 0.28863308206368682 -0.27515966401439529 0 0.28456511698073272 -0.25518130134833977 0 0.29812220868357159 -0.26533402464574418 0 0.30111904597271899 -0.2536098058489899 0 0.28456511698073272 -0.25518130134833977 0 0.28863308206368682 -0.27515966401439529 0 0.28456511698073272 -0.25518130134833977 0 0.27223885194073971 -0.26265851400849172 0 0.28456511698073272 -0.25518130134833977 0 0.27223885194073971 -0.26265851400849172 0 0.26629969424128969 -0.25192769388052821 0 0.27223885194073971 -0.26265851400849172 0 0.26629969424128969 -0.25192769388052821 0 0.2629172406837702 -0.26740365320709081 0 0.26500420865911251 -0.28331687632378699 0 0.27342558025451552 -0.27498979272208851 0 0.2629172406837702 -0.26740365320709081 0 0.28863308206368682 -0.27515966401439529 0 0.27223885194073971 -0.26265851400849172 0 0.27342558025451552 -0.27498979272208851 0 0.27805302037335089 -0.28584974436810762 0 0.28863308206368682 -0.27515966401439529 0 0.27342558025451552 -0.27498979272208851 0 0.27223885194073971 -0.26265851400849172 0 0.27342558025451552 -0.27498979272208851 0 0.2629172406837702 -0.26740365320709081 0 0.26500420865911251 -0.28331687632378699 0 0.2629172406837702 -0.26740365320709081 0 0.2507153324002197 -0.27704953531328702 0 0.2629172406837702 -0.26740365320709081 0 0.2507153324002197 -0.27704953531328702 0 0.2466218950091964 -0.26012473444713258 0 0.25037283077400019 -0.2416092145933311 0 0.26629969424128969 -0.25192769388052821 0 0.2466218950091964 -0.26012473444713258 0 0.26629969424128969 -0.25192769388052821 0 0.2629172406837702 -0.26740365320709081 0 0.2466218950091964 -0.26012473444713258 0 0.25037283077400019 -0.2416092145933311 0 0.2466218950091964 -0.26012473444713258 0 0.2339549802858914 -0.24933471903745599 0 0.2466218950091964 -0.26012473444713258 0 0.22717476572977791 -0.26325637954660608 0 0.2339549802858914 -0.24933471903745599 0 0.2466218950091964 -0.26012473444713258 0 0.23628574795648369 -0.27498419313581679 0 0.22717476572977791 -0.26325637954660608 0 0.2507153324002197 -0.27704953531328702 0 0.2466218950091964 -0.26012473444713258 0 0.23628574795648369 -0.27498419313581679 0 0.2507153324002197 -0.27704953531328702 0 0.23628574795648369 -0.27498419313581679 0 0.24044913557019401 -0.28723099739492908 0 0.2247339410531527 -0.27667652802353632 0 0.21554844428562811 -0.26491471108287651 0 0.21653111649902579 -0.28712771180040292 0 0.23628574795648369 -0.27498419313581679 0 0.2247339410531527 -0.27667652802353632 0 0.22717476572977791 -0.26325637954660608 0 0.2247339410531527 -0.27667652802353632 0 0.22717476572977791 -0.26325637954660608 0 0.21554844428562811 -0.26491471108287651 0 0.22717476572977791 -0.26325637954660608 0 0.22331750647786899 -0.25281133177650322 0 0.2339549802858914 -0.24933471903745599 0 0.22717476572977791 -0.26325637954660608 0 0.22331750647786899 -0.25281133177650322 0 0.21554844428562811 -0.26491471108287651 0 0.2084475354763706 -0.25511513831035743 0 0.21554844428562811 -0.26491471108287651 0 0.1982966667633215 -0.26354120971092698 0 0.21554844428562811 -0.26491471108287651 0 0.21456577207223029 -0.24270171036535029 0 0.22331750647786899 -0.25281133177650322 0 0.21554844428562811 -0.26491471108287651 0 0.21456577207223029 -0.24270171036535029 0 0.2084475354763706 -0.25511513831035743 0 0.21554844428562811 -0.26491471108287651 0 0.21336353465090491 -0.24693864317134839 0 0.21554844428562811 -0.26491471108287651 0 0.21336353465090491 -0.24693864317134839 0 0.21456577207223029 -0.24270171036535029 0 0.2084475354763706 -0.25511513831035743 0 0.1982966667633215 -0.26354120971092698 0 0.2080714594183444 -0.2424179483002232 0 0.1982966667633215 -0.26354120971092698 0 0.2080714594183444 -0.2424179483002232 0 0.21554844428562811 -0.26491471108287651 0 0.21653111649902579 -0.28712771180040292 0 0.21554844428562811 -0.26491471108287651 0 0.20859607852913339 -0.28093905456482821 0 0.21653111649902579 -0.28712771180040292 0 0.21554844428562811 -0.26491471108287651 0 0.20859607852913339 -0.28093905456482821 0 0.2011380539128553 -0.27767933622792518 0 0.21554844428562811 -0.26491471108287651 0 0.2011380539128553 -0.27767933622792518 0 0.1982966667633215 -0.26354120971092698 0 0.1982966667633215 -0.26354120971092698 0 0.18852187410829821 -0.28466447112163068 0 0.1982966667633215 -0.26354120971092698 0 0.18852187410829821 -0.28466447112163068 0 0.1845366839674035 -0.26640487959885623 0 0.2011380539128553 -0.27767933622792518 0 0.1982966667633215 -0.26354120971092698 0 0.18852187410829821 -0.28466447112163068 0 0.1982966667633215 -0.26354120971092698 0 0.2080714594183444 -0.2424179483002232 0 0.19254414318066221 -0.24961624770678509 0 0.1982966667633215 -0.26354120971092698 0 0.18706352147094041 -0.25756661524031438 0 0.1845366839674035 -0.26640487959885623 0 0.1982966667633215 -0.26354120971092698 0 0.18706352147094041 -0.25756661524031438 0 0.19254414318066221 -0.24961624770678509 0 0.18706352147094041 -0.25756661524031438 0 0.19254414318066221 -0.24961624770678509 0 0.18399505531774341 -0.24981832115951039 0 0.20249447748908611 -0.29813355613580778 0 0.1976485991634879 -0.30796138879627621 0 0.19462594870140809 -0.30164723750547567 0 0.20249447748908611 -0.29813355613580778 0 0.19462594870140809 -0.30164723750547567 0 0.19392418081794471 -0.29575522021664652 0 0.20249447748908611 -0.29813355613580778 0 0.1976485991634879 -0.30796138879627621 0 0.20782414549410869 -0.30817847155873718 0 0.1976485991634879 -0.30796138879627621 0 0.20782414549410869 -0.30817847155873718 0 0.20282381327660201 -0.31505297042611552 0 0.1976485991634879 -0.30796138879627621 0 0.19009702279388629 -0.3064242775921906 0 0.18802618722583669 -0.31833181955932999 0 0.1976485991634879 -0.30796138879627621 0 0.19009702279388629 -0.3064242775921906 0 0.19462594870140809 -0.30164723750547567 0 0.19009702279388629 -0.3064242775921906 0 0.19462594870140809 -0.30164723750547567 0 0.1880606218677118 -0.30022154946313712 0 0.19462594870140809 -0.30164723750547567 0 0.19110113081553529 -0.29631368747161629 0 0.19392418081794471 -0.29575522021664652 0 0.1880606218677118 -0.30022154946313712 0 0.19110113081553529 -0.29631368747161629 0 0.18734834214976739 -0.29514628785519947 0 0.19462594870140809 -0.30164723750547567 0 0.1880606218677118 -0.30022154946313712 0 0.19110113081553529 -0.29631368747161629 0 0.20249447748908611 -0.29813355613580778 0 0.18747516626574931 -0.28692639975368628 0 0.20249447748908611 -0.29813355613580778 0 0.19392418081794471 -0.29575522021664652 0 0.18747516626574931 -0.28692639975368628 0 0.19110113081553529 -0.29631368747161629 0 0.19392418081794471 -0.29575522021664652 0 0.18747516626574931 -0.28692639975368628 0 0.19110113081553529 -0.29631368747161629 0 0.18747516626574931 -0.28692639975368628 0 0.18734834214976739 -0.29514628785519947 0 0.18852187410829821 -0.28466447112163068 0 0.19787122383615691 -0.29172525818392958 0 0.18852187410829821 -0.28466447112163068 0 0.19731262536099689 -0.28481999283041842 0 0.19787122383615691 -0.29172525818392958 0 0.18852187410829821 -0.28466447112163068 0 0.19787122383615691 -0.29172525818392958 0 0.18747516626574931 -0.28692639975368628 0 0.18852187410829821 -0.28466447112163068 0 0.18747516626574931 -0.28692639975368628 0 0.2011380539128553 -0.27767933622792518 0 0.18852187410829821 -0.28466447112163068 0 0.19731262536099689 -0.28481999283041842 0 0.201719349586677 -0.2852109057881882 0 0.19787122383615691 -0.29172525818392958 0 0.206049533411369 -0.28982701925762389 0 0.19731262536099689 -0.28481999283041842 0 0.201719349586677 -0.2852109057881882 0 0.19787122383615691 -0.29172525818392958 0 0.2011380539128553 -0.27767933622792518 0 0.19731262536099689 -0.28481999283041842 0 0.201719349586677 -0.2852109057881882 0 0.20249447748908611 -0.29813355613580778 0 0.19787122383615691 -0.29172525818392958 0 0.18747516626574931 -0.28692639975368628 0 0.20249447748908611 -0.29813355613580778 0 0.19787122383615691 -0.29172525818392958 0 0.206049533411369 -0.28982701925762389 0 0.20249447748908611 -0.29813355613580778 0 0.206049533411369 -0.28982701925762389 0 0.20903552332543929 -0.29406903275804652 0 0.206049533411369 -0.28982701925762389 0 0.20903552332543929 -0.29406903275804652 0 0.21653111649902579 -0.28712771180040292 0 0.20249447748908611 -0.29813355613580778 0 0.20903552332543929 -0.29406903275804652 0 0.2123558614978226 -0.29827812898856709 0 0.20859607852913339 -0.28093905456482821 0 0.206049533411369 -0.28982701925762389 0 0.21653111649902579 -0.28712771180040292 0 0.20859607852913339 -0.28093905456482821 0 0.201719349586677 -0.2852109057881882 0 0.206049533411369 -0.28982701925762389 0 0.20859607852913339 -0.28093905456482821 0 0.2011380539128553 -0.27767933622792518 0 0.201719349586677 -0.2852109057881882 0 0.20903552332543929 -0.29406903275804652 0 0.21653111649902579 -0.28712771180040292 0 0.2123558614978226 -0.29827812898856709 0 0.21653111649902579 -0.28712771180040292 0 0.2175137887124228 -0.30934071251792922 0 0.21653111649902579 -0.28712771180040292 0 0.2123558614978226 -0.29827812898856709 0 0.2175137887124228 -0.30934071251792922 0 0.20249447748908611 -0.29813355613580778 0 0.2123558614978226 -0.29827812898856709 0 0.2175137887124228 -0.30934071251792922 0 0.20249447748908611 -0.29813355613580778 0 0.2175137887124228 -0.30934071251792922 0 0.20782414549410869 -0.30817847155873718 0 0.2176214393273678 -0.31177412129290383 0 0.20282381327660201 -0.31505297042611552 0 0.20249447748908611 -0.29813355613580778 0 0.20782414549410869 -0.30817847155873718 0 0.2175137887124228 -0.30934071251792922 0 0.20782414549410869 -0.30817847155873718 0 0.2175137887124228 -0.30934071251792922 0 0.2176214393273678 -0.31177412129290383 0 0.2175137887124228 -0.30934071251792922 0 0.2176214393273678 -0.31177412129290383 0 0.2175137887124228 -0.30934071251792922 0 0.2176214393273678 -0.31177412129290383 0 0.21999804566891551 -0.31122614102315033 0 0.21999804566891551 -0.31122614102315033 0 0.24423538898563429 -0.30587701823941071 0 0.2175137887124228 -0.30934071251792922 0 0.21999804566891551 -0.31122614102315033 0 0.22812963079484819 -0.29309964455197901 0 0.21999804566891551 -0.31122614102315033 0 0.22812963079484819 -0.29309964455197901 0 0.21999804566891551 -0.31122614102315033 0 0.22812963079484819 -0.29309964455197901 0 0.24423538898563429 -0.30587701823941071 0 0.2176214393273678 -0.31177412129290383 0 0.21999804566891551 -0.31122614102315033 0 0.2175137887124228 -0.30934071251792922 0 0.21999804566891551 -0.31122614102315033 0 0.23628574795648369 -0.27498419313581679 0 0.22812963079484819 -0.29309964455197901 0 0.2247339410531527 -0.27667652802353632 0 0.21653111649902579 -0.28712771180040292 0 0.22812963079484819 -0.29309964455197901 0 0.23628574795648369 -0.27498419313581679 0 0.2247339410531527 -0.27667652802353632 0 0.22812963079484819 -0.29309964455197901 0 0.21653111649902579 -0.28712771180040292 0 0.2175137887124228 -0.30934071251792922 0 0.22812963079484819 -0.29309964455197901 0 0.23628574795648369 -0.27498419313581679 0 0.22812963079484819 -0.29309964455197901 0 0.24044913557019401 -0.28723099739492908 0 0.25301376652256202 -0.2892367573709661 0 0.24044913557019401 -0.28723099739492908 0 0.24423538898563429 -0.30587701823941071 0 0.22812963079484819 -0.29309964455197901 0 0.24044913557019401 -0.28723099739492908 0 0.24423538898563429 -0.30587701823941071 0 0.25301376652256202 -0.2892367573709661 0 0.2507153324002197 -0.27704953531328702 0 0.24044913557019401 -0.28723099739492908 0 0.21999804566891551 -0.31122614102315033 0 0.24423538898563429 -0.30587701823941071 0 0.2404170410518052 -0.32643073261338312 0 0.25099839141978419 -0.34936335514031408 0 0.2316655193484673 -0.33515436960409939 0 0.25099839141978419 -0.34936335514031408 0 0.2404170410518052 -0.32643073261338312 0 0.2316655193484673 -0.33515436960409939 0 0.2404170410518052 -0.32643073261338312 0 0.2316655193484673 -0.33515436960409939 0 0.2247705650129608 -0.32491873692320528 0 0.2316655193484673 -0.33515436960409939 0 0.22208049410379579 -0.34309390150507102 0 0.22867514261462599 -0.34782526071452929 0 0.2316655193484673 -0.33515436960409939 0 0.22208049410379579 -0.34309390150507102 0 0.220555537226792 -0.33578323097752499 0 0.22208049410379579 -0.34309390150507102 0 0.220555537226792 -0.33578323097752499 0 0.21451162402718699 -0.34512658597487872 0 0.220555537226792 -0.33578323097752499 0 0.2247705650129608 -0.32491873692320528 0 0.21820242441149371 -0.32490710899175251 0 0.2316655193484673 -0.33515436960409939 0 0.220555537226792 -0.33578323097752499 0 0.2247705650129608 -0.32491873692320528 0 0.21999804566891551 -0.31122614102315033 0 0.2404170410518052 -0.32643073261338312 0 0.2247705650129608 -0.32491873692320528 0 0.21999804566891551 -0.31122614102315033 0 0.2404170410518052 -0.32643073261338312 0 0.2247705650129608 -0.32491873692320528 0 0.21780935440599439 -0.31602188338433101 0 0.21820242441149371 -0.32490710899175251 0 0.21999804566891551 -0.31122614102315033 0 0.2247705650129608 -0.32491873692320528 0 0.21780935440599439 -0.31602188338433101 0 0.21999804566891551 -0.31122614102315033 0 0.21780935440599439 -0.31602188338433101 0 0.23679608458568241 -0.3713456781615978 0 0.24534349961555019 -0.36253701182870851 0 0.24987622704845311 -0.37613765202982719 0 0.23679608458568241 -0.3713456781615978 0 0.24534349961555019 -0.36253701182870851 0 0.23133102347449649 -0.35950822589080189 0 0.25099839141978419 -0.34936335514031408 0 0.2316655193484673 -0.33515436960409939 0 0.23760271529458479 -0.35087764463569071 0 0.24534349961555019 -0.36253701182870851 0 0.23760271529458479 -0.35087764463569071 0 0.23133102347449649 -0.35950822589080189 0 0.25099839141978419 -0.34936335514031408 0 0.24534349961555019 -0.36253701182870851 0 0.23760271529458479 -0.35087764463569071 0 0.2316655193484673 -0.33515436960409939 0 0.23760271529458479 -0.35087764463569071 0 0.22867514261462599 -0.34782526071452929 0 0.22208049410379579 -0.34309390150507102 0 0.22076837523631451 -0.35267920974236072 0 0.21451162402718699 -0.34512658597487872 0 0.22208049410379579 -0.34309390150507102 0 0.22867514261462599 -0.34782526071452929 0 0.22076837523631451 -0.35267920974236072 0 0.22076837523631451 -0.35267920974236072 0 0.22341137818785181 -0.36337688942730773 0 0.21609027172906259 -0.36087537471117581 0 0.22076837523631451 -0.35267920974236072 0 0.23133102347449649 -0.35950822589080189 0 0.22341137818785181 -0.36337688942730773 0 0.22867514261462599 -0.34782526071452929 0 0.22076837523631451 -0.35267920974236072 0 0.23133102347449649 -0.35950822589080189 0 0.23760271529458479 -0.35087764463569071 0 0.22867514261462599 -0.34782526071452929 0 0.23133102347449649 -0.35950822589080189 0 0.23133102347449649 -0.35950822589080189 0 0.22341137818785181 -0.36337688942730773 0 0.22699371624108439 -0.37103399677892651 0 0.22341137818785181 -0.36337688942730773 0 0.22699371624108439 -0.37103399677892651 0 0.21663927632257499 -0.37152038636996992 0 0.22699371624108439 -0.37103399677892651 0 0.21663927632257499 -0.37152038636996992 0 0.22189277223980711 -0.38054577212349588 0 0.23679608458568241 -0.3713456781615978 0 0.22699371624108439 -0.37103399677892651 0 0.23010576568282681 -0.37607478874810818 0 0.23679608458568241 -0.3713456781615978 0 0.23133102347449649 -0.35950822589080189 0 0.22699371624108439 -0.37103399677892651 0 0.21663927632257499 -0.37152038636996992 0 0.20683644217058031 -0.36558797855932218 0 0.20576161095015591 -0.37595213443190167 0 0.22341137818785181 -0.36337688942730773 0 0.21663927632257499 -0.37152038636996992 0 0.21609027172906259 -0.36087537471117581 0 0.21609027172906259 -0.36087537471117581 0 0.20683644217058031 -0.36558797855932218 0 0.21089823393406021 -0.35324530101306001 0 0.21663927632257499 -0.37152038636996992 0 0.21609027172906259 -0.36087537471117581 0 0.20683644217058031 -0.36558797855932218 0 0.19940837682496099 -0.35689206815154528 0 0.20777431361625601 -0.33831058893907762 0 0.21089823393406021 -0.35324530101306001 0 0.19940837682496099 -0.35689206815154528 0 0.20777431361625601 -0.33831058893907762 0 0.20683644217058031 -0.36558797855932218 0 0.21089823393406021 -0.35324530101306001 0 0.19940837682496099 -0.35689206815154528 0 0.22076837523631451 -0.35267920974236072 0 0.21609027172906259 -0.36087537471117581 0 0.21089823393406021 -0.35324530101306001 0 0.21089823393406021 -0.35324530101306001 0 0.21451162402718699 -0.34512658597487872 0 0.20777431361625601 -0.33831058893907762 0 0.22076837523631451 -0.35267920974236072 0 0.21089823393406021 -0.35324530101306001 0 0.21451162402718699 -0.34512658597487872 0 0.1971616983813648 -0.34495631128618592 0 0.19940837682496099 -0.35689206815154528 0 0.20777431361625601 -0.33831058893907762 0 0.1971616983813648 -0.34495631128618592 0 0.18787137947787569 -0.35180034780069419 0 0.18864170350563411 -0.33720407153827198 0 0.1971616983813648 -0.34495631128618592 0 0.18787137947787569 -0.35180034780069419 0 0.19940837682496099 -0.35689206815154528 0 0.20683644217058031 -0.36558797855932218 0 0.20576161095015591 -0.37595213443190167 0 0.1910424400336663 -0.37547354736401328 0 0.18787137947787569 -0.35180034780069419 0 0.19940837682496099 -0.35689206815154528 0 0.1910424400336663 -0.37547354736401328 0 0.19940837682496099 -0.35689206815154528 0 0.1910424400336663 -0.37547354736401328 0 0.20683644217058031 -0.36558797855932218 0 0.19940837682496099 -0.35689206815154528 0 0.1910424400336663 -0.37547354736401328 0 0.21780935440599439 -0.31602188338433101 0 0.20777431361625601 -0.33831058893907762 0 0.21780935440599439 -0.31602188338433101 0 0.20777431361625601 -0.33831058893907762 0 0.20282381327660201 -0.31505297042611552 0 0.21780935440599439 -0.31602188338433101 0 0.21820242441149371 -0.32490710899175251 0 0.20777431361625601 -0.33831058893907762 0 0.2176214393273678 -0.31177412129290383 0 0.20282381327660201 -0.31505297042611552 0 0.2176214393273678 -0.31177412129290383 0 0.21780935440599439 -0.31602188338433101 0 0.20282381327660201 -0.31505297042611552 0 0.2176214393273678 -0.31177412129290383 0 0.21780935440599439 -0.31602188338433101 0 0.2176214393273678 -0.31177412129290383 0 0.21999804566891551 -0.31122614102315033 0 0.21780935440599439 -0.31602188338433101 0 0.21780935440599439 -0.31602188338433101 0 0.21820242441149371 -0.32490710899175251 0 0.220555537226792 -0.33578323097752499 0 0.21820242441149371 -0.32490710899175251 0 0.20777431361625601 -0.33831058893907762 0 0.220555537226792 -0.33578323097752499 0 0.21451162402718699 -0.34512658597487872 0 0.20777431361625601 -0.33831058893907762 0 0.21451162402718699 -0.34512658597487872 0 0.20777431361625601 -0.33831058893907762 0 0.1971616983813648 -0.34495631128618592 0 0.20777431361625601 -0.33831058893907762 0 0.18864170350563411 -0.33720407153827198 0 0.20777431361625601 -0.33831058893907762 0 0.18802618722583669 -0.31833181955932999 0 0.20777431361625601 -0.33831058893907762 0 0.18864170350563411 -0.33720407153827198 0 0.18802618722583669 -0.31833181955932999 0 0.20777431361625601 -0.33831058893907762 0 0.20282381327660201 -0.31505297042611552 0 0.18802618722583669 -0.31833181955932999 0 0.20282381327660201 -0.31505297042611552 0 0.18802618722583669 -0.31833181955932999 0 0.1976485991634879 -0.30796138879627621 0 0.20282381327660201 -0.31505297042611552 0 0.18802618722583669 -0.31833181955932999 0 0.18802618722583669 -0.31833181955932999 0 0.1791507244663583 -0.32983729973660558 0 0.16791254130802971 -0.3227885891963716 0 0.18802618722583669 -0.31833181955932999 0 0.17151825735526699 -0.31325416760549368 0 0.16791254130802971 -0.3227885891963716 0 0.18802618722583669 -0.31833181955932999 0 0.16791254130802971 -0.3227885891963716 0 0.18864170350563411 -0.33720407153827198 0 0.18802618722583669 -0.31833181955932999 0 0.1791507244663583 -0.32983729973660558 0 0.17202246582593331 -0.34102471865244838 0 0.1791507244663583 -0.32983729973660558 0 0.16791254130802971 -0.3227885891963716 0 0.18787137947787569 -0.35180034780069419 0 0.18864170350563411 -0.33720407153827198 0 0.17202246582593331 -0.34102471865244838 0 0.18864170350563411 -0.33720407153827198 0 0.17202246582593331 -0.34102471865244838 0 0.1791507244663583 -0.32983729973660558 0 0.17202246582593331 -0.34102471865244838 0 0.1546435437787094 -0.34381338892778002 0 0.1557586906108582 -0.32786840018592928 0 0.17202246582593331 -0.34102471865244838 0 0.16791254130802971 -0.3227885891963716 0 0.1557586906108582 -0.32786840018592928 0 0.16791254130802971 -0.3227885891963716 0 0.1557586906108582 -0.32786840018592928 0 0.1602411687519314 -0.31190927739118429 0 0.17151825735526699 -0.31325416760549368 0 0.16791254130802971 -0.3227885891963716 0 0.1602411687519314 -0.31190927739118429 0 0.18787137947787569 -0.35180034780069419 0 0.17662324672053431 -0.35795823269279659 0 0.1910424400336663 -0.37547354736401328 0 0.17662324672053431 -0.35795823269279659 0 0.17035242753357599 -0.36877211446365682 0 0.1910424400336663 -0.37547354736401328 0 0.17035242753357599 -0.36877211446365682 0 0.1910424400336663 -0.37547354736401328 0 0.1737051017910701 -0.38004230502140057 0 0.18787137947787569 -0.35180034780069419 0 0.17202246582593331 -0.34102471865244838 0 0.17662324672053431 -0.35795823269279659 0 0.17202246582593331 -0.34102471865244838 0 0.17662324672053431 -0.35795823269279659 0 0.16265844046108829 -0.35526087104265458 0 0.17202246582593331 -0.34102471865244838 0 0.16265844046108829 -0.35526087104265458 0 0.1546435437787094 -0.34381338892778002 0 0.17662324672053431 -0.35795823269279659 0 0.16265844046108829 -0.35526087104265458 0 0.17035242753357599 -0.36877211446365682 0 0.16265844046108829 -0.35526087104265458 0 0.1569593121701936 -0.36832063090657668 0 0.17035242753357599 -0.36877211446365682 0 0.1569593121701936 -0.36832063090657668 0 0.17035242753357599 -0.36877211446365682 0 0.16307541855137739 -0.37743582412871929 0 0.14536400873927011 -0.3681220756701501 0 0.1426630499740982 -0.35652090160864008 0 0.13524945632583441 -0.37311377610700652 0 0.16265844046108829 -0.35526087104265458 0 0.1569593121701936 -0.36832063090657668 0 0.1426630499740982 -0.35652090160864008 0 0.14536400873927011 -0.3681220756701501 0 0.13524945632583441 -0.37311377610700652 0 0.14973869037300869 -0.38096853745143089 0 0.1569593121701936 -0.36832063090657668 0 0.14536400873927011 -0.3681220756701501 0 0.14973869037300869 -0.38096853745143089 0 0.1569593121701936 -0.36832063090657668 0 0.14536400873927011 -0.3681220756701501 0 0.1426630499740982 -0.35652090160864008 0 0.1546435437787094 -0.34381338892778002 0 0.1426630499740982 -0.35652090160864008 0 0.1424354920479888 -0.33775294740649747 0 0.16265844046108829 -0.35526087104265458 0 0.1546435437787094 -0.34381338892778002 0 0.1426630499740982 -0.35652090160864008 0 0.13449730155472761 -0.34743155680512378 0 0.12784456261830821 -0.36308533366748658 0 0.123981461538115 -0.35128285539313481 0 0.1426630499740982 -0.35652090160864008 0 0.13449730155472761 -0.34743155680512378 0 0.1424354920479888 -0.33775294740649747 0 0.1426630499740982 -0.35652090160864008 0 0.13449730155472761 -0.34743155680512378 0 0.12784456261830821 -0.36308533366748658 0 0.13449730155472761 -0.34743155680512378 0 0.13051916655351839 -0.33696304048325831 0 0.123981461538115 -0.35128285539313481 0 0.1426630499740982 -0.35652090160864008 0 0.12784456261830821 -0.36308533366748658 0 0.13524945632583441 -0.37311377610700652 0 0.12784456261830821 -0.36308533366748658 0 0.13524945632583441 -0.37311377610700652 0 0.12609635470998201 -0.38402791619100712 0 0.14855409589738661 -0.31441038212804873 0 0.1557586906108582 -0.32786840018592928 0 0.1602411687519314 -0.31190927739118429 0 0.1445015266660287 -0.32337949759917511 0 0.14855409589738661 -0.31441038212804873 0 0.13871327718005111 -0.31332369293528212 0 0.1445015266660287 -0.32337949759917511 0 0.14855409589738661 -0.31441038212804873 0 0.1557586906108582 -0.32786840018592928 0 0.1546435437787094 -0.34381338892778002 0 0.1557586906108582 -0.32786840018592928 0 0.1424354920479888 -0.33775294740649747 0 0.1445015266660287 -0.32337949759917511 0 0.1557586906108582 -0.32786840018592928 0 0.1424354920479888 -0.33775294740649747 0 0.1445015266660287 -0.32337949759917511 0 0.1424354920479888 -0.33775294740649747 0 0.13219802669416811 -0.32498852212276208 0 0.1424354920479888 -0.33775294740649747 0 0.13051916655351839 -0.33696304048325831 0 0.13219802669416811 -0.32498852212276208 0 0.13449730155472761 -0.34743155680512378 0 0.1424354920479888 -0.33775294740649747 0 0.13051916655351839 -0.33696304048325831 0 0.13051916655351839 -0.33696304048325831 0 0.13219802669416811 -0.32498852212276208 0 0.12260601330919629 -0.33072698382653798 0 0.1445015266660287 -0.32337949759917511 0 0.13219802669416811 -0.32498852212276208 0 0.13871327718005111 -0.31332369293528212 0 0.13219802669416811 -0.32498852212276208 0 0.1265219532001009 -0.3124330460259736 0 0.1192961391526948 -0.32261879728377291 0 0.13219802669416811 -0.32498852212276208 0 0.13871327718005111 -0.31332369293528212 0 0.1265219532001009 -0.3124330460259736 0 0.1265219532001009 -0.3124330460259736 0 0.1332586495603032 -0.30031372317270688 0 0.1198701537204314 -0.30089140532399938 0 0.1332586495603032 -0.30031372317270688 0 0.1242383748246253 -0.29131174999725179 0 0.1198701537204314 -0.30089140532399938 0 0.13871327718005111 -0.31332369293528212 0 0.1265219532001009 -0.3124330460259736 0 0.1332586495603032 -0.30031372317270688 0 0.13871327718005111 -0.31332369293528212 0 0.1332586495603032 -0.30031372317270688 0 0.147245411062319 -0.30441698656302629 0 0.14855409589738661 -0.31441038212804873 0 0.13871327718005111 -0.31332369293528212 0 0.147245411062319 -0.30441698656302629 0 0.147245411062319 -0.30441698656302629 0 0.15432967412725099 -0.29846298066074151 0 0.14327492933615671 -0.29425024746867751 0 0.1332586495603032 -0.30031372317270688 0 0.147245411062319 -0.30441698656302629 0 0.14327492933615671 -0.29425024746867751 0 0.147245411062319 -0.30441698656302629 0 0.15432967412725099 -0.29846298066074151 0 0.1602411687519314 -0.31190927739118429 0 0.14855409589738661 -0.31441038212804873 0 0.147245411062319 -0.30441698656302629 0 0.1602411687519314 -0.31190927739118429 0 0.15432967412725099 -0.29846298066074151 0 0.1517600770447052 -0.28164214899084639 0 0.14327492933615671 -0.29425024746867751 0 0.1517600770447052 -0.28164214899084639 0 0.14327492933615671 -0.29425024746867751 0 0.13646338677899769 -0.28546266283427663 0 0.1332586495603032 -0.30031372317270688 0 0.14327492933615671 -0.29425024746867751 0 0.13646338677899769 -0.28546266283427663 0 0.1332586495603032 -0.30031372317270688 0 0.13646338677899769 -0.28546266283427663 0 0.1242383748246253 -0.29131174999725179 0 0.13646338677899769 -0.28546266283427663 0 0.1233023238440631 -0.28097148456094378 0 0.1242383748246253 -0.29131174999725179 0 0.1517600770447052 -0.28164214899084639 0 0.13646338677899769 -0.28546266283427663 0 0.1311170075682456 -0.27142576198599933 0 0.1517600770447052 -0.28164214899084639 0 0.1311170075682456 -0.27142576198599933 0 0.1364827709165429 -0.26618641562940759 0 0.13646338677899769 -0.28546266283427663 0 0.1311170075682456 -0.27142576198599933 0 0.1233023238440631 -0.28097148456094378 0 0.1311170075682456 -0.27142576198599933 0 0.1364827709165429 -0.26618641562940759 0 0.1212054647883809 -0.25073068226796852 0 0.1364827709165429 -0.26618641562940759 0 0.13217397618885759 -0.25462043987800831 0 0.1212054647883809 -0.25073068226796852 0 0.1364827709165429 -0.26618641562940759 0 0.1212054647883809 -0.25073068226796852 0 0.1364827709165429 -0.26618641562940759 0 0.13217397618885759 -0.25462043987800831 0 0.14275904560399111 -0.25945725309375861 0 0.13217397618885759 -0.25462043987800831 0 0.1429630926125974 -0.2502577086919005 0 0.14275904560399111 -0.25945725309375861 0 0.1429630926125974 -0.2502577086919005 0 0.16574248336044761 -0.26746108990676593 0 0.1429630926125974 -0.2502577086919005 0 0.15128247879849499 -0.26292486595599002 0 0.16574248336044761 -0.26746108990676593 0 0.1429630926125974 -0.2502577086919005 0 0.16574248336044761 -0.26746108990676593 0 0.16001236861667459 -0.2513654190734112 0 0.1429630926125974 -0.2502577086919005 0 0.14275904560399111 -0.25945725309375861 0 0.15128247879849499 -0.26292486595599002 0 0.1364827709165429 -0.26618641562940759 0 0.14275904560399111 -0.25945725309375861 0 0.15128247879849499 -0.26292486595599002 0 0.1517600770447052 -0.28164214899084639 0 0.1364827709165429 -0.26618641562940759 0 0.15128247879849499 -0.26292486595599002 0 0.1517600770447052 -0.28164214899084639 0 0.15128247879849499 -0.26292486595599002 0 0.15776774232478771 -0.26956647822523339 0 0.1517600770447052 -0.28164214899084639 0 0.1311170075682456 -0.27142576198599933 0 0.1517600770447052 -0.28164214899084639 0 0.1364827709165429 -0.26618641562940759 0 0.1517600770447052 -0.28164214899084639 0 0.16209364730358741 -0.27452888323759039 0 0.16594555478614451 -0.28284233368471318 0 0.1517600770447052 -0.28164214899084639 0 0.16209364730358741 -0.27452888323759039 0 0.15776774232478771 -0.26956647822523339 0 0.16209364730358741 -0.27452888323759039 0 0.15776774232478771 -0.26956647822523339 0 0.16574248336044761 -0.26746108990676593 0 0.15128247879849499 -0.26292486595599002 0 0.15776774232478771 -0.26956647822523339 0 0.16574248336044761 -0.26746108990676593 0 0.16209364730358741 -0.27452888323759039 0 0.16574248336044761 -0.26746108990676593 0 0.16920230535812411 -0.27329149954452342 0 0.16209364730358741 -0.27452888323759039 0 0.16920230535812411 -0.27329149954452342 0 0.16594555478614451 -0.28284233368471318 0 0.16920230535812411 -0.27329149954452342 0 0.1710222018321049 -0.28124575318360368 0 0.16594555478614451 -0.28284233368471318 0 0.16574248336044761 -0.26746108990676593 0 0.16001236861667459 -0.2513654190734112 0 0.16988601458932601 -0.2589500224365659 0 0.16574248336044761 -0.26746108990676593 0 0.16988601458932601 -0.2589500224365659 0 0.17628584543496439 -0.26683535894776161 0 0.16001236861667459 -0.2513654190734112 0 0.16988601458932601 -0.2589500224365659 0 0.16978669848249819 -0.25098739912941831 0 0.1767458594742066 -0.25730285456071711 0 0.17619278994504239 -0.24587918172992959 0 0.18399505531774341 -0.24981832115951039 0 0.16978669848249819 -0.25098739912941831 0 0.1767458594742066 -0.25730285456071711 0 0.17619278994504239 -0.24587918172992959 0 0.16988601458932601 -0.2589500224365659 0 0.16978669848249819 -0.25098739912941831 0 0.1767458594742066 -0.25730285456071711 0 0.16988601458932601 -0.2589500224365659 0 0.1767458594742066 -0.25730285456071711 0 0.17628584543496439 -0.26683535894776161 0 0.1767458594742066 -0.25730285456071711 0 0.17628584543496439 -0.26683535894776161 0 0.1845366839674035 -0.26640487959885623 0 0.1767458594742066 -0.25730285456071711 0 0.18706352147094041 -0.25756661524031438 0 0.1845366839674035 -0.26640487959885623 0 0.1767458594742066 -0.25730285456071711 0 0.18706352147094041 -0.25756661524031438 0 0.18399505531774341 -0.24981832115951039 0 0.18852187410829821 -0.28466447112163068 0 0.17628584543496439 -0.26683535894776161 0 0.1845366839674035 -0.26640487959885623 0 0.18852187410829821 -0.28466447112163068 0 0.16574248336044761 -0.26746108990676593 0 0.18852187410829821 -0.28466447112163068 0 0.16574248336044761 -0.26746108990676593 0 0.17628584543496439 -0.26683535894776161 0 0.16920230535812411 -0.27329149954452342 0 0.18747516626574931 -0.28692639975368628 0 0.17602993407772211 -0.2832030986568283 0 0.18852187410829821 -0.28466447112163068 0 0.16574248336044761 -0.26746108990676593 0 0.16920230535812411 -0.27329149954452342 0 0.16920230535812411 -0.27329149954452342 0 0.18747516626574931 -0.28692639975368628 0 0.16920230535812411 -0.27329149954452342 0 0.1710222018321049 -0.28124575318360368 0 0.17602993407772211 -0.2832030986568283 0 0.18747516626574931 -0.28692639975368628 0 0.1806905449634813 -0.28832929748571318 0 0.17602993407772211 -0.2832030986568283 0 0.18852187410829821 -0.28466447112163068 0 0.16920230535812411 -0.27329149954452342 0 0.18747516626574931 -0.28692639975368628 0 0.18747516626574931 -0.28692639975368628 0 0.1806905449634813 -0.28832929748571318 0 0.18301660310609241 -0.29114958545392738 0 0.17291101310642881 -0.28564608084835003 0 0.17864991096044419 -0.29495009963706692 0 0.16594555478614451 -0.28284233368471318 0 0.1806905449634813 -0.28832929748571318 0 0.17602993407772211 -0.2832030986568283 0 0.17673138357400531 -0.28840876668861409 0 0.17602993407772211 -0.2832030986568283 0 0.17673138357400531 -0.28840876668861409 0 0.17291101310642881 -0.28564608084835003 0 0.1710222018321049 -0.28124575318360368 0 0.17602993407772211 -0.2832030986568283 0 0.17291101310642881 -0.28564608084835003 0 0.17673138357400531 -0.28840876668861409 0 0.17291101310642881 -0.28564608084835003 0 0.17864991096044419 -0.29495009963706692 0 0.17673138357400531 -0.28840876668861409 0 0.17909088347012619 -0.29088019083727579 0 0.17864991096044419 -0.29495009963706692 0 0.1806905449634813 -0.28832929748571318 0 0.17673138357400531 -0.28840876668861409 0 0.17909088347012619 -0.29088019083727579 0 0.17909088347012619 -0.29088019083727579 0 0.17864991096044419 -0.29495009963706692 0 0.18114425154506539 -0.29221912984395187 0 0.18747516626574931 -0.28692639975368628 0 0.18734834214976739 -0.29514628785519947 0 0.1827564496500734 -0.29712351473235832 0 0.18747516626574931 -0.28692639975368628 0 0.18301660310609241 -0.29114958545392738 0 0.1827564496500734 -0.29712351473235832 0 0.18114425154506539 -0.29221912984395187 0 0.18301660310609241 -0.29114958545392738 0 0.1827564496500734 -0.29712351473235832 0 0.17864991096044419 -0.29495009963706692 0 0.18114425154506539 -0.29221912984395187 0 0.1827564496500734 -0.29712351473235832 0 0.18747516626574931 -0.28692639975368628 0 0.1827564496500734 -0.29712351473235832 0 0.1806905449634813 -0.28832929748571318 0 0.18114425154506539 -0.29221912984395187 0 0.18301660310609241 -0.29114958545392738 0 0.1806905449634813 -0.28832929748571318 0 0.17909088347012619 -0.29088019083727579 0 0.18114425154506539 -0.29221912984395187 0 0.18802618722583669 -0.31833181955932999 0 0.18221347423979239 -0.30458962683289892 0 0.1698931321352706 -0.29998698427508858 0 0.1880606218677118 -0.30022154946313712 0 0.18734834214976739 -0.29514628785519947 0 0.1827564496500734 -0.29712351473235832 0 0.19009702279388629 -0.3064242775921906 0 0.1880606218677118 -0.30022154946313712 0 0.18221347423979239 -0.30458962683289892 0 0.18802618722583669 -0.31833181955932999 0 0.17151825735526699 -0.31325416760549368 0 0.1698931321352706 -0.29998698427508858 0 0.1880606218677118 -0.30022154946313712 0 0.18221347423979239 -0.30458962683289892 0 0.1827564496500734 -0.29712351473235832 0 0.18802618722583669 -0.31833181955932999 0 0.1698931321352706 -0.29998698427508858 0 0.17864991096044419 -0.29495009963706692 0 0.1827564496500734 -0.29712351473235832 0 0.17837824174639511 -0.29916255636935318 0 0.18221347423979239 -0.30458962683289892 0 0.1827564496500734 -0.29712351473235832 0 0.17837824174639511 -0.29916255636935318 0 0.19009702279388629 -0.3064242775921906 0 0.18802618722583669 -0.31833181955932999 0 0.18221347423979239 -0.30458962683289892 0 0.18221347423979239 -0.30458962683289892 0 0.17837824174639511 -0.29916255636935318 0 0.1698931321352706 -0.29998698427508858 0 0.17864991096044419 -0.29495009963706692 0 0.17837824174639511 -0.29916255636935318 0 0.1698931321352706 -0.29998698427508858 0 0.17151825735526699 -0.31325416760549368 0 0.1698931321352706 -0.29998698427508858 0 0.1602411687519314 -0.31190927739118429 0 0.15432967412725099 -0.29846298066074151 0 0.1698931321352706 -0.29998698427508858 0 0.1602411687519314 -0.31190927739118429 0 0.1517600770447052 -0.28164214899084639 0 0.17864991096044419 -0.29495009963706692 0 0.1698931321352706 -0.29998698427508858 0 0.1517600770447052 -0.28164214899084639 0 0.1698931321352706 -0.29998698427508858 0 0.15432967412725099 -0.29846298066074151 0 0.1517600770447052 -0.28164214899084639 0 0.1698931321352706 -0.29998698427508858 0 0.1517600770447052 -0.28164214899084639 0 0.17864991096044419 -0.29495009963706692 0 0.1517600770447052 -0.28164214899084639 0 0.17864991096044419 -0.29495009963706692 0 0.16594555478614451 -0.28284233368471318 0 0.1710222018321049 -0.28124575318360368 0 0.17291101310642881 -0.28564608084835003 0 0.16594555478614451 -0.28284233368471318 0 0.21438456257476449 -0.5 0 0.2048745361024723 -0.48472171768082351 0 0.18744203257390391 -0.5 0 0.19122796324104871 -0.48466606029959602 0 0.2048745361024723 -0.48472171768082351 0 0.18744203257390391 -0.5 0 0.19122796324104871 -0.48466606029959602 0 0.20365346230900849 -0.47086657296764728 0 0.1938641377332887 -0.4633108835168005 0 0.19122796324104871 -0.48466606029959602 0 0.20365346230900849 -0.47086657296764728 0 0.2048745361024723 -0.48472171768082351 0 0.21766866328091511 -0.47157360957620892 0 0.2048745361024723 -0.48472171768082351 0 0.22288060450936709 -0.48400008360299168 0 0.20365346230900849 -0.47086657296764728 0 0.21766866328091511 -0.47157360957620892 0 0.2048745361024723 -0.48472171768082351 0 0.21438456257476449 -0.5 0 0.2048745361024723 -0.48472171768082351 0 0.22288060450936709 -0.48400008360299168 0 0.21438456257476449 -0.5 0 0.23633351028628971 -0.48712361601618398 0 0.2413270925756249 -0.5 0 0.21438456257476449 -0.5 0 0.23633351028628971 -0.48712361601618398 0 0.22288060450936709 -0.48400008360299168 0 0.25270961841775552 -0.48460016746525392 0 0.23633351028628971 -0.48712361601618398 0 0.2413270925756249 -0.5 0 0.25270961841775552 -0.48460016746525392 0 0.23633351028628971 -0.48712361601618398 0 0.23949561189523169 -0.47426551941090739 0 0.23949561189523169 -0.47426551941090739 0 0.22288060450936709 -0.48400008360299168 0 0.22545312399173489 -0.46028769725088831 0 0.21766866328091511 -0.47157360957620892 0 0.22288060450936709 -0.48400008360299168 0 0.22545312399173489 -0.46028769725088831 0 0.23633351028628971 -0.48712361601618398 0 0.23949561189523169 -0.47426551941090739 0 0.22288060450936709 -0.48400008360299168 0 0.22288060450936709 -0.48400008360299168 0 0.22545312399173489 -0.46028769725088831 0 0.21766866328091511 -0.47157360957620892 0 0.22545312399173489 -0.46028769725088831 0 0.2186728293425339 -0.44755637628226819 0 0.2588368117714554 -0.46700690363883102 0 0.23949561189523169 -0.47426551941090739 0 0.2409729068143365 -0.46262444708906358 0 0.22545312399173489 -0.46028769725088831 0 0.2409729068143365 -0.46262444708906358 0 0.24480843210435321 -0.45079661158300749 0 0.2588368117714554 -0.46700690363883102 0 0.2409729068143365 -0.46262444708906358 0 0.24480843210435321 -0.45079661158300749 0 0.23949561189523169 -0.47426551941090739 0 0.22545312399173489 -0.46028769725088831 0 0.2409729068143365 -0.46262444708906358 0 0.24480843210435321 -0.45079661158300749 0 0.22802564347410281 -0.43657531089878487 0 0.2418992233321238 -0.43333026798624508 0 0.25513396950241118 -0.43290986753561628 0 0.24480843210435321 -0.45079661158300749 0 0.2418992233321238 -0.43333026798624508 0 0.22545312399173489 -0.46028769725088831 0 0.22802564347410281 -0.43657531089878487 0 0.2186728293425339 -0.44755637628226819 0 0.21246462128442831 -0.43168381348743168 0 0.22802564347410281 -0.43657531089878487 0 0.22545312399173489 -0.46028769725088831 0 0.2186728293425339 -0.44755637628226819 0 0.22802564347410281 -0.43657531089878487 0 0.22545312399173489 -0.46028769725088831 0 0.24480843210435321 -0.45079661158300749 0 0.22802564347410281 -0.43657531089878487 0 0.20442019459899149 -0.44533796874460208 0 0.2186728293425339 -0.44755637628226819 0 0.21246462128442831 -0.43168381348743168 0 0.21766866328091511 -0.47157360957620892 0 0.20442019459899149 -0.44533796874460208 0 0.21766866328091511 -0.47157360957620892 0 0.20442019459899149 -0.44533796874460208 0 0.2186728293425339 -0.44755637628226819 0 0.20365346230900849 -0.47086657296764728 0 0.21766866328091511 -0.47157360957620892 0 0.20442019459899149 -0.44533796874460208 0 0.20365346230900849 -0.47086657296764728 0 0.20442019459899149 -0.44533796874460208 0 0.1938641377332887 -0.4633108835168005 0 0.20442019459899149 -0.44533796874460208 0 0.18484232774876749 -0.43033534366960768 0 0.18590039067086719 -0.44115637567916172 0 0.20442019459899149 -0.44533796874460208 0 0.18923595964957429 -0.45067509688328122 0 0.18590039067086719 -0.44115637567916172 0 0.20442019459899149 -0.44533796874460208 0 0.1938641377332887 -0.4633108835168005 0 0.18923595964957429 -0.45067509688328122 0 0.20442019459899149 -0.44533796874460208 0 0.1911717259170673 -0.41910232791299562 0 0.20473537155931409 -0.42802668409371708 0 0.20442019459899149 -0.44533796874460208 0 0.1911717259170673 -0.41910232791299562 0 0.20442019459899149 -0.44533796874460208 0 0.1911717259170673 -0.41910232791299562 0 0.18484232774876749 -0.43033534366960768 0 0.1911717259170673 -0.41910232791299562 0 0.21088494443676881 -0.41598262622983972 0 0.20473537155931409 -0.42802668409371708 0 0.18851111772050869 -0.41383358608972459 0 0.208966154163157 -0.40126827473642579 0 0.1911717259170673 -0.41910232791299562 0 0.21088494443676881 -0.41598262622983972 0 0.1911717259170673 -0.41910232791299562 0 0.18851111772050869 -0.41383358608972459 0 0.21088494443676881 -0.41598262622983972 0 0.18851111772050869 -0.41383358608972459 0 0.21088494443676881 -0.41598262622983972 0 0.208966154163157 -0.40126827473642579 0 0.1911717259170673 -0.41910232791299562 0 0.18851111772050869 -0.41383358608972459 0 0.21088494443676881 -0.41598262622983972 0 0.22155668588658281 -0.40529615173032069 0 0.208966154163157 -0.40126827473642579 0 0.21088494443676881 -0.41598262622983972 0 0.20473537155931409 -0.42802668409371708 0 0.21246462128442831 -0.43168381348743168 0 0.21088494443676881 -0.41598262622983972 0 0.21246462128442831 -0.43168381348743168 0 0.21959695705502991 -0.42408781639437282 0 0.20442019459899149 -0.44533796874460208 0 0.20473537155931409 -0.42802668409371708 0 0.21246462128442831 -0.43168381348743168 0 0.21246462128442831 -0.43168381348743168 0 0.21959695705502991 -0.42408781639437282 0 0.22802564347410281 -0.43657531089878487 0 0.22802564347410281 -0.43657531089878487 0 0.23614533994983331 -0.4244462479719151 0 0.23059816295646979 -0.4128629245466815 0 0.22802564347410281 -0.43657531089878487 0 0.23059816295646979 -0.4128629245466815 0 0.21959695705502991 -0.42408781639437282 0 0.22802564347410281 -0.43657531089878487 0 0.23059816295646979 -0.4128629245466815 0 0.22802564347410281 -0.43657531089878487 0 0.2418992233321238 -0.43333026798624508 0 0.23614533994983331 -0.4244462479719151 0 0.2418992233321238 -0.43333026798624508 0 0.23614533994983331 -0.4244462479719151 0 0.2453827316299185 -0.42192330194190181 0 0.25513396950241118 -0.43290986753561628 0 0.2418992233321238 -0.43333026798624508 0 0.2453827316299185 -0.42192330194190181 0 0.256136481120742 -0.41447562176841068 0 0.2453827316299185 -0.42192330194190181 0 0.24629253832767661 -0.41022035877505542 0 0.2453827316299185 -0.42192330194190181 0 0.24629253832767661 -0.41022035877505542 0 0.2366098857920339 -0.41191154353144788 0 0.23614533994983331 -0.4244462479719151 0 0.2366098857920339 -0.41191154353144788 0 0.23059816295646979 -0.4128629245466815 0 0.23614533994983331 -0.4244462479719151 0 0.2453827316299185 -0.42192330194190181 0 0.2366098857920339 -0.41191154353144788 0 0.24629253832767661 -0.41022035877505542 0 0.2366098857920339 -0.41191154353144788 0 0.2422505545635501 -0.40276464775944387 0 0.21088494443676881 -0.41598262622983972 0 0.23059816295646979 -0.4128629245466815 0 0.2366098857920339 -0.41191154353144788 0 0.23059816295646979 -0.4128629245466815 0 0.23156745731421779 -0.4039283829592023 0 0.23059816295646979 -0.4128629245466815 0 0.22155668588658281 -0.40529615173032069 0 0.23156745731421779 -0.4039283829592023 0 0.23059816295646979 -0.4128629245466815 0 0.23156745731421779 -0.4039283829592023 0 0.21088494443676881 -0.41598262622983972 0 0.23059816295646979 -0.4128629245466815 0 0.22155668588658281 -0.40529615173032069 0 0.21088494443676881 -0.41598262622983972 0 0.21959695705502991 -0.42408781639437282 0 0.23059816295646979 -0.4128629245466815 0 0.2366098857920339 -0.41191154353144788 0 0.23059816295646979 -0.4128629245466815 0 0.22155668588658281 -0.40529615173032069 0 0.22942119060580499 -0.38870296338312649 0 0.208966154163157 -0.40126827473642579 0 0.22155668588658281 -0.40529615173032069 0 0.23156745731421779 -0.4039283829592023 0 0.22942119060580499 -0.38870296338312649 0 0.22942119060580499 -0.38870296338312649 0 0.208966154163157 -0.40126827473642579 0 0.23156745731421779 -0.4039283829592023 0 0.24309899287842279 -0.39271330151873202 0 0.2422505545635501 -0.40276464775944387 0 0.2366098857920339 -0.41191154353144788 0 0.23156745731421779 -0.4039283829592023 0 0.2422505545635501 -0.40276464775944387 0 0.23156745731421779 -0.4039283829592023 0 0.24309899287842279 -0.39271330151873202 0 0.22942119060580499 -0.38870296338312649 0 0.25108303853213881 -0.40002667887407228 0 0.24629253832767661 -0.41022035877505542 0 0.2422505545635501 -0.40276464775944387 0 0.25108303853213881 -0.40002667887407228 0 0.24309899287842279 -0.39271330151873202 0 0.2422505545635501 -0.40276464775944387 0 0.24987622704845311 -0.37613765202982719 0 0.22942119060580499 -0.38870296338312649 0 0.24309899287842279 -0.39271330151873202 0 0.24987622704845311 -0.37613765202982719 0 0.22942119060580499 -0.38870296338312649 0 0.24987622704845311 -0.37613765202982719 0 0.23474048966473349 -0.38137370792841258 0 0.22942119060580499 -0.38870296338312649 0 0.25687819372407023 -0.38903915957053298 0 0.24309899287842279 -0.39271330151873202 0 0.24987622704845311 -0.37613765202982719 0 0.23679608458568241 -0.3713456781615978 0 0.24987622704845311 -0.37613765202982719 0 0.23474048966473349 -0.38137370792841258 0 0.23474048966473349 -0.38137370792841258 0 0.23010576568282681 -0.37607478874810818 0 0.22189277223980711 -0.38054577212349588 0 0.23474048966473349 -0.38137370792841258 0 0.22189277223980711 -0.38054577212349588 0 0.20961824525516401 -0.3936281247522696 0 0.23474048966473349 -0.38137370792841258 0 0.22942119060580499 -0.38870296338312649 0 0.20961824525516401 -0.3936281247522696 0 0.23679608458568241 -0.3713456781615978 0 0.23474048966473349 -0.38137370792841258 0 0.23010576568282681 -0.37607478874810818 0 0.23474048966473349 -0.38137370792841258 0 0.20961824525516401 -0.3936281247522696 0 0.22699371624108439 -0.37103399677892651 0 0.23010576568282681 -0.37607478874810818 0 0.22189277223980711 -0.38054577212349588 0 0.21663927632257499 -0.37152038636996992 0 0.22189277223980711 -0.38054577212349588 0 0.21119602619295649 -0.38157571206759561 0 0.21663927632257499 -0.37152038636996992 0 0.21119602619295649 -0.38157571206759561 0 0.20576161095015591 -0.37595213443190167 0 0.21119602619295649 -0.38157571206759561 0 0.20576161095015591 -0.37595213443190167 0 0.20229958674085519 -0.38616776423662919 0 0.21119602619295649 -0.38157571206759561 0 0.20961824525516401 -0.3936281247522696 0 0.20229958674085519 -0.38616776423662919 0 0.22189277223980711 -0.38054577212349588 0 0.21119602619295649 -0.38157571206759561 0 0.20961824525516401 -0.3936281247522696 0 0.22942119060580499 -0.38870296338312649 0 0.208966154163157 -0.40126827473642579 0 0.20961824525516401 -0.3936281247522696 0 0.20961824525516401 -0.3936281247522696 0 0.18449600084559339 -0.40588254157612419 0 0.20961824525516401 -0.3936281247522696 0 0.19262774622386039 -0.39991289132556063 0 0.20229958674085519 -0.38616776423662919 0 0.18851111772050869 -0.41383358608972459 0 0.20961824525516401 -0.3936281247522696 0 0.18449600084559339 -0.40588254157612419 0 0.19262774622386039 -0.39991289132556063 0 0.193172237845981 -0.38760648281860499 0 0.20229958674085519 -0.38616776423662919 0 0.20961824525516401 -0.3936281247522696 0 0.19262774622386039 -0.39991289132556063 0 0.18449600084559339 -0.40588254157612419 0 0.18851111772050869 -0.41383358608972459 0 0.208966154163157 -0.40126827473642579 0 0.20961824525516401 -0.3936281247522696 0 0.19262774622386039 -0.39991289132556063 0 0.18963514604776821 -0.39361523539988952 0 0.193172237845981 -0.38760648281860499 0 0.19262774622386039 -0.39991289132556063 0 0.18963514604776821 -0.39361523539988952 0 0.18221634088723479 -0.40136818287387582 0 0.18963514604776821 -0.39361523539988952 0 0.193172237845981 -0.38760648281860499 0 0.18267650324237161 -0.39405502657648112 0 0.193172237845981 -0.38760648281860499 0 0.1910424400336663 -0.37547354736401328 0 0.18267650324237161 -0.39405502657648112 0 0.20576161095015591 -0.37595213443190167 0 0.1910424400336663 -0.37547354736401328 0 0.20229958674085519 -0.38616776423662919 0 0.193172237845981 -0.38760648281860499 0 0.1910424400336663 -0.37547354736401328 0 0.20229958674085519 -0.38616776423662919 0 0.1910424400336663 -0.37547354736401328 0 0.17822948803450961 -0.38676940160015832 0 0.1737051017910701 -0.38004230502140057 0 0.1910424400336663 -0.37547354736401328 0 0.18267650324237161 -0.39405502657648112 0 0.1910424400336663 -0.37547354736401328 0 0.17822948803450961 -0.38676940160015832 0 0.18267650324237161 -0.39405502657648112 0 0.17822948803450961 -0.38676940160015832 0 0.17910183421640119 -0.39520059623836468 0 0.1646215608890387 -0.38907553280053181 0 0.17822948803450961 -0.38676940160015832 0 0.1737051017910701 -0.38004230502140057 0 0.1646215608890387 -0.38907553280053181 0 0.17822948803450961 -0.38676940160015832 0 0.18267650324237161 -0.39405502657648112 0 0.17910183421640119 -0.39520059623836468 0 0.18221634088723479 -0.40136818287387582 0 0.17910183421640119 -0.39520059623836468 0 0.15805845094365739 -0.40474493864538458 0 0.18963514604776821 -0.39361523539988952 0 0.18267650324237161 -0.39405502657648112 0 0.18221634088723479 -0.40136818287387582 0 0.18267650324237161 -0.39405502657648112 0 0.18221634088723479 -0.40136818287387582 0 0.17910183421640119 -0.39520059623836468 0 0.18221634088723479 -0.40136818287387582 0 0.17910183421640119 -0.39520059623836468 0 0.19262774622386039 -0.39991289132556063 0 0.18221634088723479 -0.40136818287387582 0 0.19262774622386039 -0.39991289132556063 0 0.18449600084559339 -0.40588254157612419 0 0.18221634088723479 -0.40136818287387582 0 0.18449600084559339 -0.40588254157612419 0 0.18221634088723479 -0.40136818287387582 0 0.17910183421640119 -0.39520059623836468 0 0.15805845094365739 -0.40474493864538458 0 0.1646215608890387 -0.38907553280053181 0 0.18221634088723479 -0.40136818287387582 0 0.15805845094365739 -0.40474493864538458 0 0.15805845094365739 -0.40474493864538458 0 0.1646215608890387 -0.38907553280053181 0 0.14706277844018539 -0.39464292458295508 0 0.1737051017910701 -0.38004230502140057 0 0.1646215608890387 -0.38907553280053181 0 0.16307541855137739 -0.37743582412871929 0 0.17035242753357599 -0.36877211446365682 0 0.1737051017910701 -0.38004230502140057 0 0.16307541855137739 -0.37743582412871929 0 0.1569593121701936 -0.36832063090657668 0 0.16307541855137739 -0.37743582412871929 0 0.14973869037300869 -0.38096853745143089 0 0.1646215608890387 -0.38907553280053181 0 0.16307541855137739 -0.37743582412871929 0 0.14973869037300869 -0.38096853745143089 0 0.1646215608890387 -0.38907553280053181 0 0.14973869037300869 -0.38096853745143089 0 0.14706277844018539 -0.39464292458295508 0 0.14973869037300869 -0.38096853745143089 0 0.1375772795987745 -0.38493757303029391 0 0.14706277844018539 -0.39464292458295508 0 0.13524945632583441 -0.37311377610700652 0 0.14973869037300869 -0.38096853745143089 0 0.1375772795987745 -0.38493757303029391 0 0.13524945632583441 -0.37311377610700652 0 0.1375772795987745 -0.38493757303029391 0 0.12609635470998201 -0.38402791619100712 0 0.1375772795987745 -0.38493757303029391 0 0.12609635470998201 -0.38402791619100712 0 0.13569313113510631 -0.39589912548093298 0 0.12645644117523869 -0.39722706905544619 0 0.13569313113510631 -0.39589912548093298 0 0.1339005610000801 -0.40812169441689322 0 0.12645644117523869 -0.39722706905544619 0 0.1339005610000801 -0.40812169441689322 0 0.1250254850364893 -0.40936224001308058 0 0.12609635470998201 -0.38402791619100712 0 0.12645644117523869 -0.39722706905544619 0 0.13569313113510631 -0.39589912548093298 0 0.1375772795987745 -0.38493757303029391 0 0.13569313113510631 -0.39589912548093298 0 0.14706277844018539 -0.39464292458295508 0 0.13569313113510631 -0.39589912548093298 0 0.14706277844018539 -0.39464292458295508 0 0.1339005610000801 -0.40812169441689322 0 0.13569313113510631 -0.39589912548093298 0 0.1339005610000801 -0.40812169441689322 0 0.15805845094365739 -0.40474493864538458 0 0.14706277844018539 -0.39464292458295508 0 0.1339005610000801 -0.40812169441689322 0 0.15805845094365739 -0.40474493864538458 0 0.1339005610000801 -0.40812169441689322 0 0.15805845094365739 -0.40474493864538458 0 0.15398562739609989 -0.414436145328195 0 0.14500783119440661 -0.41410657591589572 0 0.15805845094365739 -0.40474493864538458 0 0.14500783119440661 -0.41410657591589572 0 0.1339005610000801 -0.40812169441689322 0 0.15398562739609989 -0.414436145328195 0 0.15088002640467921 -0.42009116626417142 0 0.14500783119440661 -0.41410657591589572 0 0.15088002640467921 -0.42009116626417142 0 0.15979138776423191 -0.42406840149736191 0 0.15636365466176849 -0.41960526040447821 0 0.15398562739609989 -0.414436145328195 0 0.15088002640467921 -0.42009116626417142 0 0.15636365466176849 -0.41960526040447821 0 0.15088002640467921 -0.42009116626417142 0 0.14500783119440661 -0.41410657591589572 0 0.14354831806896931 -0.42663893719234869 0 0.14500783119440661 -0.41410657591589572 0 0.1339005610000801 -0.40812169441689322 0 0.13212255532719441 -0.42024495614079282 0 0.14500783119440661 -0.41410657591589572 0 0.13212255532719441 -0.42024495614079282 0 0.14354831806896931 -0.42663893719234869 0 0.1339005610000801 -0.40812169441689322 0 0.13212255532719441 -0.42024495614079282 0 0.13212255532719441 -0.42024495614079282 0 0.1250254850364893 -0.40936224001308058 0 0.117866085899093 -0.41583132647739651 0 0.13212255532719441 -0.42024495614079282 0 0.1250254850364893 -0.40936224001308058 0 0.1339005610000801 -0.40812169441689322 0 0.13212255532719441 -0.42024495614079282 0 0.1250254850364893 -0.40936224001308058 0 0.1339005610000801 -0.40812169441689322 0 0.1250254850364893 -0.40936224001308058 0 0.13212255532719441 -0.42024495614079282 0 0.14354831806896931 -0.42663893719234869 0 0.1460535583969573 -0.44160689079445481 0 0.13212255532719441 -0.42024495614079282 0 0.128223579302082 -0.44682997076052833 0 0.13212255532719441 -0.42024495614079282 0 0.128223579302082 -0.44682997076052833 0 0.1159996351348133 -0.43474120747525058 0 0.13212255532719441 -0.42024495614079282 0 0.1460535583969573 -0.44160689079445481 0 0.13212255532719441 -0.42024495614079282 0 0.1460535583969573 -0.44160689079445481 0 0.128223579302082 -0.44682997076052833 0 0.15088002640467921 -0.42009116626417142 0 0.14354831806896931 -0.42663893719234869 0 0.15979138776423191 -0.42406840149736191 0 0.14354831806896931 -0.42663893719234869 0 0.15979138776423191 -0.42406840149736191 0 0.14354831806896931 -0.42663893719234869 0 0.15423293294423909 -0.43386412417913311 0 0.1460535583969573 -0.44160689079445481 0 0.14354831806896931 -0.42663893719234869 0 0.15423293294423909 -0.43386412417913311 0 0.15979138776423191 -0.42406840149736191 0 0.15423293294423909 -0.43386412417913311 0 0.16088991666547389 -0.43196094602310392 0 0.16557730454712019 -0.44172028084172121 0 0.1713980071398 -0.42434598792645378 0 0.15979138776423191 -0.42406840149736191 0 0.1760344574594947 -0.42149786580237669 0 0.15423293294423909 -0.43386412417913311 0 0.16088991666547389 -0.43196094602310392 0 0.15979138776423191 -0.42406840149736191 0 0.15979138776423191 -0.42406840149736191 0 0.1760344574594947 -0.42149786580237669 0 0.16626302434537371 -0.43076979168845952 0 0.17509911994716071 -0.43336510097506958 0 0.16557730454712019 -0.44172028084172121 0 0.16088991666547389 -0.43196094602310392 0 0.16626302434537371 -0.43076979168845952 0 0.16557730454712019 -0.44172028084172121 0 0.16626302434537371 -0.43076979168845952 0 0.1713980071398 -0.42434598792645378 0 0.17509911994716071 -0.43336510097506958 0 0.16626302434537371 -0.43076979168845952 0 0.1713980071398 -0.42434598792645378 0 0.15979138776423191 -0.42406840149736191 0 0.16088991666547389 -0.43196094602310392 0 0.16626302434537371 -0.43076979168845952 0 0.15979138776423191 -0.42406840149736191 0 0.15636365466176849 -0.41960526040447821 0 0.16176651730702801 -0.41283252991975622 0 0.17042982775368151 -0.41274390099030239 0 0.18221634088723479 -0.40136818287387582 0 0.15805845094365739 -0.40474493864538458 0 0.17042982775368151 -0.41274390099030239 0 0.15979138776423191 -0.42406840149736191 0 0.15636365466176849 -0.41960526040447821 0 0.17042982775368151 -0.41274390099030239 0 0.15636365466176849 -0.41960526040447821 0 0.17042982775368151 -0.41274390099030239 0 0.15979138776423191 -0.42406840149736191 0 0.17042982775368151 -0.41274390099030239 0 0.1760344574594947 -0.42149786580237669 0 0.15398562739609989 -0.414436145328195 0 0.15636365466176849 -0.41960526040447821 0 0.16176651730702801 -0.41283252991975622 0 0.15805845094365739 -0.40474493864538458 0 0.15398562739609989 -0.414436145328195 0 0.16176651730702801 -0.41283252991975622 0 0.15805845094365739 -0.40474493864538458 0 0.16176651730702801 -0.41283252991975622 0 0.17042982775368151 -0.41274390099030239 0 0.17042982775368151 -0.41274390099030239 0 0.1760344574594947 -0.42149786580237669 0 0.17986785094481991 -0.4134894736146324 0 0.18449600084559339 -0.40588254157612419 0 0.17042982775368151 -0.41274390099030239 0 0.18449600084559339 -0.40588254157612419 0 0.18221634088723479 -0.40136818287387582 0 0.17042982775368151 -0.41274390099030239 0 0.18449600084559339 -0.40588254157612419 0 0.17042982775368151 -0.41274390099030239 0 0.17986785094481991 -0.4134894736146324 0 0.18851111772050869 -0.41383358608972459 0 0.18449600084559339 -0.40588254157612419 0 0.18851111772050869 -0.41383358608972459 0 0.18449600084559339 -0.40588254157612419 0 0.17986785094481991 -0.4134894736146324 0 0.18851111772050869 -0.41383358608972459 0 0.1760344574594947 -0.42149786580237669 0 0.1911717259170673 -0.41910232791299562 0 0.1760344574594947 -0.42149786580237669 0 0.18851111772050869 -0.41383358608972459 0 0.1760344574594947 -0.42149786580237669 0 0.17986785094481991 -0.4134894736146324 0 0.1911717259170673 -0.41910232791299562 0 0.18851111772050869 -0.41383358608972459 0 0.1760344574594947 -0.42149786580237669 0 0.1911717259170673 -0.41910232791299562 0 0.1760344574594947 -0.42149786580237669 0 0.18484232774876749 -0.43033534366960768 0 0.18484232774876749 -0.43033534366960768 0 0.17509911994716071 -0.43336510097506958 0 0.18590039067086719 -0.44115637567916172 0 0.18484232774876749 -0.43033534366960768 0 0.17509911994716071 -0.43336510097506958 0 0.17653319474121221 -0.42750765242104072 0 0.1713980071398 -0.42434598792645378 0 0.17509911994716071 -0.43336510097506958 0 0.17653319474121221 -0.42750765242104072 0 0.1760344574594947 -0.42149786580237669 0 0.18484232774876749 -0.43033534366960768 0 0.17653319474121221 -0.42750765242104072 0 0.1713980071398 -0.42434598792645378 0 0.1760344574594947 -0.42149786580237669 0 0.17653319474121221 -0.42750765242104072 0 0.1713980071398 -0.42434598792645378 0 0.1760344574594947 -0.42149786580237669 0 0.17791556380287959 -0.4455361086535346 0 0.17376504419967539 -0.46076368888843938 0 0.16557730454712019 -0.44172028084172121 0 0.17509911994716071 -0.43336510097506958 0 0.17791556380287959 -0.4455361086535346 0 0.18590039067086719 -0.44115637567916172 0 0.17509911994716071 -0.43336510097506958 0 0.17791556380287959 -0.4455361086535346 0 0.16557730454712019 -0.44172028084172121 0 0.18923595964957429 -0.45067509688328122 0 0.17791556380287959 -0.4455361086535346 0 0.18590039067086719 -0.44115637567916172 0 0.18923595964957429 -0.45067509688328122 0 0.17791556380287959 -0.4455361086535346 0 0.17376504419967539 -0.46076368888843938 0 0.1938641377332887 -0.4633108835168005 0 0.18923595964957429 -0.45067509688328122 0 0.17376504419967539 -0.46076368888843938 0 0.1938641377332887 -0.4633108835168005 0 0.17376504419967539 -0.46076368888843938 0 0.17718182015316611 -0.48165544175840053 0 0.17376504419967539 -0.46076368888843938 0 0.15550290350416551 -0.45157236434768988 0 0.1539044029471725 -0.46809795184702829 0 0.17376504419967539 -0.46076368888843938 0 0.16557730454712019 -0.44172028084172121 0 0.15550290350416551 -0.45157236434768988 0 0.15423293294423909 -0.43386412417913311 0 0.16557730454712019 -0.44172028084172121 0 0.15550290350416551 -0.45157236434768988 0 0.15423293294423909 -0.43386412417913311 0 0.15550290350416551 -0.45157236434768988 0 0.1460535583969573 -0.44160689079445481 0 0.15550290350416551 -0.45157236434768988 0 0.1460535583969573 -0.44160689079445481 0 0.14153074802588431 -0.45654190970348868 0 0.1460535583969573 -0.44160689079445481 0 0.128223579302082 -0.44682997076052833 0 0.14153074802588431 -0.45654190970348868 0 0.128223579302082 -0.44682997076052833 0 0.12432460327697011 -0.47341498538026422 0 0.128223579302082 -0.44682997076052833 0 0.14153074802588431 -0.45654190970348868 0 0.12432460327697011 -0.47341498538026422 0 0.1539044029471725 -0.46809795184702829 0 0.14153074802588431 -0.45654190970348868 0 0.12432460327697011 -0.47341498538026422 0 0.15550290350416551 -0.45157236434768988 0 0.1539044029471725 -0.46809795184702829 0 0.14153074802588431 -0.45654190970348868 0 0.1539044029471725 -0.46809795184702829 0 0.15048103374274721 -0.48484579871078243 0 0.12432460327697011 -0.47341498538026422 0 0.1404625649124509 -0.5 0 0.15048103374274721 -0.48484579871078243 0 0.12432460327697011 -0.47341498538026422 0 0.1404625649124509 -0.5 0 0.12042562725185831 -0.49999999999999989 0 0.12432460327697011 -0.47341498538026422 0 0.1404625649124509 -0.5 0 0.15048103374274721 -0.48484579871078243 0 0.16049950257304349 -0.50000000000000033 0 0.16049950257304349 -0.50000000000000033 0 0.17718182015316611 -0.48165544175840053 0 0.15048103374274721 -0.48484579871078243 0 0.16049950257304349 -0.50000000000000033 0 0.17718182015316611 -0.48165544175840053 0 0.17376504419967539 -0.46076368888843938 0 0.1539044029471725 -0.46809795184702829 0 0.17718182015316611 -0.48165544175840053 0 0.1539044029471725 -0.46809795184702829 0 0.15048103374274721 -0.48484579871078243 0 0.17718182015316611 -0.48165544175840053 0 0.1938641377332887 -0.4633108835168005 0 0.17718182015316611 -0.48165544175840053 0 0.19122796324104871 -0.48466606029959602 0 0.1938641377332887 -0.4633108835168005 0 0.17718182015316611 -0.48165544175840053 0 0.16049950257304349 -0.50000000000000033 0 0.17718182015316611 -0.48165544175840053 0 0.18744203257390391 -0.5 0 0.19122796324104871 -0.48466606029959602 0 0.17718182015316611 -0.48165544175840053 0 0.18744203257390391 -0.5 0 0.072018957471098571 -0.48629524479662273 0 0.069142552082564368 -0.5 0 0.082735946582200875 -0.4892045976485363 0 0.072018957471098571 -0.48629524479662273 0 0.079568506083734697 -0.4785915255016745 0 0.082735946582200875 -0.4892045976485363 0 0.072018957471098571 -0.48629524479662273 0 0.062670741706174135 -0.48944359682069549 0 0.064881374578912687 -0.4815757870058418 0 0.072018957471098571 -0.48629524479662273 0 0.069142552082564368 -0.5 0 0.062670741706174135 -0.48944359682069549 0 0.073180054077148754 -0.46968413697177741 0 0.079568506083734697 -0.4785915255016745 0 0.081395248040860374 -0.46160025678040811 0 0.067447632246636219 -0.45716428258124142 0 0.05849497948899289 -0.47642287528831911 0 0.061758178687080389 -0.47580514524370598 0 0.072018957471098571 -0.48629524479662273 0 0.064881374578912687 -0.4815757870058418 0 0.070673492561877091 -0.4782128222507579 0 0.064881374578912687 -0.4815757870058418 0 0.066280053791524171 -0.47680462027284459 0 0.061758178687080389 -0.47580514524370598 0 0.064881374578912687 -0.4815757870058418 0 0.066280053791524171 -0.47680462027284459 0 0.070673492561877091 -0.4782128222507579 0 0.066280053791524171 -0.47680462027284459 0 0.067807169338226503 -0.47162472659107291 0 0.061758178687080389 -0.47580514524370598 0 0.066280053791524171 -0.47680462027284459 0 0.067807169338226503 -0.47162472659107291 0 0.070673492561877091 -0.4782128222507579 0 0.067807169338226503 -0.47162472659107291 0 0.073180054077148754 -0.46968413697177741 0 0.070673492561877091 -0.4782128222507579 0 0.073180054077148754 -0.46968413697177741 0 0.070673492561877091 -0.4782128222507579 0 0.079568506083734697 -0.4785915255016745 0 0.072018957471098571 -0.48629524479662273 0 0.070673492561877091 -0.4782128222507579 0 0.079568506083734697 -0.4785915255016745 0 0.096876661376123455 -0.48080012839020431 0 0.081395248040860374 -0.46160025678040811 0 0.096876661376123455 -0.48080012839020431 0 0.095349939854524335 -0.46404107218864848 0 0.081395248040860374 -0.46160025678040811 0 0.079568506083734697 -0.4785915255016745 0 0.082735946582200875 -0.4892045976485363 0 0.096876661376123455 -0.48080012839020431 0 0.079568506083734697 -0.4785915255016745 0 0.096876661376123455 -0.48080012839020431 0 0.081395248040860374 -0.46160025678040811 0 0.090750313396975479 -0.5 0 0.082735946582200875 -0.4892045976485363 0 0.096876661376123455 -0.48080012839020431 0 0.069142552082564368 -0.5 0 0.090750313396975479 -0.5 0 0.082735946582200875 -0.4892045976485363 0 0.1123580747113867 -0.50000000000000033 0 0.1124728586670535 -0.48406595427175642 0 0.096876661376123455 -0.48080012839020431 0 0.090750313396975479 -0.5 0 0.1123580747113867 -0.50000000000000033 0 0.096876661376123455 -0.48080012839020431 0 0.1123580747113867 -0.50000000000000033 0 0.096876661376123455 -0.48080012839020431 0 0.1123580747113867 -0.50000000000000033 0 0.12042562725185831 -0.49999999999999989 0 0.1124728586670535 -0.48406595427175642 0 0.12042562725185831 -0.49999999999999989 0 0.1124728586670535 -0.48406595427175642 0 0.12432460327697011 -0.47341498538026422 0 0.12042562725185831 -0.49999999999999989 0 0.12432460327697011 -0.47341498538026422 0 0.1124728586670535 -0.48406595427175642 0 0.12432460327697011 -0.47341498538026422 0 0.1082250197838846 -0.46311527911574241 0 0.096876661376123455 -0.48080012839020431 0 0.095349939854524335 -0.46404107218864848 0 0.1082250197838846 -0.46311527911574241 0 0.1124728586670535 -0.48406595427175642 0 0.096876661376123455 -0.48080012839020431 0 0.1082250197838846 -0.46311527911574241 0 0.095349939854524335 -0.46404107218864848 0 0.1082250197838846 -0.46311527911574241 0 0.094902830217228867 -0.45064862446823939 0 0.128223579302082 -0.44682997076052833 0 0.12432460327697011 -0.47341498538026422 0 0.1082250197838846 -0.46311527911574241 0 0.128223579302082 -0.44682997076052833 0 0.1069391861142964 -0.44299064961396012 0 0.1159996351348133 -0.43474120747525058 0 0.128223579302082 -0.44682997076052833 0 0.1082250197838846 -0.46311527911574241 0 0.1069391861142964 -0.44299064961396012 0 0.1082250197838846 -0.46311527911574241 0 0.1069391861142964 -0.44299064961396012 0 0.094902830217228867 -0.45064862446823939 0 0.1069391861142964 -0.44299064961396012 0 0.091812697424993442 -0.4386357446441016 0 0.098414951810672224 -0.43233268446502993 0 0.1069391861142964 -0.44299064961396012 0 0.094902830217228867 -0.45064862446823939 0 0.091812697424993442 -0.4386357446441016 0 0.094902830217228867 -0.45064862446823939 0 0.091812697424993442 -0.4386357446441016 0 0.082434724511159588 -0.44537142502386151 0 0.094902830217228867 -0.45064862446823939 0 0.082434724511159588 -0.44537142502386151 0 0.081395248040860374 -0.46160025678040811 0 0.091812697424993442 -0.4386357446441016 0 0.082434724511159588 -0.44537142502386151 0 0.078149012167117934 -0.43357211405594609 0 0.095349939854524335 -0.46404107218864848 0 0.094902830217228867 -0.45064862446823939 0 0.081395248040860374 -0.46160025678040811 0 0.067447632246636219 -0.45716428258124142 0 0.065913834705597293 -0.44240038517061198 0 0.057068655694905858 -0.46015288389510001 0 0.067447632246636219 -0.45716428258124142 0 0.05849497948899289 -0.47642287528831911 0 0.067807169338226503 -0.47162472659107291 0 0.067447632246636219 -0.45716428258124142 0 0.061758178687080389 -0.47580514524370598 0 0.081395248040860374 -0.46160025678040811 0 0.067447632246636219 -0.45716428258124142 0 0.065913834705597293 -0.44240038517061198 0 0.073180054077148754 -0.46968413697177741 0 0.081395248040860374 -0.46160025678040811 0 0.067447632246636219 -0.45716428258124142 0 0.067807169338226503 -0.47162472659107291 0 0.073180054077148754 -0.46968413697177741 0 0.067447632246636219 -0.45716428258124142 0 0.081395248040860374 -0.46160025678040811 0 0.065913834705597293 -0.44240038517061198 0 0.082434724511159588 -0.44537142502386151 0 0.081395248040860374 -0.46160025678040811 0 0.065913834705597293 -0.44240038517061198 0 0.082434724511159588 -0.44537142502386151 0 0.065913834705597293 -0.44240038517061198 0 0.078149012167117934 -0.43357211405594609 0 0.065921365320016911 -0.4273577277455588 0 0.073982485551444349 -0.42005290588181732 0 0.078149012167117934 -0.43357211405594609 0 0.065913834705597293 -0.44240038517061198 0 0.065921365320016911 -0.4273577277455588 0 0.078149012167117934 -0.43357211405594609 0 0.073982485551444349 -0.42005290588181732 0 0.069775570718114244 -0.40426700169235308 0 0.060774245729122177 -0.41691050055794487 0 0.065921365320016911 -0.4273577277455588 0 0.073982485551444349 -0.42005290588181732 0 0.060774245729122177 -0.41691050055794487 0 0.073982485551444349 -0.42005290588181732 0 0.086447448161059384 -0.41120764722282821 0 0.069775570718114244 -0.40426700169235308 0 0.073982485551444349 -0.42005290588181732 0 0.086447448161059384 -0.41120764722282821 0 0.088692331433278357 -0.42535053834926723 0 0.086447448161059384 -0.41120764722282821 0 0.093827427438274241 -0.41775801958915132 0 0.099702730965631758 -0.41290181884877419 0 0.086447448161059384 -0.41120764722282821 0 0.088692331433278357 -0.42535053834926723 0 0.093827427438274241 -0.41775801958915132 0 0.088692331433278357 -0.42535053834926723 0 0.097645949564215143 -0.42435504664253748 0 0.093827427438274241 -0.41775801958915132 0 0.073982485551444349 -0.42005290588181732 0 0.088692331433278357 -0.42535053834926723 0 0.078149012167117934 -0.43357211405594609 0 0.091812697424993442 -0.4386357446441016 0 0.088692331433278357 -0.42535053834926723 0 0.078149012167117934 -0.43357211405594609 0 0.091812697424993442 -0.4386357446441016 0 0.088692331433278357 -0.42535053834926723 0 0.098414951810672224 -0.43233268446502993 0 0.098414951810672224 -0.43233268446502993 0 0.097645949564215143 -0.42435504664253748 0 0.1061961683754654 -0.43004895598907111 0 0.088692331433278357 -0.42535053834926723 0 0.098414951810672224 -0.43233268446502993 0 0.097645949564215143 -0.42435504664253748 0 0.1061961683754654 -0.43004895598907111 0 0.11152958735588871 -0.42539382439527612 0 0.1045809803654715 -0.42051706085107571 0 0.097645949564215143 -0.42435504664253748 0 0.1061961683754654 -0.43004895598907111 0 0.1045809803654715 -0.42051706085107571 0 0.1069391861142964 -0.44299064961396012 0 0.098414951810672224 -0.43233268446502993 0 0.1061961683754654 -0.43004895598907111 0 0.1061961683754654 -0.43004895598907111 0 0.1159996351348133 -0.43474120747525058 0 0.11152958735588871 -0.42539382439527612 0 0.13212255532719441 -0.42024495614079282 0 0.1159996351348133 -0.43474120747525058 0 0.11851153239627241 -0.42275952171654291 0 0.1069391861142964 -0.44299064961396012 0 0.1061961683754654 -0.43004895598907111 0 0.1159996351348133 -0.43474120747525058 0 0.1159996351348133 -0.43474120747525058 0 0.11152958735588871 -0.42539382439527612 0 0.11851153239627241 -0.42275952171654291 0 0.11152958735588871 -0.42539382439527612 0 0.11851153239627241 -0.42275952171654291 0 0.1123596205074209 -0.41890237594444008 0 0.1250254850364893 -0.40936224001308058 0 0.117866085899093 -0.41583132647739651 0 0.1096180349996463 -0.41151587164058129 0 0.1250254850364893 -0.40936224001308058 0 0.1096180349996463 -0.41151587164058129 0 0.13212255532719441 -0.42024495614079282 0 0.11851153239627241 -0.42275952171654291 0 0.117866085899093 -0.41583132647739651 0 0.117866085899093 -0.41583132647739651 0 0.1123596205074209 -0.41890237594444008 0 0.1096180349996463 -0.41151587164058129 0 0.11851153239627241 -0.42275952171654291 0 0.117866085899093 -0.41583132647739651 0 0.1123596205074209 -0.41890237594444008 0 0.11152958735588871 -0.42539382439527612 0 0.1123596205074209 -0.41890237594444008 0 0.1045809803654715 -0.42051706085107571 0 0.1123596205074209 -0.41890237594444008 0 0.1096180349996463 -0.41151587164058129 0 0.1065506547415149 -0.41613106226330793 0 0.1096180349996463 -0.41151587164058129 0 0.1065506547415149 -0.41613106226330793 0 0.099702730965631758 -0.41290181884877419 0 0.1096180349996463 -0.41151587164058129 0 0.099702730965631758 -0.41290181884877419 0 0.1096180349996463 -0.41151587164058129 0 0.099702730965631758 -0.41290181884877419 0 0.1041447551606165 -0.40305668800175581 0 0.1123596205074209 -0.41890237594444008 0 0.1065506547415149 -0.41613106226330793 0 0.1045809803654715 -0.42051706085107571 0 0.1065506547415149 -0.41613106226330793 0 0.1045809803654715 -0.42051706085107571 0 0.099702730965631758 -0.41290181884877419 0 0.1045809803654715 -0.42051706085107571 0 0.093827427438274241 -0.41775801958915132 0 0.099702730965631758 -0.41290181884877419 0 0.097645949564215143 -0.42435504664253748 0 0.1045809803654715 -0.42051706085107571 0 0.093827427438274241 -0.41775801958915132 0 0.086447448161059384 -0.41120764722282821 0 0.099702730965631758 -0.41290181884877419 0 0.095691580682652475 -0.39908469234235189 0 0.095691580682652475 -0.39908469234235189 0 0.1041447551606165 -0.40305668800175581 0 0.1115666739945345 -0.38872436917531578 0 0.099702730965631758 -0.41290181884877419 0 0.095691580682652475 -0.39908469234235189 0 0.1041447551606165 -0.40305668800175581 0 0.1096180349996463 -0.41151587164058129 0 0.1041447551606165 -0.40305668800175581 0 0.1115666739945345 -0.38872436917531578 0 0.1250254850364893 -0.40936224001308058 0 0.1115666739945345 -0.38872436917531578 0 0.1096180349996463 -0.41151587164058129 0 0.1115666739945345 -0.38872436917531578 0 0.1250254850364893 -0.40936224001308058 0 0.1096180349996463 -0.41151587164058129 0 0.1115666739945345 -0.38872436917531578 0 0.12645644117523869 -0.39722706905544619 0 0.1250254850364893 -0.40936224001308058 0 0.1115666739945345 -0.38872436917531578 0 0.12609635470998201 -0.38402791619100712 0 0.1115666739945345 -0.38872436917531578 0 0.113745377556003 -0.36324200547299851 0 0.1115666739945345 -0.38872436917531578 0 0.113745377556003 -0.36324200547299851 0 0.12609635470998201 -0.38402791619100712 0 0.12645644117523869 -0.39722706905544619 0 0.1115666739945345 -0.38872436917531578 0 0.1115666739945345 -0.38872436917531578 0 0.096372132326470572 -0.36542491223168638 0 0.1115666739945345 -0.38872436917531578 0 0.089853218628298884 -0.38394717958202601 0 0.096372132326470572 -0.36542491223168638 0 0.095691580682652475 -0.39908469234235189 0 0.1115666739945345 -0.38872436917531578 0 0.089853218628298884 -0.38394717958202601 0 0.089853218628298884 -0.38394717958202601 0 0.082924844884061683 -0.39714926844771359 0 0.072939106935086151 -0.38728773006234168 0 0.089853218628298884 -0.38394717958202601 0 0.072939106935086151 -0.38728773006234168 0 0.07582030708563034 -0.37256671738353597 0 0.095691580682652475 -0.39908469234235189 0 0.089853218628298884 -0.38394717958202601 0 0.082924844884061683 -0.39714926844771359 0 0.086447448161059384 -0.41120764722282821 0 0.082924844884061683 -0.39714926844771359 0 0.069775570718114244 -0.40426700169235308 0 0.086447448161059384 -0.41120764722282821 0 0.095691580682652475 -0.39908469234235189 0 0.082924844884061683 -0.39714926844771359 0 0.069775570718114244 -0.40426700169235308 0 0.072939106935086151 -0.38728773006234168 0 0.058313699768321348 -0.39007371912844929 0 0.082924844884061683 -0.39714926844771359 0 0.069775570718114244 -0.40426700169235308 0 0.072939106935086151 -0.38728773006234168 0 0.072939106935086151 -0.38728773006234168 0 0.05933500968155693 -0.37671477575793533 0 0.058313699768321348 -0.39007371912844929 0 0.072939106935086151 -0.38728773006234168 0 0.05933500968155693 -0.37671477575793533 0 0.07582030708563034 -0.37256671738353597 0 0.05933500968155693 -0.37671477575793533 0 0.043300396670470892 -0.38581293046691678 0 0.039079294002052851 -0.37065651216905859 0 0.05933500968155693 -0.37671477575793533 0 0.058313699768321348 -0.39007371912844929 0 0.043300396670470892 -0.38581293046691678 0 0.058313699768321348 -0.39007371912844929 0 0.0466875803122518 -0.39705513158652528 0 0.054373060569327003 -0.40663711634463268 0 0.069775570718114244 -0.40426700169235308 0 0.058313699768321348 -0.39007371912844929 0 0.054373060569327003 -0.40663711634463268 0 0.058313699768321348 -0.39007371912844929 0 0.054373060569327003 -0.40663711634463268 0 0.0466875803122518 -0.39705513158652528 0 0.042121557959679479 -0.40689397827368962 0 0.054373060569327003 -0.40663711634463268 0 0.058313699768321348 -0.39007371912844929 0 0.0466875803122518 -0.39705513158652528 0 0.043300396670470892 -0.38581293046691678 0 0.0466875803122518 -0.39705513158652528 0 0.032645317368698572 -0.39721328630736241 0 0.043300396670470892 -0.38581293046691678 0 0.0466875803122518 -0.39705513158652528 0 0.032645317368698572 -0.39721328630736241 0 0.042121557959679479 -0.40689397827368962 0 0.032645317368698572 -0.39721328630736241 0 0.043300396670470892 -0.38581293046691678 0 0.025542853711361019 -0.38384675294920401 0 0.043300396670470892 -0.38581293046691678 0 0.025542853711361019 -0.38384675294920401 0 0.039079294002052851 -0.37065651216905859 0 0.025542853711361019 -0.38384675294920401 0 0.009690974369139977 -0.39295199195252922 0 0.016784443680880379 -0.36713146693108112 0 -0.0064694903547723136 -0.38059021958606692 0 0.009690974369139977 -0.39295199195252922 0 0.016784443680880379 -0.36713146693108112 0 0.032645317368698572 -0.39721328630736241 0 0.009690974369139977 -0.39295199195252922 0 0.030062121183744069 -0.41560348860952728 0 0.032645317368698572 -0.39721328630736241 0 0.025542853711361019 -0.38384675294920401 0 0.009690974369139977 -0.39295199195252922 0 0.009690974369139977 -0.39295199195252922 0 0.030062121183744069 -0.41560348860952728 0 0.01224976062295041 -0.42183763890738629 0 -0.0080625817845775948 -0.40608726553411861 0 0.009690974369139977 -0.39295199195252922 0 0.01224976062295041 -0.42183763890738629 0 0.009690974369139977 -0.39295199195252922 0 0.01224976062295041 -0.42183763890738629 0 0.01224976062295041 -0.42183763890738629 0 0.01480854687676085 -0.45072328586224342 0 0.030062121183744069 -0.41560348860952728 0 0.01224976062295041 -0.42183763890738629 0 0.028535899264767479 -0.43733174884408438 0 0.01224976062295041 -0.42183763890738629 0 0.028535899264767479 -0.43733174884408438 0 0.01480854687676085 -0.45072328586224342 0 0.030062121183744069 -0.41560348860952728 0 0.028535899264767479 -0.43733174884408438 0 0.039909128579099777 -0.42893709763038412 0 0.039909128579099777 -0.42893709763038412 0 0.050432421370333713 -0.42320051356081623 0 0.04400553312424714 -0.45021417746364167 0 0.039909128579099777 -0.42893709763038412 0 0.046509667952406512 -0.41833555967385072 0 0.050432421370333713 -0.42320051356081623 0 0.032645317368698572 -0.39721328630736241 0 0.030062121183744069 -0.41560348860952728 0 0.042121557959679479 -0.40689397827368962 0 0.030062121183744069 -0.41560348860952728 0 0.039909128579099777 -0.42893709763038412 0 0.046509667952406512 -0.41833555967385072 0 0.030062121183744069 -0.41560348860952728 0 0.042121557959679479 -0.40689397827368962 0 0.046509667952406512 -0.41833555967385072 0 0.054373060569327003 -0.40663711634463268 0 0.050432421370333713 -0.42320051356081623 0 0.046509667952406512 -0.41833555967385072 0 0.054373060569327003 -0.40663711634463268 0 0.050432421370333713 -0.42320051356081623 0 0.054373060569327003 -0.40663711634463268 0 0.060774245729122177 -0.41691050055794487 0 0.050432421370333713 -0.42320051356081623 0 0.046509667952406512 -0.41833555967385072 0 0.050432421370333713 -0.42320051356081623 0 0.042121557959679479 -0.40689397827368962 0 0.046509667952406512 -0.41833555967385072 0 0.054373060569327003 -0.40663711634463268 0 0.069775570718114244 -0.40426700169235308 0 0.054373060569327003 -0.40663711634463268 0 0.060774245729122177 -0.41691050055794487 0 0.050432421370333713 -0.42320051356081623 0 0.04400553312424714 -0.45021417746364167 0 0.065913834705597293 -0.44240038517061198 0 0.050432421370333713 -0.42320051356081623 0 0.065913834705597293 -0.44240038517061198 0 0.065921365320016911 -0.4273577277455588 0 0.050432421370333713 -0.42320051356081623 0 0.065921365320016911 -0.4273577277455588 0 0.060774245729122177 -0.41691050055794487 0 0.050432421370333713 -0.42320051356081623 0 0.065913834705597293 -0.44240038517061198 0 0.050432421370333713 -0.42320051356081623 0 0.04400553312424714 -0.45021417746364167 0 0.065913834705597293 -0.44240038517061198 0 0.057068655694905858 -0.46015288389510001 0 0.04400553312424714 -0.45021417746364167 0 0.057068655694905858 -0.46015288389510001 0 0.048043393468649283 -0.46676160836513853 0 0.04400553312424714 -0.45021417746364167 0 0.067447632246636219 -0.45716428258124142 0 0.057068655694905858 -0.46015288389510001 0 0.05849497948899289 -0.47642287528831911 0 0.057068655694905858 -0.46015288389510001 0 0.048043393468649283 -0.46676160836513853 0 0.052635520687858477 -0.47072247146996382 0 0.04400553312424714 -0.45021417746364167 0 0.037578644878161642 -0.47722784136646751 0 0.048043393468649283 -0.46676160836513853 0 0.04400553312424714 -0.45021417746364167 0 0.037578644878161642 -0.47722784136646751 0 0.04400553312424714 -0.45021417746364167 0 0.030366658319331299 -0.45781827645911538 0 0.037578644878161642 -0.47722784136646751 0 0.028535899264767479 -0.43733174884408438 0 0.039909128579099777 -0.42893709763038412 0 0.04400553312424714 -0.45021417746364167 0 0.028535899264767479 -0.43733174884408438 0 0.04400553312424714 -0.45021417746364167 0 0.030366658319331299 -0.45781827645911538 0 0.028535899264767479 -0.43733174884408438 0 0.01480854687676085 -0.45072328586224342 0 0.030366658319331299 -0.45781827645911538 0 -0.008216644178786571 -0.4466179140804285 0 0.01224976062295041 -0.42183763890738629 0 0.01480854687676085 -0.45072328586224342 0 0.01480854687676085 -0.45072328586224342 0 0.017367333130571299 -0.47960893281710049 0 0.0084119176919832291 -0.471974008478943 0 -0.0021957942935651631 -0.46571035637089769 0 0.01480854687676085 -0.45072328586224342 0 0.0084119176919832291 -0.471974008478943 0 -0.008216644178786571 -0.4466179140804285 0 -0.0021957942935651631 -0.46571035637089769 0 0.01480854687676085 -0.45072328586224342 0 0.01480854687676085 -0.45072328586224342 0 0.017367333130571299 -0.47960893281710049 0 0.01480854687676085 -0.45072328586224342 0 0.030366658319331299 -0.45781827645911538 0 0.0269046674527194 -0.47359432875914009 0 0.01480854687676085 -0.45072328586224342 0 0.0269046674527194 -0.47359432875914009 0 0.017367333130571299 -0.47960893281710049 0 0.017367333130571299 -0.47960893281710049 0 0.012735562036971701 -0.48508522326900949 0 0.035615270762982369 -0.48075404927866472 0 0.012735562036971701 -0.48508522326900949 0 0.035615270762982369 -0.48075404927866472 0 0.0269046674527194 -0.47359432875914009 0 0.017367333130571299 -0.47960893281710049 0 0.035615270762982369 -0.48075404927866472 0 0.017367333130571299 -0.47960893281710049 0 0.0084119176919832291 -0.471974008478943 0 0.012735562036971701 -0.48508522326900949 0 -0.00065605929082254884 -0.47874224407546379 0 0.0084119176919832291 -0.471974008478943 0 0.012735562036971701 -0.48508522326900949 0 -0.0021957942935651631 -0.46571035637089769 0 -0.00065605929082254884 -0.47874224407546379 0 0.0084119176919832291 -0.471974008478943 0 -0.010144146689038991 -0.48941639725935437 0 -0.00065605929082254884 -0.47874224407546379 0 0.012735562036971701 -0.48508522326900949 0 -0.010144146689038991 -0.48941639725935437 0 0.012735562036971701 -0.48508522326900949 0 -0.011489863113854141 -0.5 0 0.012735562036971701 -0.48508522326900949 0 0.01802246382714956 -0.5 0 0.01802246382714956 -0.5 0 0.025329369399590369 -0.48901546815995378 0 0.047534790768153173 -0.50000000000000044 0 0.012735562036971701 -0.48508522326900949 0 0.025329369399590369 -0.48901546815995378 0 0.035615270762982369 -0.48075404927866472 0 0.012735562036971701 -0.48508522326900949 0 0.01802246382714956 -0.5 0 0.025329369399590369 -0.48901546815995378 0 0.025329369399590369 -0.48901546815995378 0 0.035615270762982369 -0.48075404927866472 0 0.047534790768153173 -0.50000000000000044 0 0.030366658319331299 -0.45781827645911538 0 0.0269046674527194 -0.47359432875914009 0 0.037578644878161642 -0.47722784136646751 0 0.0269046674527194 -0.47359432875914009 0 0.037578644878161642 -0.47722784136646751 0 0.035615270762982369 -0.48075404927866472 0 0.048043393468649283 -0.46676160836513853 0 0.037578644878161642 -0.47722784136646751 0 0.046296380844488463 -0.47463440362945558 0 0.035615270762982369 -0.48075404927866472 0 0.046296380844488463 -0.47463440362945558 0 0.049693011087844949 -0.4756354888466594 0 0.037578644878161642 -0.47722784136646751 0 0.035615270762982369 -0.48075404927866472 0 0.046296380844488463 -0.47463440362945558 0 0.057068655694905858 -0.46015288389510001 0 0.052635520687858477 -0.47072247146996382 0 0.05849497948899289 -0.47642287528831911 0 0.035615270762982369 -0.48075404927866472 0 0.049693011087844949 -0.4756354888466594 0 0.05849497948899289 -0.47642287528831911 0 0.035615270762982369 -0.48075404927866472 0 0.05849497948899289 -0.47642287528831911 0 0.048043393468649283 -0.46676160836513853 0 0.046296380844488463 -0.47463440362945558 0 0.052635520687858477 -0.47072247146996382 0 0.049693011087844949 -0.4756354888466594 0 0.052635520687858477 -0.47072247146996382 0 0.05849497948899289 -0.47642287528831911 0 0.046296380844488463 -0.47463440362945558 0 0.049693011087844949 -0.4756354888466594 0 0.052635520687858477 -0.47072247146996382 0 0.05849497948899289 -0.47642287528831911 0 0.061758178687080389 -0.47580514524370598 0 0.062670741706174135 -0.48944359682069549 0 0.064881374578912687 -0.4815757870058418 0 0.05849497948899289 -0.47642287528831911 0 0.064881374578912687 -0.4815757870058418 0 0.05849497948899289 -0.47642287528831911 0 0.061758178687080389 -0.47580514524370598 0 0.069142552082564368 -0.5 0 0.062670741706174135 -0.48944359682069549 0 0.047534790768153173 -0.50000000000000044 0 0.05849497948899289 -0.47642287528831911 0 0.047534790768153173 -0.50000000000000044 0 0.035615270762982369 -0.48075404927866472 0 0.05849497948899289 -0.47642287528831911 0 0.047534790768153173 -0.50000000000000044 0 0.062670741706174135 -0.48944359682069549 0 0.05849497948899289 -0.47642287528831911 0 0.047534790768153173 -0.50000000000000044 0 0.089727975817252392 -0.29646224842349211 0 0.069967983226982527 -0.30495776272600778 0 0.075483032258224086 -0.28815868119130272 0 0.089727975817252392 -0.29646224842349211 0 0.088503230311337153 -0.27716835087377989 0 0.101883582619993 -0.28460947857741209 0 0.089727975817252392 -0.29646224842349211 0 0.075483032258224086 -0.28815868119130272 0 0.088503230311337153 -0.27716835087377989 0 0.089727975817252392 -0.29646224842349211 0 0.086214248119208581 -0.31193359067875348 0 0.069967983226982527 -0.30495776272600778 0 0.089727975817252392 -0.29646224842349211 0 0.086214248119208581 -0.31193359067875348 0 0.10049372866807189 -0.31082656242210721 0 0.069967983226982527 -0.30495776272600778 0 0.075483032258224086 -0.28815868119130272 0 0.059449054433483903 -0.28956707473318272 0 0.075483032258224086 -0.28815868119130272 0 0.0646939085167762 -0.2722383315448984 0 0.059449054433483903 -0.28956707473318272 0 0.0646939085167762 -0.2722383315448984 0 0.077350866508299074 -0.27549126298099152 0 0.080723294946858856 -0.26439968831398508 0 0.075483032258224086 -0.28815868119130272 0 0.0646939085167762 -0.2722383315448984 0 0.077350866508299074 -0.27549126298099152 0 0.0646939085167762 -0.2722383315448984 0 0.070005134957367529 -0.25889031236374099 0 0.080723294946858856 -0.26439968831398508 0 0.070005134957367529 -0.25889031236374099 0 0.061490933840310687 -0.25382890142296882 0 0.070069103552599196 -0.24823964670048029 0 0.0646939085167762 -0.2722383315448984 0 0.070005134957367529 -0.25889031236374099 0 0.060614126731859473 -0.2624009925450973 0 0.070005134957367529 -0.25889031236374099 0 0.061490933840310687 -0.25382890142296882 0 0.060614126731859473 -0.2624009925450973 0 0.070005134957367529 -0.25889031236374099 0 0.080071368274292315 -0.25145738896057979 0 0.080723294946858856 -0.26439968831398508 0 0.070005134957367529 -0.25889031236374099 0 0.080071368274292315 -0.25145738896057979 0 0.070069103552599196 -0.24823964670048029 0 0.080071368274292315 -0.25145738896057979 0 0.080723294946858856 -0.26439968831398508 0 0.090706365013478091 -0.25245448435890872 0 0.080723294946858856 -0.26439968831398508 0 0.090706365013478091 -0.25245448435890872 0 0.095060577752172304 -0.26241188567384149 0 0.075483032258224086 -0.28815868119130272 0 0.077350866508299074 -0.27549126298099152 0 0.088503230311337153 -0.27716835087377989 0 0.077350866508299074 -0.27549126298099152 0 0.080723294946858856 -0.26439968831398508 0 0.088503230311337153 -0.27716835087377989 0 0.080723294946858856 -0.26439968831398508 0 0.088503230311337153 -0.27716835087377989 0 0.095060577752172304 -0.26241188567384149 0 0.088503230311337153 -0.27716835087377989 0 0.1016952336099234 -0.27235330725820578 0 0.101883582619993 -0.28460947857741209 0 0.088503230311337153 -0.27716835087377989 0 0.1016952336099234 -0.27235330725820578 0 0.095060577752172304 -0.26241188567384149 0 0.1016952336099234 -0.27235330725820578 0 0.1104739380917857 -0.2612093749811526 0 0.1125548392743288 -0.27636744618484282 0 0.1016952336099234 -0.27235330725820578 0 0.1125548392743288 -0.27636744618484282 0 0.101883582619993 -0.28460947857741209 0 0.090706365013478091 -0.25245448435890872 0 0.099550463170151926 -0.25262580003909579 0 0.095060577752172304 -0.26241188567384149 0 0.1016952336099234 -0.27235330725820578 0 0.095060577752172304 -0.26241188567384149 0 0.1104739380917857 -0.2612093749811526 0 0.099550463170151926 -0.25262580003909579 0 0.095060577752172304 -0.26241188567384149 0 0.1104739380917857 -0.2612093749811526 0 0.099550463170151926 -0.25262580003909579 0 0.1104739380917857 -0.2612093749811526 0 0.1078238037173969 -0.24832262031645649 0 0.1311170075682456 -0.27142576198599933 0 0.1104739380917857 -0.2612093749811526 0 0.1212054647883809 -0.25073068226796852 0 0.1104739380917857 -0.2612093749811526 0 0.1212054647883809 -0.25073068226796852 0 0.1078238037173969 -0.24832262031645649 0 0.1311170075682456 -0.27142576198599933 0 0.1104739380917857 -0.2612093749811526 0 0.1311170075682456 -0.27142576198599933 0 0.1104739380917857 -0.2612093749811526 0 0.1193620271946058 -0.27249351692823448 0 0.1104739380917857 -0.2612093749811526 0 0.1125548392743288 -0.27636744618484282 0 0.1193620271946058 -0.27249351692823448 0 0.1125548392743288 -0.27636744618484282 0 0.1193620271946058 -0.27249351692823448 0 0.1233023238440631 -0.28097148456094378 0 0.1311170075682456 -0.27142576198599933 0 0.1193620271946058 -0.27249351692823448 0 0.1233023238440631 -0.28097148456094378 0 0.1233023238440631 -0.28097148456094378 0 0.1242383748246253 -0.29131174999725179 0 0.1141297936923768 -0.28878453930630188 0 0.1242383748246253 -0.29131174999725179 0 0.1141297936923768 -0.28878453930630188 0 0.1198701537204314 -0.30089140532399938 0 0.1141297936923768 -0.28878453930630188 0 0.10622170970645189 -0.29895353846799488 0 0.1198701537204314 -0.30089140532399938 0 0.1125548392743288 -0.27636744618484282 0 0.1233023238440631 -0.28097148456094378 0 0.1141297936923768 -0.28878453930630188 0 0.1125548392743288 -0.27636744618484282 0 0.1141297936923768 -0.28878453930630188 0 0.101883582619993 -0.28460947857741209 0 0.089727975817252392 -0.29646224842349211 0 0.101883582619993 -0.28460947857741209 0 0.10622170970645189 -0.29895353846799488 0 0.1141297936923768 -0.28878453930630188 0 0.101883582619993 -0.28460947857741209 0 0.10622170970645189 -0.29895353846799488 0 0.089727975817252392 -0.29646224842349211 0 0.10049372866807189 -0.31082656242210721 0 0.10622170970645189 -0.29895353846799488 0 0.10049372866807189 -0.31082656242210721 0 0.10622170970645189 -0.29895353846799488 0 0.1134387524627216 -0.31086840579325631 0 0.10622170970645189 -0.29895353846799488 0 0.1134387524627216 -0.31086840579325631 0 0.1198701537204314 -0.30089140532399938 0 0.1265219532001009 -0.3124330460259736 0 0.1134387524627216 -0.31086840579325631 0 0.1198701537204314 -0.30089140532399938 0 0.1265219532001009 -0.3124330460259736 0 0.1134387524627216 -0.31086840579325631 0 0.1192961391526948 -0.32261879728377291 0 0.1134387524627216 -0.31086840579325631 0 0.1192961391526948 -0.32261879728377291 0 0.1082288303285789 -0.31948708523568958 0 0.1192961391526948 -0.32261879728377291 0 0.1093748658769356 -0.32997486192450581 0 0.1082288303285789 -0.31948708523568958 0 0.1192961391526948 -0.32261879728377291 0 0.1168506625355451 -0.3296807312869221 0 0.1093748658769356 -0.32997486192450581 0 0.1192961391526948 -0.32261879728377291 0 0.12260601330919629 -0.33072698382653798 0 0.1168506625355451 -0.3296807312869221 0 0.13219802669416811 -0.32498852212276208 0 0.1192961391526948 -0.32261879728377291 0 0.12260601330919629 -0.33072698382653798 0 0.13051916655351839 -0.33696304048325831 0 0.12260601330919629 -0.33072698382653798 0 0.1159240811174677 -0.33775964177068091 0 0.12260601330919629 -0.33072698382653798 0 0.1159240811174677 -0.33775964177068091 0 0.1161256318033537 -0.33540228211287182 0 0.12260601330919629 -0.33072698382653798 0 0.1168506625355451 -0.3296807312869221 0 0.1161256318033537 -0.33540228211287182 0 0.13051916655351839 -0.33696304048325831 0 0.1159240811174677 -0.33775964177068091 0 0.13051916655351839 -0.33696304048325831 0 0.1159240811174677 -0.33775964177068091 0 0.123981461538115 -0.35128285539313481 0 0.1159240811174677 -0.33775964177068091 0 0.1161256318033537 -0.33540228211287182 0 0.1168506625355451 -0.3296807312869221 0 0.1161256318033537 -0.33540228211287182 0 0.1093748658769356 -0.32997486192450581 0 0.1159240811174677 -0.33775964177068091 0 0.1161256318033537 -0.33540228211287182 0 0.1093748658769356 -0.32997486192450581 0 0.1159240811174677 -0.33775964177068091 0 0.092335912071574502 -0.33904708650077298 0 0.1159240811174677 -0.33775964177068091 0 0.1093748658769356 -0.32997486192450581 0 0.092335912071574502 -0.33904708650077298 0 0.1093748658769356 -0.32997486192450581 0 0.096347407600029022 -0.32440529872184809 0 0.092335912071574502 -0.33904708650077298 0 0.1159240811174677 -0.33775964177068091 0 0.10211321446004019 -0.35101158716873732 0 0.092335912071574502 -0.33904708650077298 0 0.086214248119208581 -0.31193359067875348 0 0.10049372866807189 -0.31082656242210721 0 0.096347407600029022 -0.32440529872184809 0 0.10049372866807189 -0.31082656242210721 0 0.1134387524627216 -0.31086840579325631 0 0.1082288303285789 -0.31948708523568958 0 0.10049372866807189 -0.31082656242210721 0 0.096347407600029022 -0.32440529872184809 0 0.1082288303285789 -0.31948708523568958 0 0.1093748658769356 -0.32997486192450581 0 0.096347407600029022 -0.32440529872184809 0 0.1082288303285789 -0.31948708523568958 0 0.12784456261830821 -0.36308533366748658 0 0.12609635470998201 -0.38402791619100712 0 0.113745377556003 -0.36324200547299851 0 0.1159240811174677 -0.33775964177068091 0 0.113745377556003 -0.36324200547299851 0 0.123981461538115 -0.35128285539313481 0 0.1159240811174677 -0.33775964177068091 0 0.113745377556003 -0.36324200547299851 0 0.1159240811174677 -0.33775964177068091 0 0.113745377556003 -0.36324200547299851 0 0.10211321446004019 -0.35101158716873732 0 0.12784456261830821 -0.36308533366748658 0 0.113745377556003 -0.36324200547299851 0 0.123981461538115 -0.35128285539313481 0 0.1115666739945345 -0.38872436917531578 0 0.113745377556003 -0.36324200547299851 0 0.096372132326470572 -0.36542491223168638 0 0.113745377556003 -0.36324200547299851 0 0.10211321446004019 -0.35101158716873732 0 0.096372132326470572 -0.36542491223168638 0 0.089853218628298884 -0.38394717958202601 0 0.096372132326470572 -0.36542491223168638 0 0.07582030708563034 -0.37256671738353597 0 0.096372132326470572 -0.36542491223168638 0 0.082110249222110576 -0.35466523699539548 0 0.07582030708563034 -0.37256671738353597 0 0.10211321446004019 -0.35101158716873732 0 0.096372132326470572 -0.36542491223168638 0 0.082110249222110576 -0.35466523699539548 0 0.082110249222110576 -0.35466523699539548 0 0.092335912071574502 -0.33904708650077298 0 0.068747743025681235 -0.34033453123086538 0 0.10211321446004019 -0.35101158716873732 0 0.082110249222110576 -0.35466523699539548 0 0.092335912071574502 -0.33904708650077298 0 0.082110249222110576 -0.35466523699539548 0 0.068747743025681235 -0.34033453123086538 0 0.057272186363266697 -0.35960658745677498 0 0.082110249222110576 -0.35466523699539548 0 0.07582030708563034 -0.37256671738353597 0 0.057272186363266697 -0.35960658745677498 0 0.05933500968155693 -0.37671477575793533 0 0.07582030708563034 -0.37256671738353597 0 0.057272186363266697 -0.35960658745677498 0 0.086214248119208581 -0.31193359067875348 0 0.096347407600029022 -0.32440529872184809 0 0.078030795921920637 -0.32434601069550512 0 0.092335912071574502 -0.33904708650077298 0 0.068747743025681235 -0.34033453123086538 0 0.078030795921920637 -0.32434601069550512 0 0.092335912071574502 -0.33904708650077298 0 0.068747743025681235 -0.34033453123086538 0 0.096347407600029022 -0.32440529872184809 0 0.092335912071574502 -0.33904708650077298 0 0.078030795921920637 -0.32434601069550512 0 0.068747743025681235 -0.34033453123086538 0 0.078030795921920637 -0.32434601069550512 0 0.053863538987460123 -0.3232816795844588 0 0.069967983226982527 -0.30495776272600778 0 0.078030795921920637 -0.32434601069550512 0 0.053863538987460123 -0.3232816795844588 0 0.086214248119208581 -0.31193359067875348 0 0.069967983226982527 -0.30495776272600778 0 0.078030795921920637 -0.32434601069550512 0 0.068747743025681235 -0.34033453123086538 0 0.045159573979787898 -0.34162197596095778 0 0.068747743025681235 -0.34033453123086538 0 0.053863538987460123 -0.3232816795844588 0 0.045159573979787898 -0.34162197596095778 0 0.053863538987460123 -0.3232816795844588 0 0.034832013842728909 -0.33032259781876938 0 0.045159573979787898 -0.34162197596095778 0 0.034832013842728909 -0.33032259781876938 0 0.045159573979787898 -0.34162197596095778 0 0.02157140493389462 -0.34290942069105018 0 0.045159573979787898 -0.34162197596095778 0 0.02157140493389462 -0.34290942069105018 0 0.053863538987460123 -0.3232816795844588 0 0.034832013842728909 -0.33032259781876938 0 0.03621734991660093 -0.31670946998547028 0 0.053863538987460123 -0.3232816795844588 0 0.03621734991660093 -0.31670946998547028 0 0.048768037075517537 -0.30442990221103089 0 0.05933500968155693 -0.37671477575793533 0 0.057272186363266697 -0.35960658745677498 0 0.039079294002052851 -0.37065651216905859 0 0.068747743025681235 -0.34033453123086538 0 0.045159573979787898 -0.34162197596095778 0 0.057272186363266697 -0.35960658745677498 0 0.045159573979787898 -0.34162197596095778 0 0.034512899630155462 -0.3545258348651717 0 0.02157140493389462 -0.34290942069105018 0 0.045159573979787898 -0.34162197596095778 0 0.057272186363266697 -0.35960658745677498 0 0.034512899630155462 -0.3545258348651717 0 0.057272186363266697 -0.35960658745677498 0 0.034512899630155462 -0.3545258348651717 0 0.039079294002052851 -0.37065651216905859 0 0.025542853711361019 -0.38384675294920401 0 0.039079294002052851 -0.37065651216905859 0 0.016784443680880379 -0.36713146693108112 0 0.034512899630155462 -0.3545258348651717 0 0.039079294002052851 -0.37065651216905859 0 0.016784443680880379 -0.36713146693108112 0 0.034512899630155462 -0.3545258348651717 0 0.016784443680880379 -0.36713146693108112 0 0.02157140493389462 -0.34290942069105018 0 -0.0043130761299947744 -0.35643483176966217 0 0.016784443680880379 -0.36713146693108112 0 0.02157140493389462 -0.34290942069105018 0 -0.0038616663111063101 -0.33241552487502413 0 -0.0043130761299947744 -0.35643483176966217 0 0.02157140493389462 -0.34290942069105018 0 -0.0043130761299947744 -0.35643483176966217 0 -0.0064694903547723136 -0.38059021958606692 0 0.016784443680880379 -0.36713146693108112 0 0.03621734991660093 -0.31670946998547028 0 0.020048637459846991 -0.32439583124448262 0 0.029165048793799431 -0.30349547286963757 0 0.034832013842728909 -0.33032259781876938 0 0.03621734991660093 -0.31670946998547028 0 0.020048637459846991 -0.32439583124448262 0 0.020048637459846991 -0.32439583124448262 0 0.0094652366165251054 -0.31053241408104548 0 0.029165048793799431 -0.30349547286963757 0 0.034832013842728909 -0.33032259781876938 0 0.020048637459846991 -0.32439583124448262 0 0.02157140493389462 -0.34290942069105018 0 -0.0038616663111063101 -0.33241552487502413 0 0.020048637459846991 -0.32439583124448262 0 0.02157140493389462 -0.34290942069105018 0 -0.0038616663111063101 -0.33241552487502413 0 0.020048637459846991 -0.32439583124448262 0 0.0094652366165251054 -0.31053241408104548 0 -0.01007927323019326 -0.3103345258507364 0 0.0094652366165251054 -0.31053241408104548 0 0.0017563221397047381 -0.2997067901486577 0 0.0094652366165251054 -0.31053241408104548 0 0.0017563221397047381 -0.2997067901486577 0 0.017453688627786131 -0.29322190620108468 0 0.0017563221397047381 -0.2997067901486577 0 0.0066437179820165657 -0.2861171845936395 0 0.017453688627786131 -0.29322190620108468 0 -0.0080748459131490501 -0.2914060437848453 0 0.0017563221397047381 -0.2997067901486577 0 0.0066437179820165657 -0.2861171845936395 0 0.0066437179820165657 -0.2861171845936395 0 0.017453688627786131 -0.29322190620108468 0 0.01908241754038794 -0.28073467218482329 0 0.017453688627786131 -0.29322190620108468 0 0.029398966714908509 -0.28692964748338379 0 0.029165048793799431 -0.30349547286963757 0 0.017453688627786131 -0.29322190620108468 0 0.029398966714908509 -0.28692964748338379 0 0.01908241754038794 -0.28073467218482329 0 0.0094652366165251054 -0.31053241408104548 0 0.017453688627786131 -0.29322190620108468 0 0.029165048793799431 -0.30349547286963757 0 0.03621734991660093 -0.31670946998547028 0 0.029165048793799431 -0.30349547286963757 0 0.048768037075517537 -0.30442990221103089 0 0.029165048793799431 -0.30349547286963757 0 0.043029943860180789 -0.28970337243015992 0 0.048768037075517537 -0.30442990221103089 0 0.029398966714908509 -0.28692964748338379 0 0.029165048793799431 -0.30349547286963757 0 0.043029943860180789 -0.28970337243015992 0 0.029398966714908509 -0.28692964748338379 0 0.043029943860180789 -0.28970337243015992 0 0.038396769586432553 -0.27977596087564799 0 0.043029943860180789 -0.28970337243015992 0 0.051749435803858171 -0.27840569125857739 0 0.038396769586432553 -0.27977596087564799 0 0.043029943860180789 -0.28970337243015992 0 0.059449054433483903 -0.28956707473318272 0 0.051749435803858171 -0.27840569125857739 0 0.043029943860180789 -0.28970337243015992 0 0.059449054433483903 -0.28956707473318272 0 0.048768037075517537 -0.30442990221103089 0 0.069967983226982527 -0.30495776272600778 0 0.059449054433483903 -0.28956707473318272 0 0.048768037075517537 -0.30442990221103089 0 0.069967983226982527 -0.30495776272600778 0 0.053863538987460123 -0.3232816795844588 0 0.048768037075517537 -0.30442990221103089 0 0.053380735395516472 -0.25867595766617779 0 0.04428054005230446 -0.26275141268032309 0 0.045372505498807933 -0.25408090721008542 0 0.053380735395516472 -0.25867595766617779 0 0.053158010572478251 -0.26777612517812432 0 0.04428054005230446 -0.26275141268032309 0 0.053380735395516472 -0.25867595766617779 0 0.045372505498807933 -0.25408090721008542 0 0.05268811686830014 -0.24901610311096159 0 0.053380735395516472 -0.25867595766617779 0 0.061490933840310687 -0.25382890142296882 0 0.05268811686830014 -0.24901610311096159 0 0.053380735395516472 -0.25867595766617779 0 0.060614126731859473 -0.2624009925450973 0 0.053158010572478251 -0.26777612517812432 0 0.053380735395516472 -0.25867595766617779 0 0.061490933840310687 -0.25382890142296882 0 0.060614126731859473 -0.2624009925450973 0 0.0646939085167762 -0.2722383315448984 0 0.060614126731859473 -0.2624009925450973 0 0.053158010572478251 -0.26777612517812432 0 0.0646939085167762 -0.2722383315448984 0 0.059449054433483903 -0.28956707473318272 0 0.051749435803858171 -0.27840569125857739 0 0.0646939085167762 -0.2722383315448984 0 0.051749435803858171 -0.27840569125857739 0 0.053158010572478251 -0.26777612517812432 0 0.053158010572478251 -0.26777612517812432 0 0.044229316934554799 -0.27218436537367241 0 0.04428054005230446 -0.26275141268032309 0 0.051749435803858171 -0.27840569125857739 0 0.053158010572478251 -0.26777612517812432 0 0.044229316934554799 -0.27218436537367241 0 0.044229316934554799 -0.27218436537367241 0 0.031885251388666561 -0.26470215361104171 0 0.04428054005230446 -0.26275141268032309 0 0.051749435803858171 -0.27840569125857739 0 0.044229316934554799 -0.27218436537367241 0 0.038396769586432553 -0.27977596087564799 0 0.044229316934554799 -0.27218436537367241 0 0.038396769586432553 -0.27977596087564799 0 0.029696712261103771 -0.27487286106778819 0 0.029398966714908509 -0.28692964748338379 0 0.038396769586432553 -0.27977596087564799 0 0.029696712261103771 -0.27487286106778819 0 0.044229316934554799 -0.27218436537367241 0 0.031885251388666561 -0.26470215361104171 0 0.029696712261103771 -0.27487286106778819 0 0.037315510146954597 -0.25849363249326118 0 0.031885251388666561 -0.26470215361104171 0 0.04428054005230446 -0.26275141268032309 0 0.037315510146954597 -0.25849363249326118 0 0.031885251388666561 -0.26470215361104171 0 0.03069464768829987 -0.25176037071845259 0 0.037315510146954597 -0.25849363249326118 0 0.04428054005230446 -0.26275141268032309 0 0.045372505498807933 -0.25408090721008542 0 0.045372505498807933 -0.25408090721008542 0 0.03069464768829987 -0.25176037071845259 0 0.042588116356466379 -0.2448823624008481 0 0.037315510146954597 -0.25849363249326118 0 0.045372505498807933 -0.25408090721008542 0 0.03069464768829987 -0.25176037071845259 0 0.031885251388666561 -0.26470215361104171 0 0.021199614426200629 -0.26114166245967918 0 0.019908913466960752 -0.27058631964059482 0 0.031885251388666561 -0.26470215361104171 0 0.03069464768829987 -0.25176037071845259 0 0.021199614426200629 -0.26114166245967918 0 0.03069464768829987 -0.25176037071845259 0 0.021199614426200629 -0.26114166245967918 0 0.016145176335298529 -0.25210595968411048 0 0.029398966714908509 -0.28692964748338379 0 0.029696712261103771 -0.27487286106778819 0 0.01908241754038794 -0.28073467218482329 0 0.031885251388666561 -0.26470215361104171 0 0.029696712261103771 -0.27487286106778819 0 0.019908913466960752 -0.27058631964059482 0 0.019908913466960752 -0.27058631964059482 0 0.01908241754038794 -0.28073467218482329 0 0.01128192931255503 -0.27464126756021451 0 0.029696712261103771 -0.27487286106778819 0 0.019908913466960752 -0.27058631964059482 0 0.01908241754038794 -0.28073467218482329 0 -0.01145854626600548 -0.26602311564559261 0 0.01128192931255503 -0.27464126756021451 0 0.0057158633005241696 -0.26337829885565528 0 0.0066437179820165657 -0.2861171845936395 0 0.01908241754038794 -0.28073467218482329 0 0.01128192931255503 -0.27464126756021451 0 0.019908913466960752 -0.27058631964059482 0 0.01128192931255503 -0.27464126756021451 0 0.0057158633005241696 -0.26337829885565528 0 -0.002848760243290064 -0.27761611820401882 0 0.0066437179820165657 -0.2861171845936395 0 0.01128192931255503 -0.27464126756021451 0 0.016145176335298529 -0.25210595968411048 0 0.0057158633005241696 -0.26337829885565528 0 0.0054759062840018038 -0.25064707341720888 0 0.021199614426200629 -0.26114166245967918 0 0.019908913466960752 -0.27058631964059482 0 0.0057158633005241696 -0.26337829885565528 0 0.021199614426200629 -0.26114166245967918 0 0.016145176335298529 -0.25210595968411048 0 0.0057158633005241696 -0.26337829885565528 0 -0.0009620894167222515 -0.25496392916579452 0 0.0057158633005241696 -0.26337829885565528 0 0.0054759062840018038 -0.25064707341720888 0 -0.0009620894167222515 -0.25496392916579452 0 -0.0029313858115674811 -0.24854412401401971 0 0.0054759062840018038 -0.25064707341720888 0 0.0054759062840018038 -0.25064707341720888 0 0.0026199421412959989 -0.2430643023623929 0 0.011589873569895199 -0.24127835128668559 0 -0.0029313858115674811 -0.24854412401401971 0 0.0054759062840018038 -0.25064707341720888 0 0.0026199421412959989 -0.2430643023623929 0 0.016145176335298529 -0.25210595968411048 0 0.0054759062840018038 -0.25064707341720888 0 0.011589873569895199 -0.24127835128668559 0 0.011589873569895199 -0.24127835128668559 0 0.010668172172219499 -0.2272828987723072 0 0.020574075722817331 -0.2351284197632682 0 0.0026199421412959989 -0.2430643023623929 0 0.011589873569895199 -0.24127835128668559 0 0.0017465435191736189 -0.23378549097037141 0 -0.00080535468136348092 -0.21995366459000901 0 0.010668172172219499 -0.2272828987723072 0 0.01016515501406726 -0.20926501301563591 0 -0.00080535468136348092 -0.21995366459000901 0 0.0017465435191736189 -0.23378549097037141 0 0.010668172172219499 -0.2272828987723072 0 0.010668172172219499 -0.2272828987723072 0 0.02170661161633574 -0.22145314359659171 0 0.01016515501406726 -0.20926501301563591 0 0.011589873569895199 -0.24127835128668559 0 0.0017465435191736189 -0.23378549097037141 0 0.010668172172219499 -0.2272828987723072 0 0.010668172172219499 -0.2272828987723072 0 0.02170661161633574 -0.22145314359659171 0 0.020574075722817331 -0.2351284197632682 0 0.02170661161633574 -0.22145314359659171 0 0.02866695829179056 -0.22960637228307629 0 0.036392787169896093 -0.22322562645731159 0 0.02170661161633574 -0.22145314359659171 0 0.02866695829179056 -0.22960637228307629 0 0.020574075722817331 -0.2351284197632682 0 0.02866695829179056 -0.22960637228307629 0 0.020574075722817331 -0.2351284197632682 0 0.032071787069821417 -0.24054619649286721 0 0.022195152742869501 -0.2444300013669817 0 0.020574075722817331 -0.2351284197632682 0 0.032071787069821417 -0.24054619649286721 0 0.03069464768829987 -0.25176037071845259 0 0.022195152742869501 -0.2444300013669817 0 0.032071787069821417 -0.24054619649286721 0 0.03069464768829987 -0.25176037071845259 0 0.016145176335298529 -0.25210595968411048 0 0.022195152742869501 -0.2444300013669817 0 0.016145176335298529 -0.25210595968411048 0 0.011589873569895199 -0.24127835128668559 0 0.022195152742869501 -0.2444300013669817 0 0.011589873569895199 -0.24127835128668559 0 0.022195152742869501 -0.2444300013669817 0 0.020574075722817331 -0.2351284197632682 0 -0.003739977245034012 -0.19168309442994089 0 0.010514116253606281 -0.1925853606064957 0 0.01016515501406726 -0.20926501301563591 0 0.010514116253606281 -0.1925853606064957 0 0.01016515501406726 -0.20926501301563591 0 0.018596641755985681 -0.20049862993462389 0 0.02170661161633574 -0.22145314359659171 0 0.01016515501406726 -0.20926501301563591 0 0.028304225500431591 -0.20785134554231141 0 0.01016515501406726 -0.20926501301563591 0 0.028304225500431591 -0.20785134554231141 0 0.018596641755985681 -0.20049862993462389 0 0.02170661161633574 -0.22145314359659171 0 0.028304225500431591 -0.20785134554231141 0 0.036392787169896093 -0.22322562645731159 0 0.028304225500431591 -0.20785134554231141 0 0.018596641755985681 -0.20049862993462389 0 0.02540307025583758 -0.19229280057405279 0 0.010514116253606281 -0.1925853606064957 0 0.018596641755985681 -0.20049862993462389 0 0.02540307025583758 -0.19229280057405279 0 0.010514116253606281 -0.1925853606064957 0 0.02540307025583758 -0.19229280057405279 0 0.015764016274472759 -0.1812646672695073 0 0.02540307025583758 -0.19229280057405279 0 0.041440672425083092 -0.19607701236864419 0 0.030421272951226121 -0.1778391783376792 0 0.028304225500431591 -0.20785134554231141 0 0.02540307025583758 -0.19229280057405279 0 0.041440672425083092 -0.19607701236864419 0 0.041440672425083092 -0.19607701236864419 0 0.042310424588804782 -0.2140630995529598 0 0.055497750511994078 -0.2086068857692274 0 0.028304225500431591 -0.20785134554231141 0 0.041440672425083092 -0.19607701236864419 0 0.042310424588804782 -0.2140630995529598 0 0.028304225500431591 -0.20785134554231141 0 0.042310424588804782 -0.2140630995529598 0 0.036392787169896093 -0.22322562645731159 0 0.042310424588804782 -0.2140630995529598 0 0.055497750511994078 -0.2086068857692274 0 0.052955454276687589 -0.2198291654371925 0 0.062338921595789062 -0.21792006704763969 0 0.055497750511994078 -0.2086068857692274 0 0.052955454276687589 -0.2198291654371925 0 0.062338921595789062 -0.21792006704763969 0 0.055497750511994078 -0.2086068857692274 0 0.067863046951983474 -0.20503048868511209 0 0.055497750511994078 -0.2086068857692274 0 0.056257937900538298 -0.19577788601322099 0 0.067863046951983474 -0.20503048868511209 0 0.041440672425083092 -0.19607701236864419 0 0.056257937900538298 -0.19577788601322099 0 0.051449240160577621 -0.1762857105508405 0 0.041440672425083092 -0.19607701236864419 0 0.055497750511994078 -0.2086068857692274 0 0.056257937900538298 -0.19577788601322099 0 0.040491861427302538 -0.2355872617630255 0 0.042588116356466379 -0.2448823624008481 0 0.052307832003780613 -0.23884346229351339 0 0.040491861427302538 -0.2355872617630255 0 0.045866106706223042 -0.22907627795895011 0 0.052307832003780613 -0.23884346229351339 0 0.03069464768829987 -0.25176037071845259 0 0.042588116356466379 -0.2448823624008481 0 0.032071787069821417 -0.24054619649286721 0 0.040491861427302538 -0.2355872617630255 0 0.042588116356466379 -0.2448823624008481 0 0.032071787069821417 -0.24054619649286721 0 0.02866695829179056 -0.22960637228307629 0 0.040491861427302538 -0.2355872617630255 0 0.032071787069821417 -0.24054619649286721 0 0.02866695829179056 -0.22960637228307629 0 0.040491861427302538 -0.2355872617630255 0 0.036392787169896093 -0.22322562645731159 0 0.042310424588804782 -0.2140630995529598 0 0.036392787169896093 -0.22322562645731159 0 0.045866106706223042 -0.22907627795895011 0 0.040491861427302538 -0.2355872617630255 0 0.036392787169896093 -0.22322562645731159 0 0.045866106706223042 -0.22907627795895011 0 0.045866106706223042 -0.22907627795895011 0 0.058764067980626958 -0.22947949685718549 0 0.052307832003780613 -0.23884346229351339 0 0.045866106706223042 -0.22907627795895011 0 0.052955454276687589 -0.2198291654371925 0 0.058764067980626958 -0.22947949685718549 0 0.042310424588804782 -0.2140630995529598 0 0.045866106706223042 -0.22907627795895011 0 0.052955454276687589 -0.2198291654371925 0 0.062338921595789062 -0.21792006704763969 0 0.058764067980626958 -0.22947949685718549 0 0.065719467571416057 -0.22489822263154319 0 0.062338921595789062 -0.21792006704763969 0 0.052955454276687589 -0.2198291654371925 0 0.058764067980626958 -0.22947949685718549 0 0.058764067980626958 -0.22947949685718549 0 0.062159259289524899 -0.2368834247622158 0 0.052307832003780613 -0.23884346229351339 0 0.062159259289524899 -0.2368834247622158 0 0.052307832003780613 -0.23884346229351339 0 0.061229972926465738 -0.2445427902389527 0 0.045372505498807933 -0.25408090721008542 0 0.042588116356466379 -0.2448823624008481 0 0.05268811686830014 -0.24901610311096159 0 0.042588116356466379 -0.2448823624008481 0 0.052307832003780613 -0.23884346229351339 0 0.05268811686830014 -0.24901610311096159 0 0.061490933840310687 -0.25382890142296882 0 0.05268811686830014 -0.24901610311096159 0 0.061229972926465738 -0.2445427902389527 0 0.052307832003780613 -0.23884346229351339 0 0.05268811686830014 -0.24901610311096159 0 0.061229972926465738 -0.2445427902389527 0 0.061490933840310687 -0.25382890142296882 0 0.061229972926465738 -0.2445427902389527 0 0.070069103552599196 -0.24823964670048029 0 0.061229972926465738 -0.2445427902389527 0 0.070069103552599196 -0.24823964670048029 0 0.069856411684105391 -0.23913895996007839 0 0.062159259289524899 -0.2368834247622158 0 0.061229972926465738 -0.2445427902389527 0 0.069856411684105391 -0.23913895996007839 0 0.062159259289524899 -0.2368834247622158 0 0.069856411684105391 -0.23913895996007839 0 0.067142239376285745 -0.23139328163069281 0 0.069856411684105391 -0.23913895996007839 0 0.077788170153509889 -0.24196191377257101 0 0.076767606518392539 -0.23187249677345001 0 0.080071368274292315 -0.25145738896057979 0 0.070069103552599196 -0.24823964670048029 0 0.077788170153509889 -0.24196191377257101 0 0.070069103552599196 -0.24823964670048029 0 0.069856411684105391 -0.23913895996007839 0 0.077788170153509889 -0.24196191377257101 0 0.080071368274292315 -0.25145738896057979 0 0.090706365013478091 -0.25245448435890872 0 0.085906732882507178 -0.24385162082211831 0 0.080071368274292315 -0.25145738896057979 0 0.077788170153509889 -0.24196191377257101 0 0.085906732882507178 -0.24385162082211831 0 0.077788170153509889 -0.24196191377257101 0 0.085906732882507178 -0.24385162082211831 0 0.083256636250354649 -0.23616880796388259 0 0.077788170153509889 -0.24196191377257101 0 0.083256636250354649 -0.23616880796388259 0 0.076767606518392539 -0.23187249677345001 0 0.085906732882507178 -0.24385162082211831 0 0.089657973372422345 -0.23730775202069579 0 0.094006026236525903 -0.2441335510050745 0 0.085906732882507178 -0.24385162082211831 0 0.083256636250354649 -0.23616880796388259 0 0.089657973372422345 -0.23730775202069579 0 0.083256636250354649 -0.23616880796388259 0 0.089657973372422345 -0.23730775202069579 0 0.089763789457938253 -0.2306791647953326 0 0.089657973372422345 -0.23730775202069579 0 0.089763789457938253 -0.2306791647953326 0 0.096012267649498176 -0.23702186761809721 0 0.089657973372422345 -0.23730775202069579 0 0.094006026236525903 -0.2441335510050745 0 0.096012267649498176 -0.23702186761809721 0 0.090706365013478091 -0.25245448435890872 0 0.085906732882507178 -0.24385162082211831 0 0.094006026236525903 -0.2441335510050745 0 0.086446736705125371 -0.22420087797706609 0 0.091303359373345411 -0.22339335178318359 0 0.089763789457938253 -0.2306791647953326 0 0.086446736705125371 -0.22420087797706609 0 0.091303359373345411 -0.22339335178318359 0 0.086853981468707001 -0.2185547472363609 0 0.091303359373345411 -0.22339335178318359 0 0.086853981468707001 -0.2185547472363609 0 0.09077468002378962 -0.21857675351640271 0 0.091303359373345411 -0.22339335178318359 0 0.09077468002378962 -0.21857675351640271 0 0.094530837428433365 -0.22086489816084981 0 0.091303359373345411 -0.22339335178318359 0 0.089763789457938253 -0.2306791647953326 0 0.098670227838192195 -0.22970514568366851 0 0.086446736705125371 -0.22420087797706609 0 0.089763789457938253 -0.2306791647953326 0 0.083020570332336119 -0.22791650227557511 0 0.083256636250354649 -0.23616880796388259 0 0.083020570332336119 -0.22791650227557511 0 0.076767606518392539 -0.23187249677345001 0 0.083256636250354649 -0.23616880796388259 0 0.089763789457938253 -0.2306791647953326 0 0.083020570332336119 -0.22791650227557511 0 0.083020570332336119 -0.22791650227557511 0 0.077930889523722374 -0.22519622511208121 0 0.076767606518392539 -0.23187249677345001 0 0.083020570332336119 -0.22791650227557511 0 0.081291982893300085 -0.22046062379487821 0 0.077930889523722374 -0.22519622511208121 0 0.086446736705125371 -0.22420087797706609 0 0.083020570332336119 -0.22791650227557511 0 0.081291982893300085 -0.22046062379487821 0 0.086446736705125371 -0.22420087797706609 0 0.081291982893300085 -0.22046062379487821 0 0.086853981468707001 -0.2185547472363609 0 0.081291982893300085 -0.22046062379487821 0 0.077930889523722374 -0.22519622511208121 0 0.073706539318973169 -0.21796036257100029 0 0.072234091795087663 -0.22574485878751241 0 0.065719467571416057 -0.22489822263154319 0 0.073706539318973169 -0.21796036257100029 0 0.077930889523722374 -0.22519622511208121 0 0.072234091795087663 -0.22574485878751241 0 0.073706539318973169 -0.21796036257100029 0 0.069856411684105391 -0.23913895996007839 0 0.076767606518392539 -0.23187249677345001 0 0.067142239376285745 -0.23139328163069281 0 0.072234091795087663 -0.22574485878751241 0 0.076767606518392539 -0.23187249677345001 0 0.067142239376285745 -0.23139328163069281 0 0.077930889523722374 -0.22519622511208121 0 0.072234091795087663 -0.22574485878751241 0 0.076767606518392539 -0.23187249677345001 0 0.058764067980626958 -0.22947949685718549 0 0.062159259289524899 -0.2368834247622158 0 0.067142239376285745 -0.23139328163069281 0 0.058764067980626958 -0.22947949685718549 0 0.067142239376285745 -0.23139328163069281 0 0.065719467571416057 -0.22489822263154319 0 0.072234091795087663 -0.22574485878751241 0 0.067142239376285745 -0.23139328163069281 0 0.065719467571416057 -0.22489822263154319 0 0.062338921595789062 -0.21792006704763969 0 0.065719467571416057 -0.22489822263154319 0 0.073706539318973169 -0.21796036257100029 0 0.062338921595789062 -0.21792006704763969 0 0.067863046951983474 -0.20503048868511209 0 0.073706539318973169 -0.21796036257100029 0 0.067863046951983474 -0.20503048868511209 0 0.073706539318973169 -0.21796036257100029 0 0.079094442607528917 -0.20913243433380641 0 0.067863046951983474 -0.20503048868511209 0 0.081482512553192915 -0.1953056794767786 0 0.079094442607528917 -0.20913243433380641 0 0.056257937900538298 -0.19577788601322099 0 0.067863046951983474 -0.20503048868511209 0 0.066040058368007956 -0.18964665730407451 0 0.067863046951983474 -0.20503048868511209 0 0.066040058368007956 -0.18964665730407451 0 0.081482512553192915 -0.1953056794767786 0 0.081482512553192915 -0.1953056794767786 0 0.095454742848087734 -0.19451486061966669 0 0.093505174579280592 -0.1731787749771625 0 0.081482512553192915 -0.1953056794767786 0 0.08833530696517819 -0.21036332105093219 0 0.095454742848087734 -0.19451486061966669 0 0.08833530696517819 -0.21036332105093219 0 0.097404311116896569 -0.21585094626217091 0 0.095454742848087734 -0.19451486061966669 0 0.081291982893300085 -0.22046062379487821 0 0.073706539318973169 -0.21796036257100029 0 0.082946926161669862 -0.2149195339015407 0 0.082946926161669862 -0.2149195339015407 0 0.079094442607528917 -0.20913243433380641 0 0.08833530696517819 -0.21036332105093219 0 0.073706539318973169 -0.21796036257100029 0 0.082946926161669862 -0.2149195339015407 0 0.079094442607528917 -0.20913243433380641 0 0.081291982893300085 -0.22046062379487821 0 0.082946926161669862 -0.2149195339015407 0 0.086853981468707001 -0.2185547472363609 0 0.081482512553192915 -0.1953056794767786 0 0.079094442607528917 -0.20913243433380641 0 0.08833530696517819 -0.21036332105093219 0 0.082946926161669862 -0.2149195339015407 0 0.08833530696517819 -0.21036332105093219 0 0.086853981468707001 -0.2185547472363609 0 0.08833530696517819 -0.21036332105093219 0 0.086853981468707001 -0.2185547472363609 0 0.09077468002378962 -0.21857675351640271 0 0.08833530696517819 -0.21036332105093219 0 0.09077468002378962 -0.21857675351640271 0 0.092213447725184278 -0.21529843562297729 0 0.08833530696517819 -0.21036332105093219 0 0.092213447725184278 -0.21529843562297729 0 0.097404311116896569 -0.21585094626217091 0 0.09077468002378962 -0.21857675351640271 0 0.094501608789943028 -0.21679829355882299 0 0.094530837428433365 -0.22086489816084981 0 0.09077468002378962 -0.21857675351640271 0 0.092213447725184278 -0.21529843562297729 0 0.094501608789943028 -0.21679829355882299 0 0.094501608789943028 -0.21679829355882299 0 0.097404311116896569 -0.21585094626217091 0 0.094530837428433365 -0.22086489816084981 0 0.092213447725184278 -0.21529843562297729 0 0.094501608789943028 -0.21679829355882299 0 0.097404311116896569 -0.21585094626217091 0 0.097404311116896569 -0.21585094626217091 0 0.095454742848087734 -0.19451486061966669 0 0.097404311116896569 -0.21585094626217091 0 0.1059898830346106 -0.20430933332548051 0 0.095454742848087734 -0.19451486061966669 0 0.097404311116896569 -0.21585094626217091 0 0.1089347031997706 -0.21297733173581901 0 0.1146171121197104 -0.21980430615730401 0 0.097404311116896569 -0.21585094626217091 0 0.1059898830346106 -0.20430933332548051 0 0.1089347031997706 -0.21297733173581901 0 0.095454742848087734 -0.19451486061966669 0 0.1128143282819509 -0.19216489626002589 0 0.10772522460311169 -0.17968171223372481 0 0.1059898830346106 -0.20430933332548051 0 0.095454742848087734 -0.19451486061966669 0 0.1128143282819509 -0.19216489626002589 0 0.1128143282819509 -0.19216489626002589 0 0.1237689835273371 -0.19605207676116951 0 0.1178461100078927 -0.20838697738218431 0 0.1059898830346106 -0.20430933332548051 0 0.1128143282819509 -0.19216489626002589 0 0.1178461100078927 -0.20838697738218431 0 0.1128143282819509 -0.19216489626002589 0 0.1237689835273371 -0.19605207676116951 0 0.1232013989280239 -0.1819146573535104 0 0.1089347031997706 -0.21297733173581901 0 0.1178461100078927 -0.20838697738218431 0 0.1146171121197104 -0.21980430615730401 0 0.1059898830346106 -0.20430933332548051 0 0.1089347031997706 -0.21297733173581901 0 0.1178461100078927 -0.20838697738218431 0 0.1178461100078927 -0.20838697738218431 0 0.1146171121197104 -0.21980430615730401 0 0.12895394136930069 -0.22163642029703709 0 0.1146171121197104 -0.21980430615730401 0 0.12018370186474731 -0.23305432747703519 0 0.12895394136930069 -0.22163642029703709 0 0.097404311116896569 -0.21585094626217091 0 0.1146171121197104 -0.21980430615730401 0 0.12018370186474731 -0.23305432747703519 0 0.1212054647883809 -0.25073068226796852 0 0.12018370186474731 -0.23305432747703519 0 0.1059281586602189 -0.23527494890652931 0 0.13217397618885759 -0.25462043987800831 0 0.1212054647883809 -0.25073068226796852 0 0.12018370186474731 -0.23305432747703519 0 0.1212054647883809 -0.25073068226796852 0 0.1059281586602189 -0.23527494890652931 0 0.1078238037173969 -0.24832262031645649 0 0.1212054647883809 -0.25073068226796852 0 0.1059281586602189 -0.23527494890652931 0 0.099550463170151926 -0.25262580003909579 0 0.1078238037173969 -0.24832262031645649 0 0.10103467245524091 -0.24298905409433241 0 0.1059281586602189 -0.23527494890652931 0 0.1078238037173969 -0.24832262031645649 0 0.10103467245524091 -0.24298905409433241 0 0.099550463170151926 -0.25262580003909579 0 0.10103467245524091 -0.24298905409433241 0 0.094006026236525903 -0.2441335510050745 0 0.090706365013478091 -0.25245448435890872 0 0.099550463170151926 -0.25262580003909579 0 0.094006026236525903 -0.2441335510050745 0 0.1059281586602189 -0.23527494890652931 0 0.10103467245524091 -0.24298905409433241 0 0.096012267649498176 -0.23702186761809721 0 0.10103467245524091 -0.24298905409433241 0 0.094006026236525903 -0.2441335510050745 0 0.096012267649498176 -0.23702186761809721 0 0.1059281586602189 -0.23527494890652931 0 0.096012267649498176 -0.23702186761809721 0 0.098670227838192195 -0.22970514568366851 0 0.089763789457938253 -0.2306791647953326 0 0.096012267649498176 -0.23702186761809721 0 0.098670227838192195 -0.22970514568366851 0 0.097404311116896569 -0.21585094626217091 0 0.12018370186474731 -0.23305432747703519 0 0.097404311116896569 -0.21585094626217091 0 0.12018370186474731 -0.23305432747703519 0 0.1059281586602189 -0.23527494890652931 0 0.097404311116896569 -0.21585094626217091 0 0.1059281586602189 -0.23527494890652931 0 0.098670227838192195 -0.22970514568366851 0 0.091303359373345411 -0.22339335178318359 0 0.098670227838192195 -0.22970514568366851 0 0.094530837428433365 -0.22086489816084981 0 0.097404311116896569 -0.21585094626217091 0 0.098670227838192195 -0.22970514568366851 0 0.094530837428433365 -0.22086489816084981 0 0.097404311116896569 -0.21585094626217091 0 0.098670227838192195 -0.22970514568366851 0 0.1071373084330472 -0.14482826815459701 0 0.1035248479174861 -0.15311019857333261 0 0.098760878024456711 -0.14050656481393209 0 0.1071373084330472 -0.14482826815459701 0 0.1035248479174861 -0.15311019857333261 0 0.1121477659277255 -0.1503271840913511 0 0.1035248479174861 -0.15311019857333261 0 0.098760878024456711 -0.14050656481393209 0 0.091560400862706559 -0.15189516094014111 0 0.098760878024456711 -0.14050656481393209 0 0.099399694252258627 -0.1328638184600745 0 0.089615627146132512 -0.13061154690311971 0 0.099399694252258627 -0.1328638184600745 0 0.099525338641528904 -0.12611341339503321 0 0.089615627146132512 -0.13061154690311971 0 0.099525338641528904 -0.12611341339503321 0 0.1096969331969164 -0.13422374872821319 0 0.1121708616464093 -0.1216807098986791 0 0.099399694252258627 -0.1328638184600745 0 0.099525338641528904 -0.12611341339503321 0 0.1096969331969164 -0.13422374872821319 0 0.098760878024456711 -0.14050656481393209 0 0.099399694252258627 -0.1328638184600745 0 0.1096969331969164 -0.13422374872821319 0 0.1071373084330472 -0.14482826815459701 0 0.098760878024456711 -0.14050656481393209 0 0.1096969331969164 -0.13422374872821319 0 0.1096969331969164 -0.13422374872821319 0 0.1155243526086871 -0.14484298486410191 0 0.12532898621889721 -0.13663811256420449 0 0.1096969331969164 -0.13422374872821319 0 0.11997683785091839 -0.1276371159963853 0 0.12532898621889721 -0.13663811256420449 0 0.1096969331969164 -0.13422374872821319 0 0.11997683785091839 -0.1276371159963853 0 0.1121708616464093 -0.1216807098986791 0 0.1217036921304827 -0.1482443959076799 0 0.1155243526086871 -0.14484298486410191 0 0.12532898621889721 -0.13663811256420449 0 0.1217036921304827 -0.1482443959076799 0 0.1155243526086871 -0.14484298486410191 0 0.1179114041550178 -0.15136128022523329 0 0.1071373084330472 -0.14482826815459701 0 0.1155243526086871 -0.14484298486410191 0 0.1121477659277255 -0.1503271840913511 0 0.1071373084330472 -0.14482826815459701 0 0.1096969331969164 -0.13422374872821319 0 0.1155243526086871 -0.14484298486410191 0 0.1035248479174861 -0.15311019857333261 0 0.1121477659277255 -0.1503271840913511 0 0.1169082366172023 -0.15609331882735419 0 0.1155243526086871 -0.14484298486410191 0 0.1121477659277255 -0.1503271840913511 0 0.1179114041550178 -0.15136128022523329 0 0.1121477659277255 -0.1503271840913511 0 0.1169082366172023 -0.15609331882735419 0 0.1179114041550178 -0.15136128022523329 0 0.1169082366172023 -0.15609331882735419 0 0.1179114041550178 -0.15136128022523329 0 0.12324902196630889 -0.15465793599018671 0 0.1217036921304827 -0.1482443959076799 0 0.1179114041550178 -0.15136128022523329 0 0.12324902196630889 -0.15465793599018671 0 0.1217036921304827 -0.1482443959076799 0 0.12324902196630889 -0.15465793599018671 0 0.12831016946945831 -0.1492440347933528 0 0.1035248479174861 -0.15311019857333261 0 0.12443417021765769 -0.1709717485187108 0 0.1227471198665283 -0.15880086614903269 0 0.12098675462827781 -0.16200852072179159 0 0.1290045142054978 -0.1612372837293575 0 0.1035248479174861 -0.15311019857333261 0 0.12443417021765769 -0.1709717485187108 0 0.12083528946942131 -0.1711597280255607 0 0.1035248479174861 -0.15311019857333261 0 0.12098675462827781 -0.16200852072179159 0 0.12443417021765769 -0.1709717485187108 0 0.1035248479174861 -0.15311019857333261 0 0.1169082366172023 -0.15609331882735419 0 0.12098675462827781 -0.16200852072179159 0 0.1169082366172023 -0.15609331882735419 0 0.1227471198665283 -0.15880086614903269 0 0.12098675462827781 -0.16200852072179159 0 0.1169082366172023 -0.15609331882735419 0 0.12324902196630889 -0.15465793599018671 0 0.1227471198665283 -0.15880086614903269 0 0.12098675462827781 -0.16200852072179159 0 0.12443417021765769 -0.1709717485187108 0 0.12715697753007521 -0.16591248018761531 0 0.1128143282819509 -0.19216489626002589 0 0.1232013989280239 -0.1819146573535104 0 0.1157139550245927 -0.18029465614444529 0 0.12083528946942131 -0.1711597280255607 0 0.1232013989280239 -0.1819146573535104 0 0.1157139550245927 -0.18029465614444529 0 0.12443417021765769 -0.1709717485187108 0 0.12083528946942131 -0.1711597280255607 0 0.1232013989280239 -0.1819146573535104 0 0.12083528946942131 -0.1711597280255607 0 0.1157139550245927 -0.18029465614444529 0 0.10772522460311169 -0.17968171223372481 0 0.1128143282819509 -0.19216489626002589 0 0.1157139550245927 -0.18029465614444529 0 0.10772522460311169 -0.17968171223372481 0 0.095454742848087734 -0.19451486061966669 0 0.10772522460311169 -0.17968171223372481 0 0.093505174579280592 -0.1731787749771625 0 0.12083528946942131 -0.1711597280255607 0 0.093505174579280592 -0.1731787749771625 0 0.095454742848087734 -0.19451486061966669 0 0.093505174579280592 -0.1731787749771625 0 0.12083528946942131 -0.1711597280255607 0 0.10772522460311169 -0.17968171223372481 0 0.093505174579280592 -0.1731787749771625 0 0.1035248479174861 -0.15311019857333261 0 0.093505174579280592 -0.1731787749771625 0 0.091560400862706559 -0.15189516094014111 0 0.1035248479174861 -0.15311019857333261 0 0.12083528946942131 -0.1711597280255607 0 0.093505174579280592 -0.1731787749771625 0 0.078133883947979807 -0.15717501910519549 0 0.093505174579280592 -0.1731787749771625 0 0.091560400862706559 -0.15189516094014111 0 0.078133883947979807 -0.15717501910519549 0 0.093505174579280592 -0.1731787749771625 0 0.072477207369929117 -0.17473224276400179 0 0.093505174579280592 -0.1731787749771625 0 0.091560400862706559 -0.15189516094014111 0 0.081482512553192915 -0.1953056794767786 0 0.093505174579280592 -0.1731787749771625 0 0.072477207369929117 -0.17473224276400179 0 0.093505174579280592 -0.1731787749771625 0 0.072477207369929117 -0.17473224276400179 0 0.066040058368007956 -0.18964665730407451 0 0.072477207369929117 -0.17473224276400179 0 0.051449240160577621 -0.1762857105508405 0 0.066040058368007956 -0.18964665730407451 0 0.081482512553192915 -0.1953056794767786 0 0.072477207369929117 -0.17473224276400179 0 0.078133883947979807 -0.15717501910519549 0 0.072477207369929117 -0.17473224276400179 0 0.063878974636528515 -0.16401540189567099 0 0.072477207369929117 -0.17473224276400179 0 0.063878974636528515 -0.16401540189567099 0 0.051449240160577621 -0.1762857105508405 0 0.078133883947979807 -0.15717501910519549 0 0.063878974636528515 -0.16401540189567099 0 0.06522271263887458 -0.15305574504012881 0 0.06522271263887458 -0.15305574504012881 0 0.069316279952888193 -0.14186668388360371 0 0.075278834721760557 -0.14616760919767161 0 0.06522271263887458 -0.15305574504012881 0 0.069316279952888193 -0.14186668388360371 0 0.05757515479497001 -0.1486962131740798 0 0.069316279952888193 -0.14186668388360371 0 0.075278834721760557 -0.14616760919767161 0 0.079765110473415279 -0.13788087003968491 0 0.078133883947979807 -0.15717501910519549 0 0.06522271263887458 -0.15305574504012881 0 0.075278834721760557 -0.14616760919767161 0 0.098760878024456711 -0.14050656481393209 0 0.091560400862706559 -0.15189516094014111 0 0.089615627146132512 -0.13061154690311971 0 0.078133883947979807 -0.15717501910519549 0 0.083611330147541921 -0.14459745320402559 0 0.091560400862706559 -0.15189516094014111 0 0.091560400862706559 -0.15189516094014111 0 0.089615627146132512 -0.13061154690311971 0 0.078133883947979807 -0.15717501910519549 0 0.075278834721760557 -0.14616760919767161 0 0.083611330147541921 -0.14459745320402559 0 0.083611330147541921 -0.14459745320402559 0 0.091560400862706559 -0.15189516094014111 0 0.089615627146132512 -0.13061154690311971 0 0.075278834721760557 -0.14616760919767161 0 0.083611330147541921 -0.14459745320402559 0 0.079765110473415279 -0.13788087003968491 0 0.099525338641528904 -0.12611341339503321 0 0.089615627146132512 -0.13061154690311971 0 0.081894058627025895 -0.12584863130967919 0 0.083611330147541921 -0.14459745320402559 0 0.089615627146132512 -0.13061154690311971 0 0.079765110473415279 -0.13788087003968491 0 0.089615627146132512 -0.13061154690311971 0 0.079765110473415279 -0.13788087003968491 0 0.081894058627025895 -0.12584863130967919 0 0.081894058627025895 -0.12584863130967919 0 0.065576399090336079 -0.13067912082877309 0 0.057907204523981459 -0.13951585418161591 0 0.081894058627025895 -0.12584863130967919 0 0.057907204523981459 -0.13951585418161591 0 0.069316279952888193 -0.14186668388360371 0 0.081894058627025895 -0.12584863130967919 0 0.057907204523981459 -0.13951585418161591 0 0.081894058627025895 -0.12584863130967919 0 0.068207364780656948 -0.12563827965844471 0 0.065576399090336079 -0.13067912082877309 0 0.069316279952888193 -0.14186668388360371 0 0.079765110473415279 -0.13788087003968491 0 0.081894058627025895 -0.12584863130967919 0 0.068207364780656948 -0.12563827965844471 0 0.065576399090336079 -0.13067912082877309 0 0.054296968429680029 -0.13171371816535249 0 0.054296968429680029 -0.13171371816535249 0 0.057907204523981459 -0.13951585418161591 0 0.034849001543539322 -0.1503583031021323 0 0.054296968429680029 -0.13171371816535249 0 0.045553716665441668 -0.12681104972785159 0 0.052448498866582129 -0.1166826243517366 0 0.065576399090336079 -0.13067912082877309 0 0.054296968429680029 -0.13171371816535249 0 0.057907204523981459 -0.13951585418161591 0 0.069316279952888193 -0.14186668388360371 0 0.057907204523981459 -0.13951585418161591 0 0.05757515479497001 -0.1486962131740798 0 0.06522271263887458 -0.15305574504012881 0 0.05757515479497001 -0.1486962131740798 0 0.052111829065281459 -0.15882829201818821 0 0.046808539919221563 -0.15014413002933799 0 0.052111829065281459 -0.15882829201818821 0 0.043031393960321331 -0.1571354857308308 0 0.05757515479497001 -0.1486962131740798 0 0.046808539919221563 -0.15014413002933799 0 0.052111829065281459 -0.15882829201818821 0 0.057907204523981459 -0.13951585418161591 0 0.05757515479497001 -0.1486962131740798 0 0.046808539919221563 -0.15014413002933799 0 0.057907204523981459 -0.13951585418161591 0 0.046808539919221563 -0.15014413002933799 0 0.033920350420936912 -0.1531830770535528 0 0.057907204523981459 -0.13951585418161591 0 0.034849001543539322 -0.1503583031021323 0 0.033920350420936912 -0.1531830770535528 0 0.054296968429680029 -0.13171371816535249 0 0.034849001543539322 -0.1503583031021323 0 0.038558521200612962 -0.14006542407622449 0 0.054296968429680029 -0.13171371816535249 0 0.034849001543539322 -0.1503583031021323 0 0.057907204523981459 -0.13951585418161591 0 0.033920350420936912 -0.1531830770535528 0 0.046808539919221563 -0.15014413002933799 0 0.040219483271594643 -0.15466785876887121 0 0.033920350420936912 -0.1531830770535528 0 0.046808539919221563 -0.15014413002933799 0 0.040219483271594643 -0.15466785876887121 0 0.043031393960321331 -0.1571354857308308 0 0.040219483271594643 -0.15466785876887121 0 0.033920350420936912 -0.1531830770535528 0 0.037117648785898759 -0.15820874226176301 0 0.034849001543539322 -0.1503583031021323 0 0.031672068294339203 -0.14528428076340441 0 0.030051573782975471 -0.15027594372919439 0 0.034849001543539322 -0.1503583031021323 0 0.033920350420936912 -0.1531830770535528 0 0.030051573782975471 -0.15027594372919439 0 0.034849001543539322 -0.1503583031021323 0 0.031672068294339203 -0.14528428076340441 0 0.038558521200612962 -0.14006542407622449 0 0.031672068294339203 -0.14528428076340441 0 0.038558521200612962 -0.14006542407622449 0 0.030566093298411881 -0.13865773310914861 0 0.054296968429680029 -0.13171371816535249 0 0.038558521200612962 -0.14006542407622449 0 0.040644455285911409 -0.1338393175667463 0 0.038558521200612962 -0.14006542407622449 0 0.040644455285911409 -0.1338393175667463 0 0.030566093298411881 -0.13865773310914861 0 0.034824944079593127 -0.12500853882757099 0 0.040644455285911409 -0.1338393175667463 0 0.030566093298411881 -0.13865773310914861 0 0.034824944079593127 -0.12500853882757099 0 0.045553716665441668 -0.12681104972785159 0 0.040644455285911409 -0.1338393175667463 0 0.054296968429680029 -0.13171371816535249 0 0.045553716665441668 -0.12681104972785159 0 0.040644455285911409 -0.1338393175667463 0 0.072477207369929117 -0.17473224276400179 0 0.051449240160577621 -0.1762857105508405 0 0.056257937900538298 -0.19577788601322099 0 0.066040058368007956 -0.18964665730407451 0 0.051449240160577621 -0.1762857105508405 0 0.063878974636528515 -0.16401540189567099 0 0.051449240160577621 -0.1762857105508405 0 0.052111829065281459 -0.15882829201818821 0 0.051449240160577621 -0.1762857105508405 0 0.052111829065281459 -0.15882829201818821 0 0.040502396519655252 -0.1663673850483231 0 0.063878974636528515 -0.16401540189567099 0 0.06522271263887458 -0.15305574504012881 0 0.052111829065281459 -0.15882829201818821 0 0.043031393960321331 -0.1571354857308308 0 0.037117648785898759 -0.15820874226176301 0 0.040502396519655252 -0.1663673850483231 0 0.052111829065281459 -0.15882829201818821 0 0.043031393960321331 -0.1571354857308308 0 0.040502396519655252 -0.1663673850483231 0 0.040219483271594643 -0.15466785876887121 0 0.043031393960321331 -0.1571354857308308 0 0.037117648785898759 -0.15820874226176301 0 0.033920350420936912 -0.1531830770535528 0 0.033509818979212957 -0.15868168045615499 0 0.027465449436243041 -0.1628752445715565 0 0.037117648785898759 -0.15820874226176301 0 0.034071859908748191 -0.1623715567021686 0 0.040502396519655252 -0.1663673850483231 0 0.033920350420936912 -0.1531830770535528 0 0.037117648785898759 -0.15820874226176301 0 0.033509818979212957 -0.15868168045615499 0 0.037117648785898759 -0.15820874226176301 0 0.033509818979212957 -0.15868168045615499 0 0.034071859908748191 -0.1623715567021686 0 0.033509818979212957 -0.15868168045615499 0 0.034071859908748191 -0.1623715567021686 0 0.027465449436243041 -0.1628752445715565 0 0.031586668938662611 -0.1691709391612749 0 0.040502396519655252 -0.1663673850483231 0 0.030421272951226121 -0.1778391783376792 0 0.034071859908748191 -0.1623715567021686 0 0.031586668938662611 -0.1691709391612749 0 0.040502396519655252 -0.1663673850483231 0 0.051449240160577621 -0.1762857105508405 0 0.040502396519655252 -0.1663673850483231 0 0.030421272951226121 -0.1778391783376792 0 0.041440672425083092 -0.19607701236864419 0 0.051449240160577621 -0.1762857105508405 0 0.030421272951226121 -0.1778391783376792 0 0.051449240160577621 -0.1762857105508405 0 0.030421272951226121 -0.1778391783376792 0 0.02540307025583758 -0.19229280057405279 0 0.015764016274472759 -0.1812646672695073 0 0.030421272951226121 -0.1778391783376792 0 0.031586668938662611 -0.1691709391612749 0 0.030421272951226121 -0.1778391783376792 0 0.021575687727073561 -0.1734893605992324 0 0.015764016274472759 -0.1812646672695073 0 0.021575687727073561 -0.1734893605992324 0 0.012676990919703311 -0.16924925594887871 0 0.015764016274472759 -0.1812646672695073 0 0.030421272951226121 -0.1778391783376792 0 0.021575687727073561 -0.1734893605992324 0 0.033920350420936912 -0.1531830770535528 0 0.009933496317892726 -0.16685029992549011 0 0.02294500892830088 -0.1542832107784407 0 0.033920350420936912 -0.1531830770535528 0 0.027465449436243041 -0.1628752445715565 0 0.009933496317892726 -0.16685029992549011 0 0.019596439448784399 -0.16744493330375371 0 0.027465449436243041 -0.1628752445715565 0 0.009933496317892726 -0.16685029992549011 0 0.033920350420936912 -0.1531830770535528 0 0.009933496317892726 -0.16685029992549011 0 0.021575687727073561 -0.1734893605992324 0 0.019596439448784399 -0.16744493330375371 0 0.012676990919703311 -0.16924925594887871 0 0.021575687727073561 -0.1734893605992324 0 0.019596439448784399 -0.16744493330375371 0 0.025540403417393751 -0.1677775419388785 0 0.031586668938662611 -0.1691709391612749 0 0.021575687727073561 -0.1734893605992324 0 0.025540403417393751 -0.1677775419388785 0 0.019596439448784399 -0.16744493330375371 0 0.025540403417393751 -0.1677775419388785 0 0.027465449436243041 -0.1628752445715565 0 0.034071859908748191 -0.1623715567021686 0 0.031586668938662611 -0.1691709391612749 0 0.027465449436243041 -0.1628752445715565 0 0.031586668938662611 -0.1691709391612749 0 0.025540403417393751 -0.1677775419388785 0 0.027465449436243041 -0.1628752445715565 0 0.009933496317892726 -0.16685029992549011 0 0.01648447247354291 -0.15404273338364399 0 0.02294500892830088 -0.1542832107784407 0 0.009933496317892726 -0.16685029992549011 0 0.01648447247354291 -0.15404273338364399 0 0.0068311679390763679 -0.1533437069849535 0 0.019596439448784399 -0.16744493330375371 0 0.009933496317892726 -0.16685029992549011 0 0.012676990919703311 -0.16924925594887871 0 0.009933496317892726 -0.16685029992549011 0 0.012676990919703311 -0.16924925594887871 0 0.0034571977838801569 -0.17702496179755631 0 0.009933496317892726 -0.16685029992549011 0 0.012676990919703311 -0.16924925594887871 0 -0.0085976242789068957 -0.177408956520272 0 0.009933496317892726 -0.16685029992549011 0 -0.0085976242789068957 -0.177408956520272 0 0.009933496317892726 -0.16685029992549011 0 0.0034571977838801569 -0.17702496179755631 0 0.015764016274472759 -0.1812646672695073 0 0.012676990919703311 -0.16924925594887871 0 0.0034571977838801569 -0.17702496179755631 0 -0.003739977245034012 -0.19168309442994089 0 0.010514116253606281 -0.1925853606064957 0 0.0034571977838801569 -0.17702496179755631 0 0.010514116253606281 -0.1925853606064957 0 0.015764016274472759 -0.1812646672695073 0 0.0034571977838801569 -0.17702496179755631 0 0.02166725362828328 -0.1398342401410575 0 0.019282665512654749 -0.1297026577714144 0 0.01241268948209219 -0.14437852502616319 0 0.034824944079593127 -0.12500853882757099 0 0.019282665512654749 -0.1297026577714144 0 0.030566093298411881 -0.13865773310914861 0 0.02166725362828328 -0.1398342401410575 0 0.019282665512654749 -0.1297026577714144 0 0.030566093298411881 -0.13865773310914861 0 0.031672068294339203 -0.14528428076340441 0 0.030566093298411881 -0.13865773310914861 0 0.024335151646156381 -0.14706399980032239 0 0.02166725362828328 -0.1398342401410575 0 0.030566093298411881 -0.13865773310914861 0 0.024335151646156381 -0.14706399980032239 0 0.031672068294339203 -0.14528428076340441 0 0.024335151646156381 -0.14706399980032239 0 0.030051573782975471 -0.15027594372919439 0 0.033920350420936912 -0.1531830770535528 0 0.030051573782975471 -0.15027594372919439 0 0.02294500892830088 -0.1542832107784407 0 0.024335151646156381 -0.14706399980032239 0 0.030051573782975471 -0.15027594372919439 0 0.02294500892830088 -0.1542832107784407 0 0.024335151646156381 -0.14706399980032239 0 0.01648447247354291 -0.15404273338364399 0 0.01241268948209219 -0.14437852502616319 0 0.024335151646156381 -0.14706399980032239 0 0.01648447247354291 -0.15404273338364399 0 0.02294500892830088 -0.1542832107784407 0 0.02166725362828328 -0.1398342401410575 0 0.024335151646156381 -0.14706399980032239 0 0.01241268948209219 -0.14437852502616319 0 -0.011505986517222349 -0.14810326960451681 0 0.01241268948209219 -0.14437852502616319 0 0.0068311679390763679 -0.1533437069849535 0 -0.011505986517222349 -0.14810326960451681 0 0.009933496317892726 -0.16685029992549011 0 0.0068311679390763679 -0.1533437069849535 0 -0.011505986517222349 -0.14810326960451681 0 0.01241268948209219 -0.14437852502616319 0 0.0027021066240326768 -0.1317064378292063 0 0.01648447247354291 -0.15404273338364399 0 0.01241268948209219 -0.14437852502616319 0 0.0068311679390763679 -0.1533437069849535 0 0.019282665512654749 -0.1297026577714144 0 0.01241268948209219 -0.14437852502616319 0 0.0027021066240326768 -0.1317064378292063 0 0.019282665512654749 -0.1297026577714144 0 0.0027021066240326768 -0.1317064378292063 0 0.005085065621477718 -0.1151057880332567 0 0.019282665512654749 -0.1297026577714144 0 0.005085065621477718 -0.1151057880332567 0 0.024129304522527751 -0.1089818526354679 0 0.034824944079593127 -0.12500853882757099 0 0.019282665512654749 -0.1297026577714144 0 0.024129304522527751 -0.1089818526354679 0 0.024129304522527751 -0.1089818526354679 0 0.01380815825635252 -0.094132232187142617 0 0.031293966725895003 -0.08518965294817829 0 -0.00044729776891663488 -0.1011528385718463 0 0.005085065621477718 -0.1151057880332567 0 0.01380815825635252 -0.094132232187142617 0 0.005085065621477718 -0.1151057880332567 0 0.024129304522527751 -0.1089818526354679 0 0.01380815825635252 -0.094132232187142617 0 0.01380815825635252 -0.094132232187142617 0 0.0042106568376920582 -0.081118225430045127 0 0.020039989671696231 -0.071989185162356889 0 -0.00044729776891663488 -0.1011528385718463 0 0.01380815825635252 -0.094132232187142617 0 0.0042106568376920582 -0.081118225430045127 0 0.0042106568376920582 -0.081118225430045127 0 0.0052181775422467033 -0.064346337314722044 0 0.020039989671696231 -0.071989185162356889 0 -0.0043762627118289626 -0.071729097412358583 0 0.0042106568376920582 -0.081118225430045127 0 0.0052181775422467033 -0.064346337314722044 0 0.0052181775422467033 -0.064346337314722044 0 0.020039989671696231 -0.071989185162356889 0 0.0052181775422467033 -0.064346337314722044 0 0.020039989671696231 -0.071989185162356889 0 0.017880224012190679 -0.058506375123621113 0 0.020039989671696231 -0.071989185162356889 0 0.017880224012190679 -0.058506375123621113 0 0.035073137211611732 -0.060365082031122411 0 0.020039989671696231 -0.071989185162356889 0 0.031293966725895003 -0.08518965294817829 0 0.035073137211611732 -0.060365082031122411 0 0.01380815825635252 -0.094132232187142617 0 0.020039989671696231 -0.071989185162356889 0 0.031293966725895003 -0.08518965294817829 0 0.031293966725895003 -0.08518965294817829 0 0.050629459546369923 -0.074776417317023003 0 0.042727201812981508 -0.099892478072297022 0 0.050629459546369923 -0.074776417317023003 0 0.042727201812981508 -0.099892478072297022 0 0.031293966725895003 -0.08518965294817829 0 0.050629459546369923 -0.074776417317023003 0 0.035073137211611732 -0.060365082031122411 0 0.050629459546369923 -0.074776417317023003 0 0.058531717279758283 -0.049660356561749108 0 0.072219385832792832 -0.066659644627356851 0 0.050629459546369923 -0.074776417317023003 0 0.042727201812981508 -0.099892478072297022 0 0.069701838591585213 -0.089386546866783212 0 0.059655618646742382 -0.10475769562984739 0 0.052448498866582129 -0.1166826243517366 0 0.042727201812981508 -0.099892478072297022 0 0.059655618646742382 -0.10475769562984739 0 0.042727201812981508 -0.099892478072297022 0 0.069701838591585213 -0.089386546866783212 0 0.054296968429680029 -0.13171371816535249 0 0.052448498866582129 -0.1166826243517366 0 0.073744935315820714 -0.1130691332285727 0 0.059655618646742382 -0.10475769562984739 0 0.052448498866582129 -0.1166826243517366 0 0.073744935315820714 -0.1130691332285727 0 0.034824944079593127 -0.12500853882757099 0 0.045553716665441668 -0.12681104972785159 0 0.052448498866582129 -0.1166826243517366 0 0.034824944079593127 -0.12500853882757099 0 0.052448498866582129 -0.1166826243517366 0 0.042727201812981508 -0.099892478072297022 0 0.034824944079593127 -0.12500853882757099 0 0.024129304522527751 -0.1089818526354679 0 0.042727201812981508 -0.099892478072297022 0 0.034824944079593127 -0.12500853882757099 0 0.042727201812981508 -0.099892478072297022 0 0.024129304522527751 -0.1089818526354679 0 0.031293966725895003 -0.08518965294817829 0 0.042727201812981508 -0.099892478072297022 0 0.034885408484197772 0.0062912350017927032 0 0.01265631079038235 -0.01012693536007268 0 0.042517259973231587 -0.011683923625132649 0 -0.00118246574067416 -0.01324232368796026 0 0.0012074066645448821 -0.00065723147797176382 0 0.01265631079038235 -0.01012693536007268 0 0.01265631079038235 -0.01012693536007268 0 0.02406773205363014 -0.026959444655171291 0 0.0015263381015913891 -0.033415212413580753 0 0.01265631079038235 -0.01012693536007268 0 0.0015263381015913891 -0.033415212413580753 0 -0.00118246574067416 -0.01324232368796026 0 0.01265631079038235 -0.01012693536007268 0 0.0015263381015913891 -0.033415212413580753 0 0.01265631079038235 -0.01012693536007268 0 0.02406773205363014 -0.026959444655171291 0 0.042517259973231587 -0.011683923625132649 0 0.02406773205363014 -0.026959444655171291 0 0.021771409900077709 -0.044354063799483319 0 0.04186734150286768 -0.035217088077587062 0 0.02406773205363014 -0.026959444655171291 0 0.021771409900077709 -0.044354063799483319 0 0.0015263381015913891 -0.033415212413580753 0 0.021771409900077709 -0.044354063799483319 0 0.0015263381015913891 -0.033415212413580753 0 0.007298405735321048 -0.051477207310420908 0 -0.0096036345872028556 -0.056703489467087059 0 0.0052181775422467033 -0.064346337314722044 0 0.007298405735321048 -0.051477207310420908 0 0.0052181775422467033 -0.064346337314722044 0 0.007298405735321048 -0.051477207310420908 0 0.017880224012190679 -0.058506375123621113 0 0.021771409900077709 -0.044354063799483319 0 0.017880224012190679 -0.058506375123621113 0 0.035073137211611732 -0.060365082031122411 0 0.021771409900077709 -0.044354063799483319 0 0.007298405735321048 -0.051477207310420908 0 0.017880224012190679 -0.058506375123621113 0 0.035073137211611732 -0.060365082031122411 0 0.058531717279758283 -0.049660356561749108 0 0.04186734150286768 -0.035217088077587062 0 0.050629459546369923 -0.074776417317023003 0 0.058531717279758283 -0.049660356561749108 0 0.050629459546369923 -0.074776417317023003 0 0.035073137211611732 -0.060365082031122411 0 0.058531717279758283 -0.049660356561749108 0 0.058531717279758283 -0.049660356561749108 0 0.066433975013146629 -0.02454429580647528 0 0.058531717279758283 -0.049660356561749108 0 0.04186734150286768 -0.035217088077587062 0 0.066433975013146629 -0.02454429580647528 0 0.021771409900077709 -0.044354063799483319 0 0.035073137211611732 -0.060365082031122411 0 0.04186734150286768 -0.035217088077587062 0 0.02406773205363014 -0.026959444655171291 0 0.04186734150286768 -0.035217088077587062 0 0.042517259973231587 -0.011683923625132649 0 0.04186734150286768 -0.035217088077587062 0 0.042517259973231587 -0.011683923625132649 0 0.066433975013146629 -0.02454429580647528 0 0.052968053050369737 0.0090809173488315582 0 0.042517259973231587 -0.011683923625132649 0 0.067492943165135169 -0.0019794682467893379 0 0.042517259973231587 -0.011683923625132649 0 0.067492943165135169 -0.0019794682467893379 0 0.066433975013146629 -0.02454429580647528 0 0.087040675587819916 -0.0096101539263870796 0 0.066433975013146629 -0.02454429580647528 0 0.098032226742104309 -0.02831505409649597 0 0.083930998993742512 0.0059737405228527038 0 0.087040675587819916 -0.0096101539263870796 0 0.067492943165135169 -0.0019794682467893379 0 0.083930998993742512 0.0059737405228527038 0 0.098495163759696414 0.0029673617968291321 0 0.087040675587819916 -0.0096101539263870796 0 0.087040675587819916 -0.0096101539263870796 0 0.067492943165135169 -0.0019794682467893379 0 0.066433975013146629 -0.02454429580647528 0 0.066433975013146629 -0.02454429580647528 0 0.080663194565618018 -0.042742664855397232 0 0.098032226742104309 -0.02831505409649597 0 0.080663194565618018 -0.042742664855397232 0 0.099119978598511321 -0.045144617550746849 0 0.098032226742104309 -0.02831505409649597 0 0.058531717279758283 -0.049660356561749108 0 0.066433975013146629 -0.02454429580647528 0 0.080663194565618018 -0.042742664855397232 0 0.058531717279758283 -0.049660356561749108 0 0.080663194565618018 -0.042742664855397232 0 0.072219385832792832 -0.066659644627356851 0 0.080663194565618018 -0.042742664855397232 0 0.091985945990252393 -0.059557823171565508 0 0.072219385832792832 -0.066659644627356851 0 0.080663194565618018 -0.042742664855397232 0 0.091985945990252393 -0.059557823171565508 0 0.099119978598511321 -0.045144617550746849 0 0.091985945990252393 -0.059557823171565508 0 0.109385226414503 -0.056941989317685793 0 0.099119978598511321 -0.045144617550746849 0 0.109385226414503 -0.056941989317685793 0 0.1174221699598199 -0.069046986946925279 0 0.12664898879935529 -0.055605769639440771 0 0.109385226414503 -0.056941989317685793 0 0.1155332992800789 -0.038165556312589707 0 0.12664898879935529 -0.055605769639440771 0 0.1155332992800789 -0.038165556312589707 0 0.12954193793015309 -0.041748568408345607 0 0.12664898879935529 -0.055605769639440771 0 0.1155332992800789 -0.038165556312589707 0 0.1294320674019063 -0.023146095115484211 0 0.12954193793015309 -0.041748568408345607 0 0.109385226414503 -0.056941989317685793 0 0.1155332992800789 -0.038165556312589707 0 0.099119978598511321 -0.045144617550746849 0 0.1155332992800789 -0.038165556312589707 0 0.099119978598511321 -0.045144617550746849 0 0.098032226742104309 -0.02831505409649597 0 0.1155332992800789 -0.038165556312589707 0 0.098032226742104309 -0.02831505409649597 0 0.1112777463759113 -0.012222875866518469 0 0.087040675587819916 -0.0096101539263870796 0 0.098032226742104309 -0.02831505409649597 0 0.1112777463759113 -0.012222875866518469 0 0.1155332992800789 -0.038165556312589707 0 0.1112777463759113 -0.012222875866518469 0 0.1294320674019063 -0.023146095115484211 0 0.1158546052028349 0.0064685721448778594 0 0.13464870039648349 0.00080453217212592717 0 0.1112777463759113 -0.012222875866518469 0 0.098495163759696414 0.0029673617968291321 0 0.087040675587819916 -0.0096101539263870796 0 0.1112777463759113 -0.012222875866518469 0 0.1158546052028349 0.0064685721448778594 0 0.098495163759696414 0.0029673617968291321 0 0.1112777463759113 -0.012222875866518469 0 0.093192902201961414 -0.094424548291792879 0 0.088899626305776192 -0.1113374325741409 0 0.073744935315820714 -0.1130691332285727 0 0.093192902201961414 -0.094424548291792879 0 0.073744935315820714 -0.1130691332285727 0 0.069701838591585213 -0.089386546866783212 0 0.093192902201961414 -0.094424548291792879 0 0.073744935315820714 -0.1130691332285727 0 0.081894058627025895 -0.12584863130967919 0 0.088899626305776192 -0.1113374325741409 0 0.09397493983509804 -0.11322330148444169 0 0.081894058627025895 -0.12584863130967919 0 0.079920122843727764 -0.11786127252462281 0 0.075141871126288284 -0.1211898929860986 0 0.081894058627025895 -0.12584863130967919 0 0.088899626305776192 -0.1113374325741409 0 0.079920122843727764 -0.11786127252462281 0 0.088899626305776192 -0.1113374325741409 0 0.079920122843727764 -0.11786127252462281 0 0.073744935315820714 -0.1130691332285727 0 0.068207364780656948 -0.12563827965844471 0 0.054296968429680029 -0.13171371816535249 0 0.073744935315820714 -0.1130691332285727 0 0.054296968429680029 -0.13171371816535249 0 0.073744935315820714 -0.1130691332285727 0 0.068207364780656948 -0.12563827965844471 0 0.073744935315820714 -0.1130691332285727 0 0.075141871126288284 -0.1211898929860986 0 0.079920122843727764 -0.11786127252462281 0 0.073744935315820714 -0.1130691332285727 0 0.075141871126288284 -0.1211898929860986 0 0.081894058627025895 -0.12584863130967919 0 0.068207364780656948 -0.12563827965844471 0 0.075141871126288284 -0.1211898929860986 0 0.059655618646742382 -0.10475769562984739 0 0.073744935315820714 -0.1130691332285727 0 0.069701838591585213 -0.089386546866783212 0 0.050629459546369923 -0.074776417317023003 0 0.069701838591585213 -0.089386546866783212 0 0.072219385832792832 -0.066659644627356851 0 0.069701838591585213 -0.089386546866783212 0 0.072219385832792832 -0.066659644627356851 0 0.089711563165187497 -0.078251462936863553 0 0.091985945990252393 -0.059557823171565508 0 0.072219385832792832 -0.066659644627356851 0 0.089711563165187497 -0.078251462936863553 0 0.093192902201961414 -0.094424548291792879 0 0.069701838591585213 -0.089386546866783212 0 0.089711563165187497 -0.078251462936863553 0 0.093192902201961414 -0.094424548291792879 0 0.089711563165187497 -0.078251462936863553 0 0.1048667032735431 -0.089595599910983495 0 0.089711563165187497 -0.078251462936863553 0 0.1048667032735431 -0.089595599910983495 0 0.1056935618466131 -0.072691272791708894 0 0.1048667032735431 -0.089595599910983495 0 0.1056935618466131 -0.072691272791708894 0 0.11564058922802831 -0.08068930143821873 0 0.091985945990252393 -0.059557823171565508 0 0.089711563165187497 -0.078251462936863553 0 0.1056935618466131 -0.072691272791708894 0 0.091985945990252393 -0.059557823171565508 0 0.109385226414503 -0.056941989317685793 0 0.1056935618466131 -0.072691272791708894 0 0.1174221699598199 -0.069046986946925279 0 0.12840026197867099 -0.078951386265116219 0 0.12664898879935529 -0.055605769639440771 0 0.109385226414503 -0.056941989317685793 0 0.1056935618466131 -0.072691272791708894 0 0.1174221699598199 -0.069046986946925279 0 0.1056935618466131 -0.072691272791708894 0 0.1174221699598199 -0.069046986946925279 0 0.11564058922802831 -0.08068930143821873 0 0.1174221699598199 -0.069046986946925279 0 0.11564058922802831 -0.08068930143821873 0 0.12840026197867099 -0.078951386265116219 0 0.1048667032735431 -0.089595599910983495 0 0.11564058922802831 -0.08068930143821873 0 0.1191358060176364 -0.092450830711447801 0 0.1191358060176364 -0.092450830711447801 0 0.12840026197867099 -0.078951386265116219 0 0.11564058922802831 -0.08068930143821873 0 0.1191358060176364 -0.092450830711447801 0 0.12840026197867099 -0.078951386265116219 0 0.1058809127300703 -0.11218140843774239 0 0.12023297736745781 -0.1110263554770618 0 0.12986776683311119 -0.098514185565799078 0 0.1058809127300703 -0.11218140843774239 0 0.12986776683311119 -0.098514185565799078 0 0.1048667032735431 -0.089595599910983495 0 0.1191358060176364 -0.092450830711447801 0 0.10987135005660249 -0.1059502751577799 0 0.10987135005660249 -0.1059502751577799 0 0.1058809127300703 -0.11218140843774239 0 0.12986776683311119 -0.098514185565799078 0 0.1191358060176364 -0.092450830711447801 0 0.10987135005660249 -0.1059502751577799 0 0.12986776683311119 -0.098514185565799078 0 0.1191358060176364 -0.092450830711447801 0 0.10987135005660249 -0.1059502751577799 0 0.093192902201961414 -0.094424548291792879 0 0.088899626305776192 -0.1113374325741409 0 0.099225161677519755 -0.1035257336162041 0 0.1048667032735431 -0.089595599910983495 0 0.10987135005660249 -0.1059502751577799 0 0.099225161677519755 -0.1035257336162041 0 0.10987135005660249 -0.1059502751577799 0 0.099225161677519755 -0.1035257336162041 0 0.1058809127300703 -0.11218140843774239 0 0.088899626305776192 -0.1113374325741409 0 0.099225161677519755 -0.1035257336162041 0 0.09397493983509804 -0.11322330148444169 0 0.093192902201961414 -0.094424548291792879 0 0.1048667032735431 -0.089595599910983495 0 0.099225161677519755 -0.1035257336162041 0 0.081894058627025895 -0.12584863130967919 0 0.1058809127300703 -0.11218140843774239 0 0.099525338641528904 -0.12611341339503321 0 0.081894058627025895 -0.12584863130967919 0 0.1058809127300703 -0.11218140843774239 0 0.081894058627025895 -0.12584863130967919 0 0.09397493983509804 -0.11322330148444169 0 0.1058809127300703 -0.11218140843774239 0 0.099225161677519755 -0.1035257336162041 0 0.09397493983509804 -0.11322330148444169 0 0.1058809127300703 -0.11218140843774239 0 0.099525338641528904 -0.12611341339503321 0 0.1058809127300703 -0.11218140843774239 0 0.1121708616464093 -0.1216807098986791 0 0.1058809127300703 -0.11218140843774239 0 0.1121708616464093 -0.1216807098986791 0 0.12023297736745781 -0.1110263554770618 0 0.11997683785091839 -0.1276371159963853 0 0.121067612134044 -0.1214532534018402 0 0.13188977167139071 -0.12546883223523481 0 0.12023297736745781 -0.1110263554770618 0 0.121067612134044 -0.1214532534018402 0 0.13188977167139071 -0.12546883223523481 0 0.11997683785091839 -0.1276371159963853 0 0.1121708616464093 -0.1216807098986791 0 0.121067612134044 -0.1214532534018402 0 0.1121708616464093 -0.1216807098986791 0 0.12023297736745781 -0.1110263554770618 0 0.121067612134044 -0.1214532534018402 0 0.12023297736745781 -0.1110263554770618 0 0.12986776683311119 -0.098514185565799078 0 0.13188977167139071 -0.12546883223523481 0 0.12986776683311119 -0.098514185565799078 0 0.13188977167139071 -0.12546883223523481 0 0.14925441928633251 -0.10969288085116551 0 0.13995942417209239 -0.1034127274713456 0 0.13188977167139071 -0.12546883223523481 0 0.14724036225017881 -0.1245170930860646 0 0.14925441928633251 -0.10969288085116551 0 0.13188977167139071 -0.12546883223523481 0 0.14925441928633251 -0.10969288085116551 0 0.15485465026004211 -0.11932571079310079 0 0.15999890680388329 -0.1096406796162286 0 0.14724036225017881 -0.1245170930860646 0 0.15485465026004211 -0.11932571079310079 0 0.15557261582888751 -0.13003178131142151 0 0.14724036225017881 -0.1245170930860646 0 0.14925441928633251 -0.10969288085116551 0 0.15485465026004211 -0.11932571079310079 0 0.14925441928633251 -0.10969288085116551 0 0.14348993397904131 -0.092765062884646393 0 0.1620153957752187 -0.097165399419701551 0 0.14348993397904131 -0.092765062884646393 0 0.1620153957752187 -0.097165399419701551 0 0.14925441928633251 -0.10969288085116551 0 0.13995942417209239 -0.1034127274713456 0 0.14348993397904131 -0.092765062884646393 0 0.13995942417209239 -0.1034127274713456 0 0.12986776683311119 -0.098514185565799078 0 0.13188977167139071 -0.12546883223523481 0 0.13995942417209239 -0.1034127274713456 0 0.12986776683311119 -0.098514185565799078 0 0.14348993397904131 -0.092765062884646393 0 0.12986776683311119 -0.098514185565799078 0 0.12840026197867099 -0.078951386265116219 0 0.1428482005174804 -0.076716741777837147 0 0.1191358060176364 -0.092450830711447801 0 0.12986776683311119 -0.098514185565799078 0 0.12840026197867099 -0.078951386265116219 0 0.12986776683311119 -0.098514185565799078 0 0.12840026197867099 -0.078951386265116219 0 0.12840026197867099 -0.078951386265116219 0 0.12664898879935529 -0.055605769639440771 0 0.12840026197867099 -0.078951386265116219 0 0.12664898879935529 -0.055605769639440771 0 0.14464694777039611 -0.055277979731059648 0 0.12840026197867099 -0.078951386265116219 0 0.1428482005174804 -0.076716741777837147 0 0.14464694777039611 -0.055277979731059648 0 0.12840026197867099 -0.078951386265116219 0 0.14464694777039611 -0.055277979731059648 0 0.1428482005174804 -0.076716741777837147 0 0.15680899227989839 -0.06637062400294011 0 0.14464694777039611 -0.055277979731059648 0 0.1428482005174804 -0.076716741777837147 0 0.15451703372532541 -0.084469533324270707 0 0.15680899227989839 -0.06637062400294011 0 0.12986776683311119 -0.098514185565799078 0 0.15451703372532541 -0.084469533324270707 0 0.12986776683311119 -0.098514185565799078 0 0.14348993397904131 -0.092765062884646393 0 0.15451703372532541 -0.084469533324270707 0 0.14348993397904131 -0.092765062884646393 0 0.15451703372532541 -0.084469533324270707 0 0.1620153957752187 -0.097165399419701551 0 0.12986776683311119 -0.098514185565799078 0 0.1428482005174804 -0.076716741777837147 0 0.15451703372532541 -0.084469533324270707 0 0.15451703372532541 -0.084469533324270707 0 0.1674193516126988 -0.088794767656503876 0 0.1620153957752187 -0.097165399419701551 0 0.15451703372532541 -0.084469533324270707 0 0.1674193516126988 -0.088794767656503876 0 0.16389165652408541 -0.076485311925560115 0 0.1674193516126988 -0.088794767656503876 0 0.16389165652408541 -0.076485311925560115 0 0.17613181446746839 -0.084287857658230353 0 0.15451703372532541 -0.084469533324270707 0 0.15680899227989839 -0.06637062400294011 0 0.16389165652408541 -0.076485311925560115 0 0.16389165652408541 -0.076485311925560115 0 0.1717227713635387 -0.067009979361705274 0 0.17613181446746839 -0.084287857658230353 0 0.15680899227989839 -0.06637062400294011 0 0.16389165652408541 -0.076485311925560115 0 0.1717227713635387 -0.067009979361705274 0 0.15680899227989839 -0.06637062400294011 0 0.1717227713635387 -0.067009979361705274 0 0.1652446184022294 -0.054500080927008407 0 0.1717227713635387 -0.067009979361705274 0 0.17613181446746839 -0.084287857658230353 0 0.1717227713635387 -0.067009979361705274 0 0.18346211879182289 -0.064955309332027283 0 0.18137547142311691 -0.085525622921553163 0 0.18346211879182289 -0.064955309332027283 0 0.18137547142311691 -0.085525622921553163 0 0.1952329782378138 -0.068464889048657496 0 0.1717227713635387 -0.067009979361705274 0 0.18137547142311691 -0.085525622921553163 0 0.1717227713635387 -0.067009979361705274 0 0.18346211879182289 -0.064955309332027283 0 0.1746283364613696 -0.057560297553190053 0 0.18137547142311691 -0.085525622921553163 0 0.17613181446746839 -0.084287857658230353 0 0.18054085757139629 -0.1015657359547559 0 0.17613181446746839 -0.084287857658230353 0 0.18054085757139629 -0.1015657359547559 0 0.1674193516126988 -0.088794767656503876 0 0.17613181446746839 -0.084287857658230353 0 0.18054085757139629 -0.1015657359547559 0 0.1717227713635387 -0.067009979361705274 0 0.18137547142311691 -0.085525622921553163 0 0.17613181446746839 -0.084287857658230353 0 0.18137547142311691 -0.085525622921553163 0 0.19100769245097829 -0.1040519139747048 0 0.18137547142311691 -0.085525622921553163 0 0.18054085757139629 -0.1015657359547559 0 0.19100769245097829 -0.1040519139747048 0 0.18054085757139629 -0.1015657359547559 0 0.1749190978293893 -0.1165979942053425 0 0.16884250162088479 -0.1080310140379921 0 0.18054085757139629 -0.1015657359547559 0 0.19100769245097829 -0.1040519139747048 0 0.18054085757139629 -0.1015657359547559 0 0.1862357176231304 -0.1238823921021804 0 0.1749190978293893 -0.1165979942053425 0 0.18054085757139629 -0.1015657359547559 0 0.1862357176231304 -0.1238823921021804 0 0.19100769245097829 -0.1040519139747048 0 0.18054085757139629 -0.1015657359547559 0 0.1862357176231304 -0.1238823921021804 0 0.1862357176231304 -0.1238823921021804 0 0.1749190978293893 -0.1165979942053425 0 0.17324983187337631 -0.13165498831909611 0 0.1749190978293893 -0.1165979942053425 0 0.16471491079178111 -0.1205264202314431 0 0.16884250162088479 -0.1080310140379921 0 0.16471491079178111 -0.1205264202314431 0 0.15999890680388329 -0.1096406796162286 0 0.16884250162088479 -0.1080310140379921 0 0.1749190978293893 -0.1165979942053425 0 0.16471491079178111 -0.1205264202314431 0 0.17324983187337631 -0.13165498831909611 0 0.15485465026004211 -0.11932571079310079 0 0.16471491079178111 -0.1205264202314431 0 0.15557261582888751 -0.13003178131142151 0 0.15485465026004211 -0.11932571079310079 0 0.16471491079178111 -0.1205264202314431 0 0.15999890680388329 -0.1096406796162286 0 0.18054085757139629 -0.1015657359547559 0 0.1620153957752187 -0.097165399419701551 0 0.1674193516126988 -0.088794767656503876 0 0.18054085757139629 -0.1015657359547559 0 0.1620153957752187 -0.097165399419701551 0 0.14925441928633251 -0.10969288085116551 0 0.15999890680388329 -0.1096406796162286 0 0.1620153957752187 -0.097165399419701551 0 0.15999890680388329 -0.1096406796162286 0 0.1620153957752187 -0.097165399419701551 0 0.16884250162088479 -0.1080310140379921 0 0.18054085757139629 -0.1015657359547559 0 0.1620153957752187 -0.097165399419701551 0 0.16884250162088479 -0.1080310140379921 0 0.13464870039648349 0.00080453217212592717 0 0.15480995508657039 -0.001084596553268768 0 0.14892696920713289 -0.018041582065753459 0 0.13464870039648349 0.00080453217212592717 0 0.1294320674019063 -0.023146095115484211 0 0.14892696920713289 -0.018041582065753459 0 0.13464870039648349 0.00080453217212592717 0 0.1112777463759113 -0.012222875866518469 0 0.1294320674019063 -0.023146095115484211 0 0.1294320674019063 -0.023146095115484211 0 0.14892696920713289 -0.018041582065753459 0 0.14270131340979469 -0.036531096068384838 0 0.14892696920713289 -0.018041582065753459 0 0.14270131340979469 -0.036531096068384838 0 0.16089363356212191 -0.031604573197003549 0 0.14270131340979469 -0.036531096068384838 0 0.14464694777039611 -0.055277979731059648 0 0.16089363356212191 -0.031604573197003549 0 0.14464694777039611 -0.055277979731059648 0 0.15561449558007559 -0.051164132387281437 0 0.16089363356212191 -0.031604573197003549 0 0.14464694777039611 -0.055277979731059648 0 0.16089363356212191 -0.031604573197003549 0 0.14270131340979469 -0.036531096068384838 0 0.12954193793015309 -0.041748568408345607 0 0.14464694777039611 -0.055277979731059648 0 0.1294320674019063 -0.023146095115484211 0 0.14270131340979469 -0.036531096068384838 0 0.12954193793015309 -0.041748568408345607 0 0.12954193793015309 -0.041748568408345607 0 0.12664898879935529 -0.055605769639440771 0 0.14464694777039611 -0.055277979731059648 0 0.15680899227989839 -0.06637062400294011 0 0.14464694777039611 -0.055277979731059648 0 0.15561449558007559 -0.051164132387281437 0 0.15680899227989839 -0.06637062400294011 0 0.15561449558007559 -0.051164132387281437 0 0.1652446184022294 -0.054500080927008407 0 0.15561449558007559 -0.051164132387281437 0 0.1652446184022294 -0.054500080927008407 0 0.1617942405007988 -0.043199732881276223 0 0.1652446184022294 -0.054500080927008407 0 0.1746283364613696 -0.057560297553190053 0 0.1617942405007988 -0.043199732881276223 0 0.1717227713635387 -0.067009979361705274 0 0.1652446184022294 -0.054500080927008407 0 0.1717227713635387 -0.067009979361705274 0 0.1652446184022294 -0.054500080927008407 0 0.1746283364613696 -0.057560297553190053 0 0.1746283364613696 -0.057560297553190053 0 0.1828119860636557 -0.050363577362968731 0 0.1617942405007988 -0.043199732881276223 0 0.18346211879182289 -0.064955309332027283 0 0.1746283364613696 -0.057560297553190053 0 0.1828119860636557 -0.050363577362968731 0 0.18346211879182289 -0.064955309332027283 0 0.1828119860636557 -0.050363577362968731 0 0.19188844298534441 -0.056659859735039647 0 0.1617942405007988 -0.043199732881276223 0 0.18853740735089011 -0.033706188378118708 0 0.1828119860636557 -0.050363577362968731 0 0.1617942405007988 -0.043199732881276223 0 0.18853740735089011 -0.033706188378118708 0 0.15561449558007559 -0.051164132387281437 0 0.16089363356212191 -0.031604573197003549 0 0.1617942405007988 -0.043199732881276223 0 0.16089363356212191 -0.031604573197003549 0 0.1617942405007988 -0.043199732881276223 0 0.18853740735089011 -0.033706188378118708 0 0.16089363356212191 -0.031604573197003549 0 0.17714031935384769 -0.0079311666629475405 0 0.14892696920713289 -0.018041582065753459 0 0.16089363356212191 -0.031604573197003549 0 0.17714031935384769 -0.0079311666629475405 0 0.16089363356212191 -0.031604573197003549 0 0.17714031935384769 -0.0079311666629475405 0 0.18853740735089011 -0.033706188378118708 0 0.1657030786406338 0.0084270166623369204 0 0.15480995508657039 -0.001084596553268768 0 0.17714031935384769 -0.0079311666629475405 0 0.15480995508657039 -0.001084596553268768 0 0.14892696920713289 -0.018041582065753459 0 0.17714031935384769 -0.0079311666629475405 0 0.21351355446813719 -0.0021103410187178909 0 0.2110126965438916 -0.012672932103663791 0 0.2228246624943325 -0.0092295053444410857 0 0.2110126965438916 -0.012672932103663791 0 0.21911622703360889 -0.015650702578479541 0 0.2228246624943325 -0.0092295053444410857 0 0.21351355446813719 -0.0021103410187178909 0 0.2110126965438916 -0.012672932103663791 0 0.19836939172364151 -0.01016904411482358 0 0.1998105265397013 0.00335350757378736 0 0.21351355446813719 -0.0021103410187178909 0 0.19836939172364151 -0.01016904411482358 0 0.1998105265397013 0.00335350757378736 0 0.17714031935384769 -0.0079311666629475405 0 0.19836939172364151 -0.01016904411482358 0 0.17714031935384769 -0.0079311666629475405 0 0.19836939172364151 -0.01016904411482358 0 0.18853740735089011 -0.033706188378118708 0 0.2110126965438916 -0.012672932103663791 0 0.19836939172364151 -0.01016904411482358 0 0.18853740735089011 -0.033706188378118708 0 0.21528057420098159 -0.024212643874961401 0 0.18853740735089011 -0.033706188378118708 0 0.2110126965438916 -0.012672932103663791 0 0.21528057420098159 -0.024212643874961401 0 0.18853740735089011 -0.033706188378118708 0 0.21528057420098159 -0.024212643874961401 0 0.20886364623554921 -0.031523512657201581 0 0.18853740735089011 -0.033706188378118708 0 0.2110126965438916 -0.012672932103663791 0 0.21528057420098159 -0.024212643874961401 0 0.21911622703360889 -0.015650702578479541 0 0.21528057420098159 -0.024212643874961401 0 0.2158000993154765 -0.027276596113623111 0 0.21360323626451261 -0.02858374534336202 0 0.21528057420098159 -0.024212643874961401 0 0.2158000993154765 -0.027276596113623111 0 0.21995729679401421 -0.029331280632926501 0 0.2158000993154765 -0.027276596113623111 0 0.21503400689837671 -0.030930810510401429 0 0.21995729679401421 -0.029331280632926501 0 0.2158000993154765 -0.027276596113623111 0 0.21503400689837671 -0.030930810510401429 0 0.21360323626451261 -0.02858374534336202 0 0.21528057420098159 -0.024212643874961401 0 0.21360323626451261 -0.02858374534336202 0 0.20886364623554921 -0.031523512657201581 0 0.21503400689837671 -0.030930810510401429 0 0.21360323626451261 -0.02858374534336202 0 0.20886364623554921 -0.031523512657201581 0 0.2128060919330283 -0.035124071741943173 0 0.2180191377477218 -0.035203133534298187 0 0.2167024847658664 -0.043974661413588162 0 0.21503400689837671 -0.030930810510401429 0 0.2128060919330283 -0.035124071741943173 0 0.20886364623554921 -0.031523512657201581 0 0.21503400689837671 -0.030930810510401429 0 0.2128060919330283 -0.035124071741943173 0 0.2180191377477218 -0.035203133534298187 0 0.21503400689837671 -0.030930810510401429 0 0.2180191377477218 -0.035203133534298187 0 0.21995729679401421 -0.029331280632926501 0 0.2167024847658664 -0.043974661413588162 0 0.20890374551960481 -0.040729144831228678 0 0.20897987019450001 -0.050060865146210963 0 0.2128060919330283 -0.035124071741943173 0 0.2167024847658664 -0.043974661413588162 0 0.20890374551960481 -0.040729144831228678 0 0.20890374551960481 -0.040729144831228678 0 0.19655169947710091 -0.043788383486002072 0 0.20897987019450001 -0.050060865146210963 0 0.2128060919330283 -0.035124071741943173 0 0.20890374551960481 -0.040729144831228678 0 0.20886364623554921 -0.031523512657201581 0 0.20890374551960481 -0.040729144831228678 0 0.20886364623554921 -0.031523512657201581 0 0.19655169947710091 -0.043788383486002072 0 0.1828119860636557 -0.050363577362968731 0 0.18853740735089011 -0.033706188378118708 0 0.19655169947710091 -0.043788383486002072 0 0.20886364623554921 -0.031523512657201581 0 0.18853740735089011 -0.033706188378118708 0 0.19655169947710091 -0.043788383486002072 0 0.19655169947710091 -0.043788383486002072 0 0.20138343235632811 -0.055727139445542639 0 0.20897987019450001 -0.050060865146210963 0 0.19655169947710091 -0.043788383486002072 0 0.19188844298534441 -0.056659859735039647 0 0.20138343235632811 -0.055727139445542639 0 0.1828119860636557 -0.050363577362968731 0 0.19655169947710091 -0.043788383486002072 0 0.19188844298534441 -0.056659859735039647 0 0.19188844298534441 -0.056659859735039647 0 0.20138343235632811 -0.055727139445542639 0 0.1952329782378138 -0.068464889048657496 0 0.20138343235632811 -0.055727139445542639 0 0.22670270369963491 -0.067064047377793826 0 0.20138343235632811 -0.055727139445542639 0 0.21577564808412511 -0.056666161138016313 0 0.22670270369963491 -0.067064047377793826 0 0.20138343235632811 -0.055727139445542639 0 0.20897987019450001 -0.050060865146210963 0 0.21577564808412511 -0.056666161138016313 0 0.2167024847658664 -0.043974661413588162 0 0.20897987019450001 -0.050060865146210963 0 0.21577564808412511 -0.056666161138016313 0 0.21577564808412511 -0.056666161138016313 0 0.23694359709532001 -0.061394592404840097 0 0.22670270369963491 -0.067064047377793826 0 0.21577564808412511 -0.056666161138016313 0 0.22648325856373289 -0.049317463857355977 0 0.23694359709532001 -0.061394592404840097 0 0.21577564808412511 -0.056666161138016313 0 0.23694359709532001 -0.061394592404840097 0 0.2167024847658664 -0.043974661413588162 0 0.21577564808412511 -0.056666161138016313 0 0.22648325856373289 -0.049317463857355977 0 0.22648325856373289 -0.049317463857355977 0 0.23694359709532001 -0.061394592404840097 0 0.23716366819637241 -0.046229271507985323 0 0.25811154610651499 -0.066123023671663908 0 0.23694359709532001 -0.061394592404840097 0 0.24870160087168189 -0.052882304334001928 0 0.23694359709532001 -0.061394592404840097 0 0.24870160087168189 -0.052882304334001928 0 0.23716366819637241 -0.046229271507985323 0 0.24870160087168189 -0.052882304334001928 0 0.23716366819637241 -0.046229271507985323 0 0.24731406762381819 -0.035960341631652723 0 0.23716366819637241 -0.046229271507985323 0 0.24731406762381819 -0.035960341631652723 0 0.23342582712955959 -0.033308149953783547 0 0.23342582712955959 -0.033308149953783547 0 0.2258308946769807 -0.038322632822349968 0 0.22548915127375299 -0.027513718828695861 0 0.22648325856373289 -0.049317463857355977 0 0.23716366819637241 -0.046229271507985323 0 0.2258308946769807 -0.038322632822349968 0 0.23716366819637241 -0.046229271507985323 0 0.23342582712955959 -0.033308149953783547 0 0.2258308946769807 -0.038322632822349968 0 0.2180191377477218 -0.035203133534298187 0 0.2167024847658664 -0.043974661413588162 0 0.2258308946769807 -0.038322632822349968 0 0.2167024847658664 -0.043974661413588162 0 0.22648325856373289 -0.049317463857355977 0 0.2258308946769807 -0.038322632822349968 0 0.2180191377477218 -0.035203133534298187 0 0.2258308946769807 -0.038322632822349968 0 0.21995729679401421 -0.029331280632926501 0 0.2258308946769807 -0.038322632822349968 0 0.22548915127375299 -0.027513718828695861 0 0.21995729679401421 -0.029331280632926501 0 0.21528057420098159 -0.024212643874961401 0 0.2313313538768734 -0.018514784978234038 0 0.22829619310998309 -0.01520182636873813 0 0.21528057420098159 -0.024212643874961401 0 0.2313313538768734 -0.018514784978234038 0 0.21528057420098159 -0.024212643874961401 0 0.22548915127375299 -0.027513718828695861 0 0.2313313538768734 -0.018514784978234038 0 0.21528057420098159 -0.024212643874961401 0 0.22548915127375299 -0.027513718828695861 0 0.21995729679401421 -0.029331280632926501 0 0.21528057420098159 -0.024212643874961401 0 0.22829619310998309 -0.01520182636873813 0 0.21528057420098159 -0.024212643874961401 0 0.21911622703360889 -0.015650702578479541 0 0.22829619310998309 -0.01520182636873813 0 0.2313313538768734 -0.018514784978234038 0 0.22829619310998309 -0.01520182636873813 0 0.23342582712955959 -0.033308149953783547 0 0.22548915127375299 -0.027513718828695861 0 0.2313313538768734 -0.018514784978234038 0 0.25508119948702751 -0.010083838205662381 0 0.2313313538768734 -0.018514784978234038 0 0.2482857443068576 -0.021714794414400052 0 0.24731406762381819 -0.035960341631652723 0 0.2313313538768734 -0.018514784978234038 0 0.2482857443068576 -0.021714794414400052 0 0.24731406762381819 -0.035960341631652723 0 0.23342582712955959 -0.033308149953783547 0 0.2313313538768734 -0.018514784978234038 0 0.24731406762381819 -0.035960341631652723 0 0.2313313538768734 -0.018514784978234038 0 0.25508119948702751 -0.010083838205662381 0 0.2313313538768734 -0.018514784978234038 0 0.24138147174972829 -0.0061427828714447699 0 0.25508119948702751 -0.010083838205662381 0 0.2313313538768734 -0.018514784978234038 0 0.24138147174972829 -0.0061427828714447699 0 0.22829619310998309 -0.01520182636873813 0 0.25446675038947358 0.0029162606258486688 0 0.2541426920980116 -0.0036136263454906951 0 0.24138147174972829 -0.0061427828714447699 0 0.25446675038947358 0.0029162606258486688 0 0.24138147174972829 -0.0061427828714447699 0 0.22999165343287109 0.0038227322559807589 0 0.24138147174972829 -0.0061427828714447699 0 0.23189167676904729 -0.0064153040848911828 0 0.22999165343287109 0.0038227322559807589 0 0.23189167676904729 -0.0064153040848911828 0 0.2228246624943325 -0.0092295053444410857 0 0.22999165343287109 0.0038227322559807589 0 0.21351355446813719 -0.0021103410187178909 0 0.2228246624943325 -0.0092295053444410857 0 0.23189167676904729 -0.0064153040848911828 0 0.22829619310998309 -0.01520182636873813 0 0.2228246624943325 -0.0092295053444410857 0 0.2313313538768734 -0.018514784978234038 0 0.24138147174972829 -0.0061427828714447699 0 0.22829619310998309 -0.01520182636873813 0 0.24138147174972829 -0.0061427828714447699 0 0.23189167676904729 -0.0064153040848911828 0 0.22829619310998309 -0.01520182636873813 0 0.21911622703360889 -0.015650702578479541 0 0.22829619310998309 -0.01520182636873813 0 0.2228246624943325 -0.0092295053444410857 0 0.22829619310998309 -0.01520182636873813 0 0.2228246624943325 -0.0092295053444410857 0 0.2084634723971549 -0.097930235578601213 0 0.21737999015654699 -0.1103161024944793 0 0.2275791846540145 -0.10054182369239011 0 0.21737999015654699 -0.1103161024944793 0 0.19100769245097829 -0.1040519139747048 0 0.2084634723971549 -0.097930235578601213 0 0.21140608144591419 -0.084503356370523836 0 0.2275791846540145 -0.10054182369239011 0 0.2084634723971549 -0.097930235578601213 0 0.21737999015654699 -0.1103161024944793 0 0.19100769245097829 -0.1040519139747048 0 0.21737999015654699 -0.1103161024944793 0 0.21277072480774051 -0.1248863227998855 0 0.20025029595199689 -0.1218288277367077 0 0.21737999015654699 -0.1103161024944793 0 0.21277072480774051 -0.1248863227998855 0 0.2239597136694004 -0.1277946194696456 0 0.1862357176231304 -0.1238823921021804 0 0.20025029595199689 -0.1218288277367077 0 0.19100769245097829 -0.1040519139747048 0 0.21737999015654699 -0.1103161024944793 0 0.20025029595199689 -0.1218288277367077 0 0.19100769245097829 -0.1040519139747048 0 0.20025029595199689 -0.1218288277367077 0 0.19100769245097829 -0.1040519139747048 0 0.2084634723971549 -0.097930235578601213 0 0.19100769245097829 -0.1040519139747048 0 0.19624682445825681 -0.08914472739044943 0 0.18137547142311691 -0.085525622921553163 0 0.19100769245097829 -0.1040519139747048 0 0.19624682445825681 -0.08914472739044943 0 0.19624682445825681 -0.08914472739044943 0 0.1952329782378138 -0.068464889048657496 0 0.21140608144591419 -0.084503356370523836 0 0.18137547142311691 -0.085525622921553163 0 0.19624682445825681 -0.08914472739044943 0 0.1952329782378138 -0.068464889048657496 0 0.20138343235632811 -0.055727139445542639 0 0.1952329782378138 -0.068464889048657496 0 0.21149591893834541 -0.070957707586151192 0 0.18346211879182289 -0.064955309332027283 0 0.19188844298534441 -0.056659859735039647 0 0.1952329782378138 -0.068464889048657496 0 0.1952329782378138 -0.068464889048657496 0 0.21140608144591419 -0.084503356370523836 0 0.20138343235632811 -0.055727139445542639 0 0.21149591893834541 -0.070957707586151192 0 0.22670270369963491 -0.067064047377793826 0 0.1952329782378138 -0.068464889048657496 0 0.21149591893834541 -0.070957707586151192 0 0.21140608144591419 -0.084503356370523836 0 0.2084634723971549 -0.097930235578601213 0 0.19624682445825681 -0.08914472739044943 0 0.21140608144591419 -0.084503356370523836 0 0.21149591893834541 -0.070957707586151192 0 0.21140608144591419 -0.084503356370523836 0 0.2227543989520358 -0.079029105688238177 0 0.21140608144591419 -0.084503356370523836 0 0.2275791846540145 -0.10054182369239011 0 0.2227543989520358 -0.079029105688238177 0 0.23449163343577681 -0.083610487294907485 0 0.2275791846540145 -0.10054182369239011 0 0.21140608144591419 -0.084503356370523836 0 0.2227543989520358 -0.079029105688238177 0 0.2275791846540145 -0.10054182369239011 0 0.2227543989520358 -0.079029105688238177 0 0.22670270369963491 -0.067064047377793826 0 0.23449163343577681 -0.083610487294907485 0 0.21149591893834541 -0.070957707586151192 0 0.2227543989520358 -0.079029105688238177 0 0.22670270369963491 -0.067064047377793826 0 0.25202197504294188 -0.078400955310045109 0 0.25811154610651499 -0.066123023671663908 0 0.23694359709532001 -0.061394592404840097 0 0.25202197504294188 -0.078400955310045109 0 0.22670270369963491 -0.067064047377793826 0 0.25202197504294188 -0.078400955310045109 0 0.22670270369963491 -0.067064047377793826 0 0.23449163343577681 -0.083610487294907485 0 0.25202197504294188 -0.078400955310045109 0 0.23694359709532001 -0.061394592404840097 0 0.22670270369963491 -0.067064047377793826 0 0.25811154610651499 -0.066123023671663908 0 0.23694359709532001 -0.061394592404840097 0 0.25202197504294188 -0.078400955310045109 0 0.23449163343577681 -0.083610487294907485 0 0.24624903761231479 -0.086847438891893419 0 0.23449163343577681 -0.083610487294907485 0 0.24292322406264641 -0.096552741650977186 0 0.2275791846540145 -0.10054182369239011 0 0.23449163343577681 -0.083610487294907485 0 0.24624903761231479 -0.086847438891893419 0 0.24292322406264641 -0.096552741650977186 0 0.25304747237378489 -0.090741332181114118 0 0.24624903761231479 -0.086847438891893419 0 0.24292322406264641 -0.096552741650977186 0 0.2275791846540145 -0.10054182369239011 0 0.24375228786211539 -0.116580291014256 0 0.24292322406264641 -0.096552741650977186 0 0.2275791846540145 -0.10054182369239011 0 0.24375228786211539 -0.116580291014256 0 0.25771864553297669 -0.099620140202181948 0 0.24292322406264641 -0.096552741650977186 0 0.24375228786211539 -0.116580291014256 0 0.21737999015654699 -0.1103161024944793 0 0.2275791846540145 -0.10054182369239011 0 0.24375228786211539 -0.116580291014256 0 0.21737999015654699 -0.1103161024944793 0 0.24375228786211539 -0.116580291014256 0 0.2239597136694004 -0.1277946194696456 0 0.21737999015654699 -0.1103161024944793 0 0.24375228786211539 -0.116580291014256 0 0.24375228786211539 -0.116580291014256 0 0.235054631712311 -0.13955626642273861 0 0.24955680073527009 -0.143898101237383 0 0.235054631712311 -0.13955626642273861 0 0.24955680073527009 -0.143898101237383 0 0.23627457688356679 -0.15840319400941011 0 0.25449645062408999 -0.16331052089379791 0 0.24955680073527009 -0.143898101237383 0 0.23627457688356679 -0.15840319400941011 0 0.235054631712311 -0.13955626642273861 0 0.22199130801810529 -0.1478171468904442 0 0.23627457688356679 -0.15840319400941011 0 0.24375228786211539 -0.116580291014256 0 0.235054631712311 -0.13955626642273861 0 0.2239597136694004 -0.1277946194696456 0 0.235054631712311 -0.13955626642273861 0 0.22199130801810529 -0.1478171468904442 0 0.2239597136694004 -0.1277946194696456 0 0.20025029595199689 -0.1218288277367077 0 0.20949289945301761 -0.1396057414987095 0 0.22199130801810529 -0.1478171468904442 0 0.2239597136694004 -0.1277946194696456 0 0.20949289945301761 -0.1396057414987095 0 0.21277072480774051 -0.1248863227998855 0 0.20025029595199689 -0.1218288277367077 0 0.20949289945301761 -0.1396057414987095 0 0.21277072480774051 -0.1248863227998855 0 0.2239597136694004 -0.1277946194696456 0 0.20949289945301761 -0.1396057414987095 0 0.22199130801810529 -0.1478171468904442 0 0.20949289945301761 -0.1396057414987095 0 0.2069794531536403 -0.1537888919124783 0 0.20949289945301761 -0.1396057414987095 0 0.2069794531536403 -0.1537888919124783 0 0.1919305776748628 -0.1461990482496055 0 0.2069794531536403 -0.1537888919124783 0 0.1919305776748628 -0.1461990482496055 0 0.19225769977326759 -0.16432491474026781 0 0.1862357176231304 -0.1238823921021804 0 0.1919305776748628 -0.1461990482496055 0 0.19714487019074359 -0.1333469628700395 0 0.20025029595199689 -0.1218288277367077 0 0.20949289945301761 -0.1396057414987095 0 0.19714487019074359 -0.1333469628700395 0 0.20949289945301761 -0.1396057414987095 0 0.1919305776748628 -0.1461990482496055 0 0.19714487019074359 -0.1333469628700395 0 0.1862357176231304 -0.1238823921021804 0 0.1919305776748628 -0.1461990482496055 0 0.1862357176231304 -0.1238823921021804 0 0.20025029595199689 -0.1218288277367077 0 0.19714487019074359 -0.1333469628700395 0 0.19629081049063871 -0.1815365299480412 0 0.19225769977326759 -0.16432491474026781 0 0.17982600751226671 -0.1762593337595659 0 0.19629081049063871 -0.1815365299480412 0 0.19225769977326759 -0.16432491474026781 0 0.22018657323669569 -0.16775416802968299 0 0.2069794531536403 -0.1537888919124783 0 0.19225769977326759 -0.16432491474026781 0 0.22018657323669569 -0.16775416802968299 0 0.22199130801810529 -0.1478171468904442 0 0.2069794531536403 -0.1537888919124783 0 0.22018657323669569 -0.16775416802968299 0 0.19629081049063871 -0.1815365299480412 0 0.22018657323669569 -0.16775416802968299 0 0.21237941264848451 -0.18810475376770611 0 0.22018657323669569 -0.16775416802968299 0 0.23934418379307471 -0.18436482883247621 0 0.22018657323669569 -0.16775416802968299 0 0.23934418379307471 -0.18436482883247621 0 0.21237941264848451 -0.18810475376770611 0 0.22018657323669569 -0.16775416802968299 0 0.23627457688356679 -0.15840319400941011 0 0.23934418379307471 -0.18436482883247621 0 0.22199130801810529 -0.1478171468904442 0 0.22018657323669569 -0.16775416802968299 0 0.23627457688356679 -0.15840319400941011 0 0.25449645062408999 -0.16331052089379791 0 0.23627457688356679 -0.15840319400941011 0 0.23934418379307471 -0.18436482883247621 0 0.25850179434945381 -0.20097548963526929 0 0.23934418379307471 -0.18436482883247621 0 0.25850179434945381 -0.20097548963526929 0 0.23934418379307471 -0.18436482883247621 0 0.23907695871134879 -0.21289681242661959 0 0.23907695871134879 -0.21289681242661959 0 0.22308479462261119 -0.20217133576560289 0 0.21722062693650279 -0.2226466586169516 0 0.23934418379307471 -0.18436482883247621 0 0.22308479462261119 -0.20217133576560289 0 0.21237941264848451 -0.18810475376770611 0 0.23934418379307471 -0.18436482883247621 0 0.23907695871134879 -0.21289681242661959 0 0.22308479462261119 -0.20217133576560289 0 0.25037283077400019 -0.2416092145933311 0 0.23239962387573149 -0.2337287944253621 0 0.2339549802858914 -0.24933471903745599 0 0.25658827463044448 -0.2222138965281123 0 0.23907695871134879 -0.21289681242661959 0 0.2446094219978813 -0.2276121794933563 0 0.25037283077400019 -0.2416092145933311 0 0.2446094219978813 -0.2276121794933563 0 0.23239962387573149 -0.2337287944253621 0 0.23907695871134879 -0.21289681242661959 0 0.2446094219978813 -0.2276121794933563 0 0.23239962387573149 -0.2337287944253621 0 0.23907695871134879 -0.21289681242661959 0 0.23239962387573149 -0.2337287944253621 0 0.21722062693650279 -0.2226466586169516 0 0.23239962387573149 -0.2337287944253621 0 0.2194561222393229 -0.23682627783696539 0 0.21722062693650279 -0.2226466586169516 0 0.23239962387573149 -0.2337287944253621 0 0.22502312889380549 -0.2426362774769398 0 0.2339549802858914 -0.24933471903745599 0 0.2194561222393229 -0.23682627783696539 0 0.22502312889380549 -0.2426362774769398 0 0.21456577207223029 -0.24270171036535029 0 0.23239962387573149 -0.2337287944253621 0 0.2194561222393229 -0.23682627783696539 0 0.22502312889380549 -0.2426362774769398 0 0.22331750647786899 -0.25281133177650322 0 0.22502312889380549 -0.2426362774769398 0 0.21456577207223029 -0.24270171036535029 0 0.22331750647786899 -0.25281133177650322 0 0.22502312889380549 -0.2426362774769398 0 0.2339549802858914 -0.24933471903745599 0 0.2084475354763706 -0.25511513831035743 0 0.2080714594183444 -0.2424179483002232 0 0.21336353465090491 -0.24693864317134839 0 0.2080714594183444 -0.2424179483002232 0 0.21336353465090491 -0.24693864317134839 0 0.2080714594183444 -0.2424179483002232 0 0.21336353465090491 -0.24693864317134839 0 0.21456577207223029 -0.24270171036535029 0 0.2194561222393229 -0.23682627783696539 0 0.2080714594183444 -0.2424179483002232 0 0.21456577207223029 -0.24270171036535029 0 0.21722062693650279 -0.2226466586169516 0 0.20244123733496699 -0.2260211367091485 0 0.19848523837712481 -0.2136299623964425 0 0.2080714594183444 -0.2424179483002232 0 0.21722062693650279 -0.2226466586169516 0 0.2194561222393229 -0.23682627783696539 0 0.2080714594183444 -0.2424179483002232 0 0.21722062693650279 -0.2226466586169516 0 0.2080714594183444 -0.2424179483002232 0 0.21722062693650279 -0.2226466586169516 0 0.20244123733496699 -0.2260211367091485 0 0.2080714594183444 -0.2424179483002232 0 0.18716213711817259 -0.22455639835484539 0 0.2080714594183444 -0.2424179483002232 0 0.20244123733496699 -0.2260211367091485 0 0.18716213711817259 -0.22455639835484539 0 0.20244123733496699 -0.2260211367091485 0 0.19848523837712481 -0.2136299623964425 0 0.18716213711817259 -0.22455639835484539 0 0.2080714594183444 -0.2424179483002232 0 0.19254414318066221 -0.24961624770678509 0 0.1866817818972302 -0.23981118877977231 0 0.2080714594183444 -0.2424179483002232 0 0.1866817818972302 -0.23981118877977231 0 0.18716213711817259 -0.22455639835484539 0 0.19254414318066221 -0.24961624770678509 0 0.18399505531774341 -0.24981832115951039 0 0.1866817818972302 -0.23981118877977231 0 0.21237941264848451 -0.18810475376770611 0 0.20793523744788639 -0.20366419955677639 0 0.19447652973028121 -0.19759128756789451 0 0.22308479462261119 -0.20217133576560289 0 0.21237941264848451 -0.18810475376770611 0 0.20793523744788639 -0.20366419955677639 0 0.22308479462261119 -0.20217133576560289 0 0.21722062693650279 -0.2226466586169516 0 0.20793523744788639 -0.20366419955677639 0 0.21722062693650279 -0.2226466586169516 0 0.20793523744788639 -0.20366419955677639 0 0.19848523837712481 -0.2136299623964425 0 0.19848523837712481 -0.2136299623964425 0 0.19447652973028121 -0.19759128756789451 0 0.1831457957419608 -0.2071674304332729 0 0.20793523744788639 -0.20366419955677639 0 0.19848523837712481 -0.2136299623964425 0 0.19447652973028121 -0.19759128756789451 0 0.19848523837712481 -0.2136299623964425 0 0.1831457957419608 -0.2071674304332729 0 0.18716213711817259 -0.22455639835484539 0 0.19629081049063871 -0.1815365299480412 0 0.19447652973028121 -0.19759128756789451 0 0.1840061663436266 -0.1900566622106199 0 0.19629081049063871 -0.1815365299480412 0 0.21237941264848451 -0.18810475376770611 0 0.19447652973028121 -0.19759128756789451 0 0.19447652973028121 -0.19759128756789451 0 0.1840061663436266 -0.1900566622106199 0 0.1831457957419608 -0.2071674304332729 0 0.1840061663436266 -0.1900566622106199 0 0.1831457957419608 -0.2071674304332729 0 0.16486725365112659 -0.18785963188663279 0 0.1831457957419608 -0.2071674304332729 0 0.16486725365112659 -0.18785963188663279 0 0.1831457957419608 -0.2071674304332729 0 0.16625281481800089 -0.2066948484094672 0 0.18716213711817259 -0.22455639835484539 0 0.16625281481800089 -0.2066948484094672 0 0.18716213711817259 -0.22455639835484539 0 0.16625281481800089 -0.2066948484094672 0 0.18716213711817259 -0.22455639835484539 0 0.16937657335138201 -0.22198425569814831 0 0.16625281481800089 -0.2066948484094672 0 0.15661990237239229 -0.21733625041789439 0 0.14909823278687431 -0.20687378182447139 0 0.16625281481800089 -0.2066948484094672 0 0.15661990237239229 -0.21733625041789439 0 0.16937657335138201 -0.22198425569814831 0 0.1831457957419608 -0.2071674304332729 0 0.16625281481800089 -0.2066948484094672 0 0.16486725365112659 -0.18785963188663279 0 0.16625281481800089 -0.2066948484094672 0 0.16486725365112659 -0.18785963188663279 0 0.14534349251782941 -0.188833298464089 0 0.17619278994504239 -0.24587918172992959 0 0.18399505531774341 -0.24981832115951039 0 0.1866817818972302 -0.23981118877977231 0 0.17619278994504239 -0.24587918172992959 0 0.17450151464944069 -0.23276490516368609 0 0.16609645978724119 -0.24143951784646769 0 0.17619278994504239 -0.24587918172992959 0 0.1866817818972302 -0.23981118877977231 0 0.17450151464944069 -0.23276490516368609 0 0.17450151464944069 -0.23276490516368609 0 0.18716213711817259 -0.22455639835484539 0 0.16937657335138201 -0.22198425569814831 0 0.1866817818972302 -0.23981118877977231 0 0.17450151464944069 -0.23276490516368609 0 0.18716213711817259 -0.22455639835484539 0 0.15661990237239229 -0.21733625041789439 0 0.1623464977989032 -0.22856887614484861 0 0.15090654410468329 -0.22688320449844629 0 0.15661990237239229 -0.21733625041789439 0 0.16937657335138201 -0.22198425569814831 0 0.1623464977989032 -0.22856887614484861 0 0.17450151464944069 -0.23276490516368609 0 0.1623464977989032 -0.22856887614484861 0 0.16609645978724119 -0.24143951784646769 0 0.17450151464944069 -0.23276490516368609 0 0.16937657335138201 -0.22198425569814831 0 0.1623464977989032 -0.22856887614484861 0 0.1623464977989032 -0.22856887614484861 0 0.16609645978724119 -0.24143951784646769 0 0.1528270009437688 -0.23836283418195289 0 0.16001236861667459 -0.2513654190734112 0 0.16609645978724119 -0.24143951784646769 0 0.1528270009437688 -0.23836283418195289 0 0.16978669848249819 -0.25098739912941831 0 0.17619278994504239 -0.24587918172992959 0 0.16609645978724119 -0.24143951784646769 0 0.16001236861667459 -0.2513654190734112 0 0.16978669848249819 -0.25098739912941831 0 0.16609645978724119 -0.24143951784646769 0 0.1429630926125974 -0.2502577086919005 0 0.16001236861667459 -0.2513654190734112 0 0.1528270009437688 -0.23836283418195289 0 0.1429630926125974 -0.2502577086919005 0 0.1528270009437688 -0.23836283418195289 0 0.13988621804673579 -0.23152362256679451 0 0.1528270009437688 -0.23836283418195289 0 0.15090654410468329 -0.22688320449844629 0 0.13988621804673579 -0.23152362256679451 0 0.1623464977989032 -0.22856887614484861 0 0.1528270009437688 -0.23836283418195289 0 0.15090654410468329 -0.22688320449844629 0 0.15661990237239229 -0.21733625041789439 0 0.15090654410468329 -0.22688320449844629 0 0.1428531013616163 -0.21862443918074129 0 0.15090654410468329 -0.22688320449844629 0 0.13988621804673579 -0.23152362256679451 0 0.1428531013616163 -0.21862443918074129 0 0.12018370186474731 -0.23305432747703519 0 0.12895394136930069 -0.22163642029703709 0 0.13988621804673579 -0.23152362256679451 0 0.12895394136930069 -0.22163642029703709 0 0.13988621804673579 -0.23152362256679451 0 0.1428531013616163 -0.21862443918074129 0 0.1429630926125974 -0.2502577086919005 0 0.12018370186474731 -0.23305432747703519 0 0.1429630926125974 -0.2502577086919005 0 0.12018370186474731 -0.23305432747703519 0 0.13988621804673579 -0.23152362256679451 0 0.13217397618885759 -0.25462043987800831 0 0.1429630926125974 -0.2502577086919005 0 0.12018370186474731 -0.23305432747703519 0 0.16625281481800089 -0.2066948484094672 0 0.14534349251782941 -0.188833298464089 0 0.16625281481800089 -0.2066948484094672 0 0.14534349251782941 -0.188833298464089 0 0.14909823278687431 -0.20687378182447139 0 0.14534349251782941 -0.188833298464089 0 0.14909823278687431 -0.20687378182447139 0 0.1346280568372662 -0.20359450925845249 0 0.15661990237239229 -0.21733625041789439 0 0.14909823278687431 -0.20687378182447139 0 0.1428531013616163 -0.21862443918074129 0 0.14909823278687431 -0.20687378182447139 0 0.1428531013616163 -0.21862443918074129 0 0.1346280568372662 -0.20359450925845249 0 0.1178461100078927 -0.20838697738218431 0 0.12895394136930069 -0.22163642029703709 0 0.1346280568372662 -0.20359450925845249 0 0.12895394136930069 -0.22163642029703709 0 0.1428531013616163 -0.21862443918074129 0 0.1346280568372662 -0.20359450925845249 0 0.14534349251782941 -0.188833298464089 0 0.1346280568372662 -0.20359450925845249 0 0.13128332926409281 -0.18787359724935929 0 0.1237689835273371 -0.19605207676116951 0 0.1178461100078927 -0.20838697738218431 0 0.1346280568372662 -0.20359450925845249 0 0.1237689835273371 -0.19605207676116951 0 0.1346280568372662 -0.20359450925845249 0 0.13128332926409281 -0.18787359724935929 0 0.1237689835273371 -0.19605207676116951 0 0.1232013989280239 -0.1819146573535104 0 0.13128332926409281 -0.18787359724935929 0 0.12443417021765769 -0.1709717485187108 0 0.14534349251782941 -0.188833298464089 0 0.12443417021765769 -0.1709717485187108 0 0.1232013989280239 -0.1819146573535104 0 0.13128332926409281 -0.18787359724935929 0 0.12443417021765769 -0.1709717485187108 0 0.14534349251782941 -0.188833298464089 0 0.13128332926409281 -0.18787359724935929 0 0.12443417021765769 -0.1709717485187108 0 0.14534349251782941 -0.188833298464089 0 0.13540865390058859 -0.1688207667960602 0 0.14534349251782941 -0.188833298464089 0 0.14658871156029241 -0.16855183333999291 0 0.13540865390058859 -0.1688207667960602 0 0.16486725365112659 -0.18785963188663279 0 0.14658871156029241 -0.16855183333999291 0 0.16486725365112659 -0.18785963188663279 0 0.14534349251782941 -0.188833298464089 0 0.14658871156029241 -0.16855183333999291 0 0.14658871156029241 -0.16855183333999291 0 0.13391177650968769 -0.15242347890466901 0 0.14971917460686079 -0.1530450482394467 0 0.14658871156029241 -0.16855183333999291 0 0.14971917460686079 -0.1530450482394467 0 0.16192904395431579 -0.15800089119817939 0 0.14658871156029241 -0.16855183333999291 0 0.13391177650968769 -0.15242347890466901 0 0.12831016946945831 -0.1492440347933528 0 0.14658871156029241 -0.16855183333999291 0 0.12831016946945831 -0.1492440347933528 0 0.14658871156029241 -0.16855183333999291 0 0.13540865390058859 -0.1688207667960602 0 0.1290045142054978 -0.1612372837293575 0 0.14658871156029241 -0.16855183333999291 0 0.1290045142054978 -0.1612372837293575 0 0.12831016946945831 -0.1492440347933528 0 0.13540865390058859 -0.1688207667960602 0 0.12715697753007521 -0.16591248018761531 0 0.1290045142054978 -0.1612372837293575 0 0.12443417021765769 -0.1709717485187108 0 0.13540865390058859 -0.1688207667960602 0 0.12715697753007521 -0.16591248018761531 0 0.12098675462827781 -0.16200852072179159 0 0.12715697753007521 -0.16591248018761531 0 0.1290045142054978 -0.1612372837293575 0 0.12324902196630889 -0.15465793599018671 0 0.1227471198665283 -0.15880086614903269 0 0.1290045142054978 -0.1612372837293575 0 0.13391177650968769 -0.15242347890466901 0 0.12831016946945831 -0.1492440347933528 0 0.12532898621889721 -0.13663811256420449 0 0.12324902196630889 -0.15465793599018671 0 0.1290045142054978 -0.1612372837293575 0 0.12831016946945831 -0.1492440347933528 0 0.1217036921304827 -0.1482443959076799 0 0.12831016946945831 -0.1492440347933528 0 0.12532898621889721 -0.13663811256420449 0 0.13391177650968769 -0.15242347890466901 0 0.13188977167139071 -0.12546883223523481 0 0.13391177650968769 -0.15242347890466901 0 0.13188977167139071 -0.12546883223523481 0 0.1446303542042412 -0.1380662602394005 0 0.13391177650968769 -0.15242347890466901 0 0.13188977167139071 -0.12546883223523481 0 0.12532898621889721 -0.13663811256420449 0 0.11997683785091839 -0.1276371159963853 0 0.13188977167139071 -0.12546883223523481 0 0.12532898621889721 -0.13663811256420449 0 0.1446303542042412 -0.1380662602394005 0 0.15557261582888751 -0.13003178131142151 0 0.1621281360659286 -0.14191921566573409 0 0.14724036225017881 -0.1245170930860646 0 0.13188977167139071 -0.12546883223523481 0 0.1446303542042412 -0.1380662602394005 0 0.14724036225017881 -0.1245170930860646 0 0.1446303542042412 -0.1380662602394005 0 0.15557261582888751 -0.13003178131142151 0 0.13391177650968769 -0.15242347890466901 0 0.1446303542042412 -0.1380662602394005 0 0.14971917460686079 -0.1530450482394467 0 0.1446303542042412 -0.1380662602394005 0 0.14971917460686079 -0.1530450482394467 0 0.1621281360659286 -0.14191921566573409 0 0.1621281360659286 -0.14191921566573409 0 0.17324983187337631 -0.13165498831909611 0 0.17651024624945799 -0.1485415537171802 0 0.14971917460686079 -0.1530450482394467 0 0.1621281360659286 -0.14191921566573409 0 0.16192904395431579 -0.15800089119817939 0 0.1621281360659286 -0.14191921566573409 0 0.17651024624945799 -0.1485415537171802 0 0.16192904395431579 -0.15800089119817939 0 0.16471491079178111 -0.1205264202314431 0 0.15557261582888751 -0.13003178131142151 0 0.1639163736399934 -0.1310331013819237 0 0.15557261582888751 -0.13003178131142151 0 0.1621281360659286 -0.14191921566573409 0 0.1639163736399934 -0.1310331013819237 0 0.1621281360659286 -0.14191921566573409 0 0.1639163736399934 -0.1310331013819237 0 0.17324983187337631 -0.13165498831909611 0 0.16471491079178111 -0.1205264202314431 0 0.1639163736399934 -0.1310331013819237 0 0.17324983187337631 -0.13165498831909611 0 0.1862357176231304 -0.1238823921021804 0 0.1919305776748628 -0.1461990482496055 0 0.17324983187337631 -0.13165498831909611 0 0.1919305776748628 -0.1461990482496055 0 0.17324983187337631 -0.13165498831909611 0 0.17651024624945799 -0.1485415537171802 0 0.1919305776748628 -0.1461990482496055 0 0.19225769977326759 -0.16432491474026781 0 0.17651024624945799 -0.1485415537171802 0 0.19225769977326759 -0.16432491474026781 0 0.17526083145963689 -0.16308053239281189 0 0.17982600751226671 -0.1762593337595659 0 0.19225769977326759 -0.16432491474026781 0 0.17651024624945799 -0.1485415537171802 0 0.17526083145963689 -0.16308053239281189 0 0.17526083145963689 -0.16308053239281189 0 0.17982600751226671 -0.1762593337595659 0 0.16627328335530381 -0.17069773137902189 0 0.1840061663436266 -0.1900566622106199 0 0.16486725365112659 -0.18785963188663279 0 0.17982600751226671 -0.1762593337595659 0 0.19629081049063871 -0.1815365299480412 0 0.1840061663436266 -0.1900566622106199 0 0.17982600751226671 -0.1762593337595659 0 0.16486725365112659 -0.18785963188663279 0 0.14658871156029241 -0.16855183333999291 0 0.16627328335530381 -0.17069773137902189 0 0.16486725365112659 -0.18785963188663279 0 0.17982600751226671 -0.1762593337595659 0 0.16627328335530381 -0.17069773137902189 0 0.14658871156029241 -0.16855183333999291 0 0.16192904395431579 -0.15800089119817939 0 0.16627328335530381 -0.17069773137902189 0 0.17526083145963689 -0.16308053239281189 0 0.16192904395431579 -0.15800089119817939 0 0.16627328335530381 -0.17069773137902189 0 0.17651024624945799 -0.1485415537171802 0 0.17526083145963689 -0.16308053239281189 0 0.16192904395431579 -0.15800089119817939 0 
</DataArray>
</Points>
<Cells>
<DataArray type="UInt32" Name="connectivity" format="ascii">
0 1 2 3 4 5 6 7 8 9 10 11 12 13 14 15 16 17 18 19 20 21 22 23 24 25 26 27 28 29 30 31 32 33 34 35 36 37 38 39 40 41 42 43 44 45 46 47 48 49 50 51 52 53 54 55 56 57 58 59 60 61 62 63 64 65 66 67 68 69 70 71 72 73 74 75 76 77 78 79 80 81 82 83 84 85 86 87 88 89 90 91 92 93 94 95 96 97 98 99 100 101 102 103 104 105 106 107 108 109 110 111 112 113 114 115 116 117 118 119 120 121 122 123 124 125 126 127 128 129 130 131 132 133 134 135 136 137 138 139 140 141 142 143 144 145 146 147 148 149 150 151 152 153 154 155 156 157 158 159 160 161 162 163 164 165 166 167 168 169 170 171 172 173 174 175 176 177 178 179 180 181 182 183 184 185 186 187 188 189 190 191 192 193 194 195 196 197 198 199 200 201 202 203 204 205 206 207 208 209 210 211 212 213 214 215 216 217 218 219 220 221 222 223 224 225 226 227 228 229 230 231 232 233 234 235 236 237 238 239 240 241 242 243 244 245 246 247 248 249 250 251 252 253 254 255 256 257 258 259 260 261 262 263 264 265 266 267 268 269 270 271 272 273 274 275 276 277 278 279 280 281 282 283 284 285 286 287 288 289 290 291 292 293 294 295 296 297 298 299 300 301 302 303 304 305 306 307 308 309 310 311 312 313 314 315 316 317 318 319 320 321 322 323 324 325 326 327 328 329 330 331 332 333 334 335 336 337 338 339 340 341 342 343 344 345 346 347 348 349 350 351 352 353 354 355 356 357 358 359 360 361 362 363 364 365 366 367 368 369 370 371 372 373 374 375 376 377 378 379 380 381 382 383 384 385 386 387 388 389 390 391 392 393 394 395 396 397 398 399 400 401 402 403 404 405 406 407 408 409 410 411 412 413 414 415 416 417 418 419 420 421 422 423 424 425 426 427 428 429 430 431 432 433 434 435 436 437 438 439 440 441 442 443 444 445 446 447 448 449 450 451 452 453 454 455 456 457 458 459 460 461 462 463 464 465 466 467 468 469 470 471 472 473 474 475 476 477 478 479 480 481 482 483 484 485 486 487 488 489 490 491 492 493 494 495 496 497 498 499 500 501 502 503 504 505 506 507 508 509 510 511 512 513 514 515 516 517 518 519 520 521 522 523 524 525 526 527 528 529 530 531 532 533 534 535 536 537 538 539 540 541 542 543 544 545 546 547 548 549 550 551 552 553 554 555 556 557 558 559 560 561 562 563 564 565 566 567 568 569 570 571 572 573 574 575 576 577 578 579 580 581 582 583 584 585 586 587 588 589 590 591 592 593 594 595 596 597 598 599 600 601 602 603 604 605 606 607 608 609 610 611 612 613 614 615 616 617 618 619 620 621 622 623 624 625 626 627 628 629 630 631 632 633 634 635 636 637 638 639 640 641 642 643 644 645 646 647 648 649 650 651 652 653 654 655 656 657 658 659 660 661 662 663 664 665 666 667 668 669 670 671 672 673 674 675 676 677 678 679 680 681 682 683 684 685 686 687 688 689 690 691 692 693 694 695 696 697 698 699 700 701 702 703 704 705 706 707 708 709 710 711 712 713 714 715 716 717 718 719 720 721 722 723 724 725 726 727 728 729 730 731 732 733 734 735 736 737 738 739 740 741 742 743 744 745 746 747 748 749 750 751 752 753 754 755 756 757 758 759 760 761 762 763 764 765 766 767 768 769 770 771 772 773 774 775 776 777 778 779 780 781 782 783 784 785 786 787 788 789 790 791 792 793 794 795 796 797 798 799 800 801 802 803 804 805 806 807 808 809 810 811 812 813 814 815 816 817 818 819 820 821 822 823 824 825 826 827 828 829 830 831 832 833 834 835 836 837 838 839 840 841 842 843 844 845 846 847 848 849 850 851 852 853 854 855 856 857 858 859 860 861 862 863 864 865 866 867 868 869 870 871 872 873 874 875 876 877 878 879 880 881 882 883 884 885 886 887 888 889 890 891 892 893 894 895 896 897 898 899 900 901 902 903 904 905 906 907 908 909 910 911 912 913 914 915 916 917 918 919 920 921 922 923 924 925 926 927 928 929 930 931 932 933 934 935 936 937 938 939 940 941 942 943 944 945 946 947 948 949 950 951 952 953 954 955 956 957 958 959 960 961 962 963 964 965 966 967 968 969 970 971 972 973 974 975 976 977 978 979 980 981 982 983 984 985 986 987 988 989 990 991 992 993 994 995 996 997 998 999 1000 1001 1002 1003 1004 1005 1006 1007 1008 1009 1010 1011 1012 1013 1014 1015 1016 1017 1018 1019 1020 1021 1022 1023 1024 1025 1026 1027 1028 1029 1030 1031 1032 1033 1034 1035 1036 1037 1038 1039 1040 1041 1042 1043 1044 1045 1046 1047 1048 1049 1050 1051 1052 1053 1054 1055 1056 1057 1058 1059 1060 1061 1062 1063 1064 1065 1066 1067 1068 1069 1070 1071 1072 1073 1074 1075 1076 1077 1078 1079 1080 1081 1082 1083 1084 1085 1086 1087 1088 1089 1090 1091 1092 1093 1094 1095 1096 1097 1098 1099 1100 1101 1102 1103 1104 1105 1106 1107 1108 1109 1110 1111 1112 1113 1114 1115 1116 1117 1118 1119 1120 1121 1122 1123 1124 1125 1126 1127 1128 1129 1130 1131 1132 1133 1134 1135 1136 1137 1138 1139 1140 1141 1142 1143 1144 1145 1146 1147 1148 1149 1150 1151 1152 1153 1154 1155 1156 1157 1158 1159 1160 1161 1162 1163 1164 1165 1166 1167 1168 1169 1170 1171 1172 1173 1174 1175 1176 1177 1178 1179 1180 1181 1182 1183 1184 1185 1186 1187 1188 1189 1190 1191 1192 1193 1194 1195 1196 1197 1198 1199 1200 1201 1202 1203 1204 1205 1206 1207 1208 1209 1210 1211 1212 1213 1214 1215 1216 1217 1218 1219 1220 1221 1222 1223 1224 1225 1226 1227 1228 1229 1230 1231 1232 1233 1234 1235 1236 1237 1238 1239 1240 1241 1242 1243 1244 1245 1246 1247 1248 1249 1250 1251 1252 1253 1254 1255 1256 1257 1258 1259 1260 1261 1262 1263 1264 1265 1266 1267 1268 1269 1270 1271 1272 1273 1274 1275 1276 1277 1278 1279 1280 1281 1282 1283 1284 1285 1286 1287 1288 1289 1290 1291 1292 1293 1294 1295 1296 1297 1298 1299 1300 1301 1302 1303 1304 1305 1306 1307 1308 1309 1310 1311 1312 1313 1314 1315 1316 1317 1318 1319 1320 1321 1322 1323 1324 1325 1326 1327 1328 1329 1330 1331 1332 1333 1334 1335 1336 1337 1338 1339 1340 1341 1342 1343 1344 1345 1346 1347 1348 1349 1350 1351 1352 1353 1354 1355 1356 1357 1358 1359 1360 1361 1362 1363 1364 1365 1366 1367 1368 1369 1370 1371 1372 1373 1374 1375 1376 1377 1378 1379 1380 1381 1382 1383 1384 1385 1386 1387 1388 1389 1390 1391 1392 1393 1394 1395 1396 1397 1398 1399 1400 1401 1402 1403 1404 1405 1406 1407 1408 1409 1410 1411 1412 1413 1414 1415 1416 1417 1418 1419 1420 1421 1422 1423 1424 1425 1426 1427 1428 1429 1430 1431 1432 1433 1434 1435 1436 1437 1438 1439 1440 1441 1442 1443 1444 1445 1446 1447 1448 1449 1450 1451 1452 1453 1454 1455 1456 1457 1458 1459 1460 1461 1462 1463 1464 1465 1466 1467 1468 1469 1470 1471 1472 1473 1474 1475 1476 1477 1478 1479 1480 1481 1482 1483 1484 1485 1486 1487 1488 1489 1490 1491 1492 1493 1494 1495 1496 1497 1498 1499 1500 1501 1502 1503 1504 1505 1506 1507 1508 1509 1510 1511 1512 1513 1514 1515 1516 1517 1518 1519 1520 1521 1522 1523 1524 1525 1526 1527 1528 1529 1530 1531 1532 1533 1534 1535 1536 1537 1538 1539 1540 1541 1542 1543 1544 1545 1546 1547 1548 1549 1550 1551 1552 1553 1554 1555 1556 1557 1558 1559 1560 1561 1562 1563 1564 1565 1566 1567 1568 1569 1570 1571 1572 1573 1574 1575 1576 1577 1578 1579 1580 1581 1582 1583 1584 1585 1586 1587 1588 1589 1590 1591 1592 1593 1594 1595 1596 1597 1598 1599 1600 1601 1602 1603 1604 1605 1606 1607 1608 1609 1610 1611 1612 1613 1614 1615 1616 1617 1618 1619 1620 1621 1622 1623 1624 1625 1626 1627 1628 1629 1630 1631 1632 1633 1634 1635 1636 1637 1638 1639 1640 1641 1642 1643 1644 1645 1646 1647 1648 1649 1650 1651 1652 1653 1654 1655 1656 1657 1658 1659 1660 1661 1662 1663 1664 1665 1666 1667 1668 1669 1670 1671 1672 1673 1674 1675 1676 1677 1678 1679 1680 1681 1682 1683 1684 1685 1686 1687 1688 1689 1690 1691 1692 1693 1694 1695 1696 1697 1698 1699 1700 1701 1702 1703 1704 1705 1706 1707 1708 1709 1710 1711 1712 1713 1714 1715 1716 1717 1718 1719 1720 1721 1722 1723 1724 1725 1726 1727 1728 1729 1730 1731 1732 1733 1734 1735 1736 1737 1738 1739 1740 1741 1742 1743 1744 1745 1746 1747 1748 1749 1750 1751 1752 1753 1754 1755 1756 1757 1758 1759 1760 1761 1762 1763 1764 1765 1766 1767 1768 1769 1770 1771 1772 1773 1774 1775 1776 1777 1778 1779 1780 1781 1782 1783 1784 1785 1786 1787 1788 1789 1790 1791 1792 1793 1794 1795 1796 1797 1798 1799 1800 1801 1802 1803 1804 1805 1806 1807 1808 1809 1810 1811 1812 1813 1814 1815 1816 1817 1818 1819 1820 1821 1822 1823 1824 1825 1826 1827 1828 1829 1830 1831 1832 1833 1834 1835 1836 1837 1838 1839 1840 1841 1842 1843 1844 1845 1846 1847 1848 1849 1850 1851 1852 1853 1854 1855 1856 1857 1858 1859 1860 1861 1862 1863 1864 1865 1866 1867 1868 1869 1870 1871 1872 1873 1874 1875 1876 1877 1878 1879 1880 1881 1882 1883 1884 1885 1886 1887 1888 1889 1890 1891 1892 1893 1894 1895 1896 1897 1898 1899 1900 1901 1902 1903 1904 1905 1906 1907 1908 1909 1910 1911 1912 1913 1914 1915 1916 1917 1918 1919 1920 1921 1922 1923 1924 1925 1926 1927 1928 1929 1930 1931 1932 1933 1934 1935 1936 1937 1938 1939 1940 1941 1942 1943 1944 1945 1946 1947 1948 1949 1950 1951 1952 1953 1954 1955 1956 1957 1958 1959 1960 1961 1962 1963 1964 1965 1966 1967 1968 1969 1970 1971 1972 1973 1974 1975 1976 1977 1978 1979 1980 1981 1982 1983 1984 1985 1986 1987 1988 1989 1990 1991 1992 1993 1994 1995 1996 1997 1998 1999 2000 2001 2002 2003 2004 2005 2006 2007 2008 2009 2010 2011 2012 2013 2014 2015 2016 2017 2018 2019 2020 2021 2022 2023 2024 2025 2026 2027 2028 2029 2030 2031 2032 2033 2034 2035 2036 2037 2038 2039 2040 2041 2042 2043 2044 2045 2046 2047 2048 2049 2050 2051 2052 2053 2054 2055 2056 2057 2058 2059 2060 2061 2062 2063 2064 2065 2066 2067 2068 2069 2070 2071 2072 2073 2074 2075 2076 2077 2078 2079 2080 2081 2082 2083 2084 2085 2086 2087 2088 2089 2090 2091 2092 2093 2094 2095 2096 2097 2098 2099 2100 2101 2102 2103 2104 2105 2106 2107 2108 2109 2110 2111 2112 2113 2114 2115 2116 2117 2118 2119 2120 2121 2122 2123 2124 2125 2126 2127 2128 2129 2130 2131 2132 2133 2134 2135 2136 2137 2138 2139 2140 2141 2142 2143 2144 2145 2146 2147 2148 2149 2150 2151 2152 2153 2154 2155 2156 2157 2158 2159 2160 2161 2162 2163 2164 2165 2166 2167 2168 2169 2170 2171 2172 2173 2174 2175 2176 2177 2178 2179 2180 2181 2182 2183 2184 2185 2186 2187 2188 2189 2190 2191 2192 2193 2194 2195 2196 2197 2198 2199 2200 2201 2202 2203 2204 2205 2206 2207 2208 2209 2210 2211 2212 2213 2214 2215 2216 2217 2218 2219 2220 2221 2222 2223 2224 2225 2226 2227 2228 2229 2230 2231 2232 2233 2234 2235 2236 2237 2238 2239 2240 2241 2242 2243 2244 2245 2246 2247 2248 2249 2250 2251 2252 2253 2254 2255 2256 2257 2258 2259 2260 2261 2262 2263 2264 2265 2266 2267 2268 2269 2270 2271 2272 2273 2274 2275 2276 2277 2278 2279 2280 2281 2282 2283 2284 2285 2286 2287 2288 2289 2290 2291 2292 2293 2294 2295 2296 2297 2298 2299 2300 2301 2302 2303 2304 2305 2306 2307 2308 2309 2310 2311 2312 2313 2314 2315 2316 2317 2318 2319 2320 2321 2322 2323 2324 2325 2326 2327 2328 2329 2330 2331 2332 2333 2334 2335 2336 2337 2338 2339 2340 2341 2342 2343 2344 2345 2346 2347 2348 2349 2350 2351 2352 2353 2354 2355 2356 2357 2358 2359 2360 2361 2362 2363 2364 2365 2366 2367 2368 2369 2370 2371 2372 2373 2374 2375 2376 2377 2378 2379 2380 2381 2382 2383 2384 2385 2386 2387 2388 2389 2390 2391 2392 2393 2394 2395 2396 2397 2398 2399 2400 2401 2402 2403 2404 2405 2406 2407 2408 2409 2410 2411 2412 2413 2414 2415 2416 2417 2418 2419 2420 2421 2422 2423 2424 2425 2426 2427 2428 2429 2430 2431 2432 2433 2434 2435 2436 2437 2438 2439 2440 2441 2442 2443 2444 2445 2446 2447 2448 2449 2450 2451 2452 2453 2454 2455 2456 2457 2458 2459 2460 2461 2462 2463 2464 2465 2466 2467 2468 2469 2470 2471 2472 2473 2474 2475 2476 2477 2478 2479 2480 2481 2482 2483 2484 2485 2486 2487 2488 2489 2490 2491 2492 2493 2494 2495 2496 2497 2498 2499 2500 2501 2502 2503 2504 2505 2506 2507 2508 2509 2510 2511 2512 2513 2514 2515 2516 2517 2518 2519 2520 2521 2522 2523 2524 2525 2526 2527 2528 2529 2530 2531 2532 2533 2534 2535 2536 2537 2538 2539 2540 2541 2542 2543 2544 2545 2546 2547 2548 2549 2550 2551 2552 2553 2554 2555 2556 2557 2558 2559 2560 2561 2562 2563 2564 2565 2566 2567 2568 2569 2570 2571 2572 2573 2574 2575 2576 2577 2578 2579 2580 2581 2582 2583 2584 2585 2586 2587 2588 2589 2590 2591 2592 2593 2594 2595 2596 2597 2598 2599 2600 2601 2602 2603 2604 2605 2606 2607 2608 2609 2610 2611 2612 2613 2614 2615 2616 2617 2618 2619 2620 2621 2622 2623 2624 2625 2626 2627 2628 2629 2630 2631 2632 2633 2634 2635 2636 2637 2638 2639 2640 2641 2642 2643 2644 2645 2646 2647 2648 2649 2650 2651 2652 2653 2654 2655 2656 2657 2658 2659 2660 2661 2662 2663 2664 2665 2666 2667 2668 2669 2670 2671 2672 2673 2674 2675 2676 2677 2678 2679 2680 2681 2682 2683 2684 2685 2686 2687 2688 2689 2690 2691 2692 2693 2694 2695 2696 2697 2698 2699 2700 2701 2702 2703 2704 2705 2706 2707 2708 2709 2710 2711 2712 2713 2714 2715 2716 2717 2718 2719 2720 2721 2722 2723 2724 2725 2726 2727 2728 2729 2730 2731 2732 2733 2734 2735 2736 2737 2738 2739 2740 2741 2742 2743 2744 2745 2746 2747 2748 2749 2750 2751 2752 2753 2754 2755 2756 2757 2758 2759 2760 2761 2762 2763 2764 2765 2766 2767 2768 2769 2770 2771 2772 2773 2774 2775 2776 2777 2778 2779 2780 2781 2782 2783 2784 2785 2786 2787 2788 2789 2790 2791 2792 2793 2794 2795 2796 2797 2798 2799 2800 2801 2802 2803 2804 2805 2806 2807 2808 2809 2810 2811 2812 2813 2814 2815 2816 2817 2818 2819 2820 2821 2822 2823 2824 2825 2826 2827 2828 2829 2830 2831 2832 2833 2834 2835 2836 2837 2838 2839 2840 2841 2842 2843 2844 2845 2846 2847 2848 2849 2850 2851 2852 2853 2854 2855 2856 2857 2858 2859 2860 2861 2862 2863 2864 2865 2866 2867 2868 2869 2870 2871 2872 2873 2874 2875 2876 2877 2878 2879 2880 2881 2882 2883 2884 2885 2886 2887 2888 2889 2890 2891 2892 2893 2894 2895 2896 2897 2898 2899 2900 2901 2902 2903 2904 2905 2906 2907 2908 2909 2910 2911 2912 2913 2914 2915 2916 2917 2918 2919 2920 2921 2922 2923 2924 2925 2926 2927 2928 2929 2930 2931 2932 2933 2934 2935 2936 2937 2938 2939 2940 2941 2942 2943 2944 2945 2946 2947 2948 2949 2950 2951 2952 2953 2954 2955 2956 2957 2958 2959 2960 2961 2962 2963 2964 2965 2966 2967 2968 2969 2970 2971 2972 2973 2974 2975 2976 2977 2978 2979 2980 2981 2982 2983 2984 2985 2986 2987 2988 2989 2990 2991 2992 2993 2994 2995 2996 2997 2998 2999 3000 3001 3002 3003 3004 3005 3006 3007 3008 3009 3010 3011 3012 3013 3014 3015 3016 3017 3018 3019 3020 3021 3022 3023 3024 3025 3026 3027 3028 3029 3030 3031 3032 3033 3034 3035 3036 3037 3038 3039 3040 3041 3042 3043 3044 3045 3046 3047 3048 3049 3050 3051 3052 3053 3054 3055 3056 3057 3058 3059 3060 3061 3062 3063 3064 3065 3066 3067 3068 3069 3070 3071 3072 3073 3074 3075 3076 3077 3078 3079 3080 3081 3082 3083 3084 3085 3086 3087 3088 3089 3090 3091 3092 3093 3094 3095 3096 3097 3098 3099 3100 3101 3102 3103 3104 3105 3106 3107 3108 3109 3110 3111 3112 3113 3114 3115 3116 3117 3118 3119 3120 3121 3122 3123 3124 3125 3126 3127 3128 3129 3130 3131 3132 3133 3134 3135 3136 3137 3138 3139 3140 3141 3142 3143 3144 3145 3146 3147 3148 3149 3150 3151 3152 3153 3154 3155 3156 3157 3158 3159 3160 3161 3162 3163 3164 3165 3166 3167 3168 3169 3170 3171 3172 3173 3174 3175 3176 3177 3178 3179 3180 3181 3182 3183 3184 3185 3186 3187 3188 3189 3190 3191 3192 3193 3194 3195 3196 3197 3198 3199 3200 3201 3202 3203 3204 3205 3206 3207 3208 3209 3210 3211 3212 3213 3214 3215 3216 3217 3218 3219 3220 3221 3222 3223 3224 3225 3226 3227 3228 3229 3230 3231 3232 3233 3234 3235 3236 3237 3238 3239 3240 3241 3242 3243 3244 3245 3246 3247 3248 3249 3250 3251 3252 3253 3254 3255 3256 3257 3258 3259 3260 3261 3262 3263 3264 3265 3266 3267 3268 3269 3270 3271 3272 3273 3274 3275 3276 3277 3278 3279 3280 3281 3282 3283 3284 3285 3286 3287 3288 3289 3290 3291 3292 3293 3294 3295 3296 3297 3298 3299 3300 3301 3302 3303 3304 3305 3306 3307 3308 3309 3310 3311 3312 3313 3314 3315 3316 3317 3318 3319 3320 3321 3322 3323 3324 3325 3326 3327 3328 3329 3330 3331 3332 3333 3334 3335 3336 3337 3338 3339 3340 3341 3342 3343 3344 3345 3346 3347 3348 3349 3350 3351 3352 3353 3354 3355 3356 3357 3358 3359 3360 3361 3362 3363 3364 3365 3366 3367 3368 3369 3370 3371 3372 3373 3374 3375 3376 3377 3378 3379 3380 3381 3382 3383 3384 3385 3386 3387 3388 3389 3390 3391 3392 3393 3394 3395 3396 3397 3398 3399 3400 3401 3402 3403 3404 3405 3406 3407 3408 3409 3410 3411 3412 3413 3414 3415 3416 3417 3418 3419 3420 3421 3422 3423 3424 3425 3426 3427 3428 3429 3430 3431 3432 3433 3434 3435 3436 3437 3438 3439 3440 3441 3442 3443 3444 3445 3446 3447 3448 3449 3450 3451 3452 3453 3454 3455 3456 3457 3458 3459 3460 3461 3462 3463 3464 3465 3466 3467 3468 3469 3470 3471 3472 3473 3474 3475 3476 3477 3478 3479 3480 3481 3482 3483 3484 3485 3486 3487 3488 3489 3490 3491 3492 3493 3494 3495 3496 3497 3498 3499 3500 3501 3502 3503 3504 3505 3506 3507 3508 3509 3510 3511 3512 3513 3514 3515 3516 3517 3518 3519 3520 3521 3522 3523 3524 3525 3526 3527 3528 3529 3530 3531 3532 3533 3534 3535 3536 3537 3538 3539 3540 3541 3542 3543 3544 3545 3546 3547 3548 3549 3550 3551 3552 3553 3554 3555 3556 3557 3558 3559 3560 3561 3562 3563 3564 3565 3566 3567 3568 3569 3570 3571 3572 3573 3574 3575 3576 3577 3578 3579 3580 3581 3582 3583 3584 3585 3586 3587 3588 3589 3590 3591 3592 3593 3594 3595 3596 3597 3598 3599 3600 3601 3602 3603 3604 3605 3606 3607 3608 3609 3610 3611 3612 3613 3614 3615 3616 3617 3618 3619 3620 3621 3622 3623 3624 3625 3626 3627 3628 3629 3630 3631 3632 3633 3634 3635 3636 3637 3638 3639 3640 3641 3642 3643 3644 3645 3646 3647 3648 3649 3650 3651 3652 3653 3654 3655 3656 3657 3658 3659 3660 3661 3662 3663 3664 3665 3666 3667 3668 3669 3670 3671 3672 3673 3674 3675 3676 3677 3678 3679 3680 3681 3682 3683 3684 3685 3686 3687 3688 3689 3690 3691 3692 3693 3694 3695 3696 3697 3698 3699 3700 3701 3702 3703 3704 3705 3706 3707 3708 3709 3710 3711 3712 3713 3714 3715 3716 3717 3718 3719 3720 3721 3722 3723 3724 3725 3726 3727 3728 3729 3730 3731 3732 3733 3734 3735 3736 3737 3738 3739 3740 3741 3742 3743 3744 3745 3746 3747 3748 3749 3750 3751 3752 3753 3754 3755 3756 3757 3758 3759 3760 3761 3762 3763 3764 3765 3766 3767 3768 3769 3770 3771 3772 3773 3774 3775 3776 3777 3778 3779 3780 3781 3782 3783 3784 3785 3786 3787 3788 3789 3790 3791 3792 3793 3794 3795 3796 3797 3798 3799 3800 3801 3802 3803 3804 3805 3806 3807 3808 3809 3810 3811 3812 3813 3814 3815 3816 3817 3818 3819 3820 3821 3822 3823 3824 3825 3826 3827 3828 3829 3830 3831 3832 3833 3834 3835 3836 3837 3838 3839 3840 3841 3842 3843 3844 3845 3846 3847 3848 3849 3850 3851 3852 3853 3854 3855 3856 3857 3858 3859 3860 3861 3862 3863 3864 3865 3866 3867 3868 3869 3870 3871 3872 3873 3874 3875 3876 3877 3878 3879 3880 3881 3882 3883 3884 3885 3886 3887 3888 3889 3890 3891 3892 3893 3894 3895 3896 3897 3898 3899 3900 3901 3902 3903 3904 3905 3906 3907 3908 3909 3910 3911 3912 3913 3914 3915 3916 3917 3918 3919 3920 3921 3922 3923 3924 3925 3926 3927 3928 3929 3930 3931 3932 3933 3934 3935 3936 3937 3938 3939 3940 3941 3942 3943 3944 3945 3946 3947 3948 3949 3950 3951 3952 3953 3954 3955 3956 3957 3958 3959 3960 3961 3962 3963 3964 3965 3966 3967 3968 3969 3970 3971 3972 3973 3974 3975 3976 3977 3978 3979 3980 3981 3982 3983 3984 3985 3986 3987 3988 3989 3990 3991 3992 3993 3994 3995 3996 3997 3998 3999 4000 4001 4002 4003 4004 4005 4006 4007 4008 4009 4010 4011 4012 4013 4014 4015 4016 4017 4018 4019 4020 4021 4022 4023 4024 4025 4026 4027 4028 4029 4030 4031 4032 4033 4034 4035 4036 4037 4038 4039 4040 4041 4042 4043 4044 4045 4046 4047 4048 4049 4050 4051 4052 4053 4054 4055 4056 4057 4058 4059 4060 4061 4062 4063 4064 4065 4066 4067 4068 4069 4070 4071 4072 4073 4074 4075 4076 4077 4078 4079 4080 4081 4082 4083 4084 4085 4086 4087 4088 4089 4090 4091 4092 4093 4094 4095 4096 4097 4098 4099 4100 4101 4102 4103 4104 4105 4106 4107 4108 4109 4110 4111 4112 4113 4114 4115 4116 4117 4118 4119 4120 4121 4122 4123 4124 4125 4126 4127 4128 4129 4130 4131 4132 4133 4134 4135 4136 4137 4138 4139 4140 4141 4142 4143 4144 4145 4146 4147 4148 4149 4150 4151 4152 4153 4154 4155 4156 4157 4158 4159 4160 4161 4162 4163 4164 4165 4166 4167 4168 4169 4170 4171 4172 4173 4174 4175 4176 4177 4178 4179 4180 4181 4182 4183 4184 4185 4186 4187 4188 4189 4190 4191 4192 4193 4194 4195 4196 4197 4198 4199 4200 4201 4202 4203 4204 4205 4206 4207 4208 4209 4210 4211 4212 4213 4214 4215 4216 4217 4218 4219 4220 4221 4222 4223 4224 4225 4226 4227 4228 4229 4230 4231 4232 4233 4234 4235 4236 4237 4238 4239 4240 4241 4242 4243 4244 4245 4246 4247 4248 4249 4250 4251 4252 4253 4254 4255 4256 4257 4258 4259 4260 4261 4262 4263 4264 4265 4266 4267 4268 4269 4270 4271 4272 4273 4274 4275 4276 4277 4278 4279 4280 4281 4282 4283 4284 4285 4286 4287 4288 4289 4290 4291 4292 4293 4294 4295 4296 4297 4298 4299 4300 4301 4302 4303 4304 4305 4306 4307 4308 4309 4310 4311 4312 4313 4314 4315 4316 4317 4318 4319 4320 4321 4322 4323 4324 4325 4326 4327 4328 4329 4330 4331 4332 4333 4334 4335 4336 4337 4338 4339 4340 4341 4342 4343 4344 4345 4346 4347 4348 4349 4350 4351 4352 4353 4354 4355 4356 4357 4358 4359 4360 4361 4362 4363 4364 4365 4366 4367 4368 4369 4370 4371 4372 4373 4374 4375 4376 4377 4378 4379 4380 4381 4382 4383 4384 4385 4386 4387 4388 4389 4390 4391 4392 4393 4394 4395 4396 4397 4398 4399 4400 4401 4402 4403 4404 4405 4406 4407 4408 4409 4410 4411 4412 4413 4414 4415 4416 4417 4418 4419 4420 4421 4422 4423 4424 4425 4426 4427 4428 4429 4430 4431 4432 4433 4434 4435 4436 4437 4438 4439 4440 4441 4442 4443 4444 4445 4446 4447 4448 4449 4450 4451 4452 4453 4454 4455 4456 4457 4458 4459 4460 4461 4462 4463 4464 4465 4466 4467 4468 4469 4470 4471 4472 4473 4474 4475 4476 4477 4478 4479 4480 4481 4482 4483 4484 4485 4486 4487 4488 4489 4490 4491 4492 4493 4494 4495 4496 4497 4498 4499 4500 4501 4502 4503 4504 4505 4506 4507 4508 4509 4510 4511 4512 4513 4514 4515 4516 4517 4518 4519 4520 4521 4522 4523 4524 4525 4526 4527 4528 4529 4530 4531 4532 4533 4534 4535 4536 4537 4538 4539 4540 4541 4542 4543 4544 4545 4546 4547 4548 4549 4550 4551 4552 4553 4554 4555 4556 4557 4558 4559 4560 4561 4562 4563 4564 4565 4566 4567 4568 4569 4570 4571 4572 4573 4574 4575 4576 4577 4578 4579 4580 4581 4582 4583 4584 4585 4586 4587 4588 4589 4590 4591 4592 4593 4594 4595 4596 4597 4598 4599 4600 4601 4602 4603 4604 4605 4606 4607 4608 4609 4610 4611 4612 4613 4614 4615 4616 4617 4618 4619 4620 4621 4622 4623 4624 4625 4626 4627 4628 4629 4630 4631 4632 4633 4634 4635 4636 4637 4638 4639 4640 4641 4642 4643 4644 4645 4646 4647 4648 4649 4650 4651 4652 4653 4654 4655 4656 4657 4658 4659 4660 4661 4662 4663 4664 4665 4666 4667 4668 4669 4670 4671 4672 4673 4674 4675 4676 4677 4678 4679 4680 4681 4682 4683 4684 4685 4686 4687 4688 4689 4690 4691 4692 4693 4694 4695 4696 4697 4698 4699 4700 4701 4702 4703 4704 4705 4706 4707 4708 4709 4710 4711 4712 4713 4714 4715 4716 4717 4718 4719 4720 4721 4722 4723 4724 4725 4726 4727 4728 4729 4730 4731 4732 4733 4734 4735 4736 4737 4738 4739 4740 4741 4742 4743 4744 4745 4746 4747 4748 4749 4750 4751 4752 4753 4754 4755 4756 4757 4758 4759 4760 4761 4762 4763 4764 4765 4766 4767 4768 4769 4770 4771 4772 4773 4774 4775 4776 4777 4778 4779 4780 4781 4782 4783 4784 4785 4786 4787 4788 4789 4790 4791 4792 4793 4794 4795 4796 4797 4798 4799 4800 4801 4802 4803 4804 4805 4806 4807 4808 4809 4810 4811 4812 4813 4814 4815 4816 4817 4818 4819 4820 4821 4822 4823 4824 4825 4826 4827 4828 4829 4830 4831 4832 4833 4834 4835 4836 4837 4838 4839 4840 4841 4842 4843 4844 4845 4846 4847 4848 4849 4850 4851 4852 4853 4854 4855 4856 4857 4858 4859 4860 4861 4862 4863 4864 4865 4866 4867 4868 4869 4870 4871 4872 4873 4874 4875 4876 4877 4878 4879 4880 4881 4882 4883 4884 4885 4886 4887 4888 4889 4890 4891 4892 4893 4894 4895 4896 4897 4898 4899 4900 4901 4902 4903 4904 4905 4906 4907 4908 4909 4910 4911 4912 4913 4914 4915 4916 4917 4918 4919 4920 4921 4922 4923 4924 4925 4926 4927 4928 4929 4930 4931 4932 4933 4934 4935 4936 4937 4938 4939 4940 4941 4942 4943 4944 4945 4946 4947 4948 4949 4950 4951 4952 4953 4954 4955 4956 4957 4958 4959 4960 4961 4962 4963 4964 4965 4966 4967 4968 4969 4970 4971 4972 4973 4974 4975 4976 4977 4978 4979 4980 4981 4982 4983 4984 4985 4986 4987 4988 4989 4990 4991 4992 4993 4994 4995 4996 4997 4998 4999 5000 5001 5002 5003 5004 5005 5006 5007 5008 5009 5010 5011 5012 5013 5014 5015 5016 5017 5018 5019 5020 5021 5022 5023 5024 5025 5026 5027 5028 5029 5030 5031 5032 5033 5034 5035 5036 5037 5038 5039 5040 5041 5042 5043 5044 5045 5046 5047 5048 5049 5050 5051 5052 5053 5054 5055 5056 5057 5058 5059 5060 5061 5062 5063 5064 5065 5066 5067 5068 5069 5070 5071 5072 5073 5074 5075 5076 5077 5078 5079 5080 5081 5082 5083 5084 5085 5086 5087 5088 5089 5090 5091 5092 5093 5094 5095 5096 5097 5098 5099 5100 5101 5102 5103 5104 5105 5106 5107 5108 5109 5110 5111 5112 5113 5114 5115 5116 5117 5118 5119 5120 5121 5122 5123 5124 5125 5126 5127 5128 5129 5130 5131 5132 5133 5134 5135 5136 5137 5138 5139 5140 5141 5142 5143 5144 5145 5146 5147 5148 5149 5150 5151 5152 5153 5154 5155 5156 5157 5158 5159 5160 5161 5162 5163 5164 5165 5166 5167 5168 5169 5170 5171 5172 5173 5174 5175 5176 5177 5178 5179 5180 5181 5182 5183 5184 5185 5186 5187 5188 5189 5190 5191 5192 5193 5194 5195 5196 5197 5198 5199 5200 5201 5202 5203 5204 5205 5206 5207 5208 5209 5210 5211 5212 5213 5214 5215 5216 5217 5218 5219 5220 5221 5222 5223 5224 5225 5226 5227 5228 5229 5230 5231 5232 5233 5234 5235 5236 5237 5238 5239 5240 5241 5242 5243 5244 5245 5246 5247 5248 5249 5250 5251 5252 5253 5254 5255 5256 5257 5258 5259 5260 5261 5262 5263 5264 5265 5266 5267 5268 5269 5270 5271 5272 5273 5274 5275 5276 5277 5278 5279 5280 5281 5282 5283 5284 5285 5286 5287 5288 5289 5290 5291 5292 5293 5294 5295 5296 5297 5298 5299 5300 5301 5302 5303 5304 5305 5306 5307 5308 5309 5310 5311 5312 5313 5314 5315 5316 5317 5318 5319 5320 5321 5322 5323 5324 5325 5326 5327 5328 5329 5330 5331 5332 5333 5334 5335 5336 5337 5338 5339 5340 5341 5342 5343 5344 5345 5346 5347 5348 5349 5350 5351 5352 5353 5354 5355 5356 5357 5358 5359 5360 5361 5362 5363 5364 5365 5366 5367 5368 5369 5370 5371 5372 5373 5374 5375 5376 5377 5378 5379 5380 5381 5382 5383 5384 5385 5386 5387 5388 5389 5390 5391 5392 5393 5394 5395 5396 5397 5398 5399 5400 5401 5402 5403 5404 5405 5406 5407 5408 5409 5410 5411 5412 5413 5414 5415 5416 5417 5418 5419 5420 5421 5422 5423 5424 5425 5426 5427 5428 5429 5430 5431 5432 5433 5434 5435 5436 5437 5438 5439 5440 5441 5442 5443 5444 5445 5446 5447 5448 5449 5450 5451 5452 5453 5454 5455 5456 5457 5458 5459 5460 5461 5462 5463 5464 5465 5466 5467 5468 5469 5470 5471 5472 5473 5474 5475 5476 5477 5478 5479 5480 5481 5482 5483 5484 5485 5486 5487 5488 5489 5490 5491 5492 5493 5494 5495 5496 5497 5498 5499 5500 5501 5502 5503 5504 5505 5506 5507 5508 5509 5510 5511 5512 5513 5514 5515 5516 5517 5518 5519 5520 5521 5522 5523 5524 5525 5526 5527 5528 5529 5530 5531 5532 5533 5534 5535 5536 5537 5538 5539 5540 5541 5542 5543 5544 5545 5546 5547 5548 5549 5550 5551 5552 5553 5554 5555 5556 5557 5558 5559 5560 5561 5562 5563 5564 5565 5566 5567 5568 5569 5570 5571 5572 5573 5574 5575 5576 5577 5578 5579 5580 5581 5582 5583 5584 5585 5586 5587 5588 5589 5590 5591 5592 5593 5594 5595 5596 5597 5598 5599 5600 5601 5602 5603 5604 5605 5606 5607 5608 5609 5610 5611 5612 5613 5614 5615 5616 5617 5618 5619 5620 5621 5622 5623 5624 5625 5626 5627 5628 5629 5630 5631 5632 5633 5634 5635 5636 5637 5638 5639 5640 5641 5642 5643 5644 5645 5646 5647 5648 5649 5650 5651 5652 5653 5654 5655 5656 5657 5658 5659 5660 5661 5662 5663 5664 5665 5666 5667 5668 5669 5670 5671 5672 5673 5674 5675 5676 5677 5678 5679 5680 5681 5682 5683 5684 5685 5686 5687 5688 5689 5690 5691 5692 5693 5694 5695 5696 5697 5698 5699 5700 5701 5702 5703 5704 5705 5706 5707 5708 5709 5710 5711 5712 5713 5714 5715 5716 5717 5718 5719 5720 5721 5722 5723 5724 5725 5726 5727 5728 5729 5730 5731 5732 5733 5734 5735 5736 5737 5738 5739 5740 5741 5742 5743 5744 5745 5746 5747 5748 5749 5750 5751 5752 5753 5754 5755 5756 5757 5758 5759 5760 5761 5762 5763 5764 5765 5766 5767 5768 5769 5770 5771 5772 5773 5774 5775 5776 5777 5778 5779 5780 5781 5782 5783 5784 5785 5786 5787 5788 5789 5790 5791 5792 5793 5794 5795 5796 5797 5798 5799 5800 5801 5802 5803 5804 5805 5806 5807 5808 5809 5810 5811 5812 5813 5814 5815 5816 5817 5818 5819 5820 5821 5822 5823 5824 5825 5826 5827 5828 5829 5830 5831 5832 5833 5834 5835 5836 5837 5838 5839 5840 5841 5842 5843 5844 5845 5846 5847 5848 5849 5850 5851 5852 5853 5854 5855 5856 5857 5858 5859 5860 5861 5862 5863 5864 5865 5866 5867 5868 5869 5870 5871 5872 5873 5874 5875 5876 5877 5878 5879 5880 5881 5882 5883 5884 5885 5886 5887 5888 5889 5890 5891 5892 5893 5894 5895 5896 5897 5898 5899 5900 5901 5902 5903 5904 5905 5906 5907 5908 5909 5910 5911 5912 5913 5914 5915 5916 5917 5918 5919 5920 5921 5922 5923 5924 5925 5926 5927 5928 5929 5930 5931 5932 5933 5934 5935 5936 5937 5938 5939 5940 5941 5942 5943 5944 5945 5946 5947 5948 5949 5950 5951 5952 5953 5954 5955 5956 5957 5958 5959 5960 5961 5962 5963 5964 5965 5966 5967 5968 5969 5970 5971 5972 5973 5974 5975 5976 5977 5978 5979 5980 5981 5982 5983 5984 5985 5986 5987 5988 5989 5990 5991 5992 5993 5994 5995 5996 5997 5998 5999 6000 6001 6002 6003 6004 6005 6006 6007 6008 6009 6010 6011 6012 6013 6014 6015 6016 6017 6018 6019 6020 6021 6022 6023 6024 6025 6026 6027 6028 6029 6030 6031 6032 6033 6034 6035 6036 6037 6038 6039 6040 6041 6042 6043 6044 6045 6046 6047 6048 6049 6050 6051 6052 6053 6054 6055 6056 6057 6058 6059 6060 6061 6062 6063 6064 6065 6066 6067 6068 6069 6070 6071 6072 6073 6074 6075 6076 6077 6078 6079 6080 6081 6082 6083 6084 6085 6086 6087 6088 6089 6090 6091 6092 6093 6094 6095 6096 6097 6098 6099 6100 6101 6102 6103 6104 6105 6106 6107 6108 6109 6110 6111 6112 6113 6114 6115 6116 6117 6118 6119 6120 6121 6122 6123 6124 6125 6126 6127 6128 6129 6130 6131 6132 6133 6134 6135 6136 6137 6138 6139 6140 6141 6142 6143 6144 6145 6146 6147 6148 6149 6150 6151 6152 6153 6154 6155 6156 6157 6158 6159 6160 6161 6162 6163 6164 6165 6166 6167 6168 6169 6170 6171 6172 6173 6174 6175 6176 6177 6178 6179 6180 6181 6182 6183 6184 6185 6186 6187 6188 6189 6190 6191 6192 6193 6194 6195 6196 6197 6198 6199 6200 6201 6202 6203 6204 6205 6206 6207 6208 6209 6210 6211 6212 6213 6214 6215 6216 6217 6218 6219 6220 6221 6222 6223 6224 6225 6226 6227 6228 6229 6230 6231 6232 6233 6234 6235 6236 6237 6238 6239 6240 6241 6242 6243 6244 6245 6246 6247 6248 6249 6250 6251 6252 6253 6254 6255 6256 6257 6258 6259 6260 6261 6262 6263 6264 6265 6266 6267 6268 6269 6270 6271 6272 6273 6274 6275 6276 6277 6278 6279 6280 6281 6282 6283 6284 6285 6286 6287 6288 6289 6290 6291 6292 6293 6294 6295 6296 6297 6298 6299 6300 6301 6302 6303 6304 6305 6306 6307 6308 6309 6310 6311 6312 6313 6314 6315 6316 6317 6318 6319 6320 6321 6322 6323 6324 6325 6326 6327 6328 6329 6330 6331 6332 6333 6334 6335 6336 6337 6338 6339 6340 6341 6342 6343 6344 6345 6346 6347 6348 6349 6350 6351 6352 6353 6354 6355 6356 6357 6358 6359 6360 6361 6362 6363 6364 6365 6366 6367 6368 6369 6370 6371 6372 6373 6374 6375 6376 6377 6378 6379 6380 6381 6382 6383 6384 6385 6386 6387 6388 6389 6390 6391 6392 6393 6394 6395 6396 6397 6398 6399 6400 6401 6402 6403 6404 6405 6406 6407 6408 6409 6410 6411 6412 6413 6414 6415 6416 6417 6418 6419 6420 6421 6422 6423 6424 6425 6426 6427 6428 6429 6430 6431 6432 6433 6434 6435 6436 6437 6438 6439 6440 6441 6442 6443 6444 6445 6446 6447 6448 6449 6450 6451 6452 6453 6454 6455 6456 6457 6458 6459 6460 6461 6462 6463 6464 6465 6466 6467 6468 6469 6470 6471 6472 6473 6474 6475 6476 6477 6478 6479 6480 6481 6482 6483 6484 6485 6486 6487 6488 6489 6490 6491 6492 6493 6494 6495 6496 6497 6498 6499 6500 6501 6502 6503 6504 6505 6506 6507 6508 6509 6510 6511 6512 6513 6514 6515 6516 6517 6518 6519 6520 6521 6522 6523 6524 6525 6526 6527 6528 6529 6530 6531 6532 6533 6534 6535 6536 6537 6538 6539 6540 6541 6542 6543 6544 6545 6546 6547 6548 6549 6550 6551 6552 6553 6554 6555 6556 6557 6558 6559 6560 6561 6562 6563 6564 6565 6566 6567 6568 6569 6570 6571 6572 6573 6574 6575 6576 6577 6578 6579 6580 6581 6582 6583 6584 6585 6586 6587 6588 6589 6590 6591 6592 6593 6594 6595 6596 6597 6598 6599 6600 6601 6602 6603 6604 6605 6606 6607 6608 6609 6610 6611 6612 6613 6614 6615 6616 6617 6618 6619 6620 6621 6622 6623 6624 6625 6626 6627 6628 6629 6630 6631 6632 6633 6634 6635 6636 6637 6638 6639 6640 6641 6642 6643 6644 6645 6646 6647 6648 6649 6650 6651 6652 6653 6654 6655 6656 6657 6658 6659 6660 6661 6662 6663 6664 6665 6666 6667 6668 6669 6670 6671 6672 6673 6674 6675 6676 6677 6678 6679 6680 6681 6682 6683 6684 6685 6686 6687 6688 6689 6690 6691 6692 6693 6694 6695 6696 6697 6698 6699 6700 6701 6702 6703 6704 6705 6706 6707 6708 6709 6710 6711 6712 6713 6714 6715 6716 6717 6718 6719 6720 6721 6722 6723 6724 6725 6726 6727 6728 6729 6730 6731 6732 6733 6734 6735 6736 6737 6738 6739 6740 6741 6742 6743 6744 6745 6746 6747 6748 6749 6750 6751 6752 6753 6754 6755 6756 6757 6758 6759 6760 6761 6762 6763 6764 6765 6766 6767 6768 6769 6770 6771 6772 6773 6774 6775 6776 6777 6778 6779 6780 6781 6782 6783 6784 6785 6786 6787 6788 6789 6790 6791 6792 6793 6794 6795 6796 6797 6798 6799 6800 6801 6802 6803 6804 6805 6806 6807 6808 6809 6810 6811 6812 6813 6814 6815 6816 6817 6818 6819 6820 6821 6822 6823 6824 6825 6826 6827 6828 6829 6830 6831 6832 6833 6834 6835 6836 6837 6838 6839 6840 6841 6842 6843 6844 6845 6846 6847 6848 6849 6850 6851 6852 6853 6854 6855 6856 6857 6858 6859 6860 6861 6862 6863 6864 6865 6866 6867 6868 6869 6870 6871 6872 6873 6874 6875 6876 6877 6878 6879 6880 6881 6882 6883 6884 6885 6886 6887 6888 6889 6890 6891 6892 6893 6894 6895 6896 6897 6898 6899 6900 6901 6902 6903 6904 6905 6906 6907 6908 6909 6910 6911 6912 6913 6914 6915 6916 6917 6918 6919 6920 6921 6922 6923 6924 6925 6926 6927 6928 6929 6930 6931 6932 6933 6934 6935 6936 6937 6938 6939 6940 6941 6942 6943 6944 6945 6946 6947 6948 6949 6950 6951 6952 6953 6954 6955 6956 6957 6958 6959 6960 6961 6962 6963 6964 6965 6966 6967 6968 6969 6970 6971 6972 6973 6974 6975 6976 6977 6978 6979 6980 6981 6982 6983 6984 6985 6986 6987 6988 6989 6990 6991 6992 6993 6994 6995 6996 6997 6998 6999 7000 7001 7002 7003 7004 7005 7006 7007 7008 7009 7010 7011 7012 7013 7014 7015 7016 7017 7018 7019 7020 7021 7022 7023 7024 7025 7026 7027 7028 7029 7030 7031 7032 7033 7034 7035 7036 7037 7038 7039 7040 7041 7042 7043 7044 7045 7046 7047 7048 7049 7050 7051 7052 7053 7054 7055 7056 7057 7058 7059 7060 7061 7062 7063 7064 7065 7066 7067 7068 7069 7070 7071 7072 7073 7074 7075 7076 7077 7078 7079 7080 7081 7082 7083 7084 7085 7086 7087 7088 7089 7090 7091 7092 7093 7094 7095 7096 7097 7098 7099 7100 7101 7102 7103 7104 7105 7106 7107 7108 7109 7110 7111 7112 7113 7114 7115 7116 7117 7118 7119 7120 7121 7122 7123 7124 7125 7126 7127 7128 7129 7130 7131 7132 7133 7134 7135 7136 7137 7138 7139 7140 7141 7142 7143 7144 7145 7146 7147 7148 7149 7150 7151 7152 7153 7154 7155 7156 7157 7158 7159 7160 7161 7162 7163 7164 7165 7166 7167 7168 7169 7170 7171 7172 7173 7174 7175 7176 7177 7178 7179 7180 7181 7182 7183 7184 7185 7186 7187 7188 7189 7190 7191 7192 7193 7194 7195 7196 7197 7198 7199 7200 7201 7202 7203 7204 7205 7206 7207 7208 7209 7210 7211 7212 7213 7214 7215 7216 7217 7218 7219 7220 7221 7222 7223 7224 7225 7226 7227 7228 7229 7230 7231 7232 7233 7234 7235 7236 7237 7238 7239 7240 7241 7242 7243 7244 7245 7246 7247 7248 7249 7250 7251 7252 7253 7254 7255 7256 7257 7258 7259 7260 7261 7262 7263 7264 7265 7266 7267 7268 7269 7270 7271 7272 7273 7274 7275 7276 7277 7278 7279 7280 7281 7282 7283 7284 7285 7286 7287 7288 7289 7290 7291 7292 7293 7294 7295 7296 7297 7298 7299 7300 7301 7302 7303 7304 7305 7306 7307 7308 7309 7310 7311 7312 7313 7314 7315 7316 7317 7318 7319 7320 7321 7322 7323 7324 7325 7326 7327 7328 7329 7330 7331 7332 7333 7334 7335 7336 7337 7338 7339 7340 7341 7342 7343 7344 7345 7346 7347 7348 7349 7350 7351 7352 7353 7354 7355 7356 7357 7358 7359 7360 7361 7362 7363 7364 7365 7366 7367 7368 7369 7370 7371 7372 7373 7374 7375 7376 7377 7378 7379 7380 7381 7382 7383 7384 7385 7386 7387 7388 7389 7390 7391 7392 7393 7394 7395 7396 7397 7398 7399 7400 7401 7402 7403 7404 7405 7406 7407 7408 7409 7410 7411 7412 7413 7414 7415 7416 7417 7418 7419 7420 7421 7422 7423 7424 7425 7426 7427 7428 7429 7430 7431 7432 7433 7434 7435 7436 7437 7438 7439 7440 7441 7442 7443 7444 7445 7446 7447 7448 7449 7450 7451 7452 7453 7454 7455 7456 7457 7458 7459 7460 7461 7462 7463 7464 7465 7466 7467 7468 7469 7470 7471 7472 7473 7474 7475 7476 7477 7478 7479 7480 7481 7482 7483 7484 7485 7486 7487 7488 7489 7490 7491 7492 7493 7494 7495 7496 7497 7498 7499 7500 7501 7502 7503 7504 7505 7506 7507 7508 7509 7510 7511 7512 7513 7514 7515 7516 7517 7518 7519 7520 7521 7522 7523 7524 7525 7526 7527 7528 7529 7530 7531 7532 7533 7534 7535 7536 7537 7538 7539 7540 7541 7542 7543 7544 7545 7546 7547 7548 7549 7550 7551 7552 7553 7554 7555 7556 7557 7558 7559 7560 7561 7562 7563 7564 7565 7566 7567 7568 7569 7570 7571 7572 7573 7574 7575 7576 7577 7578 7579 7580 7581 7582 7583 7584 7585 7586 7587 7588 7589 7590 7591 7592 7593 7594 7595 7596 7597 7598 7599 7600 7601 7602 7603 7604 7605 7606 7607 7608 7609 7610 7611 7612 7613 7614 7615 7616 7617 7618 7619 7620 7621 7622 7623 7624 7625 7626 7627 7628 7629 7630 7631 7632 7633 7634 7635 7636 7637 7638 7639 7640 7641 7642 7643 7644 7645 7646 7647 7648 7649 7650 7651 7652 7653 7654 7655 7656 7657 7658 7659 7660 7661 7662 7663 7664 7665 7666 7667 7668 7669 7670 7671 7672 7673 7674 7675 7676 7677 7678 7679 7680 7681 7682 7683 7684 7685 7686 7687 7688 7689 7690 7691 7692 7693 7694 7695 7696 7697 7698 7699 7700 7701 7702 7703 7704 7705 7706 7707 7708 7709 7710 7711 7712 7713 7714 7715 7716 7717 7718 7719 7720 7721 7722 7723 7724 7725 7726 7727 7728 7729 7730 7731 7732 7733 7734 7735 7736 7737 7738 7739 7740 7741 7742 7743 7744 7745 7746 7747 7748 7749 7750 7751 7752 7753 7754 7755 7756 7757 7758 7759 7760 7761 7762 7763 7764 7765 7766 7767 7768 7769 7770 7771 7772 7773 7774 7775 7776 7777 7778 7779 7780 7781 7782 7783 7784 7785 7786 7787 7788 7789 7790 7791 7792 7793 7794 7795 7796 7797 7798 7799 7800 7801 7802 7803 7804 7805 7806 7807 7808 7809 7810 7811 7812 7813 7814 7815 7816 7817 7818 7819 7820 7821 7822 7823 7824 7825 7826 7827 7828 7829 7830 7831 7832 7833 7834 7835 7836 7837 7838 7839 7840 7841 7842 7843 7844 7845 7846 7847 7848 7849 7850 7851 7852 7853 7854 7855 7856 7857 7858 7859 7860 7861 7862 7863 7864 7865 7866 7867 7868 7869 7870 7871 7872 7873 7874 7875 7876 7877 7878 7879 7880 7881 7882 7883 7884 7885 7886 7887 7888 7889 7890 7891 7892 7893 7894 7895 7896 7897 7898 7899 7900 7901 7902 7903 7904 7905 7906 7907 7908 7909 7910 7911 7912 7913 7914 7915 7916 7917 7918 7919 7920 7921 7922 7923 7924 7925 7926 7927 7928 7929 7930 7931 7932 7933 7934 7935 7936 7937 7938 7939 7940 7941 7942 7943 7944 7945 7946 7947 7948 7949 7950 7951 7952 7953 7954 7955 7956 7957 7958 7959 7960 7961 7962 7963 7964 7965 7966 7967 7968 7969 7970 7971 7972 7973 7974 7975 7976 7977 7978 7979 7980 7981 7982 7983 7984 7985 7986 7987 7988 7989 7990 7991 7992 7993 7994 7995 7996 7997 7998 7999 8000 8001 8002 8003 8004 8005 8006 8007 8008 8009 8010 8011 8012 8013 8014 8015 8016 8017 8018 8019 8020 8021 8022 8023 8024 8025 8026 8027 8028 8029 8030 8031 8032 8033 8034 8035 8036 8037 8038 8039 8040 8041 8042 8043 8044 8045 8046 8047 8048 8049 8050 8051 8052 8053 8054 8055 8056 8057 8058 8059 8060 8061 8062 8063 8064 8065 8066 8067 8068 8069 8070 8071 8072 8073 8074 8075 8076 8077 8078 8079 8080 8081 8082 8083 8084 8085 8086 8087 8088 8089 8090 8091 8092 8093 8094 8095 8096 8097 8098 8099 8100 8101 8102 8103 8104 8105 8106 8107 8108 8109 8110 8111 8112 8113 8114 8115 8116 8117 8118 8119 8120 8121 8122 8123 8124 8125 8126 8127 8128 8129 8130 8131 8132 8133 8134 8135 8136 8137 8138 8139 8140 8141 8142 8143 8144 8145 8146 8147 8148 8149 8150 8151 8152 8153 8154 8155 8156 8157 8158 8159 8160 8161 8162 8163 8164 8165 8166 8167 8168 8169 8170 8171 8172 8173 8174 8175 8176 8177 8178 8179 8180 8181 8182 8183 8184 8185 8186 8187 8188 8189 8190 8191 8192 8193 8194 8195 8196 8197 8198 8199 8200 8201 8202 8203 8204 8205 8206 8207 8208 8209 8210 8211 8212 8213 8214 8215 8216 8217 8218 8219 8220 8221 8222 8223 8224 8225 8226 8227 8228 8229 8230 8231 8232 8233 8234 8235 8236 8237 8238 8239 8240 8241 8242 8243 8244 8245 8246 8247 8248 8249 8250 8251 8252 8253 8254 8255 8256 8257 8258 8259 8260 8261 8262 8263 8264 8265 8266 8267 8268 8269 8270 8271 8272 8273 8274 8275 8276 8277 8278 8279 8280 8281 8282 8283 8284 8285 8286 8287 8288 8289 8290 8291 8292 8293 8294 8295 8296 8297 8298 8299 8300 8301 8302 8303 8304 8305 8306 8307 8308 8309 8310 8311 8312 8313 8314 8315 8316 8317 8318 8319 8320 8321 8322 8323 8324 8325 8326 8327 8328 8329 8330 8331 8332 8333 8334 8335 8336 8337 8338 8339 8340 8341 8342 8343 8344 8345 8346 8347 8348 8349 8350 8351 8352 8353 8354 8355 8356 8357 8358 8359 8360 8361 8362 8363 8364 8365 8366 8367 8368 8369 8370 8371 8372 8373 8374 8375 8376 8377 8378 8379 8380 8381 8382 8383 8384 8385 8386 8387 8388 8389 8390 8391 8392 8393 8394 8395 8396 8397 8398 8399 8400 8401 8402 8403 8404 8405 8406 8407 8408 8409 8410 8411 8412 8413 8414 8415 8416 8417 8418 8419 8420 8421 8422 8423 8424 8425 8426 8427 8428 8429 8430 8431 8432 8433 8434 8435 8436 8437 8438 8439 8440 8441 8442 8443 8444 8445 8446 8447 8448 8449 8450 8451 8452 8453 8454 8455 8456 8457 8458 8459 8460 8461 8462 8463 8464 8465 8466 8467 8468 8469 8470 8471 8472 8473 8474 8475 8476 8477 8478 8479 8480 8481 8482 8483 8484 8485 8486 8487 8488 8489 8490 8491 8492 8493 8494 8495 8496 8497 8498 8499 8500 8501 8502 8503 8504 8505 8506 8507 8508 8509 8510 8511 8512 8513 8514 8515 8516 8517 8518 8519 8520 8521 8522 8523 8524 8525 8526 8527 8528 8529 8530 8531 8532 8533 8534 8535 8536 8537 8538 8539 8540 8541 8542 8543 8544 8545 8546 8547 8548 8549 8550 8551 8552 8553 8554 8555 8556 8557 8558 8559 8560 8561 8562 8563 8564 8565 8566 8567 8568 8569 8570 8571 8572 8573 8574 8575 8576 8577 8578 8579 8580 8581 8582 8583 8584 8585 8586 8587 8588 8589 8590 8591 8592 8593 8594 8595 8596 8597 8598 8599 8600 8601 8602 8603 8604 8605 8606 8607 8608 8609 8610 8611 8612 8613 8614 8615 8616 8617 8618 8619 8620 8621 8622 8623 8624 8625 8626 8627 8628 8629 8630 8631 8632 8633 8634 8635 8636 8637 8638 8639 8640 8641 8642 8643 8644 8645 8646 8647 8648 8649 8650 8651 8652 8653 8654 8655 8656 8657 8658 8659 8660 8661 8662 8663 8664 8665 8666 8667 8668 8669 8670 8671 8672 8673 8674 8675 8676 8677 8678 8679 8680 8681 8682 8683 8684 8685 8686 8687 8688 8689 8690 8691 8692 8693 8694 8695 8696 8697 8698 8699 8700 8701 8702 8703 8704 8705 8706 8707 8708 8709 8710 8711 8712 8713 8714 8715 8716 8717 8718 8719 8720 8721 8722 8723 8724 8725 8726 8727 8728 8729 8730 8731 8732 8733 8734 8735 8736 8737 8738 8739 8740 8741 8742 8743 8744 8745 8746 8747 8748 8749 8750 8751 8752 8753 8754 8755 8756 8757 8758 8759 8760 8761 8762 8763 8764 8765 8766 8767 8768 8769 8770 8771 8772 8773 8774 8775 8776 8777 8778 8779 8780 8781 8782 8783 8784 8785 8786 8787 8788 8789 8790 8791 8792 8793 8794 8795 8796 8797 8798 8799 8800 8801 8802 8803 8804 8805 8806 8807 8808 8809 8810 8811 8812 8813 8814 8815 8816 8817 8818 8819 8820 8821 8822 8823 8824 8825 8826 8827 8828 8829 8830 8831 8832 8833 8834 8835 8836 8837 8838 8839 8840 8841 8842 8843 8844 8845 8846 8847 8848 8849 8850 8851 8852 8853 8854 8855 8856 8857 8858 8859 8860 8861 8862 8863 8864 8865 8866 8867 8868 8869 8870 8871 8872 8873 8874 8875 8876 8877 8878 8879 8880 8881 8882 8883 8884 8885 8886 8887 8888 8889 8890 8891 8892 8893 8894 8895 8896 8897 8898 8899 8900 8901 8902 8903 8904 8905 8906 8907 8908 8909 8910 8911 8912 8913 8914 8915 8916 8917 8918 8919 8920 8921 8922 8923 8924 8925 8926 8927 8928 8929 8930 8931 8932 8933 8934 8935 8936 8937 8938 8939 8940 8941 8942 8943 8944 8945 8946 8947 8948 8949 8950 8951 8952 8953 8954 8955 8956 8957 8958 8959 8960 8961 8962 8963 8964 8965 8966 8967 8968 8969 8970 8971 8972 8973 8974 8975 8976 8977 8978 8979 8980 8981 8982 8983 8984 8985 8986 8987 8988 8989 8990 8991 8992 8993 8994 8995 8996 8997 8998 8999 9000 9001 9002 9003 9004 9005 9006 9007 9008 9009 9010 9011 9012 9013 9014 9015 9016 9017 9018 9019 9020 9021 9022 9023 9024 9025 9026 9027 9028 9029 9030 9031 9032 9033 9034 9035 9036 9037 9038 9039 9040 9041 9042 9043 9044 9045 9046 9047 9048 9049 9050 9051 9052 9053 9054 9055 9056 9057 9058 9059 9060 9061 9062 9063 9064 9065 9066 9067 9068 9069 9070 9071 9072 9073 9074 9075 9076 9077 9078 9079 9080 9081 9082 9083 9084 9085 9086 9087 9088 9089 9090 9091 9092 9093 9094 9095 9096 9097 9098 9099 9100 9101 9102 9103 9104 9105 9106 9107 9108 9109 9110 9111 9112 9113 9114 9115 9116 9117 9118 9119 9120 9121 9122 9123 9124 9125 9126 9127 9128 9129 9130 9131 9132 9133 9134 9135 9136 9137 9138 9139 9140 9141 9142 9143 9144 9145 9146 9147 9148 9149 9150 9151 9152 9153 9154 9155 9156 9157 9158 9159 9160 9161 9162 9163 9164 9165 9166 9167 9168 9169 9170 9171 9172 9173 9174 9175 9176 9177 9178 9179 9180 9181 9182 9183 9184 9185 9186 9187 9188 9189 9190 9191 9192 9193 9194 9195 9196 9197 9198 9199 9200 9201 9202 9203 9204 9205 9206 9207 9208 9209 9210 9211 9212 9213 9214 9215 9216 9217 9218 9219 9220 9221 9222 9223 9224 9225 9226 9227 9228 9229 9230 9231 9232 9233 9234 9235 9236 9237 9238 9239 9240 9241 9242 9243 9244 9245 9246 9247 9248 9249 9250 9251 9252 9253 9254 9255 9256 9257 9258 9259 9260 9261 9262 9263 9264 9265 9266 9267 9268 9269 9270 9271 9272 9273 9274 9275 9276 9277 9278 9279 9280 9281 9282 9283 9284 9285 9286 9287 9288 9289 9290 9291 9292 9293 9294 9295 9296 9297 9298 9299 9300 9301 9302 9303 9304 9305 9306 9307 9308 9309 9310 9311 9312 9313 9314 9315 9316 9317 9318 9319 9320 9321 9322 9323 9324 9325 9326 9327 9328 9329 9330 9331 9332 9333 9334 9335 9336 9337 9338 9339 9340 9341 9342 9343 9344 9345 9346 9347 9348 9349 9350 9351 9352 9353 9354 9355 9356 9357 9358 9359 9360 9361 9362 9363 9364 9365 9366 9367 9368 9369 9370 9371 9372 9373 9374 9375 9376 9377 9378 9379 9380 9381 9382 9383 9384 9385 9386 9387 9388 9389 9390 9391 9392 9393 9394 9395 9396 9397 9398 9399 9400 9401 9402 9403 9404 9405 9406 9407 9408 9409 9410 9411 9412 9413 9414 9415 9416 9417 9418 9419 9420 9421 9422 9423 9424 9425 9426 9427 9428 9429 9430 9431 9432 9433 9434 9435 9436 9437 9438 9439 9440 9441 9442 9443 9444 9445 9446 9447 9448 9449 9450 9451 9452 9453 9454 9455 9456 9457 9458 9459 9460 9461 9462 9463 9464 9465 9466 9467 9468 9469 9470 9471 9472 9473 9474 9475 9476 9477 9478 9479 9480 9481 9482 9483 9484 9485 9486 9487 9488 9489 9490 9491 9492 9493 9494 9495 9496 9497 9498 9499 9500 9501 9502 9503 9504 9505 9506 9507 9508 9509 9510 9511 9512 9513 9514 9515 9516 9517 9518 9519 9520 9521 9522 9523 9524 9525 9526 9527 9528 9529 9530 9531 9532 9533 9534 9535 9536 9537 9538 9539 9540 9541 9542 9543 9544 9545 9546 9547 9548 9549 9550 9551 9552 9553 9554 9555 9556 9557 9558 9559 9560 9561 9562 9563 9564 9565 9566 9567 9568 9569 9570 9571 9572 9573 9574 9575 9576 9577 9578 9579 9580 9581 9582 9583 9584 9585 9586 9587 9588 9589 9590 9591 9592 9593 9594 9595 9596 9597 9598 9599 9600 9601 9602 9603 9604 9605 9606 9607 9608 9609 9610 9611 9612 9613 9614 9615 9616 9617 9618 9619 9620 9621 9622 9623 9624 9625 9626 9627 9628 9629 9630 9631 9632 9633 9634 9635 9636 9637 9638 9639 9640 9641 9642 9643 9644 9645 9646 9647 9648 9649 9650 9651 9652 9653 9654 9655 9656 9657 9658 9659 9660 9661 9662 9663 9664 9665 9666 9667 9668 9669 9670 9671 9672 9673 9674 9675 9676 9677 9678 9679 9680 9681 9682 9683 9684 9685 9686 9687 9688 9689 9690 9691 9692 9693 9694 9695 9696 9697 9698 9699 9700 9701 9702 9703 9704 9705 9706 9707 9708 9709 9710 9711 9712 9713 9714 9715 9716 9717 9718 9719 9720 9721 9722 9723 9724 9725 9726 9727 9728 9729 9730 9731 9732 9733 9734 9735 9736 9737 9738 9739 9740 9741 9742 9743 9744 9745 9746 9747 9748 9749 9750 9751 9752 9753 9754 9755 9756 9757 9758 9759 9760 9761 9762 9763 9764 9765 9766 9767 9768 9769 9770 9771 9772 9773 9774 9775 9776 9777 9778 9779 9780 9781 9782 9783 9784 9785 9786 9787 9788 9789 9790 9791 9792 9793 9794 9795 9796 9797 9798 9799 9800 9801 9802 9803 9804 9805 9806 9807 9808 9809 9810 9811 9812 9813 9814 9815 9816 9817 9818 9819 9820 9821 9822 9823 9824 9825 9826 9827 9828 9829 9830 9831 9832 9833 9834 9835 9836 9837 9838 9839 9840 9841 9842 9843 9844 9845 9846 9847 9848 9849 9850 9851 9852 9853 9854 9855 9856 9857 9858 9859 9860 9861 9862 9863 9864 9865 9866 9867 9868 9869 9870 9871 9872 9873 9874 9875 9876 9877 9878 9879 9880 9881 9882 9883 9884 9885 9886 9887 9888 9889 9890 9891 9892 9893 9894 9895 9896 9897 9898 9899 9900 9901 9902 9903 9904 9905 9906 9907 9908 9909 9910 9911 9912 9913 9914 9915 9916 9917 9918 9919 9920 9921 9922 9923 9924 9925 9926 9927 9928 9929 9930 9931 9932 9933 9934 9935 9936 9937 9938 9939 9940 9941 9942 9943 9944 9945 9946 9947 9948 9949 9950 9951 9952 9953 9954 9955 9956 9957 9958 9959 9960 9961 9962 9963 9964 9965 9966 9967 9968 9969 9970 9971 9972 9973 9974 9975 9976 9977 9978 9979 9980 9981 9982 9983 9984 9985 9986 9987 9988 9989 9990 9991 9992 9993 9994 9995 9996 9997 9998 9999 10000 10001 10002 10003 10004 10005 10006 10007 10008 10009 10010 10011 10012 10013 10014 10015 10016 10017 10018 10019 10020 10021 10022 10023 10024 10025 10026 10027 10028 10029 10030 10031 10032 10033 10034 10035 10036 10037 10038 10039 10040 10041 10042 10043 10044 10045 10046 10047 10048 10049 10050 10051 10052 10053 10054 10055 10056 10057 10058 10059 10060 10061 10062 10063 10064 10065 10066 10067 10068 10069 10070 10071 10072 10073 10074 10075 10076 10077 10078 10079 10080 10081 10082 10083 10084 10085 10086 10087 10088 10089 10090 10091 10092 10093 10094 10095 10096 10097 10098 10099 10100 10101 10102 10103 10104 10105 10106 10107 10108 10109 10110 10111 10112 10113 10114 10115 10116 10117 10118 10119 10120 10121 10122 10123 10124 10125 10126 10127 10128 10129 10130 10131 10132 10133 10134 10135 10136 10137 10138 10139 10140 10141 10142 10143 10144 10145 10146 10147 10148 10149 10150 10151 10152 10153 10154 10155 10156 10157 10158 10159 10160 10161 10162 10163 10164 10165 10166 10167 10168 10169 10170 10171 10172 10173 10174 10175 10176 10177 10178 10179 10180 10181 10182 10183 10184 10185 10186 10187 10188 10189 10190 10191 10192 10193 10194 10195 10196 10197 10198 10199 10200 10201 10202 10203 10204 10205 10206 10207 10208 10209 10210 10211 10212 10213 10214 10215 10216 10217 10218 10219 10220 10221 10222 10223 10224 10225 10226 10227 10228 10229 10230 10231 10232 10233 10234 10235 10236 10237 10238 10239 10240 10241 10242 10243 10244 10245 10246 10247 10248 10249 10250 10251 10252 10253 10254 10255 10256 10257 10258 10259 10260 10261 10262 10263 10264 10265 10266 10267 10268 10269 10270 10271 10272 10273 10274 10275 10276 10277 10278 10279 10280 10281 10282 10283 10284 10285 10286 10287 10288 10289 10290 10291 10292 10293 10294 10295 10296 10297 10298 10299 10300 10301 10302 10303 10304 10305 10306 10307 10308 10309 10310 10311 10312 10313 10314 10315 10316 10317 10318 10319 10320 10321 10322 10323 10324 10325 10326 10327 10328 10329 10330 10331 10332 10333 10334 10335 10336 10337 10338 10339 10340 10341 10342 10343 10344 10345 10346 10347 10348 10349 10350 10351 10352 10353 10354 10355 10356 10357 10358 10359 10360 10361 10362 10363 10364 10365 10366 10367 10368 10369 10370 10371 10372 10373 10374 10375 10376 10377 10378 10379 10380 10381 10382 10383 10384 10385 10386 10387 10388 10389 10390 10391 10392 10393 10394 10395 10396 10397 10398 10399 10400 10401 10402 10403 10404 10405 10406 10407 10408 10409 10410 10411 10412 10413 10414 10415 10416 10417 10418 10419 10420 10421 10422 10423 10424 10425 10426 10427 10428 10429 10430 10431 10432 10433 10434 10435 10436 10437 10438 10439 10440 10441 10442 10443 10444 10445 10446 10447 10448 10449 10450 10451 10452 10453 10454 10455 10456 10457 10458 10459 10460 10461 10462 10463 10464 10465 10466 10467 10468 10469 10470 10471 10472 10473 10474 10475 10476 10477 10478 10479 10480 10481 10482 10483 10484 10485 10486 10487 10488 10489 10490 10491 10492 10493 10494 10495 10496 10497 10498 10499 10500 10501 10502 10503 10504 10505 10506 10507 10508 10509 10510 10511 10512 10513 10514 10515 10516 10517 10518 10519 10520 10521 10522 10523 10524 10525 10526 10527 10528 10529 10530 10531 10532 10533 10534 10535 10536 10537 10538 10539 10540 10541 10542 10543 10544 10545 10546 10547 10548 10549 10550 10551 10552 10553 10554 10555 10556 10557 10558 10559 10560 10561 10562 10563 10564 10565 10566 10567 10568 10569 10570 10571 10572 10573 10574 10575 10576 10577 10578 10579 10580 10581 10582 10583 10584 10585 10586 10587 10588 10589 10590 10591 10592 10593 10594 10595 10596 10597 10598 10599 10600 10601 10602 10603 10604 10605 10606 10607 10608 10609 10610 10611 10612 10613 10614 10615 10616 10617 10618 10619 10620 10621 10622 10623 10624 10625 10626 10627 10628 10629 10630 10631 10632 10633 10634 10635 10636 10637 10638 10639 10640 10641 10642 10643 10644 10645 10646 10647 10648 10649 10650 10651 10652 10653 10654 10655 10656 10657 10658 10659 10660 10661 10662 10663 10664 10665 10666 10667 10668 10669 10670 10671 10672 10673 10674 10675 10676 10677 10678 10679 10680 10681 10682 10683 10684 10685 10686 10687 10688 10689 10690 10691 10692 10693 10694 10695 10696 10697 10698 10699 10700 10701 10702 10703 10704 10705 10706 10707 10708 10709 10710 10711 10712 10713 10714 10715 10716 10717 10718 10719 10720 10721 10722 10723 10724 10725 10726 10727 10728 10729 10730 10731 10732 10733 10734 10735 10736 10737 10738 10739 10740 10741 10742 10743 10744 10745 10746 10747 10748 10749 10750 10751 10752 10753 10754 10755 10756 10757 10758 10759 10760 10761 10762 10763 10764 10765 10766 10767 10768 10769 10770 10771 10772 10773 10774 10775 10776 10777 10778 10779 10780 10781 10782 10783 10784 10785 10786 10787 10788 10789 10790 10791 10792 10793 10794 10795 10796 10797 10798 10799 10800 10801 10802 10803 10804 10805 10806 10807 10808 10809 10810 10811 10812 10813 10814 10815 10816 10817 10818 10819 10820 10821 10822 10823 10824 10825 10826 10827 10828 10829 10830 10831 10832 10833 10834 10835 10836 10837 10838 10839 10840 10841 10842 10843 10844 10845 10846 10847 10848 10849 10850 10851 10852 10853 10854 10855 10856 10857 10858 10859 10860 10861 10862 10863 10864 10865 10866 10867 10868 10869 10870 10871 10872 10873 10874 10875 10876 10877 10878 10879 10880 10881 10882 10883 10884 10885 10886 10887 10888 10889 10890 10891 10892 10893 10894 10895 10896 10897 10898 10899 10900 10901 10902 10903 10904 10905 10906 10907 10908 10909 10910 10911 10912 10913 10914 10915 10916 10917 10918 10919 10920 10921 10922 10923 10924 10925 10926 10927 10928 10929 10930 10931 10932 10933 10934 10935 10936 10937 10938 10939 10940 10941 10942 10943 10944 10945 10946 10947 10948 10949 10950 10951 10952 10953 10954 10955 10956 10957 10958 10959 10960 10961 10962 10963 10964 10965 10966 10967 10968 10969 10970 10971 10972 10973 10974 10975 10976 10977 10978 10979 10980 10981 10982 10983 10984 10985 10986 10987 10988 10989 10990 10991 10992 10993 10994 10995 10996 10997 10998 10999 11000 11001 11002 11003 11004 11005 11006 11007 11008 11009 11010 11011 11012 11013 11014 11015 11016 11017 11018 11019 11020 11021 11022 11023 11024 11025 11026 11027 11028 11029 11030 11031 11032 11033 11034 11035 11036 11037 11038 11039 11040 11041 11042 11043 11044 11045 11046 11047 11048 11049 11050 11051 11052 11053 11054 11055 11056 11057 11058 11059 11060 11061 11062 11063 11064 11065 11066 11067 11068 11069 11070 11071 11072 11073 11074 11075 11076 11077 11078 11079 11080 11081 11082 11083 11084 11085 11086 11087 11088 11089 11090 11091 11092 11093 11094 11095 11096 11097 11098 11099 11100 11101 11102 11103 11104 11105 11106 11107 11108 11109 11110 11111 11112 11113 11114 11115 11116 11117 11118 11119 11120 11121 11122 11123 11124 11125 11126 11127 11128 11129 11130 11131 11132 11133 11134 11135 11136 11137 11138 11139 11140 11141 11142 11143 11144 11145 11146 11147 11148 11149 11150 11151 11152 11153 11154 11155 11156 11157 11158 11159 11160 11161 11162 11163 11164 11165 11166 11167 11168 11169 11170 11171 11172 11173 11174 11175 11176 11177 11178 11179 11180 11181 11182 11183 11184 11185 11186 11187 11188 11189 11190 11191 11192 11193 11194 11195 11196 11197 11198 11199 11200 11201 11202 11203 11204 11205 11206 11207 11208 11209 11210 11211 11212 11213 11214 11215 11216 11217 11218 11219 11220 11221 11222 11223 11224 11225 11226 11227 11228 11229 11230 11231 11232 11233 11234 11235 11236 11237 11238 11239 11240 11241 11242 11243 11244 11245 11246 11247 11248 11249 11250 11251 11252 11253 11254 11255 11256 11257 11258 11259 11260 11261 11262 11263 11264 11265 11266 11267 11268 11269 11270 11271 11272 11273 11274 11275 11276 11277 11278 11279 11280 11281 11282 11283 11284 11285 11286 11287 11288 11289 11290 11291 11292 11293 11294 11295 11296 11297 11298 11299 11300 11301 11302 11303 11304 11305 11306 11307 11308 11309 11310 11311 11312 11313 11314 11315 11316 11317 11318 11319 11320 11321 11322 11323 11324 11325 11326 11327 11328 11329 11330 11331 11332 11333 11334 11335 11336 11337 11338 11339 11340 11341 11342 11343 11344 11345 11346 11347 11348 11349 11350 11351 11352 11353 11354 11355 11356 11357 11358 11359 11360 11361 11362 11363 11364 11365 11366 11367 11368 11369 11370 11371 11372 11373 11374 11375 11376 11377 11378 11379 11380 11381 11382 11383 11384 11385 11386 11387 11388 11389 11390 11391 11392 11393 11394 11395 11396 11397 11398 11399 11400 11401 11402 11403 11404 11405 11406 11407 11408 11409 11410 11411 11412 11413 11414 11415 11416 11417 11418 11419 11420 11421 11422 11423 11424 11425 11426 11427 11428 11429 11430 11431 11432 11433 11434 11435 11436 11437 11438 11439 11440 11441 11442 11443 11444 11445 11446 11447 11448 11449 11450 11451 11452 11453 11454 11455 11456 11457 11458 11459 11460 11461 11462 11463 11464 11465 11466 11467 11468 11469 11470 11471 11472 11473 11474 11475 11476 11477 11478 11479 11480 11481 11482 11483 11484 11485 11486 11487 11488 11489 11490 11491 11492 11493 11494 11495 11496 11497 11498 11499 11500 11501 11502 11503 11504 11505 11506 11507 11508 11509 11510 11511 11512 11513 11514 11515 11516 11517 11518 11519 11520 11521 11522 11523 11524 11525 11526 11527 11528 11529 11530 11531 11532 11533 11534 11535 11536 11537 11538 11539 11540 11541 11542 11543 11544 11545 11546 11547 11548 11549 11550 11551 11552 11553 11554 11555 11556 11557 11558 11559 11560 11561 11562 11563 11564 11565 11566 11567 11568 11569 11570 11571 11572 11573 11574 11575 11576 11577 11578 11579 11580 11581 11582 11583 11584 11585 11586 11587 11588 11589 11590 11591 11592 11593 11594 11595 11596 11597 11598 11599 11600 11601 11602 11603 11604 11605 11606 11607 11608 11609 11610 11611 11612 11613 11614 11615 11616 11617 11618 11619 11620 11621 11622 11623 11624 11625 11626 11627 11628 11629 11630 11631 11632 11633 11634 11635 11636 11637 11638 11639 11640 11641 11642 11643 11644 11645 11646 11647 11648 11649 11650 11651 11652 11653 11654 11655 11656 11657 11658 11659 11660 11661 11662 11663 11664 11665 11666 11667 11668 11669 11670 11671 11672 11673 11674 11675 11676 11677 11678 11679 11680 11681 11682 11683 11684 11685 11686 11687 11688 11689 11690 11691 11692 11693 11694 11695 11696 11697 11698 11699 11700 11701 11702 11703 11704 11705 11706 11707 11708 11709 11710 11711 11712 11713 11714 11715 11716 11717 11718 11719 11720 11721 11722 11723 11724 11725 11726 11727 11728 11729 11730 11731 11732 11733 11734 11735 11736 11737 11738 11739 11740 11741 11742 11743 11744 11745 11746 11747 11748 11749 11750 11751 11752 11753 11754 11755 11756 11757 11758 11759 11760 11761 11762 11763 11764 11765 11766 11767 11768 11769 11770 11771 11772 11773 11774 11775 11776 11777 11778 11779 11780 11781 11782 11783 11784 11785 11786 11787 11788 11789 11790 11791 11792 11793 11794 11795 11796 11797 11798 11799 11800 11801 11802 11803 11804 11805 11806 11807 11808 11809 11810 11811 11812 11813 11814 11815 11816 11817 11818 11819 11820 11821 11822 11823 11824 11825 11826 11827 11828 11829 11830 11831 11832 11833 11834 11835 11836 11837 11838 11839 11840 11841 11842 11843 11844 11845 11846 11847 11848 11849 11850 11851 11852 11853 11854 11855 11856 11857 11858 11859 11860 11861 11862 11863 11864 11865 11866 11867 11868 11869 11870 11871 11872 11873 11874 11875 11876 11877 11878 11879 11880 11881 11882 11883 11884 11885 11886 11887 11888 11889 11890 11891 11892 11893 11894 11895 11896 11897 11898 11899 11900 11901 11902 11903 11904 11905 11906 11907 11908 11909 11910 11911 11912 11913 11914 11915 11916 11917 11918 11919 11920 11921 11922 11923 11924 11925 11926 11927 11928 11929 11930 11931 11932 11933 11934 11935 11936 11937 11938 11939 11940 11941 11942 11943 11944 11945 11946 11947 11948 11949 11950 11951 11952 11953 11954 11955 11956 11957 11958 11959 11960 11961 11962 11963 11964 11965 11966 11967 11968 11969 11970 11971 11972 11973 11974 11975 11976 11977 11978 11979 11980 11981 11982 11983 11984 11985 11986 11987 11988 11989 11990 11991 11992 11993 11994 11995 11996 11997 11998 11999 12000 12001 12002 12003 12004 12005 12006 12007 12008 12009 12010 12011 12012 12013 12014 12015 12016 12017 12018 12019 12020 12021 12022 12023 12024 12025 12026 12027 12028 12029 12030 12031 12032 12033 12034 12035 12036 12037 12038 12039 12040 12041 12042 12043 12044 12045 12046 12047 12048 12049 12050 12051 12052 12053 12054 12055 12056 12057 12058 12059 12060 12061 12062 12063 12064 12065 12066 12067 12068 12069 12070 12071 12072 12073 12074 12075 12076 12077 12078 12079 12080 12081 12082 12083 12084 12085 12086 12087 12088 12089 12090 12091 12092 12093 12094 12095 12096 12097 12098 12099 12100 12101 12102 12103 12104 12105 12106 12107 12108 12109 12110 12111 12112 12113 12114 12115 12116 12117 12118 12119 12120 12121 12122 12123 12124 12125 12126 12127 12128 12129 12130 12131 12132 12133 12134 12135 12136 12137 12138 12139 12140 12141 12142 12143 12144 12145 12146 12147 12148 12149 12150 12151 12152 12153 12154 12155 12156 12157 12158 12159 12160 12161 12162 12163 12164 12165 12166 12167 12168 12169 12170 12171 12172 12173 12174 12175 12176 12177 12178 12179 12180 12181 12182 12183 12184 12185 12186 12187 12188 12189 12190 12191 12192 12193 12194 12195 12196 12197 12198 12199 12200 12201 12202 12203 12204 12205 12206 12207 12208 12209 12210 12211 12212 12213 12214 12215 12216 12217 12218 12219 12220 12221 12222 12223 12224 12225 12226 12227 12228 12229 12230 12231 12232 12233 12234 12235 12236 12237 12238 12239 12240 12241 12242 12243 12244 12245 12246 12247 12248 12249 12250 12251 12252 12253 12254 12255 12256 12257 12258 12259 12260 12261 12262 12263 12264 12265 12266 12267 12268 12269 12270 12271 12272 12273 12274 12275 12276 12277 12278 12279 12280 12281 12282 12283 12284 12285 12286 12287 12288 12289 12290 12291 12292 12293 12294 12295 12296 12297 12298 12299 12300 12301 12302 12303 12304 12305 12306 12307 12308 12309 12310 12311 12312 12313 12314 12315 12316 12317 12318 12319 12320 12321 12322 12323 12324 12325 12326 12327 12328 12329 12330 12331 12332 12333 12334 12335 12336 12337 12338 12339 12340 12341 12342 12343 12344 12345 12346 12347 12348 12349 12350 12351 12352 12353 12354 12355 12356 12357 12358 12359 12360 12361 12362 12363 12364 12365 12366 12367 12368 12369 12370 12371 12372 12373 12374 12375 12376 12377 12378 12379 12380 12381 12382 12383 12384 12385 12386 12387 12388 12389 12390 12391 12392 12393 12394 12395 12396 12397 12398 12399 12400 12401 12402 12403 12404 12405 12406 12407 12408 12409 12410 12411 12412 12413 12414 12415 12416 12417 12418 12419 12420 12421 12422 12423 12424 12425 12426 12427 12428 12429 12430 12431 12432 12433 12434 12435 12436 12437 12438 12439 12440 12441 12442 12443 12444 12445 12446 12447 12448 12449 12450 12451 12452 12453 12454 12455 12456 12457 12458 12459 12460 12461 12462 12463 12464 12465 12466 12467 12468 12469 12470 12471 12472 12473 12474 12475 12476 12477 12478 12479 12480 12481 12482 12483 12484 12485 12486 12487 12488 12489 12490 12491 12492 12493 12494 12495 12496 12497 12498 12499 12500 12501 12502 12503 12504 12505 12506 12507 12508 12509 12510 12511 12512 12513 12514 12515 12516 12517 12518 12519 12520 12521 12522 12523 12524 12525 12526 12527 12528 12529 12530 12531 12532 12533 12534 12535 12536 12537 12538 12539 12540 12541 12542 12543 12544 12545 12546 12547 12548 12549 12550 12551 12552 12553 12554 12555 12556 12557 12558 12559 12560 12561 12562 12563 12564 12565 12566 12567 12568 12569 12570 12571 12572 12573 12574 12575 12576 12577 12578 12579 12580 12581 12582 12583 12584 12585 12586 12587 12588 12589 12590 12591 12592 12593 12594 12595 12596 12597 12598 12599 12600 12601 12602 12603 12604 12605 12606 12607 12608 12609 12610 12611 12612 12613 12614 12615 12616 12617 12618 12619 12620 12621 12622 12623 12624 12625 12626 12627 12628 12629 12630 12631 12632 12633 12634 12635 12636 12637 12638 12639 12640 12641 12642 12643 12644 12645 12646 12647 12648 12649 12650 12651 12652 12653 12654 12655 12656 12657 12658 12659 12660 12661 12662 12663 12664 12665 12666 12667 12668 12669 12670 12671 12672 12673 12674 12675 12676 12677 12678 12679 12680 12681 12682 12683 12684 12685 12686 12687 12688 12689 12690 12691 12692 12693 12694 12695 12696 12697 12698 12699 12700 12701 12702 12703 12704 12705 12706 12707 12708 12709 12710 12711 12712 12713 12714 12715 12716 12717 12718 12719 12720 12721 12722 12723 12724 12725 12726 12727 12728 12729 12730 12731 12732 12733 12734 12735 12736 12737 12738 12739 12740 12741 12742 12743 12744 12745 12746 12747 12748 12749 12750 12751 12752 12753 12754 12755 12756 12757 12758 12759 12760 12761 12762 12763 12764 12765 12766 12767 12768 12769 12770 12771 12772 12773 12774 12775 12776 12777 12778 12779 12780 12781 12782 12783 12784 12785 12786 12787 12788 12789 12790 12791 12792 12793 12794 12795 12796 12797 12798 12799 12800 12801 12802 12803 12804 12805 12806 12807 12808 12809 12810 12811 12812 12813 12814 12815 12816 12817 12818 12819 12820 12821 12822 12823 12824 12825 12826 12827 12828 12829 12830 12831 12832 12833 12834 12835 12836 12837 12838 12839 12840 12841 12842 12843 12844 12845 12846 12847 12848 12849 12850 12851 12852 12853 12854 12855 12856 12857 12858 12859 12860 12861 12862 12863 12864 12865 12866 12867 12868 12869 12870 12871 12872 12873 12874 12875 12876 12877 12878 12879 12880 12881 12882 12883 12884 12885 12886 12887 12888 12889 12890 12891 12892 12893 12894 12895 12896 12897 12898 12899 12900 12901 12902 12903 12904 12905 12906 12907 12908 12909 12910 12911 12912 12913 12914 12915 12916 12917 12918 12919 12920 12921 12922 12923 12924 12925 12926 12927 12928 12929 12930 12931 12932 12933 12934 12935 12936 12937 12938 12939 12940 12941 12942 12943 12944 12945 12946 12947 12948 12949 12950 12951 12952 12953 12954 12955 12956 12957 12958 12959 12960 12961 12962 12963 12964 12965 12966 12967 12968 12969 12970 12971 12972 12973 12974 12975 12976 12977 12978 12979 12980 12981 12982 12983 12984 12985 12986 12987 12988 12989 12990 12991 12992 12993 12994 12995 12996 12997 12998 12999 13000 13001 13002 13003 13004 13005 13006 13007 13008 13009 13010 13011 13012 13013 13014 13015 13016 13017 13018 13019 13020 13021 13022 13023 13024 13025 13026 13027 13028 13029 13030 13031 13032 13033 13034 13035 13036 13037 13038 13039 13040 13041 13042 13043 13044 13045 13046 13047 13048 13049 13050 13051 13052 13053 13054 13055 13056 13057 13058 13059 13060 13061 13062 13063 13064 13065 13066 13067 13068 13069 13070 13071 13072 13073 13074 13075 13076 13077 13078 13079 13080 13081 13082 13083 13084 13085 13086 13087 13088 13089 13090 13091 13092 13093 13094 13095 13096 13097 13098 13099 13100 13101 13102 13103 13104 13105 13106 13107 13108 13109 13110 13111 13112 13113 13114 13115 13116 13117 13118 13119 13120 13121 13122 13123 13124 13125 13126 13127 13128 13129 13130 13131 13132 13133 13134 13135 13136 13137 13138 13139 13140 13141 13142 13143 13144 13145 13146 13147 13148 13149 13150 13151 13152 13153 13154 13155 13156 13157 13158 13159 13160 13161 13162 13163 13164 13165 13166 13167 13168 13169 13170 13171 13172 13173 13174 13175 13176 13177 13178 13179 13180 13181 13182 13183 13184 13185 13186 13187 13188 13189 13190 13191 13192 13193 13194 13195 13196 13197 13198 13199 13200 13201 13202 13203 13204 13205 13206 13207 13208 13209 13210 13211 13212 13213 13214 13215 13216 13217 13218 13219 13220 13221 13222 13223 13224 13225 13226 13227 13228 13229 13230 13231 13232 13233 13234 13235 13236 13237 13238 13239 13240 13241 13242 13243 13244 13245 13246 13247 13248 13249 13250 13251 13252 13253 13254 13255 13256 13257 13258 13259 13260 13261 13262 13263 13264 13265 13266 13267 13268 13269 13270 13271 13272 13273 13274 13275 13276 13277 13278 13279 13280 13281 13282 13283 13284 13285 13286 13287 13288 13289 13290 13291 13292 13293 13294 13295 13296 13297 13298 13299 13300 13301 13302 13303 13304 13305 13306 13307 13308 13309 13310 13311 13312 13313 13314 13315 13316 13317 13318 13319 13320 13321 13322 13323 13324 13325 13326 13327 13328 13329 13330 13331 13332 13333 13334 13335 13336 13337 13338 13339 13340 13341 13342 13343 13344 13345 13346 13347 13348 13349 13350 13351 13352 13353 13354 13355 13356 13357 13358 13359 13360 13361 13362 13363 13364 13365 13366 13367 13368 13369 13370 13371 13372 13373 13374 13375 13376 13377 13378 13379 13380 13381 13382 13383 13384 13385 13386 13387 13388 13389 13390 13391 13392 13393 13394 13395 13396 13397 13398 13399 13400 13401 13402 13403 13404 13405 13406 13407 13408 13409 13410 13411 13412 13413 13414 13415 13416 13417 13418 13419 13420 13421 13422 13423 13424 13425 13426 13427 13428 13429 13430 13431 13432 13433 13434 13435 13436 13437 13438 13439 13440 13441 13442 13443 13444 13445 13446 13447 13448 13449 13450 13451 13452 13453 13454 13455 13456 13457 13458 13459 13460 13461 13462 13463 13464 13465 13466 13467 13468 13469 13470 13471 13472 13473 13474 13475 13476 13477 13478 13479 13480 13481 13482 13483 13484 13485 13486 13487 13488 13489 13490 13491 13492 13493 13494 13495 13496 13497 13498 13499 13500 13501 13502 13503 13504 13505 13506 13507 13508 13509 13510 13511 13512 13513 13514 13515 13516 13517 13518 13519 13520 13521 13522 13523 13524 13525 13526 13527 13528 13529 13530 13531 13532 13533 13534 13535 13536 13537 13538 13539 13540 13541 13542 13543 13544 13545 13546 13547 13548 13549 13550 13551 13552 13553 13554 13555 13556 13557 13558 13559 13560 13561 13562 13563 13564 13565 13566 13567 13568 13569 13570 13571 13572 13573 13574 13575 13576 13577 13578 13579 13580 13581 13582 13583 13584 13585 13586 13587 13588 13589 13590 13591 13592 13593 13594 13595 13596 13597 13598 13599 13600 13601 13602 13603 13604 13605 13606 13607 13608 13609 13610 13611 13612 13613 13614 13615 13616 13617 13618 13619 13620 13621 13622 13623 13624 13625 13626 13627 13628 13629 13630 13631 13632 13633 13634 13635 13636 13637 13638 13639 13640 13641 13642 13643 13644 13645 13646 13647 13648 13649 13650 13651 13652 13653 13654 13655 13656 13657 13658 13659 13660 13661 13662 13663 13664 13665 13666 13667 13668 13669 13670 13671 13672 13673 13674 13675 13676 13677 13678 13679 13680 13681 13682 13683 13684 13685 13686 13687 13688 13689 13690 13691 13692 13693 13694 13695 13696 13697 13698 13699 13700 13701 13702 13703 13704 13705 13706 13707 13708 13709 13710 13711 13712 13713 13714 13715 13716 13717 13718 13719 13720 13721 13722 13723 13724 13725 13726 13727 13728 13729 13730 13731 13732 13733 13734 13735 13736 13737 13738 13739 13740 13741 13742 13743 13744 13745 13746 13747 13748 13749 13750 13751 13752 13753 13754 13755 13756 13757 13758 13759 13760 13761 13762 13763 13764 13765 13766 13767 13768 13769 13770 13771 13772 13773 13774 13775 13776 13777 13778 13779 13780 13781 13782 13783 13784 13785 13786 13787 13788 13789 13790 13791 13792 13793 13794 13795 13796 13797 13798 13799 13800 13801 13802 13803 13804 13805 13806 13807 13808 13809 13810 13811 13812 13813 13814 13815 13816 13817 13818 13819 13820 13821 13822 13823 13824 13825 13826 13827 13828 13829 13830 13831 13832 13833 13834 13835 13836 13837 13838 13839 13840 13841 13842 13843 13844 13845 13846 13847 13848 13849 13850 13851 13852 13853 13854 13855 13856 13857 13858 13859 13860 13861 13862 13863 13864 13865 13866 13867 13868 13869 13870 13871 13872 13873 13874 13875 13876 13877 13878 13879 13880 13881 13882 13883 13884 13885 13886 13887 13888 13889 13890 13891 13892 13893 13894 13895 13896 13897 13898 13899 13900 13901 13902 13903 13904 13905 13906 13907 13908 13909 13910 13911 13912 13913 13914 13915 13916 13917 13918 13919 13920 13921 13922 13923 13924 13925 13926 13927 13928 13929 13930 13931 13932 13933 13934 13935 13936 13937 13938 13939 13940 13941 13942 13943 13944 13945 13946 13947 13948 13949 13950 13951 13952 13953 13954 13955 13956 13957 13958 13959 13960 13961 13962 13963 13964 13965 13966 13967 13968 13969 13970 13971 13972 13973 13974 13975 13976 13977 13978 13979 13980 13981 13982 13983 13984 13985 13986 13987 13988 13989 13990 13991 13992 13993 13994 13995 13996 13997 13998 13999 14000 14001 14002 14003 14004 14005 14006 14007 14008 14009 14010 14011 14012 14013 14014 14015 14016 14017 14018 14019 14020 14021 14022 14023 14024 14025 14026 14027 14028 14029 14030 14031 14032 14033 14034 14035 14036 14037 14038 14039 14040 14041 14042 14043 14044 14045 14046 14047 14048 14049 14050 14051 14052 14053 14054 14055 14056 14057 14058 14059 14060 14061 14062 14063 14064 14065 14066 14067 14068 14069 14070 14071 14072 14073 14074 14075 14076 14077 14078 14079 14080 14081 14082 14083 14084 14085 14086 14087 14088 14089 14090 14091 14092 14093 14094 14095 14096 14097 14098 14099 14100 14101 14102 14103 14104 14105 14106 14107 14108 14109 14110 14111 14112 14113 14114 14115 14116 14117 14118 14119 14120 14121 14122 14123 14124 14125 14126 14127 14128 14129 14130 14131 14132 14133 14134 14135 14136 14137 14138 14139 14140 14141 14142 14143 14144 14145 14146 14147 14148 14149 14150 14151 14152 14153 14154 14155 14156 14157 14158 14159 14160 14161 14162 14163 14164 14165 14166 14167 14168 14169 14170 14171 14172 14173 14174 14175 14176 14177 14178 14179 14180 14181 14182 14183 14184 14185 14186 14187 14188 14189 14190 14191 14192 14193 14194 14195 14196 14197 14198 14199 14200 14201 14202 14203 14204 14205 14206 14207 14208 14209 14210 14211 14212 14213 14214 14215 14216 14217 14218 14219 14220 14221 14222 14223 14224 14225 14226 14227 14228 14229 14230 14231 14232 14233 14234 14235 14236 14237 14238 14239 14240 14241 14242 14243 14244 14245 14246 14247 14248 14249 14250 14251 14252 14253 14254 14255 14256 14257 14258 14259 14260 14261 14262 14263 14264 14265 14266 14267 14268 14269 14270 14271 14272 14273 14274 14275 14276 14277 14278 14279 14280 14281 14282 14283 14284 14285 14286 14287 14288 14289 14290 14291 14292 14293 14294 14295 14296 14297 14298 14299 14300 14301 14302 14303 14304 14305 14306 14307 14308 14309 14310 14311 14312 14313 14314 14315 14316 14317 14318 14319 14320 14321 14322 14323 14324 14325 14326 14327 14328 14329 14330 14331 14332 14333 14334 14335 14336 14337 14338 14339 14340 14341 14342 14343 14344 14345 14346 14347 14348 14349 14350 14351 14352 14353 14354 14355 14356 14357 14358 14359 14360 14361 14362 14363 14364 14365 14366 14367 14368 14369 14370 14371 14372 14373 14374 14375 14376 14377 14378 14379 14380 14381 14382 14383 14384 14385 14386 14387 14388 14389 14390 14391 14392 14393 14394 14395 14396 14397 14398 14399 14400 14401 14402 14403 14404 14405 14406 14407 14408 14409 14410 14411 14412 14413 14414 14415 14416 14417 14418 14419 14420 14421 14422 14423 14424 14425 14426 14427 14428 14429 14430 14431 14432 14433 14434 14435 14436 14437 14438 14439 14440 14441 14442 14443 14444 14445 14446 14447 14448 14449 14450 14451 14452 14453 14454 14455 14456 14457 14458 14459 14460 14461 14462 14463 14464 14465 14466 14467 14468 14469 14470 14471 14472 14473 14474 14475 14476 14477 14478 14479 14480 14481 14482 14483 14484 14485 14486 14487 14488 14489 14490 14491 14492 14493 14494 14495 14496 14497 14498 14499 14500 14501 14502 14503 14504 14505 14506 14507 14508 14509 14510 14511 14512 14513 14514 14515 14516 14517 14518 14519 14520 14521 14522 14523 14524 14525 14526 14527 14528 14529 14530 14531 14532 14533 14534 14535 14536 14537 14538 14539 14540 14541 14542 14543 14544 14545 14546 14547 14548 14549 14550 14551 14552 14553 14554 14555 14556 14557 14558 14559 14560 14561 14562 14563 14564 14565 14566 14567 14568 14569 14570 14571 14572 14573 14574 14575 14576 14577 14578 14579 14580 14581 14582 14583 14584 14585 14586 14587 14588 14589 14590 14591 14592 14593 14594 14595 14596 14597 14598 14599 14600 14601 14602 14603 14604 14605 14606 14607 14608 14609 14610 14611 14612 14613 14614 14615 14616 14617 14618 14619 14620 14621 14622 14623 14624 14625 14626 14627 14628 14629 14630 14631 14632 14633 14634 14635 14636 14637 14638 14639 14640 14641 14642 14643 14644 14645 14646 14647 14648 14649 14650 14651 14652 14653 14654 14655 14656 14657 14658 14659 14660 14661 14662 14663 14664 14665 14666 14667 14668 14669 14670 14671 14672 14673 14674 14675 14676 14677 14678 14679 14680 14681 14682 14683 14684 14685 14686 14687 14688 14689 14690 14691 14692 14693 14694 14695 14696 14697 14698 14699 14700 14701 14702 14703 14704 14705 14706 14707 14708 14709 14710 14711 14712 14713 14714 14715 14716 14717 14718 14719 14720 14721 14722 14723 14724 14725 14726 14727 14728 14729 14730 14731 14732 14733 14734 14735 14736 14737 14738 14739 14740 14741 14742 14743 14744 14745 14746 14747 14748 14749 14750 14751 14752 14753 14754 14755 14756 14757 14758 14759 14760 14761 14762 14763 14764 14765 14766 14767 14768 14769 14770 14771 14772 14773 14774 14775 14776 14777 14778 14779 14780 14781 14782 14783 14784 14785 14786 14787 14788 14789 14790 14791 14792 14793 14794 14795 14796 14797 14798 14799 14800 14801 14802 14803 14804 14805 14806 14807 14808 14809 14810 14811 14812 14813 14814 14815 14816 14817 14818 14819 14820 14821 14822 14823 14824 14825 14826 14827 14828 14829 14830 14831 14832 14833 14834 14835 14836 14837 14838 14839 14840 14841 14842 14843 14844 14845 14846 14847 14848 14849 14850 14851 14852 14853 14854 14855 14856 14857 14858 14859 14860 14861 14862 14863 14864 14865 14866 14867 14868 14869 14870 14871 14872 14873 14874 14875 14876 14877 14878 14879 14880 14881 14882 14883 14884 14885 14886 14887 14888 14889 14890 14891 14892 14893 14894 14895 14896 14897 14898 14899 14900 14901 14902 14903 14904 14905 14906 14907 14908 14909 14910 14911 14912 14913 14914 14915 14916 14917 14918 14919 14920 14921 14922 14923 14924 14925 14926 14927 14928 14929 14930 14931 14932 14933 14934 14935 14936 14937 14938 14939 14940 14941 14942 14943 14944 14945 14946 14947 14948 14949 14950 14951 14952 14953 14954 14955 14956 14957 14958 14959 14960 14961 14962 14963 14964 14965 14966 14967 14968 14969 14970 14971 14972 14973 14974 14975 14976 14977 14978 14979 14980 14981 14982 14983 14984 14985 14986 14987 14988 14989 14990 14991 14992 14993 14994 14995 14996 14997 14998 14999 15000 15001 15002 15003 15004 15005 15006 15007 15008 15009 15010 15011 15012 15013 15014 15015 15016 15017 15018 15019 15020 15021 15022 15023 15024 15025 15026 15027 15028 15029 15030 15031 15032 15033 15034 15035 15036 15037 15038 15039 15040 15041 15042 15043 15044 15045 15046 15047 15048 15049 15050 15051 15052 15053 15054 15055 15056 15057 15058 15059 15060 15061 15062 15063 15064 15065 15066 15067 15068 15069 15070 15071 15072 15073 15074 15075 15076 15077 15078 15079 15080 15081 15082 15083 15084 15085 15086 15087 15088 15089 15090 15091 15092 15093 15094 15095 15096 15097 15098 15099 15100 15101 15102 15103 15104 15105 15106 15107 15108 15109 15110 15111 15112 15113 15114 15115 15116 15117 15118 15119 15120 15121 15122 15123 15124 15125 15126 15127 15128 15129 15130 15131 15132 15133 15134 15135 15136 15137 15138 15139 15140 15141 15142 15143 15144 15145 15146 15147 15148 15149 15150 15151 15152 15153 15154 15155 15156 15157 15158 15159 15160 15161 15162 15163 15164 15165 15166 15167 15168 15169 15170 15171 15172 15173 15174 15175 15176 15177 15178 15179 15180 15181 15182 15183 15184 15185 15186 15187 15188 15189 15190 15191 15192 15193 15194 15195 15196 15197 15198 15199 15200 15201 15202 15203 15204 15205 15206 15207 15208 15209 15210 15211 15212 15213 15214 15215 15216 15217 15218 15219 15220 15221 15222 15223 15224 15225 15226 15227 15228 15229 15230 15231 15232 15233 15234 15235 15236 15237 15238 15239 15240 15241 15242 15243 15244 15245 15246 15247 15248 15249 15250 15251 15252 15253 15254 15255 15256 15257 15258 15259 15260 15261 15262 15263 15264 15265 15266 15267 15268 15269 15270 15271 15272 15273 15274 15275 15276 15277 15278 15279 15280 15281 15282 15283 15284 15285 15286 15287 15288 15289 15290 15291 15292 15293 15294 15295 15296 15297 15298 15299 15300 15301 15302 15303 15304 15305 15306 15307 15308 15309 15310 15311 15312 15313 15314 15315 15316 15317 15318 15319 15320 15321 15322 15323 15324 15325 15326 15327 15328 15329 15330 15331 15332 15333 15334 15335 15336 15337 15338 15339 15340 15341 15342 15343 15344 15345 15346 15347 15348 15349 15350 15351 15352 15353 15354 15355 15356 15357 15358 15359 15360 15361 15362 15363 15364 15365 15366 15367 15368 15369 15370 15371 15372 15373 15374 15375 15376 15377 15378 15379 15380 15381 15382 15383 15384 15385 15386 15387 15388 15389 15390 15391 15392 15393 15394 15395 15396 15397 15398 15399 15400 15401 15402 15403 15404 15405 15406 15407 15408 15409 15410 15411 15412 15413 15414 15415 15416 15417 15418 15419 15420 15421 15422 15423 15424 15425 15426 15427 15428 15429 15430 15431 15432 15433 15434 15435 15436 15437 15438 15439 15440 15441 15442 15443 15444 15445 15446 15447 15448 15449 15450 15451 15452 15453 15454 15455 15456 15457 15458 15459 15460 15461 15462 15463 15464 15465 15466 15467 15468 15469 15470 15471 15472 15473 15474 15475 15476 15477 15478 15479 15480 15481 15482 15483 15484 15485 15486 15487 15488 15489 15490 15491 15492 15493 15494 15495 15496 15497 15498 15499 15500 15501 15502 15503 15504 15505 15506 15507 15508 15509 15510 15511 15512 15513 15514 15515 15516 15517 15518 15519 15520 15521 15522 15523 15524 15525 15526 15527 15528 15529 15530 15531 15532 15533 15534 15535 15536 15537 15538 15539 15540 15541 15542 15543 15544 15545 15546 15547 15548 15549 15550 15551 15552 15553 15554 15555 15556 15557 15558 15559 15560 15561 15562 15563 15564 15565 15566 15567 15568 15569 15570 15571 15572 15573 15574 15575 15576 15577 15578 15579 15580 15581 15582 15583 15584 15585 15586 15587 15588 15589 15590 15591 15592 15593 15594 15595 15596 15597 15598 15599 15600 15601 15602 15603 15604 15605 15606 15607 15608 15609 15610 15611 15612 15613 15614 15615 15616 15617 15618 15619 15620 15621 15622 15623 15624 15625 15626 15627 15628 15629 15630 15631 15632 15633 15634 15635 15636 15637 15638 15639 15640 15641 15642 15643 15644 15645 15646 15647 15648 15649 15650 15651 15652 15653 15654 15655 15656 15657 15658 15659 15660 15661 15662 15663 15664 15665 15666 15667 15668 15669 15670 15671 15672 15673 15674 15675 15676 15677 15678 15679 15680 15681 15682 15683 15684 15685 15686 15687 15688 15689 15690 15691 15692 15693 15694 15695 15696 15697 15698 15699 15700 15701 15702 15703 15704 15705 15706 15707 15708 15709 15710 15711 15712 15713 15714 15715 15716 15717 15718 15719 15720 15721 15722 15723 15724 15725 15726 15727 15728 15729 15730 15731 15732 15733 15734 15735 15736 15737 15738 15739 15740 15741 15742 15743 15744 15745 15746 15747 15748 15749 15750 15751 15752 15753 15754 15755 15756 15757 15758 15759 15760 15761 15762 15763 15764 15765 15766 15767 15768 15769 15770 15771 15772 15773 15774 15775 15776 15777 15778 15779 15780 15781 15782 15783 15784 15785 15786 15787 15788 15789 15790 15791 15792 15793 15794 15795 15796 15797 15798 15799 15800 15801 15802 15803 15804 15805 15806 15807 15808 15809 15810 15811 15812 15813 15814 15815 15816 15817 15818 15819 15820 15821 15822 15823 15824 15825 15826 15827 15828 15829 15830 15831 15832 15833 15834 15835 15836 15837 15838 15839 15840 15841 15842 15843 15844 15845 15846 15847 15848 15849 15850 15851 15852 15853 15854 15855 15856 15857 15858 15859 15860 15861 15862 15863 15864 15865 15866 15867 15868 15869 15870 15871 15872 15873 15874 15875 15876 15877 15878 15879 15880 15881 15882 15883 15884 15885 15886 15887 15888 15889 15890 15891 15892 15893 15894 15895 15896 15897 15898 15899 15900 15901 15902 15903 15904 15905 15906 15907 15908 15909 15910 15911 15912 15913 15914 15915 15916 15917 15918 15919 15920 15921 15922 15923 15924 15925 15926 15927 15928 15929 15930 15931 15932 15933 15934 15935 15936 15937 15938 15939 15940 15941 15942 15943 15944 15945 15946 15947 15948 15949 15950 15951 15952 15953 15954 15955 15956 15957 15958 15959 15960 15961 15962 15963 15964 15965 15966 15967 15968 15969 15970 15971 15972 15973 15974 15975 15976 15977 15978 15979 15980 15981 15982 15983 15984 15985 15986 15987 15988 15989 15990 15991 15992 15993 15994 15995 15996 15997 15998 15999 16000 16001 16002 16003 16004 16005 16006 16007 16008 16009 16010 16011 16012 16013 16014 16015 16016 16017 16018 16019 16020 16021 16022 16023 16024 16025 16026 16027 16028 16029 16030 16031 16032 16033 16034 16035 16036 16037 16038 16039 16040 16041 16042 16043 16044 16045 16046 16047 16048 16049 16050 16051 16052 16053 16054 16055 16056 16057 16058 16059 16060 16061 16062 16063 16064 16065 16066 16067 16068 16069 16070 16071 16072 16073 16074 16075 16076 16077 16078 16079 16080 16081 16082 16083 16084 16085 16086 16087 16088 16089 16090 16091 16092 16093 16094 16095 16096 16097 16098 16099 16100 16101 16102 16103 16104 16105 16106 16107 16108 16109 16110 16111 16112 16113 16114 16115 16116 16117 16118 16119 16120 16121 16122 16123 16124 16125 16126 16127 16128 16129 16130 16131 16132 16133 16134 16135 16136 16137 16138 16139 16140 16141 16142 16143 16144 16145 16146 16147 16148 16149 16150 16151 16152 16153 16154 16155 16156 16157 16158 16159 16160 16161 16162 16163 16164 16165 16166 16167 16168 16169 16170 16171 16172 16173 16174 16175 16176 16177 16178 16179 16180 16181 16182 16183 16184 16185 16186 16187 16188 16189 16190 16191 16192 16193 16194 16195 16196 16197 16198 16199 16200 16201 16202 16203 16204 16205 16206 16207 16208 16209 16210 16211 16212 16213 16214 16215 16216 16217 16218 16219 16220 16221 16222 16223 16224 16225 16226 16227 16228 16229 16230 16231 16232 16233 16234 16235 16236 16237 16238 16239 16240 16241 16242 16243 16244 16245 16246 16247 16248 16249 16250 16251 16252 16253 16254 16255 16256 16257 16258 16259 16260 16261 16262 16263 16264 16265 16266 16267 16268 16269 16270 16271 16272 16273 16274 16275 16276 16277 16278 16279 16280 16281 16282 16283 16284 16285 16286 16287 16288 16289 16290 16291 16292 16293 16294 16295 16296 16297 16298 16299 16300 16301 16302 16303 16304 16305 16306 16307 16308 16309 16310 16311 16312 16313 16314 16315 16316 16317 16318 16319 16320 16321 16322 16323 16324 16325 16326 16327 16328 16329 16330 16331 16332 16333 16334 16335 16336 16337 16338 16339 16340 16341 16342 16343 16344 16345 16346 16347 16348 16349 16350 16351 16352 16353 16354 16355 16356 16357 16358 16359 16360 16361 16362 16363 16364 16365 16366 16367 16368 16369 16370 16371 16372 16373 16374 16375 16376 16377 16378 16379 16380 16381 16382 16383 16384 16385 16386 16387 16388 16389 16390 16391 16392 16393 16394 16395 16396 16397 16398 16399 16400 16401 16402 16403 16404 16405 16406 16407 16408 16409 16410 16411 16412 16413 16414 16415 16416 16417 16418 16419 16420 16421 16422 16423 16424 16425 16426 16427 16428 16429 16430 16431 16432 16433 16434 16435 16436 16437 16438 16439 16440 16441 16442 16443 16444 16445 16446 16447 16448 16449 16450 16451 16452 16453 16454 16455 16456 16457 16458 16459 16460 16461 16462 16463 16464 16465 16466 16467 16468 16469 16470 16471 16472 16473 16474 16475 16476 16477 16478 16479 16480 16481 16482 16483 16484 16485 16486 16487 16488 16489 16490 16491 16492 16493 16494 16495 16496 16497 16498 16499 16500 16501 16502 16503 16504 16505 16506 16507 16508 16509 16510 16511 16512 16513 16514 16515 16516 16517 16518 16519 16520 16521 16522 16523 16524 16525 16526 16527 16528 16529 16530 16531 16532 16533 16534 16535 16536 16537 16538 16539 16540 16541 16542 16543 16544 16545 16546 16547 16548 16549 16550 16551 16552 16553 16554 16555 16556 16557 16558 16559 16560 16561 16562 16563 16564 16565 16566 16567 16568 16569 16570 16571 16572 16573 16574 16575 16576 16577 16578 16579 16580 16581 16582 16583 16584 16585 16586 16587 16588 16589 16590 16591 16592 16593 16594 16595 16596 16597 16598 16599 16600 16601 16602 16603 16604 16605 16606 16607 16608 16609 16610 16611 16612 16613 16614 16615 16616 16617 16618 16619 16620 16621 16622 16623 16624 16625 16626 16627 16628 16629 16630 16631 16632 16633 16634 16635 16636 16637 16638 16639 16640 16641 16642 16643 16644 16645 16646 16647 16648 16649 16650 16651 16652 16653 16654 16655 16656 16657 16658 16659 16660 16661 16662 16663 16664 16665 16666 16667 16668 16669 16670 16671 16672 16673 16674 16675 16676 16677 16678 16679 16680 16681 16682 16683 16684 16685 16686 16687 16688 16689 16690 16691 16692 16693 16694 16695 16696 16697 16698 16699 16700 16701 16702 16703 16704 16705 16706 16707 16708 16709 16710 16711 16712 16713 16714 16715 16716 16717 16718 16719 16720 16721 16722 16723 16724 16725 16726 16727 16728 16729 16730 16731 16732 16733 16734 16735 16736 16737 16738 16739 16740 16741 16742 16743 16744 16745 16746 16747 16748 16749 16750 16751 16752 16753 16754 16755 16756 16757 16758 16759 16760 16761 16762 16763 16764 16765 16766 16767 16768 16769 16770 16771 16772 16773 16774 16775 16776 16777 16778 16779 16780 16781 16782 16783 16784 16785 16786 16787 16788 16789 16790 16791 16792 16793 16794 16795 16796 16797 16798 16799 16800 16801 16802 16803 16804 16805 16806 16807 16808 16809 16810 16811 16812 16813 16814 16815 16816 16817 16818 16819 16820 16821 16822 16823 16824 16825 16826 16827 16828 16829 16830 16831 16832 16833 16834 16835 16836 16837 16838 16839 16840 16841 16842 16843 16844 16845 16846 16847 16848 16849 16850 16851 16852 16853 16854 16855 16856 16857 16858 16859 16860 16861 16862 16863 16864 16865 16866 16867 16868 16869 16870 16871 16872 16873 16874 16875 16876 16877 16878 16879 16880 16881 16882 16883 16884 16885 16886 16887 16888 16889 16890 16891 16892 16893 16894 16895 16896 16897 16898 16899 16900 16901 16902 16903 16904 16905 16906 16907 16908 16909 16910 16911 16912 16913 16914 16915 16916 16917 16918 16919 16920 16921 16922 16923 16924 16925 16926 16927 16928 16929 16930 16931 16932 16933 16934 16935 16936 16937 16938 16939 16940 16941 16942 16943 16944 16945 16946 16947 16948 16949 16950 16951 16952 16953 16954 16955 16956 16957 16958 16959 16960 16961 16962 16963 16964 16965 16966 16967 16968 16969 16970 16971 16972 16973 16974 16975 16976 16977 16978 16979 16980 16981 16982 16983 16984 16985 16986 16987 16988 16989 16990 16991 16992 16993 16994 16995 16996 16997 16998 16999 17000 17001 17002 17003 17004 17005 17006 17007 17008 17009 17010 17011 17012 17013 17014 17015 17016 17017 17018 17019 17020 17021 17022 17023 17024 17025 17026 17027 17028 17029 17030 17031 17032 17033 17034 17035 17036 17037 17038 17039 17040 17041 17042 17043 17044 17045 17046 17047 17048 17049 17050 17051 17052 17053 17054 17055 17056 17057 17058 17059 17060 17061 17062 17063 17064 17065 17066 17067 17068 17069 17070 17071 17072 17073 17074 17075 17076 17077 17078 17079 17080 17081 17082 17083 17084 17085 17086 17087 17088 17089 17090 17091 17092 17093 17094 17095 17096 17097 17098 17099 17100 17101 17102 17103 17104 17105 17106 17107 17108 17109 17110 17111 17112 17113 17114 17115 17116 17117 17118 17119 17120 17121 17122 17123 17124 17125 17126 17127 17128 17129 17130 17131 17132 17133 17134 17135 17136 17137 17138 17139 17140 17141 17142 17143 17144 17145 17146 17147 17148 17149 17150 17151 17152 17153 17154 17155 17156 17157 17158 17159 17160 17161 17162 17163 17164 17165 17166 17167 17168 17169 17170 17171 17172 17173 17174 17175 17176 17177 17178 17179 17180 17181 17182 17183 17184 17185 17186 17187 17188 17189 17190 17191 17192 17193 17194 17195 17196 17197 17198 17199 17200 17201 17202 17203 17204 17205 17206 17207 17208 17209 17210 17211 17212 17213 17214 17215 17216 17217 17218 17219 17220 17221 17222 17223 17224 17225 17226 17227 17228 17229 17230 17231 17232 17233 17234 17235 17236 17237 17238 17239 17240 17241 17242 17243 17244 17245 17246 17247 17248 17249 17250 17251 17252 17253 17254 17255 17256 17257 17258 17259 17260 17261 17262 17263 17264 17265 17266 17267 17268 17269 17270 17271 17272 17273 17274 17275 17276 17277 17278 17279 17280 17281 17282 17283 17284 17285 17286 17287 17288 17289 17290 17291 17292 17293 17294 17295 17296 17297 17298 17299 17300 17301 17302 17303 17304 17305 17306 17307 17308 17309 17310 17311 17312 17313 17314 17315 17316 17317 17318 17319 17320 17321 17322 17323 17324 17325 17326 17327 17328 17329 17330 17331 17332 17333 17334 17335 17336 17337 17338 17339 17340 17341 17342 17343 17344 17345 17346 17347 17348 17349 17350 17351 17352 17353 17354 17355 17356 17357 17358 17359 17360 17361 17362 17363 17364 17365 17366 17367 17368 17369 17370 17371 17372 17373 17374 17375 17376 17377 17378 17379 17380 17381 17382 17383 17384 17385 17386 17387 17388 17389 17390 17391 17392 17393 17394 17395 17396 17397 17398 17399 17400 17401 17402 17403 17404 17405 17406 17407 17408 17409 17410 17411 17412 17413 17414 17415 17416 17417 17418 17419 17420 17421 17422 17423 17424 17425 17426 17427 17428 17429 17430 17431 17432 17433 17434 17435 17436 17437 17438 17439 17440 17441 17442 17443 17444 17445 17446 17447 17448 17449 17450 17451 17452 17453 17454 17455 17456 17457 17458 17459 17460 17461 17462 17463 17464 17465 17466 17467 17468 17469 17470 17471 17472 17473 17474 17475 17476 17477 17478 17479 17480 17481 17482 17483 17484 17485 17486 17487 17488 17489 17490 17491 17492 17493 17494 17495 17496 17497 17498 17499 17500 17501 17502 17503 17504 17505 17506 17507 17508 17509 17510 17511 17512 17513 17514 17515 17516 17517 17518 17519 17520 17521 17522 17523 17524 17525 17526 17527 17528 17529 17530 17531 17532 17533 17534 17535 17536 17537 17538 17539 17540 17541 17542 17543 17544 17545 17546 17547 17548 17549 17550 17551 17552 17553 17554 17555 17556 17557 17558 17559 17560 17561 17562 17563 17564 17565 17566 17567 17568 17569 17570 17571 17572 17573 17574 17575 17576 17577 17578 17579 17580 17581 17582 17583 17584 17585 17586 17587 17588 17589 17590 17591 17592 17593 17594 17595 17596 17597 17598 17599 17600 17601 17602 17603 17604 17605 17606 17607 17608 17609 17610 17611 17612 17613 17614 17615 17616 17617 17618 17619 17620 17621 17622 17623 17624 17625 17626 17627 17628 17629 17630 17631 17632 17633 17634 17635 17636 17637 17638 17639 17640 17641 17642 17643 17644 17645 17646 17647 17648 17649 17650 17651 17652 17653 17654 17655 17656 17657 17658 17659 17660 17661 17662 17663 17664 17665 17666 17667 17668 17669 17670 17671 17672 17673 17674 17675 17676 17677 17678 17679 17680 17681 17682 17683 17684 17685 17686 17687 17688 17689 17690 17691 17692 17693 17694 17695 17696 17697 17698 17699 17700 17701 17702 17703 17704 17705 17706 17707 17708 17709 17710 17711 17712 17713 17714 17715 17716 17717 17718 17719 17720 17721 17722 17723 17724 17725 17726 17727 17728 17729 17730 17731 17732 17733 17734 17735 17736 17737 17738 17739 17740 17741 17742 17743 17744 17745 17746 17747 17748 17749 17750 17751 17752 17753 17754 17755 17756 17757 17758 17759 17760 17761 17762 17763 17764 17765 17766 17767 17768 17769 17770 17771 17772 17773 17774 17775 17776 17777 17778 17779 17780 17781 17782 17783 17784 17785 17786 17787 17788 17789 17790 17791 17792 17793 17794 17795 17796 17797 17798 17799 17800 17801 17802 17803 17804 17805 17806 17807 17808 17809 17810 17811 17812 17813 17814 17815 17816 17817 17818 17819 17820 17821 17822 17823 17824 17825 17826 17827 17828 17829 17830 17831 17832 17833 17834 17835 17836 17837 17838 17839 17840 17841 17842 17843 17844 17845 17846 17847 17848 17849 17850 17851 17852 17853 17854 17855 17856 17857 17858 17859 17860 17861 17862 17863 17864 17865 17866 17867 17868 17869 17870 17871 17872 17873 17874 17875 17876 17877 17878 17879 17880 17881 17882 17883 17884 17885 17886 17887 17888 17889 17890 17891 17892 17893 17894 17895 17896 17897 17898 17899 17900 17901 17902 17903 17904 17905 17906 17907 17908 17909 17910 17911 17912 17913 17914 17915 17916 17917 17918 17919 17920 17921 17922 17923 17924 17925 17926 17927 17928 17929 17930 17931 17932 17933 17934 17935 17936 17937 17938 17939 17940 17941 17942 17943 17944 17945 17946 17947 17948 17949 17950 17951 17952 17953 17954 17955 17956 17957 17958 17959 17960 17961 17962 17963 17964 17965 17966 17967 17968 17969 17970 17971 17972 17973 17974 17975 17976 17977 17978 17979 17980 17981 17982 17983 17984 17985 17986 17987 17988 17989 17990 17991 17992 17993 17994 17995 17996 17997 17998 17999 18000 18001 18002 18003 18004 18005 18006 18007 18008 18009 18010 18011 18012 18013 18014 18015 18016 18017 18018 18019 18020 18021 18022 18023 18024 18025 18026 18027 18028 18029 18030 18031 18032 18033 18034 18035 18036 18037 18038 18039 18040 18041 18042 18043 18044 18045 18046 18047 18048 18049 18050 18051 18052 18053 18054 18055 18056 18057 18058 18059 18060 18061 18062 18063 18064 18065 18066 18067 18068 18069 18070 18071 18072 18073 18074 18075 18076 18077 18078 18079 18080 18081 18082 18083 18084 18085 18086 18087 18088 18089 18090 18091 18092 18093 18094 18095 18096 18097 18098 18099 18100 18101 18102 18103 18104 18105 18106 18107 18108 18109 18110 18111 18112 18113 18114 18115 18116 18117 18118 18119 18120 18121 18122 18123 18124 18125 18126 18127 18128 18129 18130 18131 18132 18133 18134 18135 18136 18137 18138 18139 18140 18141 18142 18143 18144 18145 18146 18147 18148 18149 18150 18151 18152 18153 18154 18155 18156 18157 18158 18159 18160 18161 18162 18163 18164 18165 18166 18167 18168 18169 18170 18171 18172 18173 18174 18175 18176 18177 18178 18179 18180 18181 18182 18183 18184 18185 18186 18187 18188 18189 18190 18191 18192 18193 18194 18195 18196 18197 18198 18199 18200 18201 18202 18203 18204 18205 18206 18207 18208 18209 18210 18211 18212 18213 18214 18215 18216 18217 18218 18219 18220 18221 18222 18223 18224 18225 18226 18227 18228 18229 18230 18231 18232 18233 18234 18235 18236 18237 18238 18239 18240 18241 18242 18243 18244 18245 18246 18247 18248 18249 18250 18251 18252 18253 18254 18255 18256 18257 18258 18259 18260 18261 18262 18263 18264 18265 18266 18267 18268 18269 18270 18271 18272 18273 18274 18275 18276 18277 18278 18279 18280 18281 18282 18283 18284 18285 18286 18287 18288 18289 18290 18291 18292 18293 18294 18295 18296 18297 18298 18299 18300 18301 18302 18303 18304 18305 18306 18307 18308 18309 18310 18311 18312 18313 18314 18315 18316 18317 18318 18319 18320 18321 18322 18323 18324 18325 18326 18327 18328 18329 18330 18331 18332 18333 18334 18335 18336 18337 18338 18339 18340 18341 18342 18343 18344 18345 18346 18347 18348 18349 18350 18351 18352 18353 18354 18355 18356 18357 18358 18359 18360 18361 18362 18363 18364 18365 18366 18367 18368 18369 18370 18371 18372 18373 18374 18375 18376 18377 18378 18379 18380 18381 18382 18383 18384 18385 18386 18387 18388 18389 18390 18391 18392 18393 18394 18395 18396 18397 18398 18399 18400 18401 18402 18403 18404 18405 18406 18407 18408 18409 18410 18411 18412 18413 18414 18415 18416 18417 18418 18419 18420 18421 18422 18423 18424 18425 18426 18427 18428 18429 18430 18431 18432 18433 18434 18435 18436 18437 18438 18439 18440 18441 18442 18443 18444 18445 18446 18447 18448 18449 18450 18451 18452 18453 18454 18455 18456 18457 18458 18459 18460 18461 18462 18463 18464 18465 18466 18467 18468 18469 18470 18471 18472 18473 18474 18475 18476 18477 18478 18479 18480 18481 18482 18483 18484 18485 18486 18487 18488 18489 18490 18491 18492 18493 18494 18495 18496 18497 18498 18499 18500 18501 18502 18503 18504 18505 18506 18507 18508 18509 18510 18511 18512 18513 18514 18515 18516 18517 18518 18519 18520 18521 18522 18523 18524 18525 18526 18527 18528 18529 18530 18531 18532 18533 18534 18535 18536 18537 18538 18539 18540 18541 18542 18543 18544 18545 18546 18547 18548 18549 18550 18551 18552 18553 18554 18555 18556 18557 18558 18559 18560 18561 18562 18563 18564 18565 18566 18567 18568 18569 18570 18571 18572 18573 18574 18575 18576 18577 18578 18579 18580 18581 18582 18583 18584 18585 18586 18587 18588 18589 18590 18591 18592 18593 18594 18595 18596 18597 18598 18599 18600 18601 18602 18603 18604 18605 18606 18607 18608 18609 18610 18611 18612 18613 18614 18615 18616 18617 18618 18619 18620 18621 18622 18623 18624 18625 18626 18627 18628 18629 18630 18631 18632 18633 18634 18635 18636 18637 18638 18639 18640 18641 18642 18643 18644 18645 18646 18647 18648 18649 18650 18651 18652 18653 18654 18655 18656 18657 18658 18659 18660 18661 18662 18663 18664 18665 18666 18667 18668 18669 18670 18671 18672 18673 18674 18675 18676 18677 18678 18679 18680 18681 18682 18683 18684 18685 18686 18687 18688 18689 18690 18691 18692 18693 18694 18695 18696 18697 18698 18699 18700 18701 18702 18703 18704 18705 18706 18707 18708 18709 18710 18711 18712 18713 18714 18715 18716 18717 18718 18719 18720 18721 18722 18723 18724 18725 18726 18727 18728 18729 18730 18731 18732 18733 18734 18735 18736 18737 18738 18739 18740 18741 18742 18743 18744 18745 18746 18747 18748 18749 18750 18751 18752 18753 18754 18755 18756 18757 18758 18759 18760 18761 18762 18763 18764 18765 18766 18767 18768 18769 18770 18771 18772 18773 18774 18775 18776 18777 18778 18779 18780 18781 18782 18783 18784 18785 18786 18787 18788 18789 18790 18791 18792 18793 18794 18795 18796 18797 18798 18799 18800 18801 18802 18803 18804 18805 18806 18807 18808 18809 18810 18811 18812 18813 18814 18815 18816 18817 18818 18819 18820 18821 18822 18823 18824 18825 18826 18827 18828 18829 18830 18831 18832 18833 18834 18835 18836 18837 18838 18839 18840 18841 18842 18843 18844 18845 18846 18847 18848 18849 18850 18851 18852 18853 18854 18855 18856 18857 18858 18859 18860 18861 18862 18863 18864 18865 18866 18867 18868 18869 18870 18871 18872 18873 18874 18875 18876 18877 18878 18879 18880 18881 18882 18883 18884 18885 18886 18887 18888 18889 18890 18891 18892 18893 18894 18895 18896 18897 18898 18899 18900 18901 18902 18903 18904 18905 18906 18907 18908 18909 18910 18911 18912 18913 18914 18915 18916 18917 18918 18919 18920 18921 18922 18923 18924 18925 18926 18927 18928 18929 18930 18931 18932 18933 18934 18935 18936 18937 18938 18939 18940 18941 18942 18943 18944 18945 18946 18947 18948 18949 18950 18951 18952 18953 18954 18955 18956 18957 18958 18959 18960 18961 18962 18963 18964 18965 18966 18967 18968 18969 18970 18971 18972 18973 18974 18975 18976 18977 18978 18979 18980 18981 18982 18983 18984 18985 18986 18987 18988 18989 18990 18991 18992 18993 18994 18995 18996 18997 18998 18999 19000 19001 19002 19003 19004 19005 19006 19007 19008 19009 19010 19011 19012 19013 19014 19015 19016 19017 19018 19019 19020 19021 19022 19023 19024 19025 19026 19027 19028 19029 19030 19031 19032 19033 19034 19035 19036 19037 19038 19039 19040 19041 19042 19043 19044 19045 19046 19047 19048 19049 19050 19051 19052 19053 19054 19055 19056 19057 19058 19059 19060 19061 19062 19063 19064 19065 19066 19067 19068 19069 19070 19071 19072 19073 19074 19075 19076 19077 19078 19079 19080 19081 19082 19083 19084 19085 19086 19087 19088 19089 19090 19091 19092 19093 19094 19095 19096 19097 19098 19099 19100 19101 19102 19103 19104 19105 19106 19107 19108 19109 19110 19111 19112 19113 19114 19115 19116 19117 19118 19119 19120 19121 19122 19123 19124 19125 19126 19127 19128 19129 19130 19131 19132 19133 19134 19135 19136 19137 19138 19139 19140 19141 19142 19143 19144 19145 19146 19147 19148 19149 19150 19151 19152 19153 19154 19155 19156 19157 19158 19159 19160 19161 19162 19163 19164 19165 19166 19167 19168 19169 19170 19171 19172 19173 19174 19175 19176 19177 19178 19179 19180 19181 19182 19183 19184 19185 19186 19187 19188 19189 19190 19191 19192 19193 19194 19195 19196 19197 19198 19199 19200 19201 19202 19203 19204 19205 19206 19207 19208 19209 19210 19211 19212 19213 19214 19215 19216 19217 19218 19219 19220 19221 19222 19223 19224 19225 19226 19227 19228 19229 19230 19231 19232 19233 19234 19235 19236 19237 19238 19239 19240 19241 19242 19243 19244 19245 19246 19247 19248 19249 19250 19251 19252 19253 19254 19255 19256 19257 19258 19259 19260 19261 19262 19263 19264 19265 19266 19267 19268 19269 19270 19271 19272 19273 19274 19275 19276 19277 19278 19279 19280 19281 19282 19283 19284 19285 19286 19287 19288 19289 19290 19291 19292 19293 19294 19295 19296 19297 19298 19299 19300 19301 19302 19303 19304 19305 19306 19307 19308 19309 19310 19311 19312 19313 19314 19315 19316 19317 19318 19319 19320 19321 19322 19323 19324 19325 19326 19327 19328 19329 19330 19331 19332 19333 19334 19335 19336 19337 19338 19339 19340 19341 19342 19343 19344 19345 19346 19347 19348 19349 19350 19351 19352 19353 19354 19355 19356 19357 19358 19359 19360 19361 19362 19363 19364 19365 19366 19367 19368 19369 19370 19371 19372 19373 19374 19375 19376 19377 19378 19379 19380 19381 19382 19383 19384 19385 19386 19387 19388 19389 19390 19391 19392 19393 19394 19395 19396 19397 19398 19399 19400 19401 19402 19403 19404 19405 19406 19407 19408 19409 19410 19411 19412 19413 19414 19415 19416 19417 19418 19419 19420 19421 19422 19423 19424 19425 19426 19427 19428 19429 19430 19431 19432 19433 19434 19435 19436 19437 19438 19439 19440 19441 19442 19443 19444 19445 19446 19447 19448 19449 19450 19451 19452 19453 19454 19455 19456 19457 19458 19459 19460 19461 19462 19463 19464 19465 19466 19467 19468 19469 19470 19471 19472 19473 19474 19475 19476 19477 19478 19479 19480 19481 19482 19483 19484 19485 19486 19487 19488 19489 19490 19491 19492 19493 19494 19495 19496 19497 19498 19499 19500 19501 19502 19503 19504 19505 19506 19507 19508 19509 19510 19511 19512 19513 19514 19515 19516 19517 19518 19519 19520 19521 19522 19523 19524 19525 19526 19527 19528 19529 19530 19531 19532 19533 19534 19535 19536 19537 19538 19539 19540 19541 19542 19543 19544 19545 19546 19547 19548 19549 19550 19551 19552 19553 19554 19555 19556 19557 19558 19559 19560 19561 19562 19563 19564 19565 19566 19567 19568 19569 19570 19571 19572 19573 19574 19575 19576 19577 19578 19579 19580 19581 19582 19583 19584 19585 19586 19587 19588 19589 19590 19591 19592 19593 19594 19595 19596 19597 19598 19599 19600 19601 19602 19603 19604 19605 19606 19607 19608 19609 19610 19611 19612 19613 19614 19615 19616 19617 19618 19619 19620 19621 19622 19623 19624 19625 19626 19627 19628 19629 19630 19631 19632 19633 19634 19635 19636 19637 19638 19639 19640 19641 19642 19643 19644 19645 19646 19647 19648 19649 19650 19651 19652 19653 19654 19655 19656 19657 19658 19659 19660 19661 19662 19663 19664 19665 19666 19667 19668 19669 19670 19671 19672 19673 19674 19675 19676 19677 19678 19679 19680 19681 19682 19683 19684 19685 19686 19687 19688 19689 19690 19691 19692 19693 19694 19695 19696 19697 19698 19699 19700 19701 19702 19703 19704 19705 19706 19707 19708 19709 19710 19711 19712 19713 19714 19715 19716 19717 19718 19719 19720 19721 19722 19723 19724 19725 19726 19727 19728 19729 19730 19731 19732 19733 19734 19735 19736 19737 19738 19739 19740 19741 19742 19743 19744 19745 19746 19747 19748 19749 19750 19751 19752 19753 19754 19755 19756 19757 19758 19759 19760 19761 19762 19763 19764 19765 19766 19767 19768 19769 19770 19771 19772 19773 19774 19775 19776 19777 19778 19779 19780 19781 19782 19783 19784 19785 19786 19787 19788 19789 19790 19791 19792 19793 19794 19795 19796 19797 19798 19799 19800 19801 19802 19803 19804 19805 19806 19807 19808 19809 19810 19811 19812 19813 19814 19815 19816 19817 19818 19819 19820 19821 19822 19823 19824 19825 19826 19827 19828 19829 19830 19831 19832 19833 19834 19835 19836 19837 19838 19839 19840 19841 19842 19843 19844 19845 19846 19847 19848 19849 19850 19851 19852 19853 19854 19855 19856 19857 19858 19859 19860 19861 19862 19863 19864 19865 19866 19867 19868 19869 19870 19871 19872 19873 19874 19875 19876 19877 19878 19879 19880 19881 19882 19883 19884 19885 19886 19887 19888 19889 19890 19891 19892 19893 19894 19895 19896 19897 19898 19899 19900 19901 19902 19903 19904 19905 19906 19907 19908 19909 19910 19911 19912 19913 19914 19915 19916 19917 19918 19919 19920 19921 19922 19923 19924 19925 19926 19927 19928 19929 19930 19931 19932 19933 19934 19935 19936 19937 19938 19939 19940 19941 19942 19943 19944 19945 19946 19947 19948 19949 19950 19951 19952 19953 19954 19955 19956 19957 19958 19959 19960 19961 19962 19963 19964 19965 19966 19967 19968 19969 19970 19971 19972 19973 19974 19975 19976 19977 19978 19979 19980 19981 19982 19983 19984 19985 19986 19987 19988 19989 19990 19991 19992 19993 19994 19995 19996 19997 19998 19999 20000 20001 20002 20003 20004 20005 20006 20007 20008 20009 20010 20011 20012 20013 20014 20015 20016 20017 20018 20019 20020 20021 20022 20023 20024 20025 20026 20027 20028 20029 20030 20031 20032 20033 20034 20035 20036 20037 20038 20039 20040 20041 20042 20043 20044 20045 20046 20047 20048 20049 20050 20051 20052 20053 20054 20055 20056 20057 20058 20059 20060 20061 20062 20063 20064 20065 20066 20067 20068 20069 20070 20071 20072 20073 20074 20075 20076 20077 20078 20079 20080 20081 20082 20083 20084 20085 20086 20087 20088 20089 20090 20091 20092 20093 20094 20095 20096 20097 20098 20099 20100 20101 20102 20103 20104 20105 20106 20107 20108 20109 20110 20111 20112 20113 20114 20115 20116 20117 20118 20119 20120 20121 20122 20123 20124 20125 20126 20127 20128 20129 20130 20131 20132 20133 20134 20135 20136 20137 20138 20139 20140 20141 20142 20143 20144 20145 20146 20147 20148 20149 20150 20151 20152 20153 20154 20155 20156 20157 20158 20159 20160 20161 20162 20163 20164 20165 20166 20167 20168 20169 20170 20171 20172 20173 20174 20175 20176 20177 20178 20179 20180 20181 20182 20183 20184 20185 20186 20187 20188 20189 20190 20191 20192 20193 20194 20195 20196 20197 20198 20199 20200 20201 20202 20203 20204 20205 20206 20207 20208 20209 20210 20211 20212 20213 20214 20215 20216 20217 20218 20219 20220 20221 20222 20223 20224 20225 20226 20227 20228 20229 20230 20231 20232 20233 20234 20235 20236 20237 20238 20239 20240 20241 20242 20243 20244 20245 20246 20247 20248 20249 20250 20251 20252 20253 20254 20255 20256 20257 20258 20259 20260 20261 20262 20263 20264 20265 20266 20267 20268 20269 20270 20271 20272 20273 20274 20275 20276 20277 20278 20279 20280 20281 20282 20283 20284 20285 20286 20287 20288 20289 20290 20291 20292 20293 20294 20295 20296 20297 20298 20299 20300 20301 20302 20303 20304 20305 20306 20307 20308 20309 20310 20311 20312 20313 20314 20315 20316 20317 20318 20319 20320 20321 20322 20323 20324 20325 20326 20327 20328 20329 20330 20331 20332 20333 20334 20335 20336 20337 20338 20339 20340 20341 20342 20343 20344 20345 20346 20347 20348 20349 20350 20351 20352 20353 20354 20355 20356 20357 20358 20359 20360 20361 20362 20363 20364 20365 20366 20367 20368 20369 20370 20371 20372 20373 20374 20375 20376 20377 20378 20379 20380 20381 20382 20383 20384 20385 20386 20387 20388 20389 20390 20391 20392 20393 20394 20395 20396 20397 20398 20399 20400 20401 20402 20403 20404 20405 20406 20407 20408 20409 20410 20411 20412 20413 20414 20415 20416 20417 20418 20419 20420 20421 20422 20423 20424 20425 20426 20427 20428 20429 20430 20431 20432 20433 20434 20435 20436 20437 20438 20439 20440 20441 20442 20443 20444 20445 20446 20447 20448 20449 20450 20451 20452 20453 20454 20455 20456 20457 20458 20459 20460 20461 20462 20463 20464 20465 20466 20467 20468 20469 20470 20471 20472 20473 20474 20475 20476 20477 20478 20479 20480 20481 20482 20483 20484 20485 20486 20487 20488 20489 20490 20491 20492 20493 20494 20495 20496 20497 20498 20499 20500 20501 20502 20503 20504 20505 20506 20507 20508 20509 20510 20511 20512 20513 20514 20515 20516 20517 20518 20519 20520 20521 20522 20523 20524 20525 20526 20527 20528 20529 20530 20531 20532 20533 20534 20535 20536 20537 20538 20539 20540 20541 20542 20543 20544 20545 20546 20547 20548 20549 20550 20551 20552 20553 20554 20555 20556 20557 20558 20559 20560 20561 20562 20563 20564 20565 20566 20567 20568 20569 20570 20571 20572 20573 20574 20575 20576 20577 20578 20579 20580 20581 20582 20583 20584 20585 20586 20587 20588 20589 20590 20591 20592 20593 20594 20595 20596 20597 20598 20599 20600 20601 20602 20603 20604 20605 20606 20607 20608 20609 20610 20611 20612 20613 20614 20615 20616 20617 20618 20619 20620 20621 20622 20623 20624 20625 20626 20627 20628 20629 20630 20631 20632 20633 20634 20635 20636 20637 20638 20639 20640 20641 20642 20643 20644 20645 20646 20647 20648 20649 20650 20651 20652 20653 20654 20655 20656 20657 20658 20659 20660 20661 20662 20663 20664 20665 20666 20667 20668 20669 20670 20671 20672 20673 20674 20675 20676 20677 20678 20679 20680 20681 20682 20683 20684 20685 20686 20687 20688 20689 20690 20691 20692 20693 20694 20695 20696 20697 20698 20699 20700 20701 20702 20703 20704 20705 20706 20707 20708 20709 20710 20711 20712 20713 20714 20715 20716 20717 20718 20719 20720 20721 20722 20723 20724 20725 20726 20727 20728 20729 20730 20731 20732 20733 20734 20735 20736 20737 20738 20739 20740 20741 20742 20743 20744 20745 20746 20747 20748 20749 20750 20751 20752 20753 20754 20755 20756 20757 20758 20759 20760 20761 20762 20763 20764 20765 20766 20767 20768 20769 20770 20771 20772 20773 20774 20775 20776 20777 20778 20779 20780 20781 20782 20783 20784 20785 20786 20787 20788 20789 20790 20791 20792 20793 20794 20795 20796 20797 20798 20799 20800 20801 20802 20803 20804 20805 20806 20807 20808 20809 20810 20811 20812 20813 20814 20815 20816 20817 20818 20819 20820 20821 20822 20823 20824 20825 20826 20827 20828 20829 20830 20831 20832 20833 20834 20835 20836 20837 20838 20839 20840 20841 20842 20843 20844 20845 20846 20847 20848 20849 20850 20851 20852 20853 20854 20855 20856 20857 20858 20859 20860 20861 20862 20863 20864 20865 20866 20867 20868 20869 20870 20871 20872 20873 20874 20875 20876 20877 20878 20879 20880 20881 20882 20883 20884 20885 20886 20887 20888 20889 20890 20891 20892 20893 20894 20895 20896 20897 20898 20899 20900 20901 20902 20903 20904 20905 20906 20907 20908 20909 20910 20911 20912 20913 20914 20915 20916 20917 20918 20919 20920 20921 20922 20923 20924 20925 20926 20927 20928 20929 20930 20931 20932 20933 20934 20935 20936 20937 20938 20939 20940 20941 20942 20943 20944 20945 20946 20947 20948 20949 20950 20951 20952 20953 20954 20955 20956 20957 20958 20959 20960 20961 20962 20963 20964 20965 20966 20967 20968 20969 20970 20971 20972 20973 20974 20975 20976 20977 20978 20979 20980 20981 20982 20983 20984 20985 20986 20987 20988 20989 20990 20991 20992 20993 20994 20995 20996 20997 20998 20999 21000 21001 21002 21003 21004 21005 21006 21007 21008 21009 21010 21011 21012 21013 21014 21015 21016 21017 21018 21019 21020 21021 21022 21023 21024 21025 21026 21027 21028 21029 21030 21031 21032 21033 21034 21035 21036 21037 21038 21039 21040 21041 21042 21043 21044 21045 21046 21047 21048 21049 21050 21051 21052 21053 21054 21055 21056 21057 21058 21059 21060 21061 21062 21063 21064 21065 21066 21067 21068 21069 21070 21071 21072 21073 21074 21075 21076 21077 21078 21079 21080 21081 21082 21083 21084 21085 21086 21087 21088 21089 21090 21091 21092 21093 21094 21095 21096 21097 21098 21099 21100 21101 21102 21103 21104 21105 21106 21107 21108 21109 21110 21111 21112 21113 21114 21115 21116 21117 21118 21119 21120 21121 21122 21123 21124 21125 21126 21127 21128 21129 21130 21131 21132 21133 21134 21135 21136 21137 21138 21139 21140 21141 21142 21143 21144 21145 21146 21147 21148 21149 21150 21151 21152 21153 21154 21155 21156 21157 21158 21159 21160 21161 21162 21163 21164 21165 21166 21167 21168 21169 21170 21171 21172 21173 21174 21175 21176 21177 21178 21179 21180 21181 21182 21183 21184 21185 21186 21187 21188 21189 21190 21191 21192 21193 21194 21195 21196 21197 21198 21199 21200 21201 21202 21203 21204 21205 21206 21207 21208 21209 21210 21211 21212 21213 21214 21215 21216 21217 21218 21219 21220 21221 21222 21223 21224 21225 21226 21227 21228 21229 21230 21231 21232 21233 21234 21235 21236 21237 21238 21239 21240 21241 21242 21243 21244 21245 21246 21247 21248 21249 21250 21251 21252 21253 21254 21255 21256 21257 21258 21259 21260 21261 21262 21263 21264 21265 21266 21267 21268 21269 21270 21271 21272 21273 21274 21275 21276 21277 21278 21279 21280 21281 21282 21283 21284 21285 21286 21287 21288 21289 21290 21291 21292 21293 21294 21295 21296 21297 21298 21299 21300 21301 21302 21303 21304 21305 21306 21307 21308 21309 21310 21311 21312 21313 21314 21315 21316 21317 21318 21319 21320 21321 21322 21323 21324 21325 21326 21327 21328 21329 21330 21331 21332 21333 21334 21335 21336 21337 21338 21339 21340 21341 21342 21343 21344 21345 21346 21347 21348 21349 21350 21351 21352 21353 21354 21355 21356 21357 21358 21359 21360 21361 21362 21363 21364 21365 21366 21367 21368 21369 21370 21371 21372 21373 21374 21375 21376 21377 21378 21379 21380 21381 21382 21383 21384 21385 21386 21387 21388 21389 21390 21391 21392 21393 21394 21395 21396 21397 21398 21399 21400 21401 21402 21403 21404 21405 21406 21407 21408 21409 21410 21411 21412 21413 21414 21415 21416 21417 21418 21419 21420 21421 21422 21423 21424 21425 21426 21427 21428 21429 21430 21431 21432 21433 21434 21435 21436 21437 21438 21439 21440 21441 21442 21443 21444 21445 21446 21447 21448 21449 21450 21451 21452 21453 21454 21455 21456 21457 21458 21459 21460 21461 21462 21463 21464 21465 21466 21467 21468 21469 21470 21471 21472 21473 21474 21475 21476 21477 21478 21479 21480 21481 21482 21483 21484 21485 21486 21487 21488 21489 21490 21491 21492 21493 21494 21495 21496 21497 21498 21499 21500 21501 21502 21503 21504 21505 21506 21507 21508 21509 21510 21511 21512 21513 21514 21515 21516 21517 21518 21519 21520 21521 21522 21523 21524 21525 21526 21527 21528 21529 21530 21531 21532 21533 21534 21535 21536 21537 21538 21539 21540 21541 21542 21543 21544 21545 21546 21547 21548 21549 21550 21551 21552 21553 21554 21555 21556 21557 21558 21559 21560 21561 21562 21563 21564 21565 21566 21567 21568 21569 21570 21571 21572 21573 21574 21575 21576 21577 21578 21579 21580 21581 21582 21583 21584 21585 21586 21587 21588 21589 21590 21591 21592 21593 21594 21595 21596 21597 21598 21599 21600 21601 21602 21603 21604 21605 21606 21607 21608 21609 21610 21611 21612 21613 21614 21615 21616 21617 21618 21619 21620 21621 21622 21623 21624 21625 21626 21627 21628 21629 21630 21631 21632 21633 21634 21635 21636 21637 21638 21639 21640 21641 21642 21643 21644 21645 21646 21647 21648 21649 21650 21651 21652 21653 21654 21655 21656 21657 21658 21659 21660 21661 21662 21663 21664 21665 21666 21667 21668 21669 21670 21671 21672 21673 21674 21675 21676 21677 21678 21679 21680 21681 21682 21683 21684 21685 21686 21687 21688 21689 21690 21691 21692 21693 21694 21695 21696 21697 21698 21699 21700 21701 21702 21703 21704 21705 21706 21707 21708 21709 21710 21711 21712 21713 21714 21715 21716 21717 21718 21719 21720 21721 21722 21723 21724 21725 21726 21727 21728 21729 21730 21731 21732 21733 21734 21735 21736 21737 21738 21739 21740 21741 21742 21743 21744 21745 21746 21747 21748 21749 21750 21751 21752 21753 21754 21755 21756 21757 21758 21759 21760 21761 21762 21763 21764 21765 21766 21767 21768 21769 21770 21771 21772 21773 21774 21775 21776 21777 21778 21779 21780 21781 21782 21783 21784 21785 21786 21787 21788 21789 21790 21791 21792 21793 21794 21795 21796 21797 21798 21799 21800 21801 21802 21803 21804 21805 21806 21807 21808 21809 21810 21811 21812 21813 21814 21815 21816 21817 21818 21819 21820 21821 21822 21823 21824 21825 21826 21827 21828 21829 21830 21831 21832 21833 21834 21835 21836 21837 21838 21839 21840 21841 21842 21843 21844 21845 21846 21847 21848 21849 21850 21851 21852 21853 21854 21855 21856 21857 21858 21859 21860 21861 21862 21863 21864 21865 21866 21867 21868 21869 21870 21871 21872 21873 21874 21875 21876 21877 21878 21879 21880 21881 21882 21883 21884 21885 21886 21887 21888 21889 21890 21891 21892 21893 21894 21895 21896 21897 21898 21899 21900 21901 21902 21903 21904 21905 21906 21907 21908 21909 21910 21911 21912 21913 21914 21915 21916 21917 21918 21919 21920 21921 21922 21923 21924 21925 21926 21927 21928 21929 21930 21931 21932 21933 21934 21935 21936 21937 21938 21939 21940 21941 21942 21943 21944 21945 21946 21947 21948 21949 21950 21951 21952 21953 21954 21955 21956 21957 21958 21959 21960 21961 21962 21963 21964 21965 21966 21967 21968 21969 21970 21971 21972 21973 21974 21975 21976 21977 21978 21979 21980 21981 21982 21983 21984 21985 21986 21987 21988 21989 21990 21991 21992 21993 21994 21995 21996 21997 21998 21999 22000 22001 22002 22003 22004 22005 22006 22007 22008 22009 22010 22011 22012 22013 22014 22015 22016 22017 22018 22019 22020 22021 22022 22023 22024 22025 22026 22027 22028 22029 22030 22031 22032 22033 22034 22035 22036 22037 22038 22039 22040 22041 22042 22043 22044 22045 22046 22047 22048 22049 22050 22051 22052 22053 22054 22055 22056 22057 22058 22059 22060 22061 22062 22063 22064 22065 22066 22067 22068 22069 22070 22071 22072 22073 22074 22075 22076 22077 22078 22079 22080 22081 22082 22083 22084 22085 22086 22087 22088 22089 22090 22091 22092 22093 22094 22095 22096 22097 22098 22099 22100 22101 22102 22103 22104 22105 22106 22107 22108 22109 22110 22111 22112 22113 22114 22115 22116 22117 22118 22119 22120 22121 22122 22123 22124 22125 22126 22127 22128 22129 22130 22131 22132 22133 22134 22135 22136 22137 22138 22139 22140 22141 22142 22143 22144 22145 22146 22147 22148 22149 22150 22151 22152 22153 22154 22155 22156 22157 22158 22159 22160 22161 22162 22163 22164 22165 22166 22167 22168 22169 22170 22171 22172 22173 22174 22175 22176 22177 22178 22179 22180 22181 22182 22183 22184 22185 22186 22187 22188 22189 22190 22191 22192 22193 22194 22195 22196 22197 22198 22199 22200 22201 22202 22203 22204 22205 22206 22207 22208 22209 22210 22211 22212 22213 22214 22215 22216 22217 22218 22219 22220 22221 22222 22223 22224 22225 22226 22227 22228 22229 22230 22231 22232 22233 22234 22235 22236 22237 22238 22239 22240 22241 22242 22243 22244 22245 22246 22247 22248 22249 22250 22251 22252 22253 22254 22255 22256 22257 22258 22259 22260 22261 22262 22263 22264 22265 22266 22267 22268 22269 22270 22271 22272 22273 22274 22275 22276 22277 22278 22279 22280 22281 22282 22283 22284 22285 22286 22287 22288 22289 22290 22291 22292 22293 22294 22295 22296 22297 22298 22299 22300 22301 22302 22303 22304 22305 22306 22307 22308 22309 22310 22311 22312 22313 22314 22315 22316 22317 22318 22319 22320 22321 22322 22323 22324 22325 22326 22327 22328 22329 22330 22331 22332 22333 22334 22335 22336 22337 22338 22339 22340 22341 22342 22343 22344 22345 22346 22347 22348 22349 22350 22351 22352 22353 22354 22355 22356 22357 22358 22359 22360 22361 22362 22363 22364 22365 22366 22367 22368 22369 22370 22371 22372 22373 22374 22375 22376 22377 22378 22379 22380 22381 22382 22383 22384 22385 22386 22387 22388 22389 22390 22391 22392 22393 22394 22395 22396 22397 22398 22399 22400 22401 22402 22403 22404 22405 22406 22407 22408 22409 22410 22411 22412 22413 22414 22415 22416 22417 22418 22419 22420 22421 22422 22423 22424 22425 22426 22427 22428 22429 22430 22431 22432 22433 22434 22435 22436 22437 22438 22439 22440 22441 22442 22443 22444 22445 22446 22447 22448 22449 22450 22451 22452 22453 22454 22455 22456 22457 22458 22459 22460 22461 22462 22463 22464 22465 22466 22467 22468 22469 22470 22471 22472 22473 22474 22475 22476 22477 22478 22479 22480 22481 22482 22483 22484 22485 22486 22487 22488 22489 22490 22491 22492 22493 22494 22495 22496 22497 22498 22499 22500 22501 22502 22503 22504 22505 22506 22507 22508 22509 22510 22511 22512 22513 22514 22515 22516 22517 22518 22519 22520 22521 22522 22523 22524 22525 22526 22527 22528 22529 22530 22531 22532 22533 22534 22535 22536 22537 22538 22539 22540 22541 22542 22543 22544 22545 22546 22547 22548 22549 22550 22551 22552 22553 22554 22555 22556 22557 22558 22559 22560 22561 22562 22563 22564 22565 22566 22567 22568 22569 22570 22571 22572 22573 22574 22575 22576 22577 22578 22579 22580 22581 22582 22583 22584 22585 22586 22587 22588 22589 22590 22591 22592 22593 22594 22595 22596 22597 22598 22599 22600 22601 22602 22603 22604 22605 22606 22607 22608 22609 22610 22611 22612 22613 22614 22615 22616 22617 22618 22619 22620 22621 22622 22623 22624 22625 22626 22627 22628 22629 22630 22631 22632 22633 22634 22635 22636 22637 22638 22639 22640 22641 22642 22643 22644 22645 22646 22647 22648 22649 22650 22651 22652 22653 22654 22655 22656 22657 22658 22659 22660 22661 22662 22663 22664 22665 22666 22667 22668 22669 22670 22671 22672 22673 22674 22675 22676 22677 22678 22679 22680 22681 22682 22683 22684 22685 22686 22687 22688 22689 22690 22691 22692 22693 22694 22695 22696 22697 22698 22699 22700 22701 22702 22703 22704 22705 22706 22707 22708 22709 22710 22711 22712 22713 22714 22715 22716 22717 22718 22719 22720 22721 22722 22723 22724 22725 22726 22727 22728 22729 22730 22731 22732 22733 22734 22735 22736 22737 22738 22739 22740 22741 22742 22743 22744 22745 22746 22747 22748 22749 22750 22751 22752 22753 22754 22755 22756 22757 22758 22759 22760 22761 22762 22763 22764 22765 22766 22767 22768 22769 22770 22771 22772 22773 22774 22775 22776 22777 22778 22779 22780 22781 22782 22783 22784 22785 22786 22787 22788 22789 22790 22791 22792 22793 22794 22795 22796 22797 22798 22799 22800 22801 22802 22803 22804 22805 22806 22807 22808 22809 22810 22811 22812 22813 22814 22815 22816 22817 22818 22819 22820 22821 22822 22823 22824 22825 22826 22827 22828 22829 22830 22831 22832 22833 22834 22835 22836 22837 22838 22839 22840 22841 22842 22843 22844 22845 22846 22847 22848 22849 22850 22851 22852 22853 22854 22855 22856 22857 22858 22859 22860 22861 22862 22863 22864 22865 22866 22867 22868 22869 22870 22871 22872 22873 22874 22875 22876 22877 22878 22879 22880 22881 22882 22883 22884 22885 22886 22887 22888 22889 22890 22891 22892 22893 22894 22895 22896 22897 22898 22899 22900 22901 22902 22903 22904 22905 22906 22907 22908 22909 22910 22911 22912 22913 22914 22915 22916 22917 22918 22919 22920 22921 22922 22923 22924 22925 22926 22927 22928 22929 22930 22931 22932 22933 22934 22935 22936 22937 22938 22939 22940 22941 22942 22943 22944 22945 22946 22947 22948 22949 22950 22951 22952 22953 22954 22955 22956 22957 22958 22959 22960 22961 22962 22963 22964 22965 22966 22967 22968 22969 22970 22971 22972 22973 22974 22975 22976 22977 22978 22979 22980 22981 22982 22983 22984 22985 22986 22987 22988 22989 22990 22991 22992 22993 22994 22995 22996 22997 22998 22999 23000 23001 23002 23003 23004 23005 23006 23007 23008 23009 23010 23011 23012 23013 23014 23015 23016 23017 23018 23019 23020 23021 23022 23023 23024 23025 23026 23027 23028 23029 23030 23031 23032 23033 23034 23035 23036 23037 23038 23039 23040 23041 23042 23043 23044 23045 23046 23047 23048 23049 23050 23051 23052 23053 23054 23055 23056 23057 23058 23059 23060 23061 23062 23063 23064 23065 23066 23067 23068 23069 23070 23071 23072 23073 23074 23075 23076 23077 23078 23079 23080 23081 23082 23083 23084 23085 23086 23087 23088 23089 23090 23091 23092 23093 23094 23095 23096 23097 23098 23099 23100 23101 23102 23103 23104 23105 23106 23107 23108 23109 23110 23111 23112 23113 23114 23115 23116 23117 23118 23119 23120 23121 23122 23123 23124 23125 23126 23127 23128 23129 23130 23131 23132 23133 23134 23135 23136 23137 23138 23139 23140 23141 23142 23143 23144 23145 23146 23147 23148 23149 23150 23151 23152 23153 23154 23155 23156 23157 23158 23159 23160 23161 23162 23163 23164 23165 23166 23167 23168 23169 23170 23171 23172 23173 23174 23175 23176 23177 23178 23179 23180 23181 23182 23183 23184 23185 23186 23187 23188 23189 23190 23191 23192 23193 23194 23195 23196 23197 23198 23199 23200 23201 23202 23203 23204 23205 23206 23207 23208 23209 23210 23211 23212 23213 23214 23215 23216 23217 23218 23219 23220 23221 23222 23223 23224 23225 23226 23227 23228 23229 23230 23231 23232 23233 23234 23235 23236 23237 23238 23239 23240 23241 23242 23243 23244 23245 23246 23247 23248 23249 23250 23251 23252 23253 23254 23255 23256 23257 23258 23259 23260 23261 23262 23263 23264 23265 23266 23267 23268 23269 23270 23271 23272 23273 23274 23275 23276 23277 23278 23279 23280 23281 23282 23283 23284 23285 23286 23287 23288 23289 23290 23291 23292 23293 23294 23295 23296 23297 23298 23299 23300 23301 23302 23303 23304 23305 23306 23307 23308 23309 23310 23311 23312 23313 23314 23315 23316 23317 23318 23319 23320 23321 23322 23323 23324 23325 23326 23327 23328 23329 23330 23331 23332 23333 23334 23335 23336 23337 23338 23339 23340 23341 23342 23343 23344 23345 23346 23347 23348 23349 23350 23351 23352 23353 23354 23355 23356 23357 23358 23359 23360 23361 23362 23363 23364 23365 23366 23367 23368 23369 23370 23371 23372 23373 23374 23375 23376 23377 23378 23379 23380 23381 23382 23383 23384 23385 23386 23387 23388 23389 23390 23391 23392 23393 23394 23395 23396 23397 23398 23399 23400 23401 23402 23403 23404 23405 23406 23407 23408 23409 23410 23411 23412 23413 23414 23415 23416 23417 23418 23419 23420 23421 23422 23423 23424 23425 23426 23427 23428 23429 23430 23431 23432 23433 23434 23435 23436 23437 23438 23439 23440 23441 23442 23443 23444 23445 23446 23447 23448 23449 23450 23451 23452 23453 23454 23455 23456 23457 23458 23459 23460 23461 23462 23463 23464 23465 23466 23467 23468 23469 23470 23471 23472 23473 23474 23475 23476 23477 23478 23479 23480 23481 23482 23483 23484 23485 23486 23487 23488 23489 23490 23491 23492 23493 23494 23495 23496 23497 23498 23499 23500 23501 23502 23503 23504 23505 23506 23507 23508 23509 23510 23511 23512 23513 23514 23515 23516 23517 23518 23519 23520 23521 23522 23523 23524 23525 23526 23527 23528 23529 23530 23531 23532 23533 23534 23535 23536 23537 23538 23539 23540 23541 23542 23543 23544 23545 23546 23547 23548 23549 23550 23551 23552 23553 23554 23555 23556 23557 23558 23559 23560 23561 23562 23563 23564 23565 23566 23567 23568 23569 23570 23571 23572 23573 23574 23575 23576 23577 23578 23579 23580 23581 23582 23583 23584 23585 23586 23587 23588 23589 23590 23591 23592 23593 23594 23595 23596 23597 23598 23599 23600 23601 23602 23603 23604 23605 23606 23607 23608 23609 23610 23611 23612 23613 23614 23615 23616 23617 23618 23619 23620 23621 23622 23623 23624 23625 23626 23627 23628 23629 23630 23631 23632 23633 23634 23635 23636 23637 23638 23639 23640 23641 23642 23643 23644 23645 23646 23647 23648 23649 23650 23651 23652 23653 23654 23655 23656 23657 23658 23659 23660 23661 23662 23663 23664 23665 23666 23667 23668 23669 23670 23671 23672 23673 23674 23675 23676 23677 23678 23679 23680 23681 23682 23683 23684 23685 23686 23687 23688 23689 23690 23691 23692 23693 23694 23695 23696 23697 23698 23699 23700 23701 23702 23703 23704 23705 23706 23707 23708 23709 23710 23711 23712 23713 23714 23715 23716 23717 23718 23719 23720 23721 23722 23723 23724 23725 23726 23727 23728 23729 23730 23731 23732 23733 23734 23735 23736 23737 23738 23739 23740 23741 23742 23743 23744 23745 23746 23747 23748 23749 23750 23751 23752 23753 23754 23755 23756 23757 23758 23759 23760 23761 23762 23763 23764 23765 23766 23767 23768 23769 23770 23771 23772 23773 23774 23775 23776 23777 23778 23779 23780 23781 23782 23783 23784 23785 23786 23787 23788 23789 23790 23791 23792 23793 23794 23795 23796 23797 23798 23799 23800 23801 23802 23803 23804 23805 23806 23807 23808 23809 23810 23811 23812 23813 23814 23815 23816 23817 23818 23819 23820 23821 23822 23823 23824 23825 23826 23827 23828 23829 23830 23831 23832 23833 23834 23835 23836 23837 23838 23839 23840 23841 23842 23843 23844 23845 23846 23847 23848 23849 23850 23851 23852 23853 23854 23855 23856 23857 23858 23859 23860 23861 23862 23863 23864 23865 23866 23867 23868 23869 23870 23871 23872 23873 23874 23875 23876 23877 23878 23879 23880 23881 23882 23883 23884 23885 23886 23887 23888 23889 23890 23891 23892 23893 23894 23895 23896 23897 23898 23899 23900 23901 23902 23903 23904 23905 23906 23907 23908 23909 23910 23911 23912 23913 23914 23915 23916 23917 23918 23919 23920 23921 23922 23923 23924 23925 23926 23927 23928 23929 23930 23931 23932 23933 23934 23935 23936 23937 23938 23939 23940 23941 23942 23943 23944 23945 23946 23947 23948 23949 23950 23951 23952 23953 23954 23955 23956 23957 23958 23959 23960 23961 23962 23963 23964 23965 23966 23967 23968 23969 23970 23971 23972 23973 23974 23975 23976 23977 23978 23979 23980 23981 23982 23983 23984 23985 23986 23987 23988 23989 23990 23991 23992 23993 23994 23995 23996 23997 23998 23999 24000 24001 24002 24003 24004 24005 24006 24007 24008 24009 24010 24011 24012 24013 24014 24015 24016 24017 24018 24019 24020 24021 24022 24023 24024 24025 24026 24027 24028 24029 24030 24031 24032 24033 24034 24035 24036 24037 24038 24039 24040 24041 24042 24043 24044 24045 24046 24047 24048 24049 24050 24051 24052 24053 24054 24055 24056 24057 24058 24059 24060 24061 24062 24063 24064 24065 24066 24067 24068 24069 24070 24071 24072 24073 24074 24075 24076 24077 24078 24079 24080 24081 24082 24083 24084 24085 24086 24087 24088 24089 24090 24091 24092 24093 24094 24095 24096 24097 24098 24099 24100 24101 24102 24103 24104 24105 24106 24107 24108 24109 24110 24111 24112 24113 24114 24115 24116 24117 24118 24119 24120 24121 24122 24123 24124 24125 24126 24127 24128 24129 24130 24131 24132 24133 24134 24135 24136 24137 24138 24139 24140 24141 24142 24143 24144 24145 24146 24147 24148 24149 24150 24151 24152 24153 24154 24155 24156 24157 24158 24159 24160 24161 24162 24163 24164 24165 24166 24167 24168 24169 24170 24171 24172 24173 24174 24175 24176 24177 24178 24179 24180 24181 24182 24183 24184 24185 24186 24187 24188 24189 24190 24191 24192 24193 24194 24195 24196 24197 24198 24199 24200 24201 24202 24203 24204 24205 24206 24207 24208 24209 24210 24211 24212 24213 24214 24215 24216 24217 24218 24219 24220 24221 24222 24223 24224 24225 24226 24227 24228 24229 24230 24231 24232 24233 24234 24235 24236 24237 24238 24239 24240 24241 24242 24243 24244 24245 24246 24247 24248 24249 24250 24251 24252 24253 24254 24255 24256 24257 24258 24259 24260 24261 24262 24263 24264 24265 24266 24267 24268 24269 24270 24271 24272 24273 24274 24275 24276 24277 24278 24279 24280 24281 24282 24283 24284 24285 24286 24287 24288 24289 24290 24291 24292 24293 24294 24295 24296 24297 24298 24299 24300 24301 24302 24303 24304 24305 24306 24307 24308 24309 24310 24311 24312 24313 24314 24315 24316 24317 24318 24319 24320 24321 24322 24323 24324 24325 24326 24327 24328 24329 24330 24331 24332 24333 24334 24335 24336 24337 24338 24339 24340 24341 24342 24343 24344 24345 24346 24347 24348 24349 24350 24351 24352 24353 24354 24355 24356 24357 24358 24359 24360 24361 24362 24363 24364 24365 24366 24367 24368 24369 24370 24371 24372 24373 24374 24375 24376 24377 24378 24379 24380 24381 24382 24383 24384 24385 24386 24387 24388 24389 24390 24391 24392 24393 24394 24395 24396 24397 24398 24399 24400 24401 24402 24403 24404 24405 24406 24407 24408 24409 24410 24411 24412 24413 24414 24415 24416 24417 24418 24419 24420 24421 24422 24423 24424 24425 24426 24427 24428 24429 24430 24431 24432 24433 24434 24435 24436 24437 24438 24439 24440 24441 24442 24443 24444 24445 24446 24447 24448 24449 24450 24451 24452 24453 24454 24455 24456 24457 24458 24459 24460 24461 24462 24463 24464 24465 24466 24467 24468 24469 24470 24471 24472 24473 24474 24475 24476 24477 24478 24479 24480 24481 24482 24483 24484 24485 24486 24487 24488 24489 24490 24491 24492 24493 24494 24495 24496 24497 24498 24499 24500 24501 24502 24503 24504 24505 24506 24507 24508 24509 24510 24511 24512 24513 24514 24515 24516 24517 24518 24519 24520 24521 24522 24523 24524 24525 24526 24527 24528 24529 24530 24531 24532 24533 24534 24535 24536 24537 24538 24539 24540 24541 24542 24543 24544 24545 24546 24547 24548 24549 24550 24551 24552 24553 24554 24555 24556 24557 24558 24559 24560 24561 24562 24563 24564 24565 24566 24567 24568 24569 24570 24571 24572 24573 24574 24575 24576 24577 24578 24579 24580 24581 24582 24583 24584 24585 24586 24587 24588 24589 24590 24591 24592 24593 24594 24595 24596 24597 24598 24599 24600 24601 24602 24603 24604 24605 24606 24607 24608 24609 24610 24611 24612 24613 24614 24615 24616 24617 24618 24619 24620 24621 24622 24623 24624 24625 24626 24627 24628 24629 24630 24631 24632 24633 24634 24635 24636 24637 24638 24639 24640 24641 24642 24643 24644 24645 24646 24647 24648 24649 24650 24651 24652 24653 24654 24655 24656 24657 24658 24659 24660 24661 24662 24663 24664 24665 24666 24667 24668 24669 24670 24671 24672 24673 24674 24675 24676 24677 24678 24679 24680 24681 24682 24683 24684 24685 24686 24687 24688 24689 24690 24691 24692 24693 24694 24695 24696 24697 24698 24699 24700 24701 24702 24703 24704 24705 24706 24707 24708 24709 24710 24711 24712 24713 24714 24715 24716 24717 24718 24719 24720 24721 24722 24723 24724 24725 24726 24727 24728 24729 24730 24731 24732 24733 24734 24735 24736 24737 24738 24739 24740 24741 24742 24743 24744 24745 24746 24747 24748 24749 24750 24751 24752 24753 24754 24755 24756 24757 24758 24759 24760 24761 24762 24763 24764 24765 24766 24767 24768 24769 24770 24771 24772 24773 24774 24775 24776 24777 24778 24779 24780 24781 24782 24783 24784 24785 24786 24787 24788 24789 24790 24791 24792 24793 24794 24795 24796 24797 24798 24799 24800 24801 24802 24803 24804 24805 24806 24807 24808 24809 24810 24811 24812 24813 24814 24815 24816 24817 24818 24819 24820 24821 24822 24823 24824 24825 24826 24827 24828 24829 24830 24831 24832 24833 24834 24835 24836 24837 24838 24839 24840 24841 24842 24843 24844 24845 24846 24847 24848 24849 24850 24851 24852 24853 24854 24855 24856 24857 24858 24859 24860 24861 24862 24863 24864 24865 24866 24867 24868 24869 24870 24871 24872 24873 24874 24875 24876 24877 24878 24879 24880 24881 24882 24883 24884 24885 24886 24887 24888 24889 24890 24891 24892 24893 24894 24895 24896 24897 24898 24899 24900 24901 24902 24903 24904 24905 24906 24907 24908 24909 24910 24911 24912 24913 24914 24915 24916 24917 24918 24919 24920 24921 24922 24923 24924 24925 24926 24927 24928 24929 24930 24931 24932 24933 24934 24935 24936 24937 24938 24939 24940 24941 24942 24943 24944 24945 24946 24947 24948 24949 24950 24951 24952 24953 24954 24955 24956 24957 24958 24959 24960 24961 24962 24963 24964 24965 24966 24967 24968 24969 24970 24971 24972 24973 24974 24975 24976 24977 24978 24979 24980 24981 24982 24983 24984 24985 24986 24987 24988 24989 24990 24991 24992 24993 24994 24995 24996 24997 24998 24999 25000 25001 25002 25003 25004 25005 25006 25007 25008 25009 25010 25011 25012 25013 25014 25015 25016 25017 25018 25019 25020 25021 25022 25023 25024 25025 25026 25027 25028 25029 25030 25031 25032 25033 25034 25035 25036 25037 25038 25039 25040 25041 25042 25043 25044 25045 25046 25047 25048 25049 25050 25051 25052 25053 25054 25055 25056 25057 25058 25059 25060 25061 25062 25063 25064 25065 25066 25067 25068 25069 25070 25071 25072 25073 25074 25075 25076 25077 25078 25079 25080 25081 25082 25083 25084 25085 25086 25087 25088 25089 25090 25091 25092 25093 25094 25095 25096 25097 25098 25099 25100 25101 25102 25103 25104 25105 25106 25107 25108 25109 25110 25111 25112 25113 25114 25115 25116 25117 25118 25119 25120 25121 25122 25123 25124 25125 25126 25127 25128 25129 25130 25131 25132 25133 25134 25135 25136 25137 25138 25139 25140 25141 25142 25143 25144 25145 25146 25147 25148 25149 25150 25151 25152 25153 25154 25155 25156 25157 25158 25159 25160 25161 25162 25163 25164 25165 25166 25167 25168 25169 25170 25171 25172 25173 25174 25175 25176 25177 25178 25179 25180 25181 25182 25183 25184 25185 25186 25187 25188 25189 25190 25191 25192 25193 25194 25195 25196 25197 25198 25199 25200 25201 25202 25203 25204 25205 25206 25207 25208 25209 25210 25211 25212 25213 25214 25215 25216 25217 25218 25219 25220 25221 25222 25223 25224 25225 25226 25227 25228 25229 25230 25231 25232 25233 25234 25235 25236 25237 25238 25239 25240 25241 25242 25243 25244 25245 25246 25247 25248 25249 25250 25251 25252 25253 25254 25255 25256 25257 25258 25259 25260 25261 25262 25263 25264 25265 25266 25267 25268 25269 25270 25271 25272 25273 25274 25275 25276 25277 25278 25279 25280 25281 25282 25283 25284 25285 25286 25287 25288 25289 25290 25291 25292 25293 25294 25295 25296 25297 25298 25299 25300 25301 25302 25303 25304 25305 25306 25307 25308 25309 25310 25311 25312 25313 25314 25315 25316 25317 25318 25319 25320 25321 25322 25323 25324 25325 25326 25327 25328 25329 25330 25331 25332 25333 25334 25335 25336 25337 25338 25339 25340 25341 25342 25343 25344 25345 25346 25347 25348 25349 25350 25351 25352 25353 25354 25355 25356 25357 25358 25359 25360 25361 25362 25363 25364 25365 25366 25367 25368 25369 25370 25371 25372 25373 25374 25375 25376 25377 25378 25379 25380 25381 25382 25383 25384 25385 25386 25387 25388 25389 25390 25391 25392 25393 25394 25395 25396 25397 25398 25399 25400 25401 25402 25403 25404 25405 25406 25407 25408 25409 25410 25411 25412 25413 25414 25415 25416 25417 25418 25419 25420 25421 25422 25423 25424 25425 25426 25427 25428 25429 25430 25431 25432 25433 25434 25435 25436 25437 25438 25439 25440 25441 25442 25443 25444 25445 25446 25447 25448 25449 25450 25451 25452 25453 25454 25455 25456 25457 25458 25459 25460 25461 25462 25463 25464 25465 25466 25467 25468 25469 25470 25471 25472 25473 25474 25475 25476 25477 25478 25479 25480 25481 25482 25483 25484 25485 25486 25487 25488 25489 25490 25491 25492 25493 25494 25495 25496 25497 25498 25499 25500 25501 25502 25503 25504 25505 25506 25507 25508 25509 25510 25511 25512 25513 25514 25515 25516 25517 25518 25519 25520 25521 25522 25523 25524 25525 25526 25527 25528 25529 25530 25531 25532 25533 25534 25535 25536 25537 25538 25539 25540 25541 25542 25543 25544 25545 25546 25547 25548 25549 25550 25551 25552 25553 25554 25555 25556 25557 25558 25559 25560 25561 25562 25563 25564 25565 25566 25567 25568 25569 25570 25571 25572 25573 25574 25575 25576 25577 25578 25579 25580 25581 25582 25583 25584 25585 25586 25587 25588 25589 25590 25591 25592 25593 25594 25595 25596 25597 25598 25599 25600 25601 25602 25603 25604 25605 25606 25607 25608 25609 25610 25611 25612 25613 25614 25615 25616 25617 25618 25619 25620 25621 25622 25623 25624 25625 25626 25627 25628 25629 25630 25631 25632 25633 25634 25635 25636 25637 25638 25639 25640 25641 25642 25643 25644 25645 25646 25647 25648 25649 25650 25651 25652 25653 25654 25655 25656 25657 25658 25659 25660 25661 25662 25663 25664 25665 25666 25667 25668 25669 25670 25671 25672 25673 25674 25675 25676 25677 25678 25679 25680 25681 25682 25683 25684 25685 25686 25687 25688 25689 25690 25691 25692 25693 25694 25695 25696 25697 25698 25699 25700 25701 25702 25703 25704 25705 25706 25707 25708 25709 25710 25711 25712 25713 25714 25715 25716 25717 25718 25719 25720 25721 25722 25723 25724 25725 25726 25727 25728 25729 25730 25731 25732 25733 25734 25735 25736 25737 25738 25739 25740 25741 25742 25743 25744 25745 25746 25747 25748 25749 25750 25751 25752 25753 25754 25755 25756 25757 25758 25759 25760 25761 25762 25763 25764 25765 25766 25767 25768 25769 25770 25771 25772 25773 25774 25775 25776 25777 25778 25779 25780 25781 25782 25783 25784 25785 25786 25787 25788 25789 25790 25791 25792 25793 25794 25795 25796 25797 25798 25799 25800 25801 25802 25803 25804 25805 25806 25807 25808 25809 25810 25811 25812 25813 25814 25815 25816 25817 25818 25819 25820 25821 25822 25823 25824 25825 25826 25827 25828 25829 25830 25831 25832 25833 25834 25835 25836 25837 25838 25839 25840 25841 25842 25843 25844 25845 25846 25847 25848 25849 25850 25851 25852 25853 25854 25855 25856 25857 25858 25859 25860 25861 25862 25863 25864 25865 25866 25867 25868 25869 25870 25871 25872 25873 25874 25875 25876 25877 25878 25879 25880 25881 25882 25883 25884 25885 25886 25887 25888 25889 25890 25891 25892 25893 25894 25895 25896 25897 25898 25899 25900 25901 25902 25903 25904 25905 25906 25907 25908 25909 25910 25911 25912 25913 25914 25915 25916 25917 25918 25919 25920 25921 25922 25923 25924 25925 25926 25927 25928 25929 25930 25931 25932 25933 25934 25935 25936 25937 25938 25939 25940 25941 25942 25943 25944 25945 25946 25947 25948 25949 25950 25951 25952 25953 25954 25955 25956 25957 25958 25959 25960 25961 25962 25963 25964 25965 25966 25967 25968 25969 25970 25971 25972 25973 25974 25975 25976 25977 25978 25979 25980 25981 25982 25983 25984 25985 25986 25987 25988 25989 25990 25991 25992 25993 25994 25995 25996 25997 25998 25999 26000 26001 26002 26003 26004 26005 26006 26007 26008 26009 26010 26011 26012 26013 26014 26015 26016 26017 26018 26019 26020 26021 26022 26023 26024 26025 26026 26027 26028 26029 26030 26031 26032 26033 26034 26035 26036 26037 26038 26039 26040 26041 26042 26043 26044 26045 26046 26047 26048 26049 26050 26051 26052 26053 26054 26055 26056 26057 26058 26059 26060 26061 26062 26063 26064 26065 26066 26067 26068 26069 26070 26071 26072 26073 26074 26075 26076 26077 26078 26079 26080 26081 26082 26083 26084 26085 26086 26087 26088 26089 26090 26091 26092 26093 26094 26095 26096 26097 26098 26099 26100 26101 26102 26103 26104 26105 26106 26107 26108 26109 26110 26111 26112 26113 26114 26115 26116 26117 26118 26119 26120 26121 26122 26123 26124 26125 26126 26127 26128 26129 26130 26131 26132 26133 26134 26135 26136 26137 26138 26139 26140 26141 26142 26143 26144 26145 26146 26147 26148 26149 26150 26151 26152 26153 26154 26155 26156 26157 26158 26159 26160 26161 26162 26163 26164 26165 26166 26167 26168 26169 26170 26171 26172 26173 26174 26175 26176 26177 26178 26179 26180 26181 26182 26183 26184 26185 26186 26187 26188 26189 26190 26191 26192 26193 26194 26195 26196 26197 26198 26199 26200 26201 26202 26203 26204 26205 26206 26207 26208 26209 26210 26211 26212 26213 26214 26215 26216 26217 26218 26219 26220 26221 26222 26223 26224 26225 26226 26227 26228 26229 26230 26231 26232 26233 26234 26235 26236 26237 26238 26239 26240 26241 26242 26243 26244 26245 26246 26247 26248 26249 26250 26251 26252 26253 26254 26255 26256 26257 26258 26259 26260 26261 26262 26263 26264 26265 26266 26267 26268 26269 26270 26271 26272 26273 26274 26275 26276 26277 26278 26279 26280 26281 26282 26283 26284 26285 26286 26287 26288 26289 26290 26291 26292 26293 26294 26295 26296 26297 26298 26299 26300 26301 26302 26303 26304 26305 26306 26307 26308 26309 26310 26311 26312 26313 26314 26315 26316 26317 26318 26319 26320 26321 26322 26323 26324 26325 26326 26327 26328 26329 26330 26331 26332 26333 26334 26335 26336 26337 26338 26339 26340 26341 26342 26343 26344 26345 26346 26347 26348 26349 26350 26351 26352 26353 26354 26355 26356 26357 26358 26359 26360 26361 26362 26363 26364 26365 26366 26367 26368 26369 26370 26371 26372 26373 26374 26375 26376 26377 26378 26379 26380 26381 26382 26383 26384 26385 26386 26387 26388 26389 26390 26391 26392 26393 26394 26395 26396 26397 26398 26399 26400 26401 26402 26403 26404 26405 26406 26407 26408 26409 26410 26411 26412 26413 26414 26415 26416 26417 26418 26419 26420 26421 26422 26423 26424 26425 26426 26427 26428 26429 26430 26431 26432 26433 26434 26435 26436 26437 26438 26439 26440 26441 26442 26443 26444 26445 26446 26447 26448 26449 26450 26451 26452 26453 26454 26455 26456 26457 26458 26459 26460 26461 26462 26463 26464 26465 26466 26467 26468 26469 26470 26471 26472 26473 26474 26475 26476 26477 26478 26479 26480 26481 26482 26483 26484 26485 26486 26487 26488 26489 26490 26491 26492 26493 26494 26495 26496 26497 26498 26499 26500 26501 26502 26503 26504 26505 26506 26507 26508 26509 26510 26511 26512 26513 26514 26515 26516 26517 26518 26519 26520 26521 26522 26523 26524 26525 26526 26527 26528 26529 26530 26531 26532 26533 26534 26535 26536 26537 26538 26539 26540 26541 26542 26543 26544 26545 26546 26547 26548 26549 26550 26551 26552 26553 26554 26555 26556 26557 26558 26559 26560 26561 26562 26563 26564 26565 26566 26567 26568 26569 26570 26571 26572 26573 26574 26575 26576 26577 26578 26579 26580 26581 26582 26583 26584 26585 26586 26587 26588 26589 26590 26591 26592 26593 26594 26595 26596 26597 26598 26599 26600 26601 26602 26603 26604 26605 26606 26607 26608 26609 26610 26611 26612 26613 26614 26615 26616 26617 26618 26619 26620 26621 26622 26623 26624 26625 26626 26627 26628 26629 26630 26631 26632 26633 26634 26635 26636 26637 26638 26639 26640 26641 26642 26643 26644 26645 26646 26647 26648 26649 26650 26651 26652 26653 26654 26655 26656 26657 26658 26659 26660 26661 26662 26663 26664 26665 26666 26667 26668 26669 26670 26671 26672 26673 26674 26675 26676 26677 26678 26679 26680 26681 26682 26683 26684 26685 26686 26687 26688 26689 26690 26691 26692 26693 26694 26695 26696 26697 26698 26699 26700 26701 26702 26703 26704 26705 26706 26707 26708 26709 26710 26711 26712 26713 26714 26715 26716 26717 26718 26719 26720 26721 26722 26723 26724 26725 26726 26727 26728 26729 26730 26731 26732 26733 26734 26735 26736 26737 26738 26739 26740 26741 26742 26743 26744 26745 26746 26747 26748 26749 26750 26751 26752 26753 26754 26755 26756 26757 26758 26759 26760 26761 26762 26763 26764 26765 26766 26767 26768 26769 26770 26771 26772 26773 26774 26775 26776 26777 26778 26779 26780 26781 26782 26783 26784 26785 26786 26787 26788 26789 26790 26791 26792 26793 26794 26795 26796 26797 26798 26799 26800 26801 26802 26803 26804 26805 26806 26807 26808 26809 26810 26811 26812 26813 26814 26815 26816 26817 26818 26819 26820 26821 26822 26823 26824 26825 26826 26827 26828 26829 26830 26831 26832 26833 26834 26835 26836 26837 26838 26839 26840 26841 26842 26843 26844 26845 26846 26847 26848 26849 26850 26851 26852 26853 26854 26855 26856 26857 26858 26859 26860 26861 26862 26863 26864 26865 26866 26867 26868 26869 26870 26871 26872 26873 26874 26875 26876 26877 26878 26879 26880 26881 26882 26883 26884 26885 26886 26887 26888 26889 26890 26891 26892 26893 26894 26895 26896 26897 26898 26899 26900 26901 26902 26903 26904 26905 26906 26907 26908 26909 26910 26911 26912 26913 26914 26915 26916 26917 26918 26919 26920 26921 26922 26923 26924 26925 26926 26927 26928 26929 26930 26931 26932 26933 26934 26935 26936 26937 26938 26939 26940 26941 26942 26943 26944 26945 26946 26947 26948 26949 26950 26951 26952 26953 26954 26955 26956 26957 26958 26959 26960 26961 26962 26963 26964 26965 26966 26967 26968 26969 26970 26971 26972 26973 26974 26975 26976 26977 26978 26979 26980 26981 26982 26983 26984 26985 26986 26987 26988 26989 26990 26991 26992 26993 26994 26995 26996 26997 26998 26999 27000 27001 27002 27003 27004 27005 27006 27007 27008 27009 27010 27011 27012 27013 27014 27015 27016 27017 27018 27019 27020 27021 27022 27023 27024 27025 27026 27027 27028 27029 27030 27031 27032 27033 27034 27035 27036 27037 27038 27039 27040 27041 27042 27043 27044 27045 27046 27047 27048 27049 27050 27051 27052 27053 27054 27055 27056 27057 27058 27059 27060 27061 27062 27063 27064 27065 27066 27067 27068 27069 27070 27071 27072 27073 27074 27075 27076 27077 27078 27079 27080 27081 27082 27083 27084 27085 27086 27087 27088 27089 27090 27091 27092 27093 27094 27095 27096 27097 27098 27099 27100 27101 27102 27103 27104 27105 27106 27107 27108 27109 27110 27111 27112 27113 27114 27115 27116 27117 27118 27119 27120 27121 27122 27123 27124 27125 27126 27127 27128 27129 27130 27131 27132 27133 27134 27135 27136 27137 27138 27139 27140 27141 27142 27143 27144 27145 27146 27147 27148 27149 27150 27151 27152 27153 27154 27155 27156 27157 27158 27159 27160 27161 27162 27163 27164 27165 27166 27167 27168 27169 27170 27171 27172 27173 27174 27175 27176 27177 27178 27179 27180 27181 27182 27183 27184 27185 27186 27187 27188 27189 27190 27191 27192 27193 27194 27195 27196 27197 27198 27199 27200 27201 27202 27203 27204 27205 27206 27207 27208 27209 27210 27211 27212 27213 27214 27215 27216 27217 27218 27219 27220 27221 27222 27223 27224 27225 27226 27227 27228 27229 27230 27231 27232 27233 27234 27235 27236 27237 27238 27239 27240 27241 27242 27243 27244 27245 27246 27247 27248 27249 27250 27251 27252 27253 27254 27255 27256 27257 27258 27259 27260 27261 27262 27263 27264 27265 27266 27267 27268 27269 27270 27271 27272 27273 27274 27275 27276 27277 27278 27279 27280 27281 27282 27283 27284 27285 27286 27287 27288 27289 27290 27291 27292 27293 27294 27295 27296 27297 27298 27299 27300 27301 27302 27303 27304 27305 27306 27307 27308 27309 27310 27311 27312 27313 27314 27315 27316 27317 27318 27319 27320 27321 27322 27323 27324 27325 27326 27327 27328 27329 27330 27331 27332 27333 27334 27335 27336 27337 27338 27339 27340 27341 27342 27343 27344 27345 27346 27347 27348 27349 27350 27351 27352 27353 27354 27355 27356 27357 27358 27359 27360 27361 27362 27363 27364 27365 27366 27367 27368 27369 27370 27371 27372 27373 27374 27375 27376 27377 27378 27379 27380 27381 27382 27383 27384 27385 27386 27387 27388 27389 27390 27391 27392 27393 27394 27395 27396 27397 27398 27399 27400 27401 27402 27403 27404 27405 27406 27407 27408 27409 27410 27411 27412 27413 27414 27415 27416 27417 27418 27419 27420 27421 27422 27423 27424 27425 27426 27427 27428 27429 27430 27431 27432 27433 27434 27435 27436 27437 27438 27439 27440 27441 27442 27443 27444 27445 27446 27447 27448 27449 27450 27451 27452 27453 27454 27455 27456 27457 27458 27459 27460 27461 27462 27463 27464 27465 27466 27467 27468 27469 27470 27471 27472 27473 27474 27475 27476 27477 27478 27479 27480 27481 27482 27483 27484 27485 27486 27487 27488 27489 27490 27491 27492 27493 27494 27495 27496 27497 27498 27499 27500 27501 27502 27503 27504 27505 27506 27507 27508 27509 27510 27511 27512 27513 27514 27515 27516 27517 27518 27519 27520 27521 27522 27523 27524 27525 27526 27527 27528 27529 27530 27531 27532 27533 27534 27535 27536 27537 27538 27539 27540 27541 27542 27543 27544 27545 27546 27547 27548 27549 27550 27551 27552 27553 27554 27555 27556 27557 27558 27559 27560 27561 27562 27563 27564 27565 27566 27567 27568 27569 27570 27571 27572 27573 27574 27575 27576 27577 27578 27579 27580 27581 27582 27583 27584 27585 27586 27587 27588 27589 27590 27591 27592 27593 27594 27595 27596 27597 27598 27599 27600 27601 27602 27603 27604 27605 27606 27607 27608 27609 27610 27611 27612 27613 27614 27615 27616 27617 27618 27619 27620 27621 27622 27623 27624 27625 27626 27627 27628 27629 27630 27631 27632 27633 27634 27635 27636 27637 27638 27639 27640 27641 27642 27643 27644 27645 27646 27647 27648 27649 27650 27651 27652 27653 27654 27655 27656 27657 27658 27659 27660 27661 27662 27663 27664 27665 27666 27667 27668 27669 27670 27671 27672 27673 27674 27675 27676 27677 27678 27679 27680 27681 27682 27683 27684 27685 27686 27687 27688 27689 27690 27691 27692 27693 27694 27695 27696 27697 27698 27699 27700 27701 27702 27703 27704 27705 27706 27707 27708 27709 27710 27711 27712 27713 27714 27715 27716 27717 27718 27719 27720 27721 27722 27723 27724 27725 27726 27727 27728 27729 27730 27731 27732 27733 27734 27735 27736 27737 27738 27739 27740 27741 27742 27743 27744 27745 27746 27747 27748 27749 27750 27751 27752 27753 27754 27755 27756 27757 27758 27759 27760 27761 27762 27763 27764 27765 27766 27767 27768 27769 27770 27771 27772 27773 27774 27775 27776 27777 27778 27779 27780 27781 27782 27783 27784 27785 27786 27787 27788 27789 27790 27791 27792 27793 27794 27795 27796 27797 27798 27799 27800 27801 27802 27803 27804 27805 27806 27807 27808 27809 27810 27811 27812 27813 27814 27815 27816 27817 27818 27819 27820 27821 27822 27823 27824 27825 27826 27827 27828 27829 27830 27831 27832 27833 27834 27835 27836 27837 27838 27839 27840 27841 27842 27843 27844 27845 27846 27847 27848 27849 27850 27851 27852 27853 27854 27855 27856 27857 27858 27859 27860 27861 27862 27863 27864 27865 27866 27867 27868 27869 27870 27871 27872 27873 27874 27875 27876 27877 27878 27879 27880 27881 27882 27883 27884 27885 27886 27887 27888 27889 27890 27891 27892 27893 27894 27895 27896 27897 27898 27899 27900 27901 27902 27903 27904 27905 27906 27907 27908 27909 27910 27911 27912 27913 27914 27915 27916 27917 27918 27919 27920 27921 27922 27923 27924 27925 27926 27927 27928 27929 27930 27931 27932 27933 27934 27935 27936 27937 27938 27939 27940 27941 27942 27943 27944 27945 27946 27947 27948 27949 27950 27951 27952 27953 27954 27955 27956 27957 27958 27959 27960 27961 27962 27963 27964 27965 27966 27967 27968 27969 27970 27971 27972 27973 27974 27975 27976 27977 27978 27979 27980 27981 27982 27983 27984 27985 27986 27987 27988 27989 27990 27991 27992 27993 27994 27995 27996 27997 27998 27999 28000 28001 28002 28003 28004 28005 28006 28007 28008 28009 28010 28011 28012 28013 28014 28015 28016 28017 28018 28019 28020 28021 28022 28023 28024 28025 28026 28027 28028 28029 28030 28031 28032 28033 28034 28035 28036 28037 28038 28039 28040 28041 28042 28043 28044 28045 28046 28047 28048 28049 28050 28051 28052 28053 28054 28055 28056 28057 28058 28059 28060 28061 28062 28063 28064 28065 28066 28067 28068 28069 28070 28071 28072 28073 28074 28075 28076 28077 28078 28079 28080 28081 28082 28083 28084 28085 28086 28087 28088 28089 28090 28091 28092 28093 28094 28095 28096 28097 28098 28099 28100 28101 28102 28103 28104 28105 28106 28107 28108 28109 28110 28111 28112 28113 28114 28115 28116 28117 28118 28119 28120 28121 28122 28123 28124 28125 28126 28127 28128 28129 28130 28131 28132 28133 28134 28135 28136 28137 28138 28139 28140 28141 28142 28143 28144 28145 28146 28147 28148 28149 28150 28151 28152 28153 28154 28155 28156 28157 28158 28159 28160 28161 28162 28163 28164 28165 28166 28167 28168 28169 28170 28171 28172 28173 28174 28175 28176 28177 28178 28179 28180 28181 28182 28183 28184 28185 28186 28187 28188 28189 28190 28191 28192 28193 28194 28195 28196 28197 28198 28199 28200 28201 28202 28203 28204 28205 28206 28207 28208 28209 28210 28211 28212 28213 28214 28215 28216 28217 28218 28219 28220 28221 28222 28223 28224 28225 28226 28227 28228 28229 28230 28231 28232 28233 28234 28235 28236 28237 28238 28239 28240 28241 28242 28243 28244 28245 28246 28247 28248 28249 28250 28251 28252 28253 28254 28255 28256 28257 28258 28259 28260 28261 28262 28263 28264 28265 28266 28267 28268 28269 28270 28271 28272 28273 28274 28275 28276 28277 28278 28279 28280 28281 28282 28283 28284 28285 28286 28287 28288 28289 28290 28291 28292 28293 28294 28295 28296 28297 28298 28299 28300 28301 28302 28303 28304 28305 28306 28307 28308 28309 28310 28311 28312 28313 28314 28315 28316 28317 28318 28319 28320 28321 28322 28323 28324 28325 28326 28327 28328 28329 28330 28331 28332 28333 28334 28335 28336 28337 28338 28339 28340 28341 28342 28343 28344 28345 28346 28347 28348 28349 28350 28351 28352 28353 28354 28355 28356 28357 28358 28359 28360 28361 28362 28363 28364 28365 28366 28367 28368 28369 28370 28371 28372 28373 28374 28375 28376 28377 28378 28379 28380 28381 28382 28383 28384 28385 28386 28387 28388 28389 28390 28391 28392 28393 28394 28395 28396 28397 28398 28399 28400 28401 28402 28403 28404 28405 28406 28407 28408 28409 28410 28411 28412 28413 28414 28415 28416 28417 28418 28419 28420 28421 28422 28423 28424 28425 28426 28427 28428 28429 28430 28431 28432 28433 28434 28435 28436 28437 28438 28439 28440 28441 28442 28443 28444 28445 28446 28447 28448 28449 28450 28451 28452 28453 28454 28455 28456 28457 28458 28459 28460 28461 28462 28463 28464 28465 28466 28467 28468 28469 28470 28471 28472 28473 28474 28475 28476 28477 28478 28479 28480 28481 28482 28483 28484 28485 28486 28487 28488 28489 28490 28491 28492 28493 28494 28495 28496 28497 28498 28499 28500 28501 28502 28503 28504 28505 28506 28507 28508 28509 28510 28511 28512 28513 28514 28515 28516 28517 28518 28519 28520 28521 28522 28523 28524 28525 28526 28527 28528 28529 28530 28531 28532 28533 28534 28535 28536 28537 28538 28539 28540 28541 28542 28543 28544 28545 28546 28547 28548 28549 28550 28551 28552 28553 28554 28555 28556 28557 28558 28559 28560 28561 28562 28563 28564 28565 28566 28567 28568 28569 28570 28571 28572 28573 28574 28575 28576 28577 28578 28579 28580 28581 28582 28583 28584 28585 28586 28587 28588 28589 28590 28591 28592 28593 28594 28595 28596 28597 28598 28599 28600 28601 28602 28603 28604 28605 28606 28607 28608 28609 28610 28611 28612 28613 28614 28615 28616 28617 28618 28619 28620 28621 28622 28623 28624 28625 28626 28627 28628 28629 28630 28631 28632 28633 28634 28635 28636 28637 28638 28639 28640 28641 28642 28643 28644 28645 28646 28647 28648 28649 28650 28651 28652 28653 28654 28655 28656 28657 28658 28659 28660 28661 28662 28663 28664 28665 28666 28667 28668 28669 28670 28671 28672 28673 28674 28675 28676 28677 28678 28679 28680 28681 28682 28683 28684 28685 28686 28687 28688 28689 28690 28691 28692 28693 28694 28695 28696 28697 28698 28699 28700 28701 28702 28703 28704 28705 28706 28707 28708 28709 28710 28711 28712 28713 28714 28715 28716 28717 28718 28719 28720 28721 28722 28723 28724 28725 28726 28727 28728 28729 28730 28731 28732 28733 28734 28735 28736 28737 28738 28739 28740 28741 28742 28743 28744 28745 28746 28747 28748 28749 28750 28751 28752 28753 28754 28755 28756 28757 28758 28759 28760 28761 28762 28763 28764 28765 28766 28767 28768 28769 28770 28771 28772 28773 28774 28775 28776 28777 28778 28779 28780 28781 28782 28783 28784 28785 28786 28787 28788 28789 28790 28791 28792 28793 28794 28795 28796 28797 28798 28799 28800 28801 28802 28803 28804 28805 28806 28807 28808 28809 28810 28811 28812 28813 28814 28815 28816 28817 28818 28819 28820 28821 28822 28823 28824 28825 28826 28827 28828 28829 28830 28831 28832 28833 28834 28835 28836 28837 28838 28839 28840 28841 28842 28843 28844 28845 28846 28847 28848 28849 28850 28851 28852 28853 28854 28855 28856 28857 28858 28859 28860 28861 28862 28863 28864 28865 28866 28867 28868 28869 28870 28871 28872 28873 28874 28875 28876 28877 28878 28879 28880 28881 28882 28883 28884 28885 28886 28887 28888 28889 28890 28891 28892 28893 28894 28895 28896 28897 28898 28899 28900 28901 28902 28903 28904 28905 28906 28907 28908 28909 28910 28911 28912 28913 28914 28915 28916 28917 28918 28919 28920 28921 28922 28923 28924 28925 28926 28927 28928 28929 28930 28931 28932 28933 28934 28935 28936 28937 28938 28939 28940 28941 28942 28943 28944 28945 28946 28947 28948 28949 28950 28951 28952 28953 28954 28955 28956 28957 28958 28959 28960 28961 28962 28963 28964 28965 28966 28967 28968 28969 28970 28971 28972 28973 28974 28975 28976 28977 28978 28979 28980 28981 28982 28983 28984 28985 28986 28987 28988 28989 28990 28991 28992 28993 28994 28995 28996 28997 28998 28999 29000 29001 29002 29003 29004 29005 29006 29007 29008 29009 29010 29011 29012 29013 29014 29015 29016 29017 29018 29019 29020 29021 29022 29023 29024 29025 29026 29027 29028 29029 29030 29031 29032 29033 29034 29035 29036 29037 29038 29039 29040 29041 29042 29043 29044 29045 29046 29047 29048 29049 29050 29051 29052 29053 29054 29055 29056 29057 29058 29059 29060 29061 29062 29063 29064 29065 29066 29067 29068 29069 29070 29071 29072 29073 29074 29075 29076 29077 29078 29079 29080 29081 29082 29083 29084 29085 29086 29087 29088 29089 29090 29091 29092 29093 29094 29095 29096 29097 29098 29099 29100 29101 29102 29103 29104 29105 29106 29107 29108 29109 29110 29111 29112 29113 29114 29115 29116 29117 29118 29119 29120 29121 29122 29123 29124 29125 29126 29127 29128 29129 29130 29131 29132 29133 29134 29135 29136 29137 29138 29139 29140 29141 29142 29143 29144 29145 29146 29147 29148 29149 29150 29151 29152 29153 29154 29155 29156 29157 29158 29159 29160 29161 29162 29163 29164 29165 29166 29167 29168 29169 29170 29171 29172 29173 29174 29175 29176 29177 29178 29179 29180 29181 29182 29183 29184 29185 29186 29187 29188 29189 29190 29191 29192 29193 29194 29195 29196 29197 29198 29199 29200 29201 29202 29203 29204 29205 29206 29207 29208 29209 29210 29211 29212 29213 29214 29215 29216 29217 29218 29219 29220 29221 29222 29223 29224 29225 29226 29227 29228 29229 29230 29231 29232 29233 29234 29235 29236 29237 29238 29239 29240 29241 29242 29243 29244 29245 29246 29247 29248 29249 29250 29251 29252 29253 29254 29255 29256 29257 29258 29259 29260 29261 29262 29263 29264 29265 29266 29267 29268 29269 29270 29271 29272 29273 29274 29275 29276 29277 29278 29279 29280 29281 29282 29283 29284 29285 29286 29287 29288 29289 29290 29291 29292 29293 29294 29295 29296 29297 29298 29299 29300 29301 29302 29303 29304 29305 29306 29307 29308 29309 29310 29311 29312 29313 29314 29315 29316 29317 29318 29319 29320 29321 29322 29323 29324 29325 29326 29327 29328 29329 29330 29331 29332 29333 29334 29335 29336 29337 29338 29339 29340 29341 29342 29343 29344 29345 29346 29347 29348 29349 29350 29351 29352 29353 29354 29355 29356 29357 29358 29359 29360 29361 29362 29363 29364 29365 29366 29367 29368 29369 29370 29371 29372 29373 29374 29375 29376 29377 29378 29379 29380 29381 29382 29383 29384 29385 29386 29387 29388 29389 29390 29391 29392 29393 29394 29395 29396 29397 29398 29399 29400 29401 29402 29403 29404 29405 29406 29407 29408 29409 29410 29411 29412 29413 29414 29415 29416 29417 29418 29419 29420 29421 29422 29423 29424 29425 29426 29427 29428 29429 29430 29431 29432 29433 29434 29435 29436 29437 29438 29439 29440 29441 29442 29443 29444 29445 29446 29447 29448 29449 29450 29451 29452 29453 29454 29455 29456 29457 29458 29459 29460 29461 29462 29463 29464 29465 29466 29467 29468 29469 29470 29471 29472 29473 29474 29475 29476 29477 29478 29479 29480 29481 29482 29483 29484 29485 29486 29487 29488 29489 29490 29491 29492 29493 29494 29495 29496 29497 29498 29499 29500 29501 29502 29503 29504 29505 29506 29507 29508 29509 29510 29511 29512 29513 29514 29515 29516 29517 29518 29519 29520 29521 29522 29523 29524 29525 29526 29527 29528 29529 29530 29531 29532 29533 29534 29535 29536 29537 29538 29539 29540 29541 29542 29543 29544 29545 29546 29547 29548 29549 29550 29551 29552 29553 29554 29555 29556 29557 29558 29559 29560 29561 29562 29563 29564 29565 29566 29567 29568 29569 29570 29571 29572 29573 29574 29575 29576 29577 29578 29579 29580 29581 29582 29583 29584 29585 29586 29587 29588 29589 29590 29591 29592 29593 29594 29595 29596 29597 29598 29599 29600 29601 29602 29603 29604 29605 29606 29607 29608 29609 29610 29611 29612 29613 29614 29615 29616 29617 29618 29619 29620 29621 29622 29623 29624 29625 29626 29627 29628 29629 29630 29631 29632 29633 29634 29635 29636 29637 29638 29639 29640 29641 29642 29643 29644 29645 29646 29647 29648 29649 29650 29651 29652 29653 29654 29655 29656 29657 29658 29659 29660 29661 29662 29663 29664 29665 29666 29667 29668 29669 29670 29671 29672 29673 29674 29675 29676 29677 29678 29679 29680 29681 29682 29683 29684 29685 29686 29687 29688 29689 29690 29691 29692 29693 29694 29695 29696 29697 29698 29699 29700 29701 29702 29703 29704 29705 29706 29707 29708 29709 29710 29711 29712 29713 29714 29715 29716 29717 29718 29719 29720 29721 29722 29723 29724 29725 29726 29727 29728 29729 29730 29731 29732 29733 29734 29735 29736 29737 29738 29739 29740 29741 29742 29743 29744 29745 29746 29747 29748 29749 29750 29751 29752 29753 29754 29755 29756 29757 29758 29759 29760 29761 29762 29763 29764 29765 29766 29767 29768 29769 29770 29771 29772 29773 29774 29775 29776 29777 29778 29779 29780 29781 29782 29783 29784 29785 29786 29787 29788 29789 29790 29791 29792 29793 29794 29795 29796 29797 29798 29799 29800 29801 29802 29803 29804 29805 29806 29807 29808 29809 29810 29811 29812 29813 29814 29815 29816 29817 29818 29819 29820 29821 29822 29823 29824 29825 29826 29827 29828 29829 29830 29831 29832 29833 29834 29835 29836 29837 29838 29839 29840 29841 29842 29843 29844 29845 29846 29847 29848 29849 29850 29851 29852 29853 29854 29855 29856 29857 29858 29859 29860 29861 29862 29863 29864 29865 29866 29867 29868 29869 29870 29871 29872 29873 29874 29875 29876 29877 29878 29879 29880 29881 29882 29883 29884 29885 29886 29887 29888 29889 29890 29891 29892 29893 29894 29895 29896 29897 29898 29899 29900 29901 29902 29903 29904 29905 29906 29907 29908 29909 29910 29911 29912 29913 29914 29915 29916 29917 29918 29919 29920 29921 29922 29923 29924 29925 29926 29927 29928 29929 29930 29931 29932 29933 29934 29935 29936 29937 29938 29939 29940 29941 29942 29943 29944 29945 29946 29947 29948 29949 29950 29951 29952 29953 29954 29955 29956 29957 29958 29959 29960 29961 29962 29963 29964 29965 29966 29967 29968 29969 29970 29971 29972 29973 29974 29975 29976 29977 29978 29979 29980 29981 29982 29983 29984 29985 29986 29987 29988 29989 29990 29991 29992 29993 29994 29995 29996 29997 29998 29999 30000 30001 30002 30003 30004 30005 30006 30007 30008 30009 30010 30011 30012 30013 30014 30015 30016 30017 30018 30019 30020 30021 30022 30023 30024 30025 30026 30027 30028 30029 30030 30031 30032 30033 30034 30035 30036 30037 30038 30039 30040 30041 30042 30043 30044 30045 30046 30047 30048 30049 30050 30051 30052 30053 30054 30055 30056 30057 30058 30059 30060 30061 30062 30063 30064 30065 30066 30067 30068 30069 30070 30071 30072 30073 30074 30075 30076 30077 30078 30079 30080 30081 30082 30083 30084 30085 30086 30087 30088 30089 30090 30091 30092 30093 30094 30095 30096 30097 30098 30099 30100 30101 30102 30103 30104 30105 30106 30107 30108 30109 30110 30111 30112 30113 30114 30115 30116 30117 30118 30119 30120 30121 30122 30123 30124 30125 30126 30127 30128 30129 30130 30131 30132 30133 30134 30135 30136 30137 30138 30139 30140 30141 30142 30143 30144 30145 30146 30147 30148 30149 30150 30151 30152 30153 30154 30155 30156 30157 30158 30159 30160 30161 30162 30163 30164 30165 30166 30167 30168 30169 30170 30171 30172 30173 30174 30175 30176 30177 30178 30179 30180 30181 30182 30183 30184 30185 30186 30187 30188 30189 30190 30191 30192 30193 30194 30195 30196 30197 30198 30199 30200 30201 30202 30203 30204 30205 30206 30207 30208 30209 30210 30211 30212 30213 30214 30215 30216 30217 30218 30219 30220 30221 30222 30223 30224 30225 30226 30227 30228 30229 30230 30231 30232 30233 30234 30235 30236 30237 30238 30239 30240 30241 30242 30243 30244 30245 30246 30247 30248 30249 30250 30251 30252 30253 30254 30255 30256 30257 30258 30259 30260 30261 30262 30263 30264 30265 30266 30267 30268 30269 30270 30271 30272 30273 30274 30275 30276 30277 30278 30279 30280 30281 30282 30283 30284 30285 30286 30287 30288 30289 30290 30291 30292 30293 30294 30295 30296 30297 30298 30299 30300 30301 30302 30303 30304 30305 30306 30307 30308 30309 30310 30311 30312 30313 30314 30315 30316 30317 30318 30319 30320 30321 30322 30323 30324 30325 30326 30327 30328 30329 30330 30331 30332 30333 30334 30335 30336 30337 30338 30339 30340 30341 30342 30343 30344 30345 30346 30347 30348 30349 30350 30351 30352 30353 30354 30355 30356 30357 30358 30359 30360 30361 30362 30363 30364 30365 30366 30367 30368 30369 30370 30371 30372 30373 30374 30375 30376 30377 30378 30379 30380 30381 30382 30383 30384 30385 30386 30387 30388 30389 30390 30391 30392 30393 30394 30395 30396 30397 30398 30399 30400 30401 30402 30403 30404 30405 30406 30407 30408 30409 30410 30411 30412 30413 30414 30415 30416 30417 30418 30419 30420 30421 30422 30423 30424 30425 30426 30427 30428 30429 30430 30431 30432 30433 30434 30435 30436 30437 30438 30439 30440 30441 30442 30443 30444 30445 30446 30447 30448 30449 30450 30451 30452 30453 30454 30455 30456 30457 30458 30459 30460 30461 30462 30463 30464 30465 30466 30467 30468 30469 30470 30471 30472 30473 30474 30475 30476 30477 30478 30479 30480 30481 30482 30483 30484 30485 30486 30487 30488 30489 30490 30491 30492 30493 30494 30495 30496 30497 30498 30499 30500 30501 30502 30503 30504 30505 30506 30507 30508 30509 30510 30511 30512 30513 30514 30515 30516 30517 30518 30519 30520 30521 30522 30523 30524 30525 30526 30527 30528 30529 30530 30531 30532 30533 30534 30535 30536 30537 30538 30539 30540 30541 30542 30543 30544 30545 30546 30547 30548 30549 30550 30551 30552 30553 30554 30555 30556 30557 30558 30559 30560 30561 30562 30563 30564 30565 30566 30567 30568 30569 30570 30571 30572 30573 30574 30575 30576 30577 30578 30579 30580 30581 30582 30583 30584 30585 30586 30587 30588 30589 30590 30591 30592 30593 30594 30595 30596 30597 30598 30599 30600 30601 30602 30603 30604 30605 30606 30607 30608 30609 30610 30611 30612 30613 30614 30615 30616 30617 30618 30619 30620 30621 30622 30623 30624 30625 30626 30627 30628 30629 30630 30631 30632 30633 30634 30635 30636 30637 30638 30639 30640 30641 30642 30643 30644 30645 30646 30647 30648 30649 30650 30651 30652 30653 30654 30655 30656 30657 30658 30659 30660 30661 30662 30663 30664 30665 30666 30667 30668 30669 30670 30671 30672 30673 30674 30675 30676 30677 30678 30679 30680 30681 30682 30683 30684 30685 30686 30687 30688 30689 30690 30691 30692 30693 30694 30695 30696 30697 30698 30699 30700 30701 30702 30703 30704 30705 30706 30707 30708 30709 30710 30711 30712 30713 30714 30715 30716 30717 30718 30719 30720 30721 30722 30723 30724 30725 30726 30727 30728 30729 30730 30731 30732 30733 30734 30735 30736 30737 30738 30739 30740 30741 30742 30743 30744 30745 30746 30747 30748 30749 30750 30751 30752 30753 30754 30755 30756 30757 30758 30759 30760 30761 30762 30763 30764 30765 30766 30767 30768 30769 30770 30771 30772 30773 30774 30775 30776 30777 30778 30779 30780 30781 30782 30783 30784 30785 30786 30787 30788 30789 30790 30791 30792 30793 30794 30795 30796 30797 30798 30799 30800 30801 30802 30803 30804 30805 30806 30807 30808 30809 30810 30811 30812 30813 30814 30815 30816 30817 30818 30819 30820 30821 30822 30823 30824 30825 30826 30827 30828 30829 30830 30831 30832 30833 30834 30835 30836 30837 30838 30839 30840 30841 30842 30843 30844 30845 30846 30847 30848 30849 30850 30851 30852 30853 30854 30855 30856 30857 30858 30859 30860 30861 30862 30863 30864 30865 30866 30867 30868 30869 30870 30871 30872 30873 30874 30875 30876 30877 30878 30879 30880 30881 30882 30883 30884 30885 30886 30887 30888 30889 30890 30891 30892 30893 30894 30895 30896 30897 30898 30899 30900 30901 30902 30903 30904 30905 30906 30907 30908 30909 30910 30911 30912 30913 30914 30915 30916 30917 30918 30919 30920 30921 30922 30923 30924 30925 30926 30927 30928 30929 30930 30931 30932 30933 30934 30935 30936 30937 30938 30939 30940 30941 30942 30943 30944 30945 30946 30947 30948 30949 30950 30951 30952 30953 30954 30955 30956 30957 30958 30959 30960 30961 30962 30963 30964 30965 30966 30967 30968 30969 30970 30971 30972 30973 30974 30975 30976 30977 30978 30979 30980 30981 30982 30983 30984 30985 30986 30987 30988 30989 30990 30991 30992 30993 30994 30995 30996 30997 30998 30999 31000 31001 31002 31003 31004 31005 31006 31007 31008 31009 31010 31011 31012 31013 31014 31015 31016 31017 31018 31019 31020 31021 31022 31023 31024 31025 31026 31027 31028 31029 31030 31031 31032 31033 31034 31035 31036 31037 31038 31039 31040 31041 31042 31043 31044 31045 31046 31047 31048 31049 31050 31051 31052 31053 31054 31055 31056 31057 31058 31059 31060 31061 31062 31063 31064 31065 31066 31067 31068 31069 31070 31071 31072 31073 31074 31075 31076 31077 31078 31079 31080 31081 31082 31083 31084 31085 31086 31087 31088 31089 31090 31091 31092 31093 31094 31095 31096 31097 31098 31099 31100 31101 31102 31103 31104 31105 31106 31107 31108 31109 31110 31111 31112 31113 31114 31115 31116 31117 31118 31119 31120 31121 31122 31123 31124 31125 31126 31127 31128 31129 31130 31131 31132 31133 31134 31135 31136 31137 31138 31139 31140 31141 31142 31143 31144 31145 31146 31147 31148 31149 31150 31151 31152 31153 31154 31155 31156 31157 31158 31159 31160 31161 31162 31163 31164 31165 31166 31167 31168 31169 31170 31171 31172 31173 31174 31175 31176 31177 31178 31179 31180 31181 31182 31183 31184 31185 31186 31187 31188 31189 31190 31191 31192 31193 31194 31195 31196 31197 31198 31199 31200 31201 31202 31203 31204 31205 31206 31207 31208 31209 31210 31211 31212 31213 31214 31215 31216 31217 31218 31219 31220 31221 31222 31223 31224 31225 31226 31227 31228 31229 31230 31231 31232 31233 31234 31235 31236 31237 31238 31239 31240 31241 31242 31243 31244 31245 31246 31247 31248 31249 31250 31251 31252 31253 31254 31255 31256 31257 31258 31259 31260 31261 31262 31263 31264 31265 31266 31267 31268 31269 31270 31271 31272 31273 31274 31275 31276 31277 31278 31279 31280 31281 31282 31283 31284 31285 31286 31287 31288 31289 31290 31291 31292 31293 31294 31295 31296 31297 31298 31299 31300 31301 31302 31303 31304 31305 31306 31307 31308 31309 31310 31311 31312 31313 31314 31315 31316 31317 31318 31319 31320 31321 31322 31323 31324 31325 31326 31327 31328 31329 31330 31331 31332 31333 31334 31335 31336 31337 31338 31339 31340 31341 31342 31343 31344 31345 31346 31347 31348 31349 31350 31351 31352 31353 31354 31355 31356 31357 31358 31359 31360 31361 31362 31363 31364 31365 31366 31367 31368 31369 31370 31371 31372 31373 31374 31375 31376 31377 31378 31379 31380 31381 31382 31383 31384 31385 31386 31387 31388 31389 31390 31391 31392 31393 31394 31395 31396 31397 31398 31399 31400 31401 31402 31403 31404 31405 31406 31407 31408 31409 31410 31411 31412 31413 31414 31415 31416 31417 31418 31419 31420 31421 31422 31423 31424 31425 31426 31427 31428 31429 31430 31431 31432 31433 31434 31435 31436 31437 31438 31439 31440 31441 31442 31443 31444 31445 31446 31447 31448 31449 31450 31451 31452 31453 31454 31455 31456 31457 31458 31459 31460 31461 31462 31463 31464 31465 31466 31467 31468 31469 31470 31471 31472 31473 31474 31475 31476 31477 31478 31479 31480 31481 31482 31483 31484 31485 31486 31487 31488 31489 31490 31491 31492 31493 31494 31495 31496 31497 31498 31499 31500 31501 31502 31503 31504 31505 31506 31507 31508 31509 31510 31511 31512 31513 31514 31515 31516 31517 31518 31519 31520 31521 31522 31523 31524 31525 31526 31527 31528 31529 31530 31531 31532 31533 31534 31535 31536 31537 31538 31539 31540 31541 31542 31543 31544 31545 31546 31547 31548 31549 31550 31551 31552 31553 31554 31555 31556 31557 31558 31559 31560 31561 31562 31563 31564 31565 31566 31567 31568 31569 31570 31571 31572 31573 31574 31575 31576 31577 31578 31579 31580 31581 31582 31583 31584 31585 31586 31587 31588 31589 31590 31591 31592 31593 31594 31595 31596 31597 31598 31599 31600 31601 31602 31603 31604 31605 31606 31607 31608 31609 31610 31611 31612 31613 31614 31615 31616 31617 31618 31619 31620 31621 31622 31623 31624 31625 31626 31627 31628 31629 31630 31631 31632 31633 31634 31635 31636 31637 31638 31639 31640 31641 31642 31643 31644 31645 31646 31647 31648 31649 31650 31651 31652 31653 31654 31655 31656 31657 31658 31659 31660 31661 31662 31663 31664 31665 31666 31667 31668 31669 31670 31671 31672 31673 31674 31675 31676 31677 31678 31679 31680 31681 31682 31683 31684 31685 31686 31687 31688 31689 31690 31691 31692 31693 31694 31695 31696 31697 31698 31699 31700 31701 31702 31703 31704 31705 31706 31707 31708 31709 31710 31711 31712 31713 31714 31715 31716 31717 31718 31719 31720 31721 31722 31723 31724 31725 31726 31727 31728 31729 31730 31731 31732 31733 31734 31735 31736 31737 31738 31739 31740 31741 31742 31743 31744 31745 31746 31747 31748 31749 31750 31751 31752 31753 31754 31755 31756 31757 31758 31759 31760 31761 31762 31763 31764 31765 31766 31767 31768 31769 31770 31771 31772 31773 31774 31775 31776 31777 31778 31779 31780 31781 31782 31783 31784 31785 31786 31787 31788 31789 31790 31791 31792 31793 31794 31795 31796 31797 31798 31799 31800 31801 31802 31803 31804 31805 31806 31807 31808 31809 31810 31811 31812 31813 31814 31815 31816 31817 31818 31819 31820 31821 31822 31823 31824 31825 31826 31827 31828 31829 31830 31831 31832 31833 31834 31835 31836 31837 31838 31839 31840 31841 31842 31843 31844 31845 31846 31847 31848 31849 31850 31851 31852 31853 31854 31855 31856 31857 31858 31859 31860 31861 31862 31863 31864 31865 31866 31867 31868 31869 31870 31871 31872 31873 31874 31875 31876 31877 31878 31879 31880 31881 31882 31883 31884 31885 31886 31887 31888 31889 31890 31891 31892 31893 31894 31895 31896 31897 
</DataArray>
<DataArray type="UInt32" Name="offsets" format="ascii">
3 6 9 12 15 17 20 23 26 29 32 35 38 40 43 46 49 52 54 57 60 62 65 68 71 74 76 79 82 85 88 90 93 96 99 102 105 108 111 114 117 120 123 126 129 131 134 137 139 142 145 148 151 154 156 159 162 165 168 171 174 177 179 182 185 188 191 193 196 199 202 205 208 211 214 217 220 222 225 228 230 233 236 238 241 244 247 250 252 255 258 261 264 267 270 273 275 277 279 282 285 287 290 293 296 299 302 304 307 310 313 316 319 322 325 328 331 334 337 340 343 345 348 351 354 356 359 362 365 368 371 374 376 379 382 385 388 391 394 397 400 403 406 409 412 415 418 421 424 427 430 433 436 439 442 445 448 451 453 456 459 462 464 467 470 472 475 478 481 484 487 490 493 496 499 502 505 507 510 513 516 519 522 525 528 531 533 536 539 542 545 548 551 554 557 559 562 565 568 571 574 577 580 583 586 588 591 594 597 600 603 606 609 612 615 618 621 624 627 630 633 636 639 642 645 648 651 654 657 659 662 665 668 670 673 675 678 680 683 686 688 691 694 697 699 702 704 707 709 712 714 716 719 721 724 727 729 732 734 737 740 743 745 748 750 752 755 758 760 763 766 769 771 774 776 778 780 783 785 788 791 794 796 799 801 803 805 808 811 813 815 818 821 824 827 829 832 834 837 840 842 845 848 851 853 856 858 860 862 865 868 871 873 876 878 880 882 884 887 890 893 895 897 900 903 905 907 909 912 914 917 920 923 926 928 931 934 937 940 943 946 949 951 954 957 960 963 966 969 971 973 976 979 982 984 987 990 993 995 998 1000 1003 1005 1007 1010 1013 1016 1019 1021 1024 1027 1029 1032 1035 1038 1041 1043 1046 1048 1051 1054 1057 1060 1063 1065 1067 1070 1073 1076 1079 1082 1085 1088 1091 1093 1096 1099 1102 1104 1107 1110 1112 1115 1117 1120 1123 1126 1129 1132 1135 1138 1141 1144 1147 1150 1152 1155 1157 1160 1162 1165 1168 1171 1173 1176 1178 1181 1183 1186 1189 1192 1195 1198 1201 1203 1206 1208 1211 1214 1217 1219 1222 1225 1228 1230 1233 1235 1237 1240 1243 1246 1249 1251 1254 1257 1260 1263 1265 1267 1270 1273 1275 1278 1280 1283 1285 1287 1290 1293 1296 1298 1301 1304 1307 1310 1312 1315 1318 1321 1324 1327 1330 1333 1336 1339 1342 1345 1347 1350 1353 1356 1359 1361 1364 1367 1370 1372 1375 1377 1379 1381 1384 1387 1390 1392 1394 1397 1399 1402 1405 1407 1410 1413 1416 1419 1421 1424 1427 1430 1433 1436 1439 1442 1445 1448 1451 1454 1456 1458 1461 1464 1466 1469 1472 1475 1477 1480 1483 1486 1489 1492 1495 1497 1500 1503 1506 1508 1511 1514 1517 1519 1522 1525 1528 1531 1534 1537 1540 1543 1546 1549 1552 1554 1557 1560 1563 1565 1568 1571 1574 1577 1580 1583 1586 1588 1591 1594 1597 1600 1603 1605 1608 1611 1614 1617 1620 1623 1626 1629 1632 1635 1638 1641 1644 1647 1650 1653 1656 1659 1662 1664 1667 1670 1673 1676 1678 1681 1684 1686 1689 1692 1695 1698 1701 1704 1707 1709 1712 1715 1718 1721 1724 1727 1730 1733 1735 1738 1740 1743 1746 1748 1751 1754 1757 1759 1762 1765 1767 1770 1773 1776 1778 1781 1783 1786 1789 1791 1794 1796 1799 1802 1805 1808 1811 1814 1817 1820 1823 1826 1829 1832 1835 1838 1841 1844 1847 1850 1853 1856 1859 1862 1864 1867 1869 1872 1874 1877 1880 1883 1886 1889 1892 1895 1898 1901 1904 1907 1910 1913 1916 1919 1921 1924 1927 1930 1933 1936 1939 1942 1945 1948 1950 1953 1956 1959 1962 1965 1968 1971 1974 1977 1980 1983 1986 1989 1992 1995 1998 2001 2004 2007 2010 2013 2016 2019 2022 2025 2028 2031 2034 2037 2039 2042 2045 2047 2050 2053 2056 2058 2060 2063 2065 2068 2071 2074 2077 2080 2082 2085 2088 2091 2094 2097 2099 2102 2105 2108 2111 2114 2117 2120 2123 2126 2129 2132 2135 2138 2141 2144 2147 2150 2153 2156 2159 2162 2165 2168 2171 2174 2177 2180 2183 2186 2189 2192 2195 2198 2201 2204 2207 2210 2213 2216 2219 2222 2225 2228 2231 2234 2237 2240 2243 2246 2248 2251 2254 2257 2260 2263 2266 2269 2272 2275 2278 2281 2284 2287 2290 2293 2295 2298 2301 2304 2307 2309 2312 2315 2318 2321 2324 2327 2330 2333 2336 2339 2342 2345 2348 2351 2354 2357 2360 2363 2366 2369 2372 2375 2378 2381 2384 2387 2390 2392 2395 2398 2400 2403 2405 2407 2409 2411 2414 2417 2419 2422 2425 2428 2431 2434 2437 2440 2443 2446 2449 2452 2455 2458 2461 2464 2467 2470 2472 2475 2478 2480 2483 2485 2488 2491 2494 2497 2499 2502 2504 2507 2510 2513 2516 2518 2521 2524 2527 2529 2532 2535 2538 2541 2544 2546 2549 2551 2554 2557 2559 2561 2564 2566 2569 2572 2575 2578 2581 2584 2587 2590 2593 2596 2599 2601 2604 2607 2610 2612 2615 2618 2621 2623 2626 2629 2631 2633 2635 2638 2641 2644 2647 2650 2653 2656 2659 2662 2665 2668 2670 2673 2676 2679 2682 2685 2688 2691 2694 2696 2698 2700 2703 2706 2709 2712 2715 2718 2721 2724 2726 2728 2731 2734 2737 2739 2742 2745 2747 2750 2753 2756 2759 2762 2765 2768 2771 2774 2777 2780 2782 2785 2788 2791 2794 2797 2800 2803 2806 2808 2811 2814 2817 2820 2823 2826 2829 2832 2835 2838 2840 2843 2845 2847 2849 2852 2855 2858 2861 2864 2867 2870 2872 2874 2877 2879 2882 2885 2888 2891 2894 2896 2899 2901 2903 2906 2909 2912 2914 2917 2919 2922 2925 2928 2931 2933 2936 2939 2942 2945 2948 2951 2954 2957 2960 2963 2966 2969 2972 2975 2978 2981 2984 2986 2989 2992 2995 2997 3000 3003 3006 3009 3012 3014 3017 3020 3023 3026 3029 3032 3034 3037 3039 3042 3045 3048 3051 3054 3057 3060 3063 3065 3068 3071 3074 3076 3079 3082 3085 3088 3091 3094 3097 3100 3103 3106 3109 3112 3115 3118 3121 3124 3127 3130 3133 3136 3139 3142 3145 3148 3151 3153 3155 3157 3160 3163 3166 3169 3171 3174 3177 3180 3183 3185 3188 3191 3194 3197 3200 3203 3206 3208 3211 3214 3217 3220 3223 3226 3229 3232 3234 3237 3240 3243 3246 3249 3252 3255 3258 3261 3264 3267 3270 3272 3275 3278 3281 3284 3287 3290 3292 3295 3298 3301 3304 3307 3310 3313 3316 3318 3321 3324 3327 3329 3332 3335 3338 3341 3344 3347 3350 3353 3356 3359 3362 3365 3367 3370 3373 3376 3379 3382 3385 3388 3391 3394 3397 3400 3403 3406 3409 3412 3415 3418 3421 3424 3427 3430 3433 3436 3439 3442 3445 3448 3451 3454 3457 3460 3463 3466 3469 3472 3475 3478 3481 3484 3487 3490 3493 3496 3499 3502 3505 3508 3510 3513 3516 3519 3522 3525 3528 3531 3534 3537 3540 3543 3546 3549 3552 3555 3558 3561 3564 3567 3570 3573 3576 3579 3582 3584 3587 3590 3593 3596 3599 3602 3605 3608 3611 3614 3616 3619 3622 3624 3627 3630 3633 3636 3639 3642 3645 3648 3651 3653 3656 3658 3661 3664 3667 3670 3672 3675 3678 3680 3683 3685 3688 3691 3694 3697 3700 3702 3705 3708 3711 3714 3717 3720 3723 3726 3728 3731 3734 3737 3740 3743 3746 3749 3752 3755 3758 3761 3764 3767 3770 3772 3775 3777 3779 3782 3785 3788 3791 3794 3796 3799 3802 3805 3808 3811 3814 3817 3820 3823 3826 3829 3832 3835 3838 3841 3843 3846 3849 3852 3855 3858 3861 3864 3867 3870 3873 3876 3879 3882 3885 3888 3891 3893 3896 3899 3902 3905 3908 3910 3912 3915 3918 3920 3923 3926 3929 3932 3935 3938 3941 3944 3947 3950 3952 3955 3958 3961 3964 3967 3970 3973 3976 3979 3981 3984 3986 3989 3992 3995 3998 4001 4003 4006 4009 4012 4015 4017 4020 4023 4026 4028 4031 4034 4037 4039 4042 4045 4047 4050 4053 4056 4059 4062 4065 4068 4071 4074 4077 4080 4083 4086 4089 4092 4095 4097 4100 4103 4106 4109 4112 4115 4118 4120 4123 4126 4129 4132 4135 4138 4141 4144 4147 4150 4153 4156 4159 4162 4165 4168 4171 4174 4177 4180 4183 4186 4189 4192 4195 4198 4201 4203 4206 4209 4212 4215 4217 4220 4223 4226 4228 4231 4234 4237 4240 4243 4246 4249 4252 4255 4257 4260 4262 4265 4268 4271 4274 4277 4280 4283 4286 4289 4292 4295 4298 4301 4304 4307 4310 4313 4316 4318 4320 4323 4326 4329 4331 4334 4337 4339 4342 4345 4347 4350 4353 4356 4358 4361 4364 4366 4369 4372 4375 4378 4381 4384 4387 4390 4393 4396 4399 4402 4405 4408 4411 4414 4417 4420 4423 4426 4428 4431 4433 4436 4439 4442 4445 4448 4451 4454 4457 4460 4463 4466 4468 4471 4473 4476 4479 4482 4484 4487 4490 4493 4496 4499 4501 4504 4507 4510 4513 4516 4519 4521 4524 4527 4530 4533 4536 4539 4542 4545 4548 4551 4554 4556 4559 4562 4565 4568 4571 4574 4577 4580 4582 4585 4588 4591 4593 4596 4599 4601 4604 4607 4610 4613 4616 4618 4621 4624 4627 4630 4633 4636 4639 4642 4645 4647 4650 4653 4655 4658 4660 4663 4665 4667 4669 4672 4674 4677 4680 4683 4686 4689 4692 4694 4697 4700 4703 4706 4709 4712 4714 4717 4720 4723 4726 4729 4732 4735 4737 4740 4743 4746 4749 4751 4754 4757 4760 4763 4766 4768 4771 4773 4776 4779 4782 4785 4788 4791 4794 4797 4800 4803 4805 4808 4811 4814 4817 4820 4823 4826 4828 4831 4834 4837 4840 4843 4846 4849 4851 4854 4856 4859 4862 4865 4868 4871 4874 4877 4880 4882 4885 4888 4891 4893 4895 4898 4901 4904 4907 4910 4912 4914 4917 4919 4922 4925 4927 4930 4933 4935 4938 4941 4944 4947 4950 4953 4956 4959 4961 4964 4967 4970 4973 4976 4978 4981 4984 4987 4990 4992 4995 4998 5000 5003 5006 5009 5012 5015 5018 5021 5024 5027 5030 5033 5036 5039 5042 5045 5048 5051 5054 5057 5060 5063 5066 5069 5072 5075 5078 5081 5084 5087 5090 5093 5096 5099 5102 5105 5108 5111 5114 5117 5120 5123 5125 5128 5131 5133 5136 5139 5142 5145 5148 5150 5153 5156 5159 5162 5164 5167 5170 5173 5176 5179 5182 5185 5188 5191 5194 5197 5200 5203 5206 5209 5212 5215 5218 5221 5224 5227 5230 5233 5236 5238 5241 5244 5247 5249 5252 5255 5258 5261 5264 5267 5269 5272 5275 5278 5281 5284 5287 5290 5293 5296 5299 5302 5304 5307 5309 5311 5314 5317 5319 5322 5325 5328 5331 5334 5337 5340 5343 5346 5349 5352 5354 5357 5360 5362 5365 5368 5371 5374 5377 5380 5383 5386 5389 5392 5395 5398 5401 5404 5407 5409 5412 5415 5418 5421 5424 5427 5430 5432 5435 5437 5440 5443 5446 5449 5451 5454 5456 5459 5462 5465 5468 5471 5474 5477 5480 5483 5485 5488 5491 5494 5497 5500 5503 5506 5509 5512 5515 5518 5521 5524 5527 5530 5533 5536 5538 5541 5544 5547 5550 5553 5556 5559 5562 5565 5568 5571 5574 5577 5580 5583 5586 5589 5592 5595 5598 5601 5604 5607 5610 5613 5615 5617 5620 5623 5626 5629 5632 5635 5638 5641 5644 5647 5650 5652 5655 5658 5661 5664 5666 5669 5672 5675 5678 5680 5683 5686 5689 5692 5695 5698 5701 5704 5706 5709 5712 5715 5718 5721 5724 5727 5730 5733 5735 5738 5741 5744 5747 5750 5753 5756 5759 5762 5765 5768 5771 5774 5777 5780 5783 5786 5789 5792 5795 5797 5800 5803 5806 5809 5812 5815 5818 5821 5824 5827 5830 5833 5836 5839 5841 5844 5846 5849 5852 5855 5858 5861 5864 5867 5870 5872 5875 5878 5880 5883 5886 5889 5892 5895 5898 5901 5904 5907 5910 5913 5916 5919 5922 5925 5928 5931 5934 5937 5940 5943 5946 5949 5952 5955 5958 5961 5964 5967 5970 5973 5976 5979 5982 5985 5988 5990 5993 5996 5998 6001 6004 6007 6010 6012 6015 6017 6020 6023 6025 6028 6030 6033 6036 6039 6042 6045 6047 6050 6053 6056 6059 6062 6065 6068 6071 6074 6077 6080 6083 6085 6088 6091 6094 6096 6099 6102 6105 6108 6111 6114 6117 6120 6123 6125 6128 6131 6134 6137 6139 6141 6144 6147 6150 6153 6156 6159 6162 6165 6167 6170 6173 6176 6179 6182 6184 6187 6190 6193 6195 6198 6201 6204 6206 6209 6212 6215 6218 6220 6223 6226 6229 6232 6235 6238 6241 6244 6247 6250 6253 6256 6259 6262 6264 6267 6270 6273 6276 6279 6282 6284 6287 6289 6291 6294 6296 6299 6301 6304 6307 6310 6313 6315 6318 6321 6324 6327 6329 6332 6335 6338 6341 6344 6347 6350 6353 6356 6358 6361 6364 6367 6370 6373 6376 6379 6382 6385 6388 6391 6394 6397 6400 6402 6405 6408 6411 6413 6416 6419 6422 6424 6427 6429 6432 6435 6438 6441 6444 6447 6450 6453 6456 6459 6462 6465 6468 6471 6474 6477 6479 6482 6485 6488 6491 6494 6497 6499 6502 6505 6508 6511 6514 6517 6520 6523 6526 6529 6532 6535 6538 6541 6544 6547 6550 6553 6555 6558 6561 6564 6567 6570 6573 6576 6579 6582 6585 6588 6591 6594 6597 6600 6603 6606 6609 6612 6615 6618 6621 6624 6627 6630 6633 6636 6639 6642 6645 6648 6651 6654 6657 6659 6662 6665 6668 6671 6673 6676 6679 6682 6685 6688 6691 6694 6696 6699 6702 6705 6708 6711 6714 6717 6720 6723 6725 6728 6731 6733 6736 6739 6742 6745 6748 6750 6753 6756 6759 6761 6764 6767 6769 6772 6775 6778 6781 6784 6787 6790 6793 6796 6799 6802 6805 6808 6811 6814 6817 6820 6823 6826 6829 6831 6834 6837 6840 6843 6846 6849 6852 6855 6858 6861 6863 6865 6868 6870 6873 6876 6879 6882 6885 6887 6890 6893 6896 6899 6901 6904 6907 6910 6913 6916 6918 6921 6923 6926 6929 6931 6934 6937 6940 6943 6946 6949 6952 6955 6957 6960 6963 6966 6969 6972 6975 6977 6980 6983 6986 6989 6992 6995 6997 7000 7003 7006 7009 7011 7014 7017 7019 7022 7024 7027 7030 7032 7035 7038 7041 7044 7047 7050 7052 7055 7058 7061 7064 7066 7069 7072 7075 7078 7081 7084 7087 7090 7092 7094 7097 7100 7103 7106 7109 7112 7115 7118 7120 7123 7126 7129 7132 7135 7138 7140 7143 7146 7149 7152 7155 7158 7161 7163 7166 7169 7172 7174 7177 7180 7183 7186 7189 7192 7195 7198 7201 7204 7207 7210 7212 7215 7218 7221 7224 7226 7229 7232 7234 7237 7240 7243 7246 7248 7251 7254 7257 7259 7261 7264 7267 7270 7272 7275 7278 7281 7283 7286 7289 7292 7295 7298 7301 7304 7307 7310 7312 7315 7318 7321 7323 7326 7329 7332 7335 7338 7341 7344 7347 7350 7353 7356 7359 7361 7364 7366 7369 7372 7374 7377 7380 7382 7385 7388 7391 7394 7397 7400 7403 7405 7408 7411 7414 7417 7420 7422 7425 7427 7430 7433 7436 7438 7440 7443 7445 7447 7450 7452 7455 7458 7461 7464 7467 7470 7472 7475 7477 7480 7483 7486 7489 7492 7495 7498 7501 7504 7507 7510 7513 7516 7518 7521 7524 7526 7529 7531 7534 7537 7539 7542 7545 7548 7550 7552 7555 7558 7560 7563 7566 7569 7572 7575 7578 7581 7584 7587 7590 7593 7596 7599 7602 7605 7608 7611 7614 7617 7620 7623 7626 7629 7631 7633 7636 7638 7641 7643 7646 7649 7651 7653 7656 7659 7661 7664 7667 7669 7672 7675 7677 7680 7682 7685 7688 7691 7694 7696 7699 7702 7705 7708 7710 7713 7715 7717 7720 7722 7725 7728 7730 7732 7735 7738 7741 7743 7746 7749 7752 7755 7757 7759 7762 7765 7768 7771 7774 7776 7779 7782 7785 7788 7791 7794 7797 7800 7803 7806 7809 7811 7814 7816 7819 7821 7824 7827 7829 7832 7834 7837 7840 7843 7846 7849 7852 7855 7858 7860 7863 7866 7868 7871 7874 7877 7880 7882 7885 7888 7891 7894 7897 7900 7903 7906 7909 7912 7915 7918 7920 7923 7926 7929 7932 7935 7938 7941 7944 7947 7950 7953 7955 7958 7961 7964 7967 7970 7973 7975 7978 7980 7983 7986 7988 7991 7994 7997 8000 8003 8006 8009 8012 8015 8018 8021 8024 8027 8030 8033 8036 8039 8041 8043 8046 8049 8052 8054 8057 8060 8062 8065 8068 8071 8074 8077 8080 8083 8086 8089 8092 8095 8098 8101 8104 8107 8110 8113 8116 8119 8122 8125 8128 8131 8134 8137 8139 8141 8144 8147 8150 8153 8156 8159 8162 8165 8168 8171 8174 8176 8179 8182 8185 8188 8191 8194 8197 8200 8203 8206 8209 8212 8215 8218 8221 8224 8227 8230 8233 8236 8239 8242 8245 8248 8251 8254 8257 8260 8263 8266 8269 8272 8275 8277 8280 8283 8286 8289 8292 8294 8297 8300 8302 8305 8308 8310 8312 8315 8318 8321 8324 8327 8330 8333 8336 8339 8342 8345 8348 8351 8353 8356 8359 8361 8364 8367 8370 8373 8376 8379 8381 8384 8387 8389 8392 8395 8398 8401 8404 8407 8410 8413 8416 8419 8422 8425 8428 8430 8433 8436 8439 8442 8445 8448 8451 8453 8456 8459 8462 8465 8468 8471 8474 8477 8480 8483 8486 8489 8491 8494 8497 8499 8502 8505 8508 8511 8514 8517 8520 8523 8526 8529 8532 8535 8538 8541 8544 8547 8550 8553 8556 8559 8561 8564 8567 8569 8572 8574 8577 8580 8583 8585 8588 8591 8593 8596 8598 8601 8604 8607 8609 8612 8615 8618 8621 8623 8626 8629 8632 8635 8638 8641 8644 8646 8649 8652 8655 8657 8660 8663 8666 8669 8672 8675 8678 8681 8684 8687 8690 8693 8695 8698 8701 8704 8707 8710 8713 8716 8719 8721 8724 8727 8730 8733 8736 8739 8742 8745 8748 8751 8754 8756 8759 8762 8765 8768 8771 8774 8777 8780 8783 8786 8789 8792 8795 8798 8801 8804 8807 8810 8813 8815 8817 8820 8823 8826 8828 8831 8834 8837 8840 8843 8846 8849 8852 8855 8858 8861 8864 8866 8869 8872 8875 8878 8881 8884 8887 8890 8893 8895 8898 8901 8904 8907 8910 8913 8916 8919 8922 8925 8928 8931 8934 8937 8940 8943 8945 8948 8950 8953 8956 8959 8962 8965 8967 8970 8973 8976 8979 8981 8984 8987 8990 8992 8995 8998 9001 9003 9006 9009 9012 9015 9018 9021 9024 9027 9030 9032 9035 9038 9041 9043 9046 9049 9051 9054 9057 9060 9063 9066 9069 9071 9074 9077 9080 9083 9086 9089 9092 9095 9097 9100 9103 9106 9108 9111 9114 9117 9120 9123 9126 9129 9132 9135 9138 9141 9144 9147 9150 9153 9156 9159 9162 9165 9168 9171 9174 9177 9180 9183 9186 9189 9191 9194 9197 9200 9203 9206 9209 9212 9214 9217 9220 9223 9226 9229 9232 9235 9238 9241 9244 9247 9250 9253 9256 9259 9262 9265 9268 9271 9274 9277 9280 9283 9286 9289 9291 9294 9296 9299 9302 9305 9308 9311 9314 9316 9319 9322 9325 9327 9330 9333 9335 9338 9341 9344 9347 9350 9353 9356 9359 9362 9365 9368 9371 9373 9376 9379 9382 9385 9388 9390 9393 9396 9399 9402 9405 9408 9411 9414 9417 9420 9423 9426 9429 9431 9434 9437 9440 9442 9445 9448 9451 9454 9457 9460 9463 9466 9469 9472 9475 9478 9480 9482 9485 9488 9491 9494 9496 9499 9502 9505 9508 9511 9514 9517 9520 9523 9525 9527 9530 9533 9536 9539 9542 9544 9547 9550 9553 9556 9559 9561 9564 9567 9570 9573 9576 9578 9581 9583 9586 9589 9592 9595 9597 9600 9602 9605 9607 9609 9612 9615 9618 9621 9624 9627 9630 9632 9634 9637 9640 9643 9646 9649 9652 9654 9656 9658 9661 9663 9665 9668 9671 9674 9676 9679 9682 9685 9688 9691 9693 9695 9697 9700 9702 9705 9708 9711 9713 9716 9718 9720 9723 9726 9729 9732 9735 9738 9741 9743 9745 9748 9751 9753 9755 9757 9760 9763 9766 9769 9772 9775 9778 9781 9784 9787 9790 9793 9796 9799 9802 9805 9808 9811 9814 9817 9820 9823 9826 9829 9832 9835 9838 9841 9844 9847 9850 9853 9856 9859 9862 9865 9868 9871 9874 9877 9879 9882 9885 9888 9891 9894 9897 9900 9903 9906 9909 9911 9914 9917 9920 9923 9926 9929 9931 9934 9937 9939 9942 9945 9948 9951 9954 9957 9960 9963 9966 9969 9972 9975 9978 9980 9983 9985 9988 9991 9994 9997 9999 10002 10005 10008 10010 10013 10016 10018 10021 10024 10027 10029 10032 10035 10037 10040 10043 10046 10049 10052 10054 10057 10060 10063 10066 10069 10072 10075 10077 10080 10083 10086 10089 10092 10095 10098 10100 10103 10106 10108 10111 10114 10117 10120 10122 10125 10127 10130 10133 10136 10139 10142 10144 10147 10150 10153 10156 10158 10161 10164 10167 10170 10173 10176 10178 10180 10183 10186 10189 10192 10195 10197 10200 10203 10205 10208 10211 10214 10217 10220 10223 10226 10229 10232 10235 10237 10240 10243 10246 10249 10252 10255 10258 10261 10264 10267 10270 10273 10276 10279 10282 10285 10288 10291 10293 10296 10299 10302 10305 10308 10311 10313 10316 10319 10322 10325 10328 10331 10334 10336 10338 10341 10344 10347 10350 10352 10355 10358 10361 10364 10367 10370 10373 10375 10378 10381 10383 10386 10388 10390 10392 10395 10398 10401 10404 10407 10410 10412 10415 10418 10421 10424 10427 10429 10432 10435 10438 10441 10443 10446 10449 10452 10454 10457 10460 10463 10465 10468 10471 10474 10477 10480 10483 10486 10489 10492 10495 10498 10501 10504 10507 10510 10513 10516 10519 10522 10525 10528 10531 10534 10537 10540 10542 10545 10548 10551 10554 10557 10560 10563 10565 10568 10570 10573 10576 10579 10582 10585 10588 10590 10593 10596 10598 10601 10604 10607 10609 10612 10615 10617 10620 10623 10626 10629 10632 10634 10637 10640 10643 10645 10647 10650 10653 10656 10659 10662 10665 10668 10671 10674 10677 10680 10683 10685 10688 10691 10694 10697 10700 10703 10706 10709 10712 10714 10717 10720 10723 10726 10729 10731 10733 10736 10739 10742 10745 10748 10751 10754 10757 10760 10762 10765 10768 10771 10774 10777 10780 10783 10786 10788 10791 10794 10797 10800 10803 10806 10809 10812 10815 10818 10821 10824 10827 10830 10833 10836 10839 10842 10844 10847 10850 10853 10856 10858 10861 10863 10866 10868 10871 10874 10877 10880 10883 10886 10889 10892 10895 10898 10901 10904 10907 10910 10913 10916 10919 10921 10924 10927 10930 10933 10936 10938 10941 10944 10947 10949 10951 10954 10957 10960 10963 10966 10968 10971 10974 10977 10980 10982 10985 10988 10991 10994 10997 11000 11003 11006 11008 11011 11014 11017 11020 11023 11026 11029 11031 11034 11037 11040 11043 11046 11049 11052 11055 11058 11060 11063 11066 11069 11072 11075 11078 11081 11084 11087 11090 11093 11096 11099 11102 11105 11108 11111 11114 11116 11119 11122 11125 11128 11131 11134 11137 11140 11143 11146 11149 11152 11155 11157 11160 11163 11166 11169 11172 11175 11177 11180 11183 11185 11188 11191 11193 11196 11199 11202 11205 11208 11211 11214 11217 11220 11223 11226 11229 11232 11235 11238 11241 11244 11247 11250 11253 11256 11259 11262 11265 11268 11271 11273 11276 11278 11281 11283 11285 11288 11291 11294 11296 11299 11302 11305 11308 11311 11314 11317 11320 11323 11325 11327 11330 11332 11335 11338 11341 11344 11347 11350 11353 11356 11359 11362 11365 11368 11371 11374 11376 11379 11381 11383 11386 11388 11391 11394 11397 11400 11403 11406 11409 11412 11415 11417 11419 11422 11425 11428 11431 11434 11437 11440 11443 11446 11449 11452 11455 11458 11461 11464 11467 11470 11473 11476 11479 11482 11485 11487 11490 11493 11496 11499 11502 11504 11507 11510 11513 11516 11519 11521 11524 11527 11530 11532 11535 11538 11541 11544 11547 11550 11553 11556 11559 11561 11564 11567 11570 11573 11575 11578 11581 11584 11587 11590 11593 11595 11598 11601 11604 11607 11610 11613 11616 11618 11621 11624 11627 11630 11632 11635 11638 11641 11644 11647 11650 11653 11656 11659 11662 11664 11667 11670 11673 11676 11678 11681 11684 11687 11689 11692 11695 11698 11701 11704 11706 11709 11712 11715 11718 11721 11724 11727 11730 11733 11736 11739 11742 11745 11748 11750 11752 11755 11758 11760 11763 11766 11769 11772 11775 11778 11781 11783 11786 11789 11792 11795 11798 11801 11803 11806 11809 11812 11815 11818 11821 11824 11827 11830 11833 11836 11839 11842 11845 11848 11851 11854 11857 11860 11863 11866 11869 11872 11874 11877 11880 11883 11886 11889 11892 11895 11898 11900 11903 11906 11909 11912 11914 11917 11920 11923 11926 11929 11931 11934 11936 11939 11941 11944 11947 11950 11953 11956 11959 11962 11964 11967 11970 11973 11975 11978 11981 11984 11987 11990 11992 11995 11998 12001 12004 12007 12009 12012 12014 12017 12020 12022 12025 12027 12030 12033 12036 12039 12042 12044 12047 12050 12053 12055 12058 12061 12064 12067 12070 12073 12076 12079 12082 12085 12087 12090 12093 12096 12099 12102 12105 12108 12111 12114 12117 12120 12123 12126 12129 12132 12135 12138 12141 12144 12147 12150 12153 12155 12158 12161 12164 12167 12170 12173 12176 12179 12182 12185 12188 12191 12194 12197 12200 12203 12206 12209 12211 12214 12217 12220 12222 12225 12228 12231 12234 12237 12240 12242 12245 12248 12251 12253 12255 12258 12260 12263 12265 12267 12270 12272 12275 12278 12280 12283 12286 12288 12290 12293 12296 12299 12302 12305 12308 12311 12314 12316 12319 12321 12324 12327 12330 12333 12336 12339 12342 12345 12348 12351 12354 12357 12360 12363 12366 12369 12372 12375 12378 12381 12384 12387 12389 12392 12395 12398 12401 12404 12407 12410 12413 12415 12418 12421 12423 12426 12429 12431 12433 12436 12439 12441 12444 12447 12450 12453 12456 12459 12462 12465 12468 12471 12474 12477 12480 12483 12486 12489 12492 12495 12498 12501 12504 12507 12510 12513 12516 12519 12522 12525 12528 12531 12534 12537 12540 12543 12546 12549 12552 12555 12558 12560 12563 12565 12568 12571 12574 12577 12580 12583 12586 12589 12592 12595 12598 12601 12604 12607 12610 12613 12616 12619 12622 12625 12628 12631 12634 12637 12640 12643 12646 12649 12652 12655 12658 12661 12664 12667 12670 12673 12676 12679 12682 12685 12687 12690 12693 12695 12698 12701 12704 12707 12710 12712 12715 12717 12720 12723 12725 12728 12731 12734 12737 12740 12743 12745 12748 12751 12754 12757 12760 12763 12766 12769 12772 12775 12778 12780 12783 12786 12788 12790 12793 12795 12798 12801 12803 12806 12809 12812 12815 12817 12820 12823 12826 12829 12832 12835 12838 12841 12844 12846 12849 12851 12854 12857 12860 12863 12866 12869 12872 12874 12877 12879 12882 12885 12888 12891 12894 12897 12900 12903 12906 12908 12911 12913 12916 12919 12922 12925 12928 12931 12934 12937 12940 12943 12945 12948 12951 12954 12956 12959 12962 12964 12967 12970 12972 12975 12978 12981 12984 12986 12989 12992 12995 12997 13000 13003 13006 13009 13012 13015 13018 13021 13024 13027 13030 13033 13036 13039 13041 13044 13047 13050 13053 13056 13059 13061 13064 13066 13069 13071 13074 13077 13080 13082 13085 13088 13091 13094 13097 13100 13103 13106 13108 13111 13114 13117 13120 13123 13125 13128 13131 13133 13136 13139 13142 13145 13148 13151 13154 13157 13160 13162 13165 13168 13171 13173 13176 13179 13182 13185 13188 13191 13193 13196 13199 13202 13205 13208 13211 13214 13217 13220 13223 13226 13229 13232 13235 13238 13241 13244 13247 13250 13253 13256 13259 13262 13265 13268 13271 13274 13277 13280 13283 13286 13288 13291 13294 13297 13300 13303 13305 13308 13311 13313 13315 13318 13321 13324 13327 13329 13332 13335 13338 13341 13344 13346 13349 13352 13355 13358 13361 13364 13367 13370 13373 13376 13379 13382 13385 13388 13391 13394 13396 13399 13402 13405 13408 13411 13414 13417 13420 13422 13424 13427 13430 13433 13436 13439 13442 13444 13447 13450 13453 13456 13458 13461 13464 13467 13470 13473 13476 13479 13482 13485 13488 13491 13494 13497 13500 13503 13506 13509 13512 13515 13518 13521 13524 13527 13530 13532 13535 13538 13540 13543 13546 13549 13552 13555 13558 13561 13564 13567 13570 13573 13576 13579 13582 13585 13588 13591 13594 13597 13600 13603 13606 13609 13612 13615 13618 13621 13623 13626 13628 13631 13634 13637 13640 13643 13645 13648 13651 13654 13657 13660 13663 13666 13669 13672 13675 13678 13681 13684 13687 13690 13693 13696 13699 13702 13705 13707 13709 13712 13714 13717 13720 13723 13726 13729 13732 13735 13738 13741 13744 13747 13750 13753 13756 13759 13762 13764 13767 13770 13773 13775 13778 13781 13784 13787 13790 13793 13796 13799 13802 13805 13808 13811 13814 13816 13819 13822 13825 13828 13831 13834 13837 13840 13843 13846 13849 13852 13855 13858 13861 13864 13867 13870 13873 13876 13879 13882 13884 13887 13890 13893 13896 13899 13902 13905 13908 13911 13914 13917 13920 13923 13925 13928 13930 13933 13936 13938 13940 13943 13946 13949 13952 13955 13958 13961 13964 13967 13970 13973 13976 13979 13982 13985 13988 13991 13994 13997 14000 14002 14005 14008 14010 14013 14016 14019 14021 14024 14027 14030 14033 14036 14039 14041 14044 14047 14050 14052 14055 14058 14061 14064 14067 14070 14073 14076 14078 14081 14084 14086 14089 14092 14094 14097 14099 14102 14105 14108 14111 14113 14115 14118 14121 14123 14125 14128 14131 14133 14136 14139 14142 14145 14147 14150 14153 14155 14157 14160 14162 14165 14168 14171 14174 14177 14180 14183 14186 14189 14192 14195 14198 14201 14204 14207 14210 14213 14216 14219 14222 14224 14227 14230 14233 14236 14238 14241 14244 14247 14250 14252 14254 14257 14260 14263 14266 14269 14272 14275 14278 14281 14284 14287 14290 14292 14295 14298 14301 14303 14306 14309 14312 14315 14318 14321 14324 14326 14329 14332 14335 14337 14340 14343 14345 14347 14350 14353 14356 14358 14361 14364 14367 14369 14372 14375 14378 14381 14384 14387 14390 14393 14396 14399 14402 14405 14408 14411 14414 14417 14420 14423 14425 14428 14431 14434 14437 14440 14443 14446 14449 14452 14455 14458 14461 14464 14467 14470 14473 14476 14479 14481 14483 14486 14489 14492 14495 14498 14500 14502 14505 14507 14510 14513 14516 14519 14522 14525 14528 14531 14534 14536 14539 14542 14545 14547 14550 14553 14556 14559 14562 14565 14568 14571 14574 14577 14580 14583 14586 14589 14591 14594 14597 14600 14603 14606 14609 14612 14614 14617 14620 14622 14625 14628 14631 14634 14637 14640 14642 14645 14648 14651 14654 14656 14659 14662 14665 14668 14671 14674 14676 14679 14682 14685 14688 14691 14694 14697 14700 14702 14704 14707 14710 14713 14715 14717 14720 14723 14726 14729 14732 14734 14737 14740 14743 14746 14749 14752 14754 14757 14760 14763 14766 14768 14771 14774 14777 14780 14783 14785 14788 14791 14794 14797 14799 14802 14805 14808 14811 14814 14817 14820 14823 14826 14829 14832 14835 14838 14841 14844 14847 14850 14853 14856 14859 14862 14865 14868 14871 14874 14876 14879 14882 14885 14888 14890 14893 14895 14898 14900 14903 14906 14908 14911 14914 14916 14919 14922 14924 14927 14930 14933 14936 14939 14942 14944 14947 14950 14952 14955 14957 14959 14961 14964 14967 14969 14972 14974 14976 14979 14982 14985 14987 14990 14992 14995 14998 15001 15004 15007 15010 15012 15015 15018 15021 15023 15026 15029 15032 15035 15038 15041 15044 15046 15049 15052 15055 15057 15060 15062 15064 15067 15070 15073 15076 15079 15082 15085 15087 15090 15093 15096 15099 15102 15105 15108 15111 15113 15115 15118 15121 15124 15127 15129 15132 15135 15137 15140 15143 15146 15148 15151 15154 15157 15159 15161 15164 15167 15170 15173 15175 15178 15181 15184 15187 15190 15192 15194 15197 15200 15203 15206 15209 15212 15215 15218 15221 15224 15227 15230 15233 15236 15239 15242 15245 15248 15251 15254 15257 15260 15263 15266 15269 15272 15275 15278 15281 15284 15287 15289 15292 15295 15298 15300 15303 15306 15309 15312 15315 15318 15321 15324 15327 15330 15333 15336 15339 15342 15345 15347 15350 15352 15354 15357 15360 15362 15365 15368 15371 15374 15377 15380 15383 15386 15389 15392 15395 15398 15401 15404 15407 15410 15413 15416 15419 15422 15425 15428 15431 15433 15436 15439 15441 15443 15446 15449 15452 15455 15458 15461 15464 15466 15469 15472 15475 15477 15480 15483 15486 15489 15491 15493 15496 15499 15502 15505 15508 15511 15514 15516 15519 15522 15525 15528 15530 15533 15536 15539 15542 15544 15547 15550 15553 15556 15559 15562 15565 15568 15571 15574 15577 15580 15583 15586 15589 15592 15595 15598 15601 15603 15606 15609 15612 15615 15618 15621 15624 15627 15630 15633 15636 15639 15642 15645 15648 15651 15653 15656 15659 15662 15664 15667 15670 15673 15676 15679 15682 15685 15688 15691 15693 15696 15699 15702 15705 15708 15711 15714 15717 15720 15723 15726 15729 15732 15735 15738 15741 15744 15747 15750 15753 15756 15758 15761 15764 15767 15770 15773 15776 15779 15782 15785 15788 15791 15794 15797 15800 15803 15806 15809 15811 15814 15817 15820 15823 15826 15828 15831 15834 15837 15840 15843 15846 15849 15852 15855 15858 15861 15864 15867 15870 15873 15876 15879 15882 15885 15888 15891 15894 15897 15900 15903 15906 15909 15911 15914 15917 15919 15922 15925 15928 15930 15933 15936 15939 15942 15945 15948 15951 15954 15957 15960 15963 15966 15969 15972 15975 15977 15980 15982 15985 15988 15991 15994 15997 16000 16003 16006 16009 16011 16014 16017 16020 16023 16026 16029 16032 16035 16038 16040 16042 16045 16048 16051 16054 16057 16060 16063 16066 16069 16072 16075 16078 16081 16084 16087 16090 16093 16096 16099 16102 16105 16108 16111 16114 16117 16120 16123 16126 16129 16132 16135 16138 16141 16144 16147 16150 16153 16156 16159 16162 16165 16168 16171 16174 16177 16180 16183 16186 16189 16192 16195 16198 16201 16204 16207 16210 16213 16216 16219 16222 16225 16228 16231 16234 16237 16240 16243 16246 16249 16252 16255 16257 16260 16263 16266 16269 16272 16275 16277 16280 16283 16286 16289 16292 16295 16298 16301 16304 16306 16309 16311 16314 16317 16320 16323 16326 16329 16332 16335 16338 16341 16344 16347 16350 16353 16356 16359 16362 16365 16368 16371 16374 16377 16380 16383 16386 16389 16392 16395 16398 16401 16404 16407 16410 16413 16415 16418 16421 16424 16426 16428 16431 16434 16437 16440 16443 16446 16449 16452 16455 16458 16461 16464 16467 16470 16473 16476 16479 16482 16485 16488 16491 16494 16496 16498 16501 16504 16507 16510 16513 16516 16519 16522 16524 16527 16530 16533 16536 16539 16542 16544 16547 16550 16553 16556 16559 16561 16564 16567 16570 16573 16575 16578 16581 16584 16586 16589 16592 16595 16597 16600 16603 16605 16608 16611 16614 16617 16620 16623 16626 16629 16632 16635 16638 16641 16644 16646 16649 16652 16655 16658 16661 16664 16667 16670 16672 16675 16678 16681 16684 16687 16690 16693 16696 16699 16702 16705 16707 16710 16713 16716 16718 16721 16724 16727 16730 16732 16735 16738 16741 16744 16747 16750 16753 16756 16758 16761 16763 16766 16769 16771 16774 16777 16780 16783 16786 16788 16791 16794 16797 16800 16803 16806 16809 16812 16815 16818 16821 16824 16826 16829 16832 16835 16838 16841 16844 16847 16850 16853 16855 16858 16861 16864 16867 16870 16873 16875 16878 16881 16884 16887 16890 16893 16896 16898 16901 16904 16907 16910 16913 16915 16918 16921 16924 16927 16930 16933 16936 16939 16942 16945 16948 16951 16954 16957 16960 16963 16966 16969 16972 16975 16978 16981 16984 16987 16990 16993 16996 16999 17002 17005 17008 17011 17014 17017 17020 17023 17026 17029 17032 17035 17038 17041 17044 17047 17050 17053 17056 17058 17061 17063 17066 17069 17072 17075 17078 17081 17084 17087 17090 17093 17096 17099 17102 17105 17107 17110 17113 17116 17119 17122 17125 17128 17131 17134 17137 17140 17143 17146 17149 17152 17154 17157 17160 17162 17165 17167 17170 17173 17176 17179 17182 17184 17187 17190 17193 17196 17199 17202 17205 17208 17211 17214 17217 17220 17223 17226 17229 17232 17235 17238 17241 17244 17246 17249 17252 17255 17258 17261 17264 17267 17270 17273 17276 17279 17281 17284 17286 17289 17292 17294 17297 17299 17302 17305 17308 17311 17314 17317 17320 17322 17325 17327 17330 17333 17336 17339 17341 17344 17347 17350 17353 17355 17357 17360 17363 17365 17368 17371 17374 17377 17380 17383 17386 17389 17392 17395 17398 17401 17404 17407 17410 17413 17415 17418 17421 17424 17427 17430 17433 17436 17439 17442 17445 17448 17451 17454 17457 17459 17462 17464 17467 17470 17473 17476 17479 17482 17485 17487 17490 17492 17495 17498 17501 17504 17507 17510 17513 17516 17519 17521 17523 17526 17529 17532 17534 17537 17540 17543 17546 17548 17551 17553 17556 17559 17561 17564 17566 17568 17570 17573 17576 17578 17581 17584 17587 17589 17591 17593 17596 17599 17602 17605 17608 17611 17614 17617 17620 17623 17626 17628 17631 17634 17637 17640 17643 17646 17648 17651 17654 17657 17659 17662 17665 17668 17671 17674 17677 17680 17683 17685 17688 17691 17694 17696 17699 17702 17705 17708 17711 17714 17717 17720 17723 17726 17729 17732 17735 17738 17741 17744 17747 17750 17753 17756 17759 17762 17765 17768 17771 17774 17777 17780 17783 17786 17789 17792 17795 17798 17801 17804 17807 17810 17813 17816 17819 17822 17825 17828 17831 17834 17837 17840 17843 17846 17849 17852 17855 17858 17861 17864 17867 17870 17873 17876 17878 17881 17884 17887 17890 17893 17895 17898 17901 17904 17907 17909 17912 17915 17918 17920 17923 17926 17929 17932 17935 17938 17941 17944 17947 17950 17953 17956 17959 17962 17965 17968 17971 17974 17977 17980 17983 17986 17989 17992 17995 17998 18001 18004 18007 18010 18013 18016 18019 18022 18025 18028 18031 18034 18037 18040 18042 18045 18048 18050 18053 18056 18059 18062 18065 18068 18071 18073 18076 18079 18082 18085 18088 18091 18094 18097 18100 18103 18106 18108 18111 18114 18116 18119 18121 18124 18127 18130 18132 18135 18138 18141 18144 18147 18150 18153 18156 18158 18161 18164 18167 18170 18172 18175 18178 18181 18184 18186 18189 18191 18194 18197 18200 18203 18206 18209 18212 18215 18218 18221 18224 18227 18229 18232 18234 18237 18240 18243 18246 18249 18252 18255 18258 18261 18264 18267 18270 18273 18275 18278 18281 18284 18287 18290 18293 18296 18299 18302 18304 18307 18310 18313 18315 18318 18321 18324 18327 18330 18333 18336 18339 18342 18345 18348 18351 18354 18357 18360 18363 18366 18369 18372 18375 18378 18381 18384 18387 18390 18393 18396 18399 18402 18405 18408 18411 18414 18417 18420 18422 18425 18428 18430 18433 18436 18439 18442 18444 18447 18450 18453 18456 18459 18462 18465 18468 18471 18474 18477 18480 18483 18486 18489 18491 18494 18497 18500 18503 18506 18509 18512 18515 18518 18520 18523 18525 18528 18531 18534 18537 18540 18543 18546 18548 18551 18554 18557 18560 18563 18566 18569 18572 18575 18578 18581 18584 18587 18590 18592 18595 18598 18601 18604 18607 18610 18613 18616 18619 18622 18625 18627 18630 18633 18636 18639 18642 18645 18648 18651 18654 18657 18660 18663 18666 18669 18672 18675 18678 18681 18684 18687 18690 18693 18696 18698 18701 18703 18706 18709 18712 18715 18718 18721 18723 18726 18728 18731 18734 18737 18739 18742 18745 18748 18750 18753 18756 18759 18761 18764 18767 18769 18772 18775 18778 18781 18784 18787 18790 18792 18795 18798 18801 18804 18807 18810 18813 18815 18818 18821 18824 18827 18830 18833 18836 18839 18842 18845 18848 18851 18854 18856 18859 18862 18865 18868 18871 18874 18877 18880 18882 18885 18888 18891 18894 18897 18900 18903 18906 18909 18912 18915 18918 18921 18924 18927 18930 18933 18936 18939 18942 18944 18947 18950 18953 18956 18959 18962 18965 18968 18971 18974 18977 18980 18983 18986 18989 18992 18995 18998 19001 19004 19007 19010 19013 19016 19019 19022 19025 19028 19031 19034 19037 19040 19043 19046 19049 19052 19055 19058 19061 19064 19067 19070 19073 19076 19079 19082 19085 19088 19091 19094 19096 19099 19101 19104 19107 19110 19112 19115 19118 19120 19122 19125 19127 19130 19133 19136 19139 19142 19145 19148 19151 19154 19157 19160 19163 19166 19169 19172 19175 19178 19181 19184 19187 19190 19193 19196 19199 19202 19205 19208 19211 19214 19217 19220 19223 19226 19229 19232 19234 19237 19240 19243 19246 19248 19251 19254 19256 19259 19262 19265 19267 19270 19273 19276 19279 19281 19284 19286 19288 19291 19294 19297 19300 19302 19305 19308 19311 19313 19316 19319 19322 19324 19327 19330 19333 19336 19339 19342 19344 19347 19350 19353 19356 19359 19362 19365 19368 19371 19374 19377 19380 19383 19386 19389 19392 19395 19398 19401 19404 19406 19409 19412 19415 19418 19421 19424 19427 19430 19433 19436 19439 19442 19445 19448 19451 19454 19457 19460 19462 19465 19468 19470 19473 19476 19478 19481 19484 19487 19490 19493 19496 19499 19502 19505 19508 19511 19513 19516 19519 19522 19525 19527 19530 19533 19536 19539 19541 19544 19547 19550 19552 19555 19558 19561 19564 19567 19570 19573 19576 19579 19582 19585 19588 19591 19594 19597 19600 19603 19606 19609 19612 19615 19618 19621 19624 19627 19629 19632 19635 19638 19641 19644 19647 19650 19653 19655 19658 19661 19664 19666 19669 19672 19675 19678 19681 19684 19687 19690 19693 19696 19699 19702 19705 19708 19711 19714 19717 19720 19723 19726 19729 19732 19735 19738 19740 19743 19746 19749 19751 19754 19757 19760 19763 19766 19769 19772 19775 19777 19780 19783 19785 19788 19791 19794 19797 19799 19802 19805 19808 19811 19814 19817 19820 19822 19825 19827 19830 19833 19835 19838 19841 19843 19845 19848 19851 19854 19857 19860 19863 19866 19869 19872 19875 19878 19881 19884 19887 19890 19893 19896 19899 19902 19905 19908 19910 19913 19916 19919 19922 19924 19927 19930 19933 19936 19939 19942 19945 19948 19951 19954 19957 19960 19963 19965 19968 19971 19973 19976 19979 19982 19985 19988 19991 19994 19997 20000 20003 20006 20009 20012 20015 20018 20021 20024 20027 20030 20033 20036 20039 20042 20045 20048 20051 20054 20057 20060 20063 20066 20069 20072 20075 20078 20081 20084 20087 20090 20093 20096 20099 20102 20105 20108 20111 20114 20117 20120 20123 20126 20129 20132 20135 20138 20141 20144 20147 20150 20153 20156 20159 20162 20165 20168 20171 20174 20177 20180 20183 20186 20189 20192 20195 20198 20201 20204 20207 20210 20213 20216 20219 20222 20225 20228 20231 20234 20237 20240 20243 20246 20249 20252 20255 20258 20261 20264 20267 20270 20273 20276 20279 20282 20285 20288 20291 20294 20297 20300 20303 20306 20309 20312 20315 20318 20321 20324 20327 20330 20333 20336 20339 20342 20345 20348 20351 20354 20357 20359 20362 20365 20368 20371 20374 20377 20380 20382 20385 20388 20391 20394 20397 20400 20403 20406 20409 20411 20414 20416 20419 20422 20425 20427 20430 20433 20435 20438 20441 20444 20447 20450 20453 20456 20459 20462 20465 20468 20471 20474 20477 20480 20483 20486 20489 20492 20495 20498 20501 20504 20507 20510 20513 20516 20519 20522 20525 20528 20531 20534 20537 20540 20543 20546 20548 20551 20554 20556 20558 20561 20564 20566 20569 20572 20574 20577 20580 20583 20585 20588 20591 20594 20597 20600 20603 20606 20609 20612 20614 20617 20620 20623 20626 20629 20632 20634 20637 20640 20643 20646 20649 20652 20655 20658 20661 20664 20667 20670 20673 20676 20679 20682 20685 20688 20691 20694 20697 20700 20703 20706 20709 20712 20715 20718 20721 20724 20727 20729 20732 20735 20738 20741 20744 20747 20750 20753 20756 20759 20762 20765 20768 20771 20774 20777 20780 20783 20786 20789 20792 20795 20798 20801 20804 20807 20810 20813 20816 20819 20822 20825 20828 20831 20834 20837 20840 20843 20846 20849 20852 20855 20858 20861 20864 20867 20869 20872 20874 20877 20880 20883 20886 20888 20891 20894 20897 20900 20902 20905 20908 20911 20914 20916 20919 20922 20925 20928 20931 20934 20937 20940 20942 20945 20948 20950 20953 20955 20958 20961 20964 20967 20969 20972 20975 20977 20979 20982 20985 20988 20991 20994 20997 20999 21002 21005 21008 21011 21014 21017 21020 21023 21026 21029 21031 21033 21036 21039 21042 21045 21048 21050 21053 21056 21058 21061 21064 21067 21070 21072 21075 21078 21080 21083 21086 21089 21092 21095 21098 21101 21104 21107 21110 21113 21116 21119 21122 21125 21128 21131 21134 21137 21140 21143 21146 21149 21152 21155 21158 21161 21164 21167 21169 21172 21174 21177 21180 21183 21186 21189 21192 21195 21198 21201 21204 21207 21210 21213 21215 21218 21221 21224 21227 21229 21231 21234 21237 21240 21243 21246 21249 21252 21255 21258 21261 21264 21267 21270 21273 21276 21279 21282 21285 21288 21291 21294 21297 21300 21303 21306 21309 21312 21315 21318 21321 21324 21327 21330 21333 21336 21339 21342 21345 21348 21351 21354 21357 21359 21362 21365 21368 21370 21373 21376 21379 21382 21385 21388 21391 21394 21397 21400 21403 21406 21409 21412 21415 21418 21421 21424 21427 21430 21432 21435 21438 21440 21443 21446 21449 21452 21455 21458 21461 21464 21467 21469 21472 21475 21478 21481 21484 21486 21489 21492 21495 21498 21501 21503 21506 21508 21511 21514 21517 21520 21523 21526 21529 21532 21535 21538 21541 21544 21547 21549 21552 21555 21558 21560 21562 21565 21568 21571 21574 21577 21580 21583 21586 21588 21591 21594 21596 21599 21602 21604 21606 21609 21612 21615 21618 21621 21623 21626 21629 21632 21635 21638 21641 21644 21646 21649 21652 21654 21656 21659 21662 21665 21668 21671 21674 21676 21678 21681 21684 21687 21689 21692 21695 21698 21701 21704 21707 21710 21712 21715 21718 21721 21724 21727 21730 21733 21736 21739 21742 21745 21748 21751 21754 21757 21760 21763 21766 21769 21772 21775 21778 21781 21784 21787 21790 21792 21795 21798 21801 21804 21807 21810 21813 21815 21818 21821 21824 21827 21830 21833 21836 21839 21842 21845 21848 21850 21853 21856 21859 21862 21865 21868 21871 21874 21876 21879 21882 21885 21888 21891 21894 21897 21900 21903 21906 21909 21912 21915 21918 21921 21924 21926 21929 21932 21935 21937 21940 21943 21946 21949 21952 21954 21957 21960 21963 21966 21969 21972 21975 21978 21981 21984 21987 21990 21993 21996 21998 22001 22004 22007 22010 22012 22015 22018 22020 22023 22026 22029 22032 22035 22037 22040 22043 22046 22049 22052 22055 22058 22061 22064 22067 22070 22073 22076 22079 22081 22084 22086 22089 22092 22095 22097 22100 22102 22105 22107 22110 22113 22116 22119 22122 22125 22127 22129 22132 22135 22138 22141 22144 22147 22149 22152 22154 22157 22160 22163 22166 22169 22172 22175 22178 22181 22184 22187 22190 22193 22196 22199 22202 22205 22207 22210 22213 22216 22218 22220 22223 22226 22229 22232 22235 22237 22240 22243 22245 22247 22250 22253 22256 22259 22262 22265 22268 22271 22274 22277 22280 22283 22286 22289 22292 22295 22298 22301 22304 22307 22310 22313 22316 22319 22322 22325 22328 22331 22334 22337 22340 22343 22346 22349 22352 22355 22358 22361 22364 22367 22370 22373 22376 22379 22381 22384 22387 22389 22391 22393 22396 22399 22402 22405 22408 22411 22413 22416 22419 22422 22425 22428 22431 22434 22437 22440 22442 22445 22448 22451 22453 22456 22459 22462 22465 22468 22471 22474 22477 22480 22483 22486 22489 22492 22495 22498 22501 22504 22507 22510 22513 22515 22518 22521 22524 22527 22529 22532 22535 22538 22541 22544 22547 22550 22553 22556 22559 22562 22565 22568 22571 22574 22577 22580 22583 22586 22589 22592 22595 22598 22601 22604 22607 22610 22613 22616 22619 22622 22625 22628 22631 22633 22636 22638 22641 22644 22647 22650 22653 22656 22659 22662 22664 22667 22670 22673 22675 22678 22680 22683 22686 22689 22692 22695 22698 22701 22704 22706 22709 22712 22715 22718 22720 22723 22726 22729 22732 22734 22737 22740 22743 22746 22749 22752 22755 22757 22760 22763 22766 22769 22771 22774 22777 22780 22783 22786 22789 22792 22795 22798 22801 22804 22807 22810 22813 22816 22819 22822 22825 22828 22831 22834 22837 22840 22843 22846 22849 22852 22855 22858 22861 22864 22867 22870 22873 22876 22879 22882 22885 22888 22891 22894 22897 22900 22903 22906 22909 22911 22914 22917 22920 22923 22925 22927 22930 22933 22935 22937 22940 22943 22946 22949 22952 22955 22958 22961 22964 22967 22970 22973 22976 22979 22982 22985 22988 22991 22994 22996 22999 23002 23005 23007 23009 23012 23015 23018 23021 23024 23027 23030 23033 23036 23039 23042 23045 23048 23051 23054 23057 23060 23063 23066 23069 23072 23075 23078 23081 23084 23087 23090 23092 23095 23098 23101 23104 23107 23110 23113 23115 23118 23121 23124 23127 23130 23133 23136 23139 23142 23145 23148 23151 23154 23157 23160 23162 23165 23168 23171 23174 23177 23180 23183 23186 23188 23191 23193 23195 23198 23201 23204 23207 23210 23213 23216 23219 23222 23225 23228 23231 23233 23236 23239 23242 23245 23248 23251 23254 23257 23260 23263 23266 23269 23272 23275 23278 23281 23284 23287 23289 23292 23295 23298 23300 23303 23306 23309 23312 23315 23318 23321 23324 23326 23329 23332 23335 23338 23341 23344 23347 23350 23353 23356 23359 23362 23365 23368 23371 23373 23376 23379 23382 23384 23387 23390 23393 23396 23399 23402 23405 23408 23411 23414 23417 23420 23423 23426 23429 23432 23435 23438 23441 23444 23447 23450 23453 23456 23459 23462 23465 23468 23471 23474 23477 23480 23483 23485 23488 23490 23493 23496 23499 23502 23505 23508 23511 23514 23516 23519 23522 23525 23528 23531 23534 23537 23540 23543 23545 23548 23551 23553 23556 23559 23562 23565 23568 23570 23573 23576 23579 23582 23584 23587 23590 23593 23596 23598 23601 23604 23607 23609 23612 23614 23617 23620 23622 23625 23628 23631 23634 23637 23640 23643 23646 23649 23652 23655 23658 23661 23664 23666 23669 23672 23674 23677 23679 23682 23685 23688 23690 23693 23696 23698 23701 23704 23707 23710 23712 23715 23717 23720 23723 23726 23729 23732 23735 23737 23740 23742 23745 23748 23751 23754 23757 23759 23762 23765 23768 23771 23773 23776 23779 23782 23785 23788 23791 23793 23796 23799 23802 23805 23808 23811 23814 23817 23820 23823 23826 23829 23832 23835 23838 23841 23844 23847 23850 23853 23856 23859 23862 23865 23868 23871 23874 23877 23880 23883 23886 23889 23892 23894 23896 23899 23902 23905 23908 23911 23914 23917 23920 23923 23926 23928 23931 23934 23936 23938 23941 23943 23946 23949 23952 23955 23958 23961 23964 23966 23969 23972 23975 23978 23981 23984 23987 23990 23993 23996 23999 24002 24004 24007 24010 24013 24016 24018 24021 24024 24027 24030 24033 24036 24039 24042 24045 24048 24051 24054 24056 24059 24062 24065 24068 24071 24074 24077 24080 24083 24086 24089 24092 24095 24098 24101 24104 24107 24109 24112 24115 24118 24121 24124 24126 24129 24132 24135 24137 24140 24143 24146 24149 24152 24155 24157 24160 24162 24165 24168 24171 24173 24176 24179 24182 24185 24188 24191 24194 24197 24200 24202 24205 24208 24210 24213 24216 24219 24222 24225 24228 24231 24233 24236 24239 24242 24245 24248 24251 24254 24257 24260 24263 24266 24269 24272 24274 24277 24280 24282 24285 24288 24291 24294 24297 24300 24302 24305 24308 24311 24314 24317 24320 24322 24325 24328 24331 24334 24337 24340 24343 24345 24348 24351 24354 24357 24360 24363 24366 24369 24372 24375 24378 24381 24384 24387 24390 24393 24396 24399 24402 24405 24408 24411 24413 24416 24419 24422 24425 24428 24431 24434 24437 24440 24443 24445 24448 24451 24454 24457 24459 24461 24464 24467 24470 24473 24475 24478 24481 24484 24487 24490 24493 24496 24499 24502 24504 24507 24510 24513 24516 24519 24522 24525 24528 24531 24534 24537 24539 24542 24545 24548 24550 24553 24556 24559 24561 24564 24567 24570 24573 24576 24579 24582 24585 24588 24591 24594 24597 24599 24602 24605 24608 24611 24614 24616 24619 24622 24624 24627 24630 24633 24636 24639 24642 24645 24648 24651 24654 24657 24660 24663 24666 24668 24671 24674 24677 24680 24683 24686 24689 24691 24694 24697 24700 24702 24705 24708 24711 24714 24717 24719 24722 24725 24728 24731 24734 24737 24740 24743 24746 24748 24751 24754 24757 24760 24763 24766 24769 24772 24774 24777 24780 24783 24786 24789 24791 24794 24797 24800 24803 24806 24809 24812 24814 24817 24820 24823 24826 24829 24832 24835 24838 24841 24844 24847 24850 24853 24856 24859 24862 24865 24868 24871 24874 24877 24880 24883 24886 24889 24892 24895 24898 24901 24904 24907 24910 24913 24916 24919 24922 24925 24928 24931 24934 24937 24940 24943 24946 24949 24952 24955 24958 24960 24963 24966 24969 24972 24975 24978 24981 24983 24986 24989 24992 24995 24998 25001 25004 25007 25010 25013 25016 25019 25022 25025 25028 25031 25034 25037 25040 25043 25046 25049 25051 25053 25056 25059 25061 25063 25066 25069 25072 25075 25078 25081 25084 25086 25089 25092 25095 25098 25101 25104 25107 25110 25113 25116 25119 25122 25125 25128 25130 25133 25136 25139 25142 25145 25148 25151 25154 25156 25159 25162 25164 25167 25170 25173 25175 25178 25181 25184 25187 25190 25193 25196 25199 25202 25205 25208 25211 25214 25217 25220 25223 25226 25229 25232 25235 25238 25241 25244 25247 25250 25253 25256 25259 25261 25264 25267 25270 25273 25276 25279 25282 25285 25287 25290 25293 25296 25299 25302 25305 25307 25309 25312 25315 25318 25321 25323 25326 25329 25331 25334 25337 25339 25342 25345 25348 25351 25354 25357 25359 25362 25365 25368 25371 25374 25377 25380 25383 25385 25388 25391 25394 25397 25400 25403 25406 25409 25412 25415 25418 25420 25423 25426 25428 25431 25434 25437 25440 25443 25446 25449 25451 25454 25457 25460 25462 25465 25467 25470 25472 25475 25478 25481 25484 25487 25490 25493 25496 25499 25502 25505 25508 25511 25514 25517 25520 25523 25525 25528 25530 25533 25536 25539 25542 25545 25548 25551 25554 25557 25560 25562 25565 25568 25571 25574 25577 25580 25583 25585 25588 25591 25594 25596 25599 25601 25603 25606 25609 25611 25614 25617 25620 25623 25625 25628 25631 25634 25636 25639 25642 25645 25647 25650 25652 25654 25657 25660 25663 25666 25669 25672 25674 25677 25680 25683 25686 25689 25692 25695 25698 25700 25702 25704 25707 25709 25712 25715 25717 25719 25722 25725 25727 25730 25733 25736 25739 25742 25745 25748 25751 25754 25757 25760 25762 25765 25768 25771 25774 25777 25780 25783 25786 25789 25792 25795 25798 25801 25803 25805 25808 25811 25814 25817 25819 25822 25825 25828 25830 25833 25836 25839 25842 25845 25847 25849 25852 25855 25858 25860 25863 25866 25869 25872 25875 25878 25881 25884 25887 25890 25893 25896 25899 25902 25905 25907 25910 25913 25916 25918 25921 25924 25927 25929 25932 25935 25938 25941 25944 25947 25949 25952 25955 25958 25961 25964 25966 25969 25972 25975 25978 25981 25984 25987 25990 25992 25995 25998 26001 26004 26007 26010 26013 26016 26019 26021 26024 26027 26030 26033 26035 26038 26040 26043 26046 26048 26051 26053 26056 26059 26062 26065 26068 26071 26073 26076 26078 26080 26083 26086 26089 26092 26095 26098 26101 26104 26106 26109 26111 26114 26116 26119 26121 26124 26127 26130 26133 26136 26139 26142 26145 26148 26151 26154 26156 26159 26162 26165 26167 26170 26173 26176 26179 26182 26185 26188 26191 26193 26196 26199 26202 26205 26208 26211 26214 26217 26220 26222 26225 26228 26231 26234 26236 26239 26242 26244 26247 26250 26253 26256 26259 26262 26265 26268 26271 26273 26276 26279 26282 26284 26287 26290 26293 26296 26299 26302 26305 26308 26311 26314 26317 26320 26323 26326 26329 26332 26335 26338 26341 26343 26346 26349 26352 26355 26358 26361 26364 26367 26370 26373 26375 26378 26381 26384 26387 26390 26393 26396 26399 26402 26405 26408 26411 26414 26417 26420 26423 26426 26429 26432 26435 26438 26441 26444 26447 26450 26453 26456 26459 26462 26465 26468 26471 26474 26477 26480 26483 26486 26489 26492 26495 26498 26501 26504 26507 26510 26512 26514 26517 26520 26523 26526 26529 26532 26535 26538 26541 26544 26547 26550 26553 26555 26557 26560 26563 26566 26568 26571 26574 26576 26579 26582 26585 26587 26590 26593 26596 26598 26601 26604 26607 26610 26613 26616 26619 26622 26624 26627 26630 26632 26635 26637 26639 26642 26645 26648 26651 26654 26657 26659 26662 26664 26666 26668 26671 26674 26676 26679 26682 26684 26686 26689 26692 26695 26698 26701 26704 26707 26710 26713 26716 26719 26722 26725 26728 26731 26734 26737 26740 26743 26746 26749 26751 26754 26757 26760 26763 26766 26769 26772 26775 26778 26780 26783 26786 26789 26792 26795 26798 26801 26803 26805 26808 26811 26814 26817 26820 26823 26826 26829 26832 26835 26838 26841 26844 26847 26850 26853 26856 26859 26862 26865 26868 26871 26874 26876 26879 26881 26884 26887 26890 26893 26896 26899 26902 26904 26907 26910 26913 26915 26917 26920 26923 26925 26928 26931 26934 26937 26939 26942 26945 26948 26950 26953 26956 26959 26961 26964 26967 26970 26973 26976 26979 26982 26985 26988 26990 26992 26995 26998 27001 27004 27007 27009 27012 27015 27017 27019 27021 27024 27027 27030 27033 27036 27038 27041 27044 27047 27050 27053 27056 27059 27062 27065 27067 27070 27072 27075 27078 27081 27084 27087 27090 27093 27096 27099 27102 27105 27108 27111 27114 27117 27120 27123 27126 27129 27132 27135 27138 27141 27144 27146 27149 27152 27155 27158 27160 27162 27165 27168 27171 27173 27176 27179 27182 27185 27188 27191 27194 27197 27200 27203 27206 27209 27212 27215 27218 27221 27223 27226 27229 27232 27234 27237 27240 27242 27245 27248 27251 27254 27257 27260 27263 27266 27269 27272 27275 27278 27281 27283 27286 27289 27291 27294 27297 27300 27302 27305 27307 27310 27312 27315 27317 27319 27321 27324 27327 27330 27333 27336 27339 27342 27345 27347 27350 27353 27356 27359 27362 27365 27368 27371 27373 27376 27379 27381 27384 27387 27390 27393 27396 27399 27402 27405 27408 27411 27414 27417 27420 27423 27426 27429 27432 27435 27438 27441 27444 27446 27449 27452 27455 27458 27461 27464 27467 27470 27473 27476 27478 27481 27483 27486 27489 27491 27494 27496 27499 27501 27504 27507 27509 27512 27514 27517 27520 27522 27525 27528 27531 27533 27536 27539 27542 27545 27548 27551 27554 27557 27560 27563 27566 27569 27572 27575 27578 27581 27584 27587 27590 27593 27596 27599 27602 27605 27608 27611 27614 27617 27620 27623 27626 27629 27632 27635 27638 27641 27644 27647 27650 27653 27656 27659 27662 27665 27668 27671 27674 27677 27680 27683 27686 27689 27692 27695 27698 27701 27704 27707 27710 27713 27716 27718 27721 27724 27726 27729 27732 27735 27738 27741 27744 27746 27748 27751 27754 27757 27760 27763 27766 27769 27772 27775 27778 27781 27784 27787 27790 27793 27796 27799 27802 27804 27807 27810 27813 27815 27818 27821 27824 27827 27830 27833 27836 27839 27842 27845 27848 27851 27854 27857 27860 27863 27865 27868 27871 27874 27877 27880 27883 27886 27888 27891 27894 27897 27900 27903 27906 27909 27912 27914 27917 27919 27922 27925 27928 27931 27934 27937 27940 27943 27946 27949 27952 27955 27958 27961 27964 27967 27969 27972 27975 27978 27981 27984 27987 27990 27992 27995 27998 28001 28004 28006 28009 28012 28015 28018 28021 28024 28027 28029 28032 28035 28037 28039 28042 28045 28047 28050 28053 28056 28059 28062 28065 28067 28070 28073 28076 28079 28082 28085 28088 28091 28094 28096 28099 28102 28104 28107 28110 28112 28115 28118 28120 28123 28126 28129 28132 28135 28137 28140 28143 28146 28149 28152 28155 28158 28161 28163 28166 28169 28172 28175 28178 28181 28184 28186 28189 28192 28195 28198 28201 28204 28207 28210 28213 28216 28219 28222 28224 28227 28230 28233 28236 28239 28242 28245 28247 28249 28252 28254 28257 28259 28262 28265 28268 28271 28274 28277 28280 28283 28286 28289 28292 28295 28298 28301 28304 28306 28309 28311 28314 28317 28320 28323 28326 28329 28332 28335 28337 28340 28342 28345 28347 28350 28352 28355 28357 28360 28363 28365 28368 28371 28374 28377 28380 28382 28385 28388 28391 28394 28397 28400 28403 28406 28408 28411 28414 28417 28420 28423 28425 28428 28431 28433 28436 28438 28440 28443 28446 28449 28452 28455 28458 28461 28464 28466 28469 28472 28475 28478 28481 28484 28487 28490 28493 28496 28499 28502 28505 28507 28510 28513 28516 28519 28522 28525 28528 28530 28533 28536 28539 28541 28544 28547 28550 28553 28556 28559 28562 28565 28568 28571 28574 28577 28580 28583 28586 28589 28592 28594 28597 28600 28603 28606 28609 28612 28615 28617 28620 28623 28625 28628 28631 28634 28637 28640 28643 28646 28649 28652 28655 28658 28661 28664 28667 28670 28672 28675 28678 28681 28684 28686 28689 28692 28695 28698 28701 28704 28707 28710 28713 28716 28719 28722 28725 28728 28731 28734 28737 28740 28743 28746 28749 28752 28755 28758 28761 28763 28766 28769 28772 28775 28778 28781 28783 28786 28789 28792 28795 28798 28801 28804 28807 28810 28812 28814 28817 28820 28823 28825 28828 28830 28833 28836 28839 28842 28845 28848 28851 28854 28857 28860 28863 28866 28869 28872 28875 28877 28880 28883 28886 28889 28892 28895 28898 28901 28904 28907 28910 28913 28915 28917 28920 28923 28926 28929 28932 28935 28938 28941 28943 28946 28949 28951 28954 28957 28959 28961 28964 28967 28970 28973 28976 28979 28982 28984 28987 28990 28993 28996 28999 29002 29005 29008 29011 29013 29016 29019 29022 29024 29027 29030 29033 29036 29039 29041 29044 29047 29050 29053 29056 29059 29062 29065 29068 29071 29074 29077 29079 29082 29085 29088 29090 29093 29096 29099 29101 29104 29107 29110 29113 29116 29119 29122 29125 29128 29131 29134 29137 29140 29143 29146 29149 29152 29155 29158 29161 29164 29167 29170 29173 29176 29179 29182 29185 29188 29191 29194 29197 29199 29202 29205 29208 29211 29214 29217 29220 29223 29226 29229 29232 29235 29238 29241 29244 29247 29250 29253 29256 29259 29262 29265 29268 29271 29273 29276 29278 29281 29284 29286 29289 29292 29295 29298 29301 29304 29307 29310 29313 29315 29318 29321 29324 29327 29330 29333 29336 29339 29342 29345 29348 29351 29354 29357 29359 29362 29365 29368 29371 29373 29376 29379 29382 29384 29387 29390 29393 29396 29399 29402 29405 29408 29411 29414 29417 29420 29423 29426 29429 29432 29435 29438 29441 29444 29447 29450 29453 29456 29459 29462 29465 29468 29471 29474 29477 29480 29483 29486 29489 29492 29495 29498 29501 29504 29507 29510 29513 29516 29519 29522 29525 29528 29531 29534 29537 29540 29543 29546 29549 29552 29555 29558 29561 29564 29567 29570 29573 29576 29579 29582 29585 29588 29591 29594 29597 29600 29603 29606 29609 29612 29615 29618 29621 29624 29627 29630 29633 29636 29639 29642 29645 29648 29651 29654 29657 29660 29663 29666 29669 29672 29675 29678 29681 29684 29687 29690 29693 29696 29699 29702 29705 29708 29711 29714 29717 29720 29723 29726 29729 29732 29735 29738 29741 29744 29747 29750 29753 29756 29759 29762 29765 29768 29771 29774 29777 29780 29783 29786 29789 29792 29795 29798 29801 29804 29807 29810 29813 29816 29819 29822 29825 29828 29831 29834 29837 29840 29843 29846 29849 29852 29855 29858 29861 29864 29867 29870 29873 29876 29879 29882 29885 29888 29891 29894 29897 29900 29903 29906 29909 29912 29915 29918 29921 29924 29927 29930 29933 29936 29939 29942 29945 29948 29951 29953 29956 29959 29962 29965 29968 29971 29974 29977 29980 29983 29986 29989 29992 29995 29998 30001 30003 30006 30009 30012 30015 30018 30021 30024 30027 30029 30032 30035 30038 30041 30043 30046 30049 30052 30055 30058 30061 30064 30067 30070 30073 30076 30079 30082 30085 30088 30091 30094 30097 30100 30103 30106 30109 30111 30114 30117 30120 30123 30126 30129 30132 30135 30138 30141 30144 30147 30150 30152 30154 30157 30160 30163 30166 30169 30171 30174 30176 30179 30182 30185 30188 30191 30194 30197 30200 30203 30206 30209 30211 30214 30217 30220 30223 30226 30229 30232 30234 30237 30240 30243 30246 30249 30252 30255 30258 30261 30264 30267 30270 30273 30276 30279 30281 30283 30286 30289 30292 30295 30298 30301 30304 30307 30310 30313 30316 30319 30321 30324 30327 30330 30333 30336 30339 30342 30345 30348 30351 30354 30357 30360 30363 30366 30369 30371 30374 30377 30380 30383 30386 30389 30392 30394 30397 30400 30403 30406 30409 30412 30415 30418 30421 30424 30426 30428 30431 30434 30437 30440 30443 30446 30449 30452 30455 30458 30461 30464 30467 30470 30473 30476 30479 30482 30485 30488 30491 30494 30497 30500 30503 30506 30509 30512 30515 30518 30520 30523 30526 30529 30532 30535 30537 30540 30543 30546 30549 30552 30555 30558 30561 30564 30567 30569 30572 30575 30578 30581 30583 30586 30589 30592 30595 30598 30601 30604 30607 30610 30613 30615 30618 30620 30623 30626 30629 30632 30635 30638 30641 30644 30647 30650 30653 30656 30659 30662 30665 30668 30671 30674 30677 30680 30683 30686 30689 30692 30695 30698 30701 30704 30707 30710 30713 30715 30718 30721 30724 30727 30730 30732 30735 30738 30741 30744 30747 30750 30753 30756 30759 30762 30765 30768 30771 30774 30777 30780 30783 30786 30788 30791 30794 30796 30799 30802 30805 30807 30810 30813 30816 30819 30822 30824 30827 30830 30833 30836 30839 30842 30845 30848 30851 30854 30856 30859 30862 30865 30868 30871 30874 30876 30879 30882 30885 30888 30891 30893 30895 30898 30901 30903 30906 30909 30911 30914 30917 30920 30923 30926 30929 30932 30935 30938 30941 30943 30946 30949 30951 30954 30957 30959 30962 30965 30967 30970 30973 30975 30978 30981 30983 30986 30989 30992 30995 30998 31001 31003 31006 31009 31012 31015 31018 31021 31024 31027 31030 31033 31036 31038 31041 31044 31047 31050 31053 31056 31059 31061 31064 31067 31070 31073 31075 31078 31081 31084 31086 31089 31092 31095 31098 31101 31104 31107 31110 31113 31116 31119 31121 31124 31127 31130 31133 31136 31139 31142 31145 31148 31151 31154 31157 31160 31163 31166 31169 31172 31175 31178 31181 31184 31187 31190 31193 31195 31198 31201 31204 31207 31210 31212 31215 31218 31221 31224 31227 31230 31233 31236 31239 31242 31245 31248 31251 31254 31256 31259 31262 31264 31267 31269 31272 31275 31278 31281 31283 31286 31288 31290 31293 31295 31298 31301 31304 31307 31310 31313 31316 31318 31321 31323 31326 31329 31332 31335 31338 31341 31343 31346 31349 31352 31355 31358 31361 31363 31366 31369 31372 31375 31377 31380 31383 31386 31389 31392 31394 31397 31400 31402 31405 31408 31411 31414 31416 31419 31422 31425 31428 31430 31433 31436 31439 31442 31445 31448 31450 31453 31456 31459 31462 31465 31468 31471 31474 31477 31479 31482 31485 31488 31491 31494 31497 31499 31502 31505 31508 31511 31513 31516 31519 31522 31525 31528 31531 31534 31537 31540 31543 31546 31549 31552 31555 31558 31561 31563 31566 31569 31572 31574 31577 31580 31582 31585 31588 31591 31594 31597 31600 31603 31606 31609 31612 31615 31618 31621 31624 31627 31630 31632 31635 31637 31640 31643 31646 31649 31652 31655 31658 31661 31664 31667 31670 31673 31676 31679 31682 31685 31688 31691 31694 31697 31700 31703 31706 31709 31712 31715 31717 31720 31723 31725 31728 31731 31734 31737 31740 31743 31746 31749 31752 31755 31757 31760 31763 31766 31769 31771 31774 31777 31780 31783 31785 31788 31791 31794 31797 31800 31803 31806 31809 31812 31814 31817 31820 31823 31826 31829 31832 31835 31838 31841 31844 31847 31850 31853 31856 31859 31862 31865 31868 31871 31874 31877 31880 31883 31886 31889 31892 31895 31898 
</DataArray>
<DataArray type="UInt32" Name="types" format="ascii">
5 5 5 5 5 3 5 5 5 5 5 5 5 3 5 5 5 5 3 5 5 3 5 5 5 5 3 5 5 5 5 3 5 5 5 5 5 5 5 5 5 5 5 5 5 3 5 5 3 5 5 5 5 5 3 5 5 5 5 5 5 5 3 5 5 5 5 3 5 5 5 5 5 5 5 5 5 3 5 5 3 5 5 3 5 5 5 5 3 5 5 5 5 5 5 5 3 3 3 5 5 3 5 5 5 5 5 3 5 5 5 5 5 5 5 5 5 5 5 5 5 3 5 5 5 3 5 5 5 5 5 5 3 5 5 5 5 5 5 5 5 5 5 5 5 5 5 5 5 5 5 5 5 5 5 5 5 5 3 5 5 5 3 5 5 3 5 5 5 5 5 5 5 5 5 5 5 3 5 5 5 5 5 5 5 5 3 5 5 5 5 5 5 5 5 3 5 5 5 5 5 5 5 5 5 3 5 5 5 5 5 5 5 5 5 5 5 5 5 5 5 5 5 5 5 5 5 5 5 3 5 5 5 3 5 3 5 3 5 5 3 5 5 5 3 5 3 5 3 5 3 3 5 3 5 5 3 5 3 5 5 5 3 5 3 3 5 5 3 5 5 5 3 5 3 3 3 5 3 5 5 5 3 5 3 3 3 5 5 3 3 5 5 5 5 3 5 3 5 5 3 5 5 5 3 5 3 3 3 5 5 5 3 5 3 3 3 3 5 5 5 3 3 5 5 3 3 3 5 3 5 5 5 5 3 5 5 5 5 5 5 5 3 5 5 5 5 5 5 3 3 5 5 5 3 5 5 5 3 5 3 5 3 3 5 5 5 5 3 5 5 3 5 5 5 5 3 5 3 5 5 5 5 5 3 3 5 5 5 5 5 5 5 5 3 5 5 5 3 5 5 3 5 3 5 5 5 5 5 5 5 5 5 5 5 3 5 3 5 3 5 5 5 3 5 3 5 3 5 5 5 5 5 5 3 5 3 5 5 5 3 5 5 5 3 5 3 3 5 5 5 5 3 5 5 5 5 3 3 5 5 3 5 3 5 3 3 5 5 5 3 5 5 5 5 3 5 5 5 5 5 5 5 5 5 5 5 3 5 5 5 5 3 5 5 5 3 5 3 3 3 5 5 5 3 3 5 3 5 5 3 5 5 5 5 3 5 5 5 5 5 5 5 5 5 5 5 3 3 5 5 3 5 5 5 3 5 5 5 5 5 5 3 5 5 5 3 5 5 5 3 5 5 5 5 5 5 5 5 5 5 5 3 5 5 5 3 5 5 5 5 5 5 5 3 5 5 5 5 5 3 5 5 5 5 5 5 5 5 5 5 5 5 5 5 5 5 5 5 5 3 5 5 5 5 3 5 5 3 5 5 5 5 5 5 5 3 5 5 5 5 5 5 5 5 3 5 3 5 5 3 5 5 5 3 5 5 3 5 5 5 3 5 3 5 5 3 5 3 5 5 5 5 5 5 5 5 5 5 5 5 5 5 5 5 5 5 5 5 5 5 3 5 3 5 3 5 5 5 5 5 5 5 5 5 5 5 5 5 5 5 3 5 5 5 5 5 5 5 5 5 3 5 5 5 5 5 5 5 5 5 5 5 5 5 5 5 5 5 5 5 5 5 5 5 5 5 5 5 5 5 3 5 5 3 5 5 5 3 3 5 3 5 5 5 5 5 3 5 5 5 5 5 3 5 5 5 5 5 5 5 5 5 5 5 5 5 5 5 5 5 5 5 5 5 5 5 5 5 5 5 5 5 5 5 5 5 5 5 5 5 5 5 5 5 5 5 5 5 5 5 5 5 3 5 5 5 5 5 5 5 5 5 5 5 5 5 5 5 3 5 5 5 5 3 5 5 5 5 5 5 5 5 5 5 5 5 5 5 5 5 5 5 5 5 5 5 5 5 5 5 5 3 5 5 3 5 3 3 3 3 5 5 3 5 5 5 5 5 5 5 5 5 5 5 5 5 5 5 5 5 3 5 5 3 5 3 5 5 5 5 3 5 3 5 5 5 5 3 5 5 5 3 5 5 5 5 5 3 5 3 5 5 3 3 5 3 5 5 5 5 5 5 5 5 5 5 5 3 5 5 5 3 5 5 5 3 5 5 3 3 3 5 5 5 5 5 5 5 5 5 5 5 3 5 5 5 5 5 5 5 5 3 3 3 5 5 5 5 5 5 5 5 3 3 5 5 5 3 5 5 3 5 5 5 5 5 5 5 5 5 5 5 3 5 5 5 5 5 5 5 5 3 5 5 5 5 5 5 5 5 5 5 3 5 3 3 3 5 5 5 5 5 5 5 3 3 5 3 5 5 5 5 5 3 5 3 3 5 5 5 3 5 3 5 5 5 5 3 5 5 5 5 5 5 5 5 5 5 5 5 5 5 5 5 5 3 5 5 5 3 5 5 5 5 5 3 5 5 5 5 5 5 3 5 3 5 5 5 5 5 5 5 5 3 5 5 5 3 5 5 5 5 5 5 5 5 5 5 5 5 5 5 5 5 5 5 5 5 5 5 5 5 5 3 3 3 5 5 5 5 3 5 5 5 5 3 5 5 5 5 5 5 5 3 5 5 5 5 5 5 5 5 3 5 5 5 5 5 5 5 5 5 5 5 5 3 5 5 5 5 5 5 3 5 5 5 5 5 5 5 5 3 5 5 5 3 5 5 5 5 5 5 5 5 5 5 5 5 3 5 5 5 5 5 5 5 5 5 5 5 5 5 5 5 5 5 5 5 5 5 5 5 5 5 5 5 5 5 5 5 5 5 5 5 5 5 5 5 5 5 5 5 5 5 5 5 3 5 5 5 5 5 5 5 5 5 5 5 5 5 5 5 5 5 5 5 5 5 5 5 5 3 5 5 5 5 5 5 5 5 5 5 3 5 5 3 5 5 5 5 5 5 5 5 5 3 5 3 5 5 5 5 3 5 5 3 5 3 5 5 5 5 5 3 5 5 5 5 5 5 5 5 3 5 5 5 5 5 5 5 5 5 5 5 5 5 5 3 5 3 3 5 5 5 5 5 3 5 5 5 5 5 5 5 5 5 5 5 5 5 5 5 3 5 5 5 5 5 5 5 5 5 5 5 5 5 5 5 5 3 5 5 5 5 5 3 3 5 5 3 5 5 5 5 5 5 5 5 5 5 3 5 5 5 5 5 5 5 5 5 3 5 3 5 5 5 5 5 3 5 5 5 5 3 5 5 5 3 5 5 5 3 5 5 3 5 5 5 5 5 5 5 5 5 5 5 5 5 5 5 5 3 5 5 5 5 5 5 5 3 5 5 5 5 5 5 5 5 5 5 5 5 5 5 5 5 5 5 5 5 5 5 5 5 5 5 5 3 5 5 5 5 3 5 5 5 3 5 5 5 5 5 5 5 5 5 3 5 3 5 5 5 5 5 5 5 5 5 5 5 5 5 5 5 5 5 5 3 3 5 5 5 3 5 5 3 5 5 3 5 5 5 3 5 5 3 5 5 5 5 5 5 5 5 5 5 5 5 5 5 5 5 5 5 5 5 3 5 3 5 5 5 5 5 5 5 5 5 5 5 3 5 3 5 5 5 3 5 5 5 5 5 3 5 5 5 5 5 5 3 5 5 5 5 5 5 5 5 5 5 5 3 5 5 5 5 5 5 5 5 3 5 5 5 3 5 5 3 5 5 5 5 5 3 5 5 5 5 5 5 5 5 5 3 5 5 3 5 3 5 3 3 3 5 3 5 5 5 5 5 5 3 5 5 5 5 5 5 3 5 5 5 5 5 5 5 3 5 5 5 5 3 5 5 5 5 5 3 5 3 5 5 5 5 5 5 5 5 5 5 3 5 5 5 5 5 5 5 3 5 5 5 5 5 5 5 3 5 3 5 5 5 5 5 5 5 5 3 5 5 5 3 3 5 5 5 5 5 3 3 5 3 5 5 3 5 5 3 5 5 5 5 5 5 5 5 3 5 5 5 5 5 3 5 5 5 5 3 5 5 3 5 5 5 5 5 5 5 5 5 5 5 5 5 5 5 5 5 5 5 5 5 5 5 5 5 5 5 5 5 5 5 5 5 5 5 5 5 5 5 5 5 3 5 5 3 5 5 5 5 5 3 5 5 5 5 3 5 5 5 5 5 5 5 5 5 5 5 5 5 5 5 5 5 5 5 5 5 5 5 5 3 5 5 5 3 5 5 5 5 5 5 3 5 5 5 5 5 5 5 5 5 5 5 3 5 3 3 5 5 3 5 5 5 5 5 5 5 5 5 5 5 3 5 5 3 5 5 5 5 5 5 5 5 5 5 5 5 5 5 5 3 5 5 5 5 5 5 5 3 5 3 5 5 5 5 3 5 3 5 5 5 5 5 5 5 5 5 3 5 5 5 5 5 5 5 5 5 5 5 5 5 5 5 5 5 3 5 5 5 5 5 5 5 5 5 5 5 5 5 5 5 5 5 5 5 5 5 5 5 5 5 3 3 5 5 5 5 5 5 5 5 5 5 5 3 5 5 5 5 3 5 5 5 5 3 5 5 5 5 5 5 5 5 3 5 5 5 5 5 5 5 5 5 3 5 5 5 5 5 5 5 5 5 5 5 5 5 5 5 5 5 5 5 5 3 5 5 5 5 5 5 5 5 5 5 5 5 5 5 3 5 3 5 5 5 5 5 5 5 5 3 5 5 3 5 5 5 5 5 5 5 5 5 5 5 5 5 5 5 5 5 5 5 5 5 5 5 5 5 5 5 5 5 5 5 5 5 5 5 5 3 5 5 3 5 5 5 5 3 5 3 5 5 3 5 3 5 5 5 5 5 3 5 5 5 5 5 5 5 5 5 5 5 5 3 5 5 5 3 5 5 5 5 5 5 5 5 5 3 5 5 5 5 3 3 5 5 5 5 5 5 5 5 3 5 5 5 5 5 3 5 5 5 3 5 5 5 3 5 5 5 5 3 5 5 5 5 5 5 5 5 5 5 5 5 5 5 3 5 5 5 5 5 5 3 5 3 3 5 3 5 3 5 5 5 5 3 5 5 5 5 3 5 5 5 5 5 5 5 5 5 3 5 5 5 5 5 5 5 5 5 5 5 5 5 5 3 5 5 5 3 5 5 5 3 5 3 5 5 5 5 5 5 5 5 5 5 5 5 5 5 5 5 3 5 5 5 5 5 5 3 5 5 5 5 5 5 5 5 5 5 5 5 5 5 5 5 5 5 3 5 5 5 5 5 5 5 5 5 5 5 5 5 5 5 5 5 5 5 5 5 5 5 5 5 5 5 5 5 5 5 5 5 5 3 5 5 5 5 3 5 5 5 5 5 5 5 3 5 5 5 5 5 5 5 5 5 3 5 5 3 5 5 5 5 5 3 5 5 5 3 5 5 3 5 5 5 5 5 5 5 5 5 5 5 5 5 5 5 5 5 5 5 5 3 5 5 5 5 5 5 5 5 5 5 3 3 5 3 5 5 5 5 5 3 5 5 5 5 3 5 5 5 5 5 3 5 3 5 5 3 5 5 5 5 5 5 5 5 3 5 5 5 5 5 5 3 5 5 5 5 5 5 3 5 5 5 5 3 5 5 3 5 3 5 5 3 5 5 5 5 5 5 3 5 5 5 5 3 5 5 5 5 5 5 5 5 3 3 5 5 5 5 5 5 5 5 3 5 5 5 5 5 5 3 5 5 5 5 5 5 5 3 5 5 5 3 5 5 5 5 5 5 5 5 5 5 5 5 3 5 5 5 5 3 5 5 3 5 5 5 5 3 5 5 5 3 3 5 5 5 3 5 5 5 3 5 5 5 5 5 5 5 5 5 3 5 5 5 3 5 5 5 5 5 5 5 5 5 5 5 5 3 5 3 5 5 3 5 5 3 5 5 5 5 5 5 5 3 5 5 5 5 5 3 5 3 5 5 5 3 3 5 3 3 5 3 5 5 5 5 5 5 3 5 3 5 5 5 5 5 5 5 5 5 5 5 5 5 3 5 5 3 5 3 5 5 3 5 5 5 3 3 5 5 3 5 5 5 5 5 5 5 5 5 5 5 5 5 5 5 5 5 5 5 5 5 5 5 3 3 5 3 5 3 5 5 3 3 5 5 3 5 5 3 5 5 3 5 3 5 5 5 5 3 5 5 5 5 3 5 3 3 5 3 5 5 3 3 5 5 5 3 5 5 5 5 3 3 5 5 5 5 5 3 5 5 5 5 5 5 5 5 5 5 5 3 5 3 5 3 5 5 3 5 3 5 5 5 5 5 5 5 5 3 5 5 3 5 5 5 5 3 5 5 5 5 5 5 5 5 5 5 5 5 3 5 5 5 5 5 5 5 5 5 5 5 3 5 5 5 5 5 5 3 5 3 5 5 3 5 5 5 5 5 5 5 5 5 5 5 5 5 5 5 5 5 3 3 5 5 5 3 5 5 3 5 5 5 5 5 5 5 5 5 5 5 5 5 5 5 5 5 5 5 5 5 5 5 5 5 3 3 5 5 5 5 5 5 5 5 5 5 5 3 5 5 5 5 5 5 5 5 5 5 5 5 5 5 5 5 5 5 5 5 5 5 5 5 5 5 5 5 5 5 5 5 5 3 5 5 5 5 5 3 5 5 3 5 5 3 3 5 5 5 5 5 5 5 5 5 5 5 5 5 3 5 5 3 5 5 5 5 5 5 3 5 5 3 5 5 5 5 5 5 5 5 5 5 5 5 5 3 5 5 5 5 5 5 5 3 5 5 5 5 5 5 5 5 5 5 5 5 3 5 5 3 5 5 5 5 5 5 5 5 5 5 5 5 5 5 5 5 5 5 5 5 3 5 5 3 5 3 5 5 5 3 5 5 3 5 3 5 5 5 3 5 5 5 5 3 5 5 5 5 5 5 5 3 5 5 5 3 5 5 5 5 5 5 5 5 5 5 5 5 3 5 5 5 5 5 5 5 5 3 5 5 5 5 5 5 5 5 5 5 5 3 5 5 5 5 5 5 5 5 5 5 5 5 5 5 5 5 5 5 5 3 3 5 5 5 3 5 5 5 5 5 5 5 5 5 5 5 5 3 5 5 5 5 5 5 5 5 5 3 5 5 5 5 5 5 5 5 5 5 5 5 5 5 5 5 3 5 3 5 5 5 5 5 3 5 5 5 5 3 5 5 5 3 5 5 5 3 5 5 5 5 5 5 5 5 5 3 5 5 5 3 5 5 3 5 5 5 5 5 5 3 5 5 5 5 5 5 5 5 3 5 5 5 3 5 5 5 5 5 5 5 5 5 5 5 5 5 5 5 5 5 5 5 5 5 5 5 5 5 5 5 3 5 5 5 5 5 5 5 3 5 5 5 5 5 5 5 5 5 5 5 5 5 5 5 5 5 5 5 5 5 5 5 5 5 3 5 3 5 5 5 5 5 5 3 5 5 5 3 5 5 3 5 5 5 5 5 5 5 5 5 5 5 5 3 5 5 5 5 5 3 5 5 5 5 5 5 5 5 5 5 5 5 5 3 5 5 5 3 5 5 5 5 5 5 5 5 5 5 5 5 3 3 5 5 5 5 3 5 5 5 5 5 5 5 5 5 3 3 5 5 5 5 5 3 5 5 5 5 5 3 5 5 5 5 5 3 5 3 5 5 5 5 3 5 3 5 3 3 5 5 5 5 5 5 5 3 3 5 5 5 5 5 5 3 3 3 5 3 3 5 5 5 3 5 5 5 5 5 3 3 3 5 3 5 5 5 3 5 3 3 5 5 5 5 5 5 5 3 3 5 5 3 3 3 5 5 5 5 5 5 5 5 5 5 5 5 5 5 5 5 5 5 5 5 5 5 5 5 5 5 5 5 5 5 5 5 5 5 5 5 5 5 5 5 3 5 5 5 5 5 5 5 5 5 5 3 5 5 5 5 5 5 3 5 5 3 5 5 5 5 5 5 5 5 5 5 5 5 5 3 5 3 5 5 5 5 3 5 5 5 3 5 5 3 5 5 5 3 5 5 3 5 5 5 5 5 3 5 5 5 5 5 5 5 3 5 5 5 5 5 5 5 3 5 5 3 5 5 5 5 3 5 3 5 5 5 5 5 3 5 5 5 5 3 5 5 5 5 5 5 3 3 5 5 5 5 5 3 5 5 3 5 5 5 5 5 5 5 5 5 5 3 5 5 5 5 5 5 5 5 5 5 5 5 5 5 5 5 5 5 3 5 5 5 5 5 5 3 5 5 5 5 5 5 5 3 3 5 5 5 5 3 5 5 5 5 5 5 5 3 5 5 3 5 3 3 3 5 5 5 5 5 5 3 5 5 5 5 5 3 5 5 5 5 3 5 5 5 3 5 5 5 3 5 5 5 5 5 5 5 5 5 5 5 5 5 5 5 5 5 5 5 5 5 5 5 5 5 3 5 5 5 5 5 5 5 3 5 3 5 5 5 5 5 5 3 5 5 3 5 5 5 3 5 5 3 5 5 5 5 5 3 5 5 5 3 3 5 5 5 5 5 5 5 5 5 5 5 5 3 5 5 5 5 5 5 5 5 5 3 5 5 5 5 5 3 3 5 5 5 5 5 5 5 5 5 3 5 5 5 5 5 5 5 5 3 5 5 5 5 5 5 5 5 5 5 5 5 5 5 5 5 5 5 3 5 5 5 5 3 5 3 5 3 5 5 5 5 5 5 5 5 5 5 5 5 5 5 5 5 5 3 5 5 5 5 5 3 5 5 5 3 3 5 5 5 5 5 3 5 5 5 5 3 5 5 5 5 5 5 5 5 3 5 5 5 5 5 5 5 3 5 5 5 5 5 5 5 5 5 3 5 5 5 5 5 5 5 5 5 5 5 5 5 5 5 5 5 5 3 5 5 5 5 5 5 5 5 5 5 5 5 5 3 5 5 5 5 5 5 3 5 5 3 5 5 3 5 5 5 5 5 5 5 5 5 5 5 5 5 5 5 5 5 5 5 5 5 5 5 5 5 5 3 5 3 5 3 3 5 5 5 3 5 5 5 5 5 5 5 5 5 3 3 5 3 5 5 5 5 5 5 5 5 5 5 5 5 5 5 3 5 3 3 5 3 5 5 5 5 5 5 5 5 5 3 3 5 5 5 5 5 5 5 5 5 5 5 5 5 5 5 5 5 5 5 5 5 5 3 5 5 5 5 5 3 5 5 5 5 5 3 5 5 5 3 5 5 5 5 5 5 5 5 5 3 5 5 5 5 3 5 5 5 5 5 5 3 5 5 5 5 5 5 5 3 5 5 5 5 3 5 5 5 5 5 5 5 5 5 5 3 5 5 5 5 3 5 5 5 3 5 5 5 5 5 3 5 5 5 5 5 5 5 5 5 5 5 5 5 5 3 3 5 5 3 5 5 5 5 5 5 5 3 5 5 5 5 5 5 3 5 5 5 5 5 5 5 5 5 5 5 5 5 5 5 5 5 5 5 5 5 5 5 3 5 5 5 5 5 5 5 5 3 5 5 5 5 3 5 5 5 5 5 3 5 3 5 3 5 5 5 5 5 5 5 3 5 5 5 3 5 5 5 5 5 3 5 5 5 5 5 3 5 3 5 5 3 5 3 5 5 5 5 5 3 5 5 5 3 5 5 5 5 5 5 5 5 5 5 3 5 5 5 5 5 5 5 5 5 5 5 5 5 5 5 5 5 5 5 5 5 5 3 5 5 5 5 5 5 5 5 5 5 5 5 5 5 5 5 5 5 3 5 5 5 3 5 5 5 5 5 5 3 5 5 5 3 3 5 3 5 3 3 5 3 5 5 3 5 5 3 3 5 5 5 5 5 5 5 5 3 5 3 5 5 5 5 5 5 5 5 5 5 5 5 5 5 5 5 5 5 5 5 5 5 3 5 5 5 5 5 5 5 5 3 5 5 3 5 5 3 3 5 5 3 5 5 5 5 5 5 5 5 5 5 5 5 5 5 5 5 5 5 5 5 5 5 5 5 5 5 5 5 5 5 5 5 5 5 5 5 5 5 5 3 5 3 5 5 5 5 5 5 5 5 5 5 5 5 5 5 5 5 5 5 5 5 5 5 5 5 5 5 5 5 5 5 5 5 5 5 5 5 5 5 5 5 3 5 5 3 5 5 5 5 5 3 5 3 5 5 3 5 5 5 5 5 5 3 5 5 5 5 5 5 5 5 5 5 5 3 5 5 3 3 5 3 5 5 3 5 5 5 5 3 5 5 5 5 5 5 5 5 5 3 5 3 5 5 5 5 5 5 5 3 5 3 5 5 5 5 5 5 5 5 5 3 5 3 5 5 5 5 5 5 5 5 5 5 3 5 5 5 3 5 5 3 5 5 3 5 5 5 5 3 5 5 5 3 5 5 5 5 5 5 5 5 5 5 5 5 5 5 3 5 5 5 5 5 5 3 5 3 5 3 5 5 5 3 5 5 5 5 5 5 5 5 3 5 5 5 5 5 3 5 5 3 5 5 5 5 5 5 5 5 5 3 5 5 5 3 5 5 5 5 5 5 3 5 5 5 5 5 5 5 5 5 5 5 5 5 5 5 5 5 5 5 5 5 5 5 5 5 5 5 5 5 5 5 3 5 5 5 5 5 3 5 5 3 3 5 5 5 5 3 5 5 5 5 5 3 5 5 5 5 5 5 5 5 5 5 5 5 5 5 5 5 3 5 5 5 5 5 5 5 5 3 3 5 5 5 5 5 5 3 5 5 5 5 3 5 5 5 5 5 5 5 5 5 5 5 5 5 5 5 5 5 5 5 5 5 5 5 5 3 5 5 3 5 5 5 5 5 5 5 5 5 5 5 5 5 5 5 5 5 5 5 5 5 5 5 5 5 5 5 3 5 3 5 5 5 5 5 3 5 5 5 5 5 5 5 5 5 5 5 5 5 5 5 5 5 5 5 5 3 3 5 3 5 5 5 5 5 5 5 5 5 5 5 5 5 5 5 5 3 5 5 5 3 5 5 5 5 5 5 5 5 5 5 5 5 5 3 5 5 5 5 5 5 5 5 5 5 5 5 5 5 5 5 5 5 5 5 5 5 3 5 5 5 5 5 5 5 5 5 5 5 5 5 3 5 3 5 5 3 3 5 5 5 5 5 5 5 5 5 5 5 5 5 5 5 5 5 5 5 5 3 5 5 3 5 5 5 3 5 5 5 5 5 5 3 5 5 5 3 5 5 5 5 5 5 5 5 3 5 5 3 5 5 3 5 3 5 5 5 5 3 3 5 5 3 3 5 5 3 5 5 5 5 3 5 5 3 3 5 3 5 5 5 5 5 5 5 5 5 5 5 5 5 5 5 5 5 5 5 5 3 5 5 5 5 3 5 5 5 5 3 3 5 5 5 5 5 5 5 5 5 5 5 5 3 5 5 5 3 5 5 5 5 5 5 5 3 5 5 5 3 5 5 3 3 5 5 5 3 5 5 5 3 5 5 5 5 5 5 5 5 5 5 5 5 5 5 5 5 5 5 3 5 5 5 5 5 5 5 5 5 5 5 5 5 5 5 5 5 5 3 3 5 5 5 5 5 3 3 5 3 5 5 5 5 5 5 5 5 5 3 5 5 5 3 5 5 5 5 5 5 5 5 5 5 5 5 5 5 3 5 5 5 5 5 5 5 3 5 5 3 5 5 5 5 5 5 3 5 5 5 5 3 5 5 5 5 5 5 3 5 5 5 5 5 5 5 5 3 3 5 5 5 3 3 5 5 5 5 5 3 5 5 5 5 5 5 3 5 5 5 5 3 5 5 5 5 5 3 5 5 5 5 3 5 5 5 5 5 5 5 5 5 5 5 5 5 5 5 5 5 5 5 5 5 5 5 5 5 3 5 5 5 5 3 5 3 5 3 5 5 3 5 5 3 5 5 3 5 5 5 5 5 5 3 5 5 3 5 3 3 3 5 5 3 5 3 3 5 5 5 3 5 3 5 5 5 5 5 5 3 5 5 5 3 5 5 5 5 5 5 5 3 5 5 5 3 5 3 3 5 5 5 5 5 5 5 3 5 5 5 5 5 5 5 5 3 3 5 5 5 5 3 5 5 3 5 5 5 3 5 5 5 3 3 5 5 5 5 3 5 5 5 5 5 3 3 5 5 5 5 5 5 5 5 5 5 5 5 5 5 5 5 5 5 5 5 5 5 5 5 5 5 5 5 5 5 5 3 5 5 5 3 5 5 5 5 5 5 5 5 5 5 5 5 5 5 5 3 5 3 3 5 5 3 5 5 5 5 5 5 5 5 5 5 5 5 5 5 5 5 5 5 5 5 5 5 5 3 5 5 3 3 5 5 5 5 5 5 5 3 5 5 5 3 5 5 5 5 3 3 5 5 5 5 5 5 5 3 5 5 5 5 3 5 5 5 5 3 5 5 5 5 5 5 5 5 5 5 5 5 5 5 5 5 5 5 5 3 5 5 5 5 5 5 5 5 5 5 5 5 5 5 5 5 3 5 5 5 3 5 5 5 5 5 5 5 5 5 3 5 5 5 5 5 5 5 5 5 5 5 5 5 5 5 5 5 5 5 5 5 3 5 5 5 5 5 5 5 5 5 5 5 5 5 5 5 5 5 3 5 5 5 5 5 3 5 5 5 5 5 5 5 5 5 5 5 5 5 5 5 5 5 5 5 5 5 5 5 5 5 5 5 3 5 5 3 5 5 5 3 5 5 5 5 5 5 5 5 5 5 5 5 5 5 5 3 5 3 5 5 5 5 5 5 5 5 5 3 5 5 5 5 5 5 5 5 5 3 3 5 5 5 5 5 5 5 5 5 5 5 5 5 5 5 5 5 5 5 5 5 5 5 5 5 5 5 5 5 5 5 5 5 5 5 5 5 5 5 5 5 5 5 5 5 5 5 5 5 5 5 5 5 5 5 5 5 5 5 5 5 5 5 5 5 5 5 5 5 5 5 3 5 5 5 5 5 5 3 5 5 5 5 5 5 5 5 5 3 5 3 5 5 5 5 5 5 5 5 5 5 5 5 5 5 5 5 5 5 5 5 5 5 5 5 5 5 5 5 5 5 5 5 5 5 3 5 5 5 3 3 5 5 5 5 5 5 5 5 5 5 5 5 5 5 5 5 5 5 5 5 5 5 3 3 5 5 5 5 5 5 5 5 3 5 5 5 5 5 5 3 5 5 5 5 5 3 5 5 5 5 3 5 5 5 3 5 5 5 3 5 5 3 5 5 5 5 5 5 5 5 5 5 5 5 5 3 5 5 5 5 5 5 5 5 3 5 5 5 5 5 5 5 5 5 5 5 3 5 5 5 3 5 5 5 5 3 5 5 5 5 5 5 5 5 3 5 3 5 5 3 5 5 5 5 5 3 5 5 5 5 5 5 5 5 5 5 5 5 3 5 5 5 5 5 5 5 5 5 3 5 5 5 5 5 5 3 5 5 5 5 5 5 5 3 5 5 5 5 5 3 5 5 5 5 5 5 5 5 5 5 5 5 5 5 5 5 5 5 5 5 5 5 5 5 5 5 5 5 5 5 5 5 5 5 5 5 5 5 5 5 5 5 5 5 5 5 5 3 5 3 5 5 5 5 5 5 5 5 5 5 5 5 5 5 3 5 5 5 5 5 5 5 5 5 5 5 5 5 5 5 3 5 5 3 5 3 5 5 5 5 5 3 5 5 5 5 5 5 5 5 5 5 5 5 5 5 5 5 5 5 5 5 3 5 5 5 5 5 5 5 5 5 5 5 3 5 3 5 5 3 5 3 5 5 5 5 5 5 5 3 5 3 5 5 5 5 3 5 5 5 5 3 3 5 5 3 5 5 5 5 5 5 5 5 5 5 5 5 5 5 5 5 3 5 5 5 5 5 5 5 5 5 5 5 5 5 5 3 5 3 5 5 5 5 5 5 5 3 5 3 5 5 5 5 5 5 5 5 5 3 3 5 5 5 3 5 5 5 5 3 5 3 5 5 3 5 3 3 3 5 5 3 5 5 5 3 3 3 5 5 5 5 5 5 5 5 5 5 5 3 5 5 5 5 5 5 3 5 5 5 3 5 5 5 5 5 5 5 5 3 5 5 5 3 5 5 5 5 5 5 5 5 5 5 5 5 5 5 5 5 5 5 5 5 5 5 5 5 5 5 5 5 5 5 5 5 5 5 5 5 5 5 5 5 5 5 5 5 5 5 5 5 5 5 5 5 5 5 5 5 5 5 5 5 3 5 5 5 5 5 3 5 5 5 5 3 5 5 5 3 5 5 5 5 5 5 5 5 5 5 5 5 5 5 5 5 5 5 5 5 5 5 5 5 5 5 5 5 5 5 5 5 5 5 5 5 5 5 5 5 3 5 5 3 5 5 5 5 5 5 5 3 5 5 5 5 5 5 5 5 5 5 5 3 5 5 3 5 3 5 5 5 3 5 5 5 5 5 5 5 5 3 5 5 5 5 3 5 5 5 5 3 5 3 5 5 5 5 5 5 5 5 5 5 5 5 3 5 3 5 5 5 5 5 5 5 5 5 5 5 5 5 3 5 5 5 5 5 5 5 5 5 3 5 5 5 3 5 5 5 5 5 5 5 5 5 5 5 5 5 5 5 5 5 5 5 5 5 5 5 5 5 5 5 5 5 5 5 5 5 5 5 3 5 5 3 5 5 5 5 3 5 5 5 5 5 5 5 5 5 5 5 5 5 5 5 3 5 5 5 5 5 5 5 5 5 3 5 3 5 5 5 5 5 5 5 3 5 5 5 5 5 5 5 5 5 5 5 5 5 5 3 5 5 5 5 5 5 5 5 5 5 5 3 5 5 5 5 5 5 5 5 5 5 5 5 5 5 5 5 5 5 5 5 5 5 5 3 5 3 5 5 5 5 5 5 3 5 3 5 5 5 3 5 5 5 3 5 5 5 3 5 5 3 5 5 5 5 5 5 5 3 5 5 5 5 5 5 5 3 5 5 5 5 5 5 5 5 5 5 5 5 5 3 5 5 5 5 5 5 5 5 3 5 5 5 5 5 5 5 5 5 5 5 5 5 5 5 5 5 5 5 5 3 5 5 5 5 5 5 5 5 5 5 5 5 5 5 5 5 5 5 5 5 5 5 5 5 5 5 5 5 5 5 5 5 5 5 5 5 5 5 5 5 5 5 5 5 5 5 5 5 5 5 3 5 3 5 5 5 3 5 5 3 3 5 3 5 5 5 5 5 5 5 5 5 5 5 5 5 5 5 5 5 5 5 5 5 5 5 5 5 5 5 5 5 5 5 5 5 5 5 3 5 5 5 5 3 5 5 3 5 5 5 3 5 5 5 5 3 5 3 3 5 5 5 5 3 5 5 5 3 5 5 5 3 5 5 5 5 5 5 3 5 5 5 5 5 5 5 5 5 5 5 5 5 5 5 5 5 5 5 5 3 5 5 5 5 5 5 5 5 5 5 5 5 5 5 5 5 5 5 3 5 5 3 5 5 3 5 5 5 5 5 5 5 5 5 5 5 3 5 5 5 5 3 5 5 5 5 3 5 5 5 3 5 5 5 5 5 5 5 5 5 5 5 5 5 5 5 5 5 5 5 5 5 5 5 5 5 3 5 5 5 5 5 5 5 5 3 5 5 5 3 5 5 5 5 5 5 5 5 5 5 5 5 5 5 5 5 5 5 5 5 5 5 5 5 3 5 5 5 3 5 5 5 5 5 5 5 5 3 5 5 3 5 5 5 5 3 5 5 5 5 5 5 5 3 5 3 5 5 3 5 5 3 3 5 5 5 5 5 5 5 5 5 5 5 5 5 5 5 5 5 5 5 5 5 3 5 5 5 5 3 5 5 5 5 5 5 5 5 5 5 5 5 5 3 5 5 3 5 5 5 5 5 5 5 5 5 5 5 5 5 5 5 5 5 5 5 5 5 5 5 5 5 5 5 5 5 5 5 5 5 5 5 5 5 5 5 5 5 5 5 5 5 5 5 5 5 5 5 5 5 5 5 5 5 5 5 5 5 5 5 5 5 5 5 5 5 5 5 5 5 5 5 5 5 5 5 5 5 5 5 5 5 5 5 5 5 5 5 5 5 5 5 5 5 5 5 5 5 5 5 5 5 5 5 5 5 5 5 5 5 5 5 5 5 5 5 5 5 5 5 5 5 5 5 5 3 5 5 5 5 5 5 5 3 5 5 5 5 5 5 5 5 5 3 5 3 5 5 5 3 5 5 3 5 5 5 5 5 5 5 5 5 5 5 5 5 5 5 5 5 5 5 5 5 5 5 5 5 5 5 5 5 5 5 5 5 5 5 5 5 3 5 5 3 3 5 5 3 5 5 3 5 5 5 3 5 5 5 5 5 5 5 5 5 3 5 5 5 5 5 5 3 5 5 5 5 5 5 5 5 5 5 5 5 5 5 5 5 5 5 5 5 5 5 5 5 5 5 5 5 5 5 5 3 5 5 5 5 5 5 5 5 5 5 5 5 5 5 5 5 5 5 5 5 5 5 5 5 5 5 5 5 5 5 5 5 5 5 5 5 5 5 5 5 5 5 5 5 5 5 3 5 3 5 5 5 5 3 5 5 5 5 3 5 5 5 5 3 5 5 5 5 5 5 5 5 3 5 5 3 5 3 5 5 5 5 3 5 5 3 3 5 5 5 5 5 5 3 5 5 5 5 5 5 5 5 5 5 3 3 5 5 5 5 5 3 5 5 3 5 5 5 5 3 5 5 3 5 5 5 5 5 5 5 5 5 5 5 5 5 5 5 5 5 5 5 5 5 5 5 5 5 5 5 5 5 3 5 3 5 5 5 5 5 5 5 5 5 5 5 5 5 3 5 5 5 5 3 3 5 5 5 5 5 5 5 5 5 5 5 5 5 5 5 5 5 5 5 5 5 5 5 5 5 5 5 5 5 5 5 5 5 5 5 5 5 5 5 5 5 5 3 5 5 5 3 5 5 5 5 5 5 5 5 5 5 5 5 5 5 5 5 5 5 5 5 3 5 5 3 5 5 5 5 5 5 5 5 5 3 5 5 5 5 5 3 5 5 5 5 5 3 5 3 5 5 5 5 5 5 5 5 5 5 5 5 5 3 5 5 5 3 3 5 5 5 5 5 5 5 5 3 5 5 3 5 5 3 3 5 5 5 5 5 3 5 5 5 5 5 5 5 3 5 5 3 3 5 5 5 5 5 5 3 3 5 5 5 3 5 5 5 5 5 5 5 3 5 5 5 5 5 5 5 5 5 5 5 5 5 5 5 5 5 5 5 5 5 5 5 5 5 5 3 5 5 5 5 5 5 5 3 5 5 5 5 5 5 5 5 5 5 5 3 5 5 5 5 5 5 5 5 3 5 5 5 5 5 5 5 5 5 5 5 5 5 5 5 5 3 5 5 5 3 5 5 5 5 5 3 5 5 5 5 5 5 5 5 5 5 5 5 5 5 3 5 5 5 5 3 5 5 3 5 5 5 5 5 3 5 5 5 5 5 5 5 5 5 5 5 5 5 5 3 5 3 5 5 5 3 5 3 5 3 5 5 5 5 5 5 3 3 5 5 5 5 5 5 3 5 3 5 5 5 5 5 5 5 5 5 5 5 5 5 5 5 5 5 3 5 5 5 3 3 5 5 5 5 5 3 5 5 3 3 5 5 5 5 5 5 5 5 5 5 5 5 5 5 5 5 5 5 5 5 5 5 5 5 5 5 5 5 5 5 5 5 5 5 5 5 5 5 5 5 5 5 5 5 3 5 5 3 3 3 5 5 5 5 5 5 3 5 5 5 5 5 5 5 5 5 3 5 5 5 3 5 5 5 5 5 5 5 5 5 5 5 5 5 5 5 5 5 5 5 5 3 5 5 5 5 3 5 5 5 5 5 5 5 5 5 5 5 5 5 5 5 5 5 5 5 5 5 5 5 5 5 5 5 5 5 5 5 5 5 5 3 5 3 5 5 5 5 5 5 5 5 3 5 5 5 3 5 3 5 5 5 5 5 5 5 5 3 5 5 5 5 3 5 5 5 5 3 5 5 5 5 5 5 5 3 5 5 5 5 3 5 5 5 5 5 5 5 5 5 5 5 5 5 5 5 5 5 5 5 5 5 5 5 5 5 5 5 5 5 5 5 5 5 5 5 5 5 5 5 5 5 5 5 5 5 5 3 5 5 5 5 3 3 5 5 3 3 5 5 5 5 5 5 5 5 5 5 5 5 5 5 5 5 5 5 5 3 5 5 5 3 3 5 5 5 5 5 5 5 5 5 5 5 5 5 5 5 5 5 5 5 5 5 5 5 5 5 5 5 3 5 5 5 5 5 5 5 3 5 5 5 5 5 5 5 5 5 5 5 5 5 5 5 3 5 5 5 5 5 5 5 5 3 5 3 3 5 5 5 5 5 5 5 5 5 5 5 5 3 5 5 5 5 5 5 5 5 5 5 5 5 5 5 5 5 5 5 3 5 5 5 3 5 5 5 5 5 5 5 5 3 5 5 5 5 5 5 5 5 5 5 5 5 5 5 5 3 5 5 5 3 5 5 5 5 5 5 5 5 5 5 5 5 5 5 5 5 5 5 5 5 5 5 5 5 5 5 5 5 5 5 5 5 5 3 5 3 5 5 5 5 5 5 5 5 3 5 5 5 5 5 5 5 5 5 3 5 5 3 5 5 5 5 5 3 5 5 5 5 3 5 5 5 5 3 5 5 5 3 5 3 5 5 3 5 5 5 5 5 5 5 5 5 5 5 5 5 5 3 5 5 3 5 3 5 5 5 3 5 5 3 5 5 5 5 3 5 3 5 5 5 5 5 5 3 5 3 5 5 5 5 5 3 5 5 5 5 3 5 5 5 5 5 5 3 5 5 5 5 5 5 5 5 5 5 5 5 5 5 5 5 5 5 5 5 5 5 5 5 5 5 5 5 5 5 5 5 5 3 3 5 5 5 5 5 5 5 5 5 5 3 5 5 3 3 5 3 5 5 5 5 5 5 5 3 5 5 5 5 5 5 5 5 5 5 5 5 3 5 5 5 5 3 5 5 5 5 5 5 5 5 5 5 5 5 3 5 5 5 5 5 5 5 5 5 5 5 5 5 5 5 5 5 3 5 5 5 5 5 3 5 5 5 3 5 5 5 5 5 5 3 5 3 5 5 5 3 5 5 5 5 5 5 5 5 5 3 5 5 3 5 5 5 5 5 5 5 3 5 5 5 5 5 5 5 5 5 5 5 5 5 3 5 5 3 5 5 5 5 5 5 3 5 5 5 5 5 5 3 5 5 5 5 5 5 5 3 5 5 5 5 5 5 5 5 5 5 5 5 5 5 5 5 5 5 5 5 5 5 3 5 5 5 5 5 5 5 5 5 5 3 5 5 5 5 3 3 5 5 5 5 3 5 5 5 5 5 5 5 5 5 3 5 5 5 5 5 5 5 5 5 5 5 3 5 5 5 3 5 5 5 3 5 5 5 5 5 5 5 5 5 5 5 5 3 5 5 5 5 5 3 5 5 3 5 5 5 5 5 5 5 5 5 5 5 5 5 5 3 5 5 5 5 5 5 5 3 5 5 5 3 5 5 5 5 5 3 5 5 5 5 5 5 5 5 5 3 5 5 5 5 5 5 5 5 3 5 5 5 5 5 3 5 5 5 5 5 5 5 3 5 5 5 5 5 5 5 5 5 5 5 5 5 5 5 5 5 5 5 5 5 5 5 5 5 5 5 5 5 5 5 5 5 5 5 5 5 5 5 5 5 5 5 5 5 5 5 5 3 5 5 5 5 5 5 5 3 5 5 5 5 5 5 5 5 5 5 5 5 5 5 5 5 5 5 5 5 5 5 3 3 5 5 3 3 5 5 5 5 5 5 5 3 5 5 5 5 5 5 5 5 5 5 5 5 5 5 3 5 5 5 5 5 5 5 5 3 5 5 3 5 5 5 3 5 5 5 5 5 5 5 5 5 5 5 5 5 5 5 5 5 5 5 5 5 5 5 5 5 5 5 5 3 5 5 5 5 5 5 5 5 3 5 5 5 5 5 5 3 3 5 5 5 5 3 5 5 3 5 5 3 5 5 5 5 5 5 3 5 5 5 5 5 5 5 5 3 5 5 5 5 5 5 5 5 5 5 5 3 5 5 3 5 5 5 5 5 5 5 3 5 5 5 3 5 3 5 3 5 5 5 5 5 5 5 5 5 5 5 5 5 5 5 5 5 3 5 3 5 5 5 5 5 5 5 5 5 5 3 5 5 5 5 5 5 5 3 5 5 5 3 5 3 3 5 5 3 5 5 5 5 3 5 5 5 3 5 5 5 3 5 3 3 5 5 5 5 5 5 3 5 5 5 5 5 5 5 5 3 3 3 5 3 5 5 3 3 5 5 3 5 5 5 5 5 5 5 5 5 5 5 3 5 5 5 5 5 5 5 5 5 5 5 5 5 3 3 5 5 5 5 3 5 5 5 3 5 5 5 5 5 3 3 5 5 5 3 5 5 5 5 5 5 5 5 5 5 5 5 5 5 5 3 5 5 5 3 5 5 5 3 5 5 5 5 5 5 3 5 5 5 5 5 3 5 5 5 5 5 5 5 5 3 5 5 5 5 5 5 5 5 5 3 5 5 5 5 3 5 3 5 5 3 5 3 5 5 5 5 5 5 3 5 3 3 5 5 5 5 5 5 5 5 3 5 3 5 3 5 3 5 5 5 5 5 5 5 5 5 5 5 3 5 5 5 3 5 5 5 5 5 5 5 5 3 5 5 5 5 5 5 5 5 5 3 5 5 5 5 3 5 5 3 5 5 5 5 5 5 5 5 5 3 5 5 5 3 5 5 5 5 5 5 5 5 5 5 5 5 5 5 5 5 5 5 5 3 5 5 5 5 5 5 5 5 5 5 3 5 5 5 5 5 5 5 5 5 5 5 5 5 5 5 5 5 5 5 5 5 5 5 5 5 5 5 5 5 5 5 5 5 5 5 5 5 5 5 5 5 5 5 5 5 3 3 5 5 5 5 5 5 5 5 5 5 5 5 5 3 3 5 5 5 3 5 5 3 5 5 5 3 5 5 5 3 5 5 5 5 5 5 5 5 3 5 5 3 5 3 3 5 5 5 5 5 5 3 5 3 3 3 5 5 3 5 5 3 3 5 5 5 5 5 5 5 5 5 5 5 5 5 5 5 5 5 5 5 5 5 3 5 5 5 5 5 5 5 5 5 3 5 5 5 5 5 5 5 3 3 5 5 5 5 5 5 5 5 5 5 5 5 5 5 5 5 5 5 5 5 5 5 5 3 5 3 5 5 5 5 5 5 5 3 5 5 5 3 3 5 5 3 5 5 5 5 3 5 5 5 3 5 5 5 3 5 5 5 5 5 5 5 5 5 3 3 5 5 5 5 5 3 5 5 3 3 3 5 5 5 5 5 3 5 5 5 5 5 5 5 5 5 3 5 3 5 5 5 5 5 5 5 5 5 5 5 5 5 5 5 5 5 5 5 5 5 5 5 5 3 5 5 5 5 3 3 5 5 5 3 5 5 5 5 5 5 5 5 5 5 5 5 5 5 5 5 3 5 5 5 3 5 5 3 5 5 5 5 5 5 5 5 5 5 5 5 5 3 5 5 3 5 5 5 3 5 3 5 3 5 3 3 3 5 5 5 5 5 5 5 5 3 5 5 5 5 5 5 5 5 3 5 5 3 5 5 5 5 5 5 5 5 5 5 5 5 5 5 5 5 5 5 5 5 5 3 5 5 5 5 5 5 5 5 5 5 3 5 3 5 5 3 5 3 5 3 5 5 3 5 3 5 5 3 5 5 5 3 5 5 5 5 5 5 5 5 5 5 5 5 5 5 5 5 5 5 5 5 5 5 5 5 5 5 5 5 5 5 5 5 5 5 5 5 5 5 5 5 5 5 5 5 5 5 5 5 5 5 5 5 5 5 5 5 5 5 5 5 5 3 5 5 3 5 5 5 5 5 5 3 3 5 5 5 5 5 5 5 5 5 5 5 5 5 5 5 5 5 5 3 5 5 5 3 5 5 5 5 5 5 5 5 5 5 5 5 5 5 5 5 3 5 5 5 5 5 5 5 3 5 5 5 5 5 5 5 5 3 5 3 5 5 5 5 5 5 5 5 5 5 5 5 5 5 5 5 3 5 5 5 5 5 5 5 3 5 5 5 5 3 5 5 5 5 5 5 5 3 5 5 3 3 5 5 3 5 5 5 5 5 5 3 5 5 5 5 5 5 5 5 5 3 5 5 3 5 5 3 5 5 3 5 5 5 5 5 3 5 5 5 5 5 5 5 5 3 5 5 5 5 5 5 5 3 5 5 5 5 5 5 5 5 5 5 5 5 3 5 5 5 5 5 5 5 3 3 5 3 5 3 5 5 5 5 5 5 5 5 5 5 5 5 5 5 5 3 5 3 5 5 5 5 5 5 5 5 3 5 3 5 3 5 3 5 3 5 5 3 5 5 5 5 5 3 5 5 5 5 5 5 5 5 3 5 5 5 5 5 3 5 5 3 5 3 3 5 5 5 5 5 5 5 5 3 5 5 5 5 5 5 5 5 5 5 5 5 5 3 5 5 5 5 5 5 5 3 5 5 5 3 5 5 5 5 5 5 5 5 5 5 5 5 5 5 5 5 5 3 5 5 5 5 5 5 5 3 5 5 3 5 5 5 5 5 5 5 5 5 5 5 5 5 5 5 3 5 5 5 5 3 5 5 5 5 5 5 5 5 5 5 5 5 5 5 5 5 5 5 5 5 5 5 5 5 5 3 5 5 5 5 5 5 3 5 5 5 5 5 5 5 5 5 3 3 5 5 5 3 5 3 5 5 5 5 5 5 5 5 5 5 5 5 5 5 5 3 5 5 5 5 5 5 5 5 5 5 5 5 3 3 5 5 5 5 5 5 5 5 3 5 5 3 5 5 3 3 5 5 5 5 5 5 5 3 5 5 5 5 5 5 5 5 5 3 5 5 5 3 5 5 5 5 5 3 5 5 5 5 5 5 5 5 5 5 5 5 3 5 5 5 3 5 5 5 3 5 5 5 5 5 5 5 5 5 5 5 5 5 5 5 5 5 5 5 5 5 5 5 5 5 5 5 5 5 5 5 5 3 5 5 5 5 5 5 5 5 5 5 5 5 5 5 5 5 5 5 5 5 5 5 5 5 3 5 3 5 5 3 5 5 5 5 5 5 5 5 5 3 5 5 5 5 5 5 5 5 5 5 5 5 5 5 3 5 5 5 5 3 5 5 5 3 5 5 5 5 5 5 5 5 5 5 5 5 5 5 5 5 5 5 5 5 5 5 5 5 5 5 5 5 5 5 5 5 5 5 5 5 5 5 5 5 5 5 5 5 5 5 5 5 5 5 5 5 5 5 5 5 5 5 5 5 5 5 5 5 5 5 5 5 5 5 5 5 5 5 5 5 5 5 5 5 5 5 5 5 5 5 5 5 5 5 5 5 5 5 5 5 5 5 5 5 5 5 5 5 5 5 5 5 5 5 5 5 5 5 5 5 5 5 5 5 5 5 5 5 5 5 5 5 5 5 5 5 5 5 5 5 5 5 5 5 5 5 5 5 5 5 5 5 5 5 5 5 5 5 5 5 5 5 5 5 5 5 5 5 5 5 5 5 5 5 5 5 5 5 5 5 5 5 5 5 5 5 5 5 5 5 5 5 5 3 5 5 5 5 5 5 5 5 5 5 5 5 5 5 5 5 3 5 5 5 5 5 5 5 5 3 5 5 5 5 3 5 5 5 5 5 5 5 5 5 5 5 5 5 5 5 5 5 5 5 5 5 5 3 5 5 5 5 5 5 5 5 5 5 5 5 5 3 3 5 5 5 5 5 3 5 3 5 5 5 5 5 5 5 5 5 5 5 3 5 5 5 5 5 5 5 3 5 5 5 5 5 5 5 5 5 5 5 5 5 5 5 3 3 5 5 5 5 5 5 5 5 5 5 5 5 3 5 5 5 5 5 5 5 5 5 5 5 5 5 5 5 5 3 5 5 5 5 5 5 5 3 5 5 5 5 5 5 5 5 5 5 3 3 5 5 5 5 5 5 5 5 5 5 5 5 5 5 5 5 5 5 5 5 5 5 5 5 5 5 5 5 5 5 3 5 5 5 5 5 3 5 5 5 5 5 5 5 5 5 5 3 5 5 5 5 3 5 5 5 5 5 5 5 5 5 5 3 5 3 5 5 5 5 5 5 5 5 5 5 5 5 5 5 5 5 5 5 5 5 5 5 5 5 5 5 5 5 5 5 5 3 5 5 5 5 5 3 5 5 5 5 5 5 5 5 5 5 5 5 5 5 5 5 5 5 3 5 5 3 5 5 5 3 5 5 5 5 5 3 5 5 5 5 5 5 5 5 5 5 3 5 5 5 5 5 5 3 5 5 5 5 5 3 3 5 5 3 5 5 3 5 5 5 5 5 5 5 5 5 5 3 5 5 3 5 5 3 5 5 3 5 5 3 5 5 3 5 5 5 5 5 5 3 5 5 5 5 5 5 5 5 5 5 5 3 5 5 5 5 5 5 5 3 5 5 5 5 3 5 5 5 3 5 5 5 5 5 5 5 5 5 5 5 3 5 5 5 5 5 5 5 5 5 5 5 5 5 5 5 5 5 5 5 5 5 5 5 5 3 5 5 5 5 5 3 5 5 5 5 5 5 5 5 5 5 5 5 5 5 3 5 5 3 5 3 5 5 5 5 3 5 3 3 5 3 5 5 5 5 5 5 5 3 5 3 5 5 5 5 5 5 3 5 5 5 5 5 5 3 5 5 5 5 3 5 5 5 5 5 3 5 5 3 5 5 5 5 3 5 5 5 5 3 5 5 5 5 5 5 3 5 5 5 5 5 5 5 5 5 3 5 5 5 5 5 5 3 5 5 5 5 3 5 5 5 5 5 5 5 5 5 5 5 5 5 5 5 5 3 5 5 5 3 5 5 3 5 5 5 5 5 5 5 5 5 5 5 5 5 5 5 5 3 5 3 5 5 5 5 5 5 5 5 5 5 5 5 5 5 5 5 5 5 5 5 5 5 5 5 5 5 3 5 5 3 5 5 5 5 5 5 5 5 5 5 3 5 5 5 5 3 5 5 5 5 3 5 5 5 5 5 5 5 5 5 3 5 5 5 5 5 5 5 5 5 5 5 5 5 5 5 5 5 5 5 5 5 5 5 5 5 5 5 5 
</DataArray>
</Cells>
<PointData Scalars="" Vectors="displacement," Tensors="">
<DataArray type="Float64" Name="displacement" NumberOfComponents="3" format="ascii">
-1.6880533355186868e-06 -0.034996801611665081 0 -0.00016970209673341884 -0.032715680540788043 0 3.5669534944920783e-06 -0.029500818664799575 0 -1.6880533355186868e-06 -0.034996801611665081 0 -0.00015559376641673404 -0.034196779495284546 0 -0.00016970209673341884 -0.032715680540788043 0 -1.6880533355186868e-06 -0.034996801611665081 0 -0.00015559376641673404 -0.034196779495284546 0 1.079567590466541e-08 -0.034999124265466579 0 -0.00015559376641673404 -0.034196779495284546 0 1.079567590466541e-08 -0.034999124265466579 0 -8.5206042607481478e-05 -0.034185859139141753 0 1.079567590466541e-08 -0.034999124265466579 0 -8.5206042607481478e-05 -0.034185859139141753 0 -6.6692775675535214e-05 -0.034749098693336353 0 -0.00031336505739619616 -0.032067564566406977 0 -3.1500801952228779e-05 -0.031171933760954902 0 -8.5206042607481478e-05 -0.034185859139141753 0 0.00035850888008981884 -0.034167495385772607 0 0.00038499094858228904 -0.03431702123335189 0 -8.5206042607481478e-05 -0.034185859139141753 0 0.00038499094858228904 -0.03431702123335189 0 0.00019051525035739358 -0.034534441006854856 0 -0.00015559376641673404 -0.034196779495284546 0 -8.5206042607481478e-05 -0.034185859139141753 0 -0.00016970209673341884 -0.032715680540788043 0 -8.5206042607481478e-05 -0.034185859139141753 0 -0.00016970209673341884 -0.032715680540788043 0 0.00061698372365231687 -0.03335890098137019 0 -0.00016970209673341884 -0.032715680540788043 0 0.0013132971499810425 -0.031613502282923089 0 0.00061698372365231687 -0.03335890098137019 0 -0.00016970209673341884 -0.032715680540788043 0 3.5669534944920783e-06 -0.029500818664799575 0 0.0013132971499810425 -0.031613502282923089 0 1.976772467428506e-06 -0.029489656014982796 0 0.00030059272489315003 -0.02719681671296742 0 -8.342766766830824e-07 -0.027572048010270581 0 1.0924357409453504e-06 -0.02949160148439425 0 0.00045374053948924457 -0.028996649417100433 0 -8.342766766830824e-07 -0.027572048010270581 0 -7.9019731510177217e-05 -0.026490738331385957 0 -0.00016702097926038365 -0.025782281440861012 0 -8.342766766830824e-07 -0.027572048010270581 0 -2.5386171621752616e-07 -0.025651174197515461 0 -0.00016702097926038365 -0.025782281440861012 0 0.00030059272489315003 -0.02719681671296742 0 -8.342766766830824e-07 -0.027572048010270581 0 -7.9019731510177217e-05 -0.026490738331385957 0 0.00030059272489315003 -0.02719681671296742 0 -7.9019731510177217e-05 -0.026490738331385957 0 0.00013193207906021489 -0.026235415724691659 0 0.00045374053948924457 -0.028996649417100433 0 0.00061160618021227002 -0.027987988580810232 0 -7.9019731510177217e-05 -0.026490738331385957 0 -0.00020526378380805645 -0.026004922003091156 0 0.00013193207906021489 -0.026235415724691659 0 -7.9019731510177217e-05 -0.026490738331385957 0 -0.00020526378380805645 -0.026004922003091156 0 -0.00016702097926038365 -0.025782281440861012 0 0.00036921070861008253 -0.025414668528062755 0 0.00061160618021227002 -0.027987988580810232 0 0.00036172621358402513 -0.020508860678077785 0 -1.3093847267310581e-05 -0.020901998457481485 0 -0.00050592619004625409 -0.020715884434425264 0 0.00036172621358402513 -0.020508860678077785 0 -1.3093847267310581e-05 -0.020901998457481485 0 0.00039769179631159212 -0.02096791008080956 0 -1.3093847267310581e-05 -0.020901998457481485 0 -0.00050592619004625409 -0.020715884434425264 0 -0.00012373223569705707 -0.021404823679692004 0 0.0003986866833942374 -0.034295656308473574 0 0.00024115340495519199 -0.034287254378994034 0 0.00042913374786230106 -0.034269430921056894 0 0.00061160618021227002 -0.027987988580810232 0 0.00038758704877917894 -0.0277034002227627 0 0.00024115340495519199 -0.034287254378994034 0 0.00042913374786230106 -0.034269430921056894 0 0.00040216289575694346 -0.034233562962883379 0 -0.00012373223569705707 -0.021404823679692004 0 0.00039769179631159212 -0.02096791008080956 0 0.00052419922477745982 -0.021421823977331167 0 -1.3093847267310581e-05 -0.020901998457481485 0 -0.00012373223569705707 -0.021404823679692004 0 0.00039769179631159212 -0.02096791008080956 0 0.0003986866833942374 -0.034295656308473574 0 0.00035850888008981884 -0.034167495385772607 0 0.00042913374786230106 -0.034269430921056894 0 0.00061160618021227002 -0.027987988580810232 0 -3.1500801952228779e-05 -0.031171933760954902 0 0.0013132971499810425 -0.031613502282923089 0 0.0020238343947395015 -0.032772167956216632 0 0.00061698372365231687 -0.03335890098137019 0 0.00042913374786230106 -0.034269430921056894 0 0.00038499094858228904 -0.03431702123335189 0 0.00045774862941069512 -0.034281641792434939 0 0.00042913374786230106 -0.034269430921056894 0 0.00045774862941069512 -0.034281641792434939 0 0.00040216289575694346 -0.034233562962883379 0 0.00035850888008981884 -0.034167495385772607 0 0.00042913374786230106 -0.034269430921056894 0 0.00038499094858228904 -0.03431702123335189 0 0.00038499094858228904 -0.03431702123335189 0 0.00036171136260569934 -0.034444911327275618 0 0.00019051525035739358 -0.034534441006854856 0 0.00036171136260569934 -0.034444911327275618 0 0.00032592194620545563 -0.034607842610885162 0 0.00019051525035739358 -0.034534441006854856 0 0.00036171136260569934 -0.034444911327275618 0 0.00042600346085063721 -0.034412596883319622 0 0.00041611994054286067 -0.034505010245328961 0 0.00036171136260569934 -0.034444911327275618 0 0.00044151720348940691 -0.03433436304364363 0 0.00042600346085063721 -0.034412596883319622 0 0.00038499094858228904 -0.03431702123335189 0 0.00036171136260569934 -0.034444911327275618 0 0.00044151720348940691 -0.03433436304364363 0 0.00038499094858228904 -0.03431702123335189 0 0.00045774862941069512 -0.034281641792434939 0 0.00044151720348940691 -0.03433436304364363 0 0.00045774862941069512 -0.034281641792434939 0 0.00044151720348940691 -0.03433436304364363 0 0.0005289545441243068 -0.034261645203756554 0 0.00045774862941069512 -0.034281641792434939 0 0.0005289545441243068 -0.034261645203756554 0 0.00040216289575694346 -0.034233562962883379 0 0.0005289545441243068 -0.034261645203756554 0 0.00040216289575694346 -0.034233562962883379 0 0.00041455667272466748 -0.034072334592533775 0 0.0011196148814836121 -0.03347869336043454 0 0.0011291066066149303 -0.033383960737359789 0 0.0005289545441243068 -0.034261645203756554 0 0.00048726258188943087 -0.034369841567252798 0 0.00061812380478134122 -0.034576968733208382 0 0.0005289545441243068 -0.034261645203756554 0 0.00059666804764656385 -0.033968201540660901 0 0.00041455667272466748 -0.034072334592533775 0 0.0011332399977704651 -0.033436057683376159 0 0.0011291066066149303 -0.033383960737359789 0 0.00048726258188943087 -0.034369841567252798 0 0.00041611994054286067 -0.034505010245328961 0 0.00054885403646031934 -0.034512298778874198 0 0.00044151720348940691 -0.03433436304364363 0 0.00042600346085063721 -0.034412596883319622 0 0.00048726258188943087 -0.034369841567252798 0 0.00044151720348940691 -0.03433436304364363 0 0.0005289545441243068 -0.034261645203756554 0 0.00048726258188943087 -0.034369841567252798 0 0.00042600346085063721 -0.034412596883319622 0 0.00048726258188943087 -0.034369841567252798 0 0.00041611994054286067 -0.034505010245328961 0 0.00041611994054286067 -0.034505010245328961 0 0.00054885403646031934 -0.034512298778874198 0 0.00043383258052534225 -0.03465121590181057 0 0.0011291066066149303 -0.033383960737359789 0 0.00093987572093985031 -0.033217923301192012 0 0.00054885403646031934 -0.034512298778874198 0 0.00043383258052534225 -0.03465121590181057 0 0.00055700143202352199 -0.034787268964705617 0 0.00043383258052534225 -0.03465121590181057 0 0.00032592194620545563 -0.034607842610885162 0 0.00033875971262843977 -0.034809182986086984 0 0.00032592194620545563 -0.034607842610885162 0 0.00033875971262843977 -0.034809182986086984 0 0.00019013672121334578 -0.034689562245822932 0 0.00041611994054286067 -0.034505010245328961 0 0.00043383258052534225 -0.03465121590181057 0 0.00032592194620545563 -0.034607842610885162 0 0.00036171136260569934 -0.034444911327275618 0 0.00041611994054286067 -0.034505010245328961 0 0.00032592194620545563 -0.034607842610885162 0 0.00024115340495519199 -0.034287254378994034 0 -0.00011836448243752392 -0.033977454839232243 0 0.00023333417810535823 -0.034057402431799291 0 -0.00012373223569705707 -0.021404823679692004 0 0.00024932485673388629 -0.022120575463581316 0 0.00052419922477745982 -0.021421823977331167 0 0.00038758704877917894 -0.0277034002227627 0 0.00040588412382482606 -0.027537154791892077 0 -0.00011836448243752392 -0.033977454839232243 0 0.00023333417810535823 -0.034057402431799291 0 8.8432677649534912e-05 -0.033824092564991991 0 0.00024115340495519199 -0.034287254378994034 0 0.00023333417810535823 -0.034057402431799291 0 0.00040216289575694346 -0.034233562962883379 0 0.00023333417810535823 -0.034057402431799291 0 0.00040216289575694346 -0.034233562962883379 0 0.00041455667272466748 -0.034072334592533775 0 0.00059666804764656385 -0.033968201540660901 0 0.0003206246966035281 -0.033761269397568475 0 0.00038506211961039665 -0.033323348575035626 0 0.0011291066066149303 -0.033383960737359789 0 0.0011141066251327632 -0.032256985973583882 0 0.00023333417810535823 -0.034057402431799291 0 0.00041455667272466748 -0.034072334592533775 0 0.0003206246966035281 -0.033761269397568475 0 0.00059666804764656385 -0.033968201540660901 0 0.00041455667272466748 -0.034072334592533775 0 0.0003206246966035281 -0.033761269397568475 0 0.00023333417810535823 -0.034057402431799291 0 0.0003206246966035281 -0.033761269397568475 0 8.8432677649534912e-05 -0.033824092564991991 0 0.0003206246966035281 -0.033761269397568475 0 8.8432677649534912e-05 -0.033824092564991991 0 -8.8722577391886387e-05 -0.033487701057542806 0 -0.00011836448243752392 -0.033977454839232243 0 -8.8722577391886387e-05 -0.033487701057542806 0 -0.00044002664039483866 -0.033461503824764233 0 -0.00011836448243752392 -0.033977454839232243 0 8.8432677649534912e-05 -0.033824092564991991 0 -8.8722577391886387e-05 -0.033487701057542806 0 -8.8722577391886387e-05 -0.033487701057542806 0 1.3849838235427271e-05 -0.033127487833722449 0 0.00038506211961039665 -0.033323348575035626 0 -8.8722577391886387e-05 -0.033487701057542806 0 1.3849838235427271e-05 -0.033127487833722449 0 -0.0003007234107313964 -0.033068671499735448 0 0.0003206246966035281 -0.033761269397568475 0 -8.8722577391886387e-05 -0.033487701057542806 0 0.00038506211961039665 -0.033323348575035626 0 0.0011141066251327632 -0.032256985973583882 0 0.00098132853520381145 -0.030233646259851064 0 0.0011121129785230241 -0.032276339050494027 0 0.0013368973139636373 -0.031457175356100375 0 0.00065291777404402607 -0.031463461169540755 0 0.0011121129785230241 -0.032276339050494027 0 0.0013368973139636373 -0.031457175356100375 0 0.00145524414839916 -0.032272624642142131 0 0.00064103189803917169 -0.032362954744769787 0 0.00098132853520381145 -0.030233646259851064 0 5.3284071160702493e-05 -0.032619320708071331 0 -0.0003007234107313964 -0.033068671499735448 0 -0.00046860760835790508 -0.032606192112113061 0 1.3849838235427271e-05 -0.033127487833722449 0 5.3284071160702493e-05 -0.032619320708071331 0 -0.0003007234107313964 -0.033068671499735448 0 0.00098132853520381145 -0.030233646259851064 0 0.00056481928866389003 -0.028403247795593927 0 1.3849838235427271e-05 -0.033127487833722449 0 0.00038506211961039665 -0.033323348575035626 0 5.3284071160702493e-05 -0.032619320708071331 0 0.0015725822252520489 -0.033090756703332766 0 0.0011121129785230241 -0.032276339050494027 0 0.00145524414839916 -0.032272624642142131 0 0.00043383258052534225 -0.03465121590181057 0 0.00033875971262843977 -0.034809182986086984 0 0.00055700143202352199 -0.034787268964705617 0 0.00058263422560448437 -0.035005904876301917 0 0.00033875971262843977 -0.034809182986086984 0 0.00055700143202352199 -0.034787268964705617 0 0.00064103189803917169 -0.032362954744769787 0 0.00093987572093985031 -0.033217923301192012 0 0.00058263422560448437 -0.035005904876301917 0 0.00033875971262843977 -0.034809182986086984 0 0.00027651535786640564 -0.035009607310396547 0 0.00033875971262843977 -0.034809182986086984 0 0.00017260368175367561 -0.034841013515684249 0 0.00027651535786640564 -0.035009607310396547 0 0.00017260368175367561 -0.034841013515684249 0 3.0822054907549894e-06 -0.035008339038907654 0 0.00027651535786640564 -0.035009607310396547 0 0.00033875971262843977 -0.034809182986086984 0 0.00017260368175367561 -0.034841013515684249 0 0.00019013672121334578 -0.034689562245822932 0 0.00017260368175367561 -0.034841013515684249 0 7.7731398495518408e-05 -0.03474995079568826 0 0.00019013672121334578 -0.034689562245822932 0 4.5606769137174364e-05 -0.034834870699291531 0 -2.2401766836816663e-05 -0.034941109401267566 0 -2.317569518549913e-05 -0.034811969280573972 0 9.5261255093003353e-06 -0.034988871006401211 0 7.599649014916273e-06 -0.034994858747474038 0 1.3649392166614563e-06 -0.034994984049765553 0 7.438301521682076e-05 -0.034853085449208093 0 4.1367621717751309e-06 -0.034947642095019195 0 7.438301521682076e-05 -0.034853085449208093 0 7.4404739292754796e-05 -0.03485267741052666 0 7.438301521682076e-05 -0.034853085449208093 0 8.1239104889650797e-05 -0.034793650203800298 0 0.00017260368175367561 -0.034841013515684249 0 7.7731398495518408e-05 -0.03474995079568826 0 4.0197772693010421e-05 -0.034876153266484348 0 0.00017260368175367561 -0.034841013515684249 0 4.0197772693010421e-05 -0.034876153266484348 0 3.0822054907549894e-06 -0.035008339038907654 0 8.1239104889650797e-05 -0.034793650203800298 0 0.00012618071205060125 -0.034607365094518103 0 7.599649014916273e-06 -0.034994858747474038 0 3.6278311429341333e-06 -0.034996720347235687 0 5.8470297040969093e-06 -0.03499930754881532 0 3.6278311429341333e-06 -0.034996720347235687 0 1.3649392166614563e-06 -0.034994984049765553 0 1.0151542672274356e-06 -0.034999191043367683 0 1.3649392166614563e-06 -0.034994984049765553 0 2.9350298990612029e-07 -0.034999573823801103 0 1.0151542672274356e-06 -0.034999191043367683 0 3.6278311429341333e-06 -0.034996720347235687 0 1.0151542672274356e-06 -0.034999191043367683 0 5.8470297040969093e-06 -0.03499930754881532 0 7.599649014916273e-06 -0.034994858747474038 0 3.6278311429341333e-06 -0.034996720347235687 0 1.3649392166614563e-06 -0.034994984049765553 0 -3.5790446255471974e-08 -0.034999917915453531 0 4.1367621717751309e-06 -0.034947642095019195 0 -3.2367246141715248e-09 -0.03499999549551458 0 1.3649392166614563e-06 -0.034994984049765553 0 2.9350298990612029e-07 -0.034999573823801103 0 5.7593185759146213e-08 -0.034999985004293695 0 -2.2401766836816663e-05 -0.034941109401267566 0 -1.4343863903921798e-07 -0.034999850572604845 0 -2.2401766836816663e-05 -0.034941109401267566 0 -2.317569518549913e-05 -0.034811969280573972 0 -1.4343863903921798e-07 -0.034999850572604845 0 -2.317569518549913e-05 -0.034811969280573972 0 -1.4343863903921798e-07 -0.034999850572604845 0 -6.6692775675535214e-05 -0.034749098693336353 0 1.079567590466541e-08 -0.034999124265466579 0 -1.4343863903921798e-07 -0.034999850572604845 0 -6.6692775675535214e-05 -0.034749098693336353 0 -2.317569518549913e-05 -0.034811969280573972 0 -6.6692775675535214e-05 -0.034749098693336353 0 -6.5876327622601695e-09 -0.03462110990031373 0 -8.5206042607481478e-05 -0.034185859139141753 0 -6.6692775675535214e-05 -0.034749098693336353 0 -6.5876327622601695e-09 -0.03462110990031373 0 -8.5206042607481478e-05 -0.034185859139141753 0 -6.5876327622601695e-09 -0.03462110990031373 0 0.00019051525035739358 -0.034534441006854856 0 -6.5876327622601695e-09 -0.03462110990031373 0 0.00019051525035739358 -0.034534441006854856 0 7.5271600179958146e-05 -0.034694099372548699 0 0.00019051525035739358 -0.034534441006854856 0 0.00019013672121334578 -0.034689562245822932 0 7.5271600179958146e-05 -0.034694099372548699 0 0.00032592194620545563 -0.034607842610885162 0 0.00019051525035739358 -0.034534441006854856 0 0.00019013672121334578 -0.034689562245822932 0 4.7219861206337123e-05 -0.034847693520633813 0 0.00019013672121334578 -0.034689562245822932 0 5.2966799599735396e-05 -0.034810946722934846 0 0.00019013672121334578 -0.034689562245822932 0 5.2966799599735396e-05 -0.034810946722934846 0 7.5271600179958146e-05 -0.034694099372548699 0 7.438301521682076e-05 -0.034853085449208093 0 9.8479544136792323e-05 -0.034831592175787233 0 -2.317569518549913e-05 -0.034811969280573972 0 5.2966799599735396e-05 -0.034810946722934846 0 7.5271600179958146e-05 -0.034694099372548699 0 4.5606769137174364e-05 -0.034834870699291531 0 -2.317569518549913e-05 -0.034811969280573972 0 5.2966799599735396e-05 -0.034810946722934846 0 -2.317569518549913e-05 -0.034811969280573972 0 -6.5876327622601695e-09 -0.03462110990031373 0 7.5271600179958146e-05 -0.034694099372548699 0 0.0010104617289333679 -0.018074063253568969 0 0.00140158820351141 -0.017341093618678239 0 0.00052543857539359164 -0.017512234591585726 0 0.00061587194449956736 -0.016927247485669115 0 0.00033914410119955231 -0.017317912947265091 0 -0.00010889846206652408 -0.019631724804634897 0 0.00017719008378074913 -0.019578840430554127 0 0.00011152939124341722 -0.019727954473113058 0 -0.00010889846206652408 -0.019631724804634897 0 -5.6742374570308411e-05 -0.01968001073649784 0 0.00011152939124341722 -0.019727954473113058 0 -0.00010889846206652408 -0.019631724804634897 0 -6.9929036693465677e-05 -0.019580812238672446 0 -5.6742374570308411e-05 -0.01968001073649784 0 -0.00010889846206652408 -0.019631724804634897 0 -9.7597659499203587e-05 -0.019334391097841915 0 -0.00017571932090583046 -0.019680664360894495 0 -0.00010889846206652408 -0.019631724804634897 0 -9.7597659499203587e-05 -0.019334391097841915 0 0.00017719008378074913 -0.019578840430554127 0 0.0010104617289333679 -0.018074063253568969 0 0.00087737279278955228 -0.018206218643082465 0 -9.7597659499203587e-05 -0.019334391097841915 0 0.00017719008378074913 -0.019578840430554127 0 0.00015968947046847689 -0.018501866264086186 0 0.00052543857539359164 -0.017512234591585726 0 0.00015968947046847689 -0.018501866264086186 0 5.1246592897536802e-05 -0.017791152523049605 0 0.00015968947046847689 -0.018501866264086186 0 -3.7593076932366981e-07 -0.017968589254344941 0 -0.00011505525504594631 -0.019268768949469234 0 0.00015968947046847689 -0.018501866264086186 0 -3.7593076932366981e-07 -0.017968589254344941 0 -1.9937574928585458e-05 -0.017560821524350734 0 -3.7593076932366981e-07 -0.017968589254344941 0 -0.00011505525504594631 -0.019268768949469234 0 -3.5781961723585786e-07 -0.01988947446738238 0 -9.7597659499203587e-05 -0.019334391097841915 0 0.00015968947046847689 -0.018501866264086186 0 -0.00011505525504594631 -0.019268768949469234 0 -9.7597659499203587e-05 -0.019334391097841915 0 -0.00011505525504594631 -0.019268768949469234 0 -0.00017571932090583046 -0.019680664360894495 0 -0.00017571932090583046 -0.019680664360894495 0 -7.5672124732133452e-05 -0.020276475015886374 0 -2.5727595605817412e-05 -0.020172691808148745 0 -0.00011505525504594631 -0.019268768949469234 0 -0.00017571932090583046 -0.019680664360894495 0 -7.5672124732133452e-05 -0.020276475015886374 0 -3.5781961723585786e-07 -0.01988947446738238 0 -7.5672124732133452e-05 -0.020276475015886374 0 4.4920975555104824e-07 -0.021809986458399346 0 -0.00011505525504594631 -0.019268768949469234 0 -3.5781961723585786e-07 -0.01988947446738238 0 -7.5672124732133452e-05 -0.020276475015886374 0 -7.5672124732133452e-05 -0.020276475015886374 0 4.4920975555104824e-07 -0.021809986458399346 0 0.00014348489279036533 -0.021055927978837964 0 0.00014348489279036533 -0.021055927978837964 0 -2.5727595605817412e-05 -0.020172691808148745 0 0.00053045962787830615 -0.020419447777288484 0 -7.5672124732133452e-05 -0.020276475015886374 0 0.00014348489279036533 -0.021055927978837964 0 -2.5727595605817412e-05 -0.020172691808148745 0 -2.5727595605817412e-05 -0.020172691808148745 0 0.00024481569378377794 -0.019962058878819678 0 0.00053045962787830615 -0.020419447777288484 0 0.00024481569378377794 -0.019962058878819678 0 0.00017202706267579421 -0.019647927836720425 0 0.00046935287240117921 -0.019777694632518349 0 0.00024481569378377794 -0.019962058878819678 0 -7.9919561116184826e-05 -0.019753748134542885 0 0.00017202706267579421 -0.019647927836720425 0 -2.5727595605817412e-05 -0.020172691808148745 0 0.00024481569378377794 -0.019962058878819678 0 -7.9919561116184826e-05 -0.019753748134542885 0 -0.00010889846206652408 -0.019631724804634897 0 -0.00017571932090583046 -0.019680664360894495 0 -7.9919561116184826e-05 -0.019753748134542885 0 -0.00017571932090583046 -0.019680664360894495 0 -2.5727595605817412e-05 -0.020172691808148745 0 -7.9919561116184826e-05 -0.019753748134542885 0 -0.00010889846206652408 -0.019631724804634897 0 -7.9919561116184826e-05 -0.019753748134542885 0 -6.9929036693465677e-05 -0.019580812238672446 0 -7.9919561116184826e-05 -0.019753748134542885 0 -6.9929036693465677e-05 -0.019580812238672446 0 0.00017202706267579421 -0.019647927836720425 0 -6.9929036693465677e-05 -0.019580812238672446 0 0.00017202706267579421 -0.019647927836720425 0 0.00021382876653664563 -0.01937372701569046 0 0.00017202706267579421 -0.019647927836720425 0 0.00057992836639898066 -0.019459986291332682 0 0.00021382876653664563 -0.01937372701569046 0 0.00017202706267579421 -0.019647927836720425 0 0.00046935287240117921 -0.019777694632518349 0 0.00057992836639898066 -0.019459986291332682 0 0.0011361522223158347 -0.01942549473792687 0 0.0011154835596384599 -0.019507302598264439 0 0.00060762947455329905 -0.01929434694340932 0 0.0012316635209086027 -0.019252526331976345 0 0.00088521550449596656 -0.019919888224129923 0 0.00046935287240117921 -0.019777694632518349 0 0.00057992836639898066 -0.019459986291332682 0 0.00088521550449596656 -0.019919888224129923 0 0.0010447079085630162 -0.020642290354520094 0 0.0010095417980766409 -0.0205676374880455 0 0.00099118689773886569 -0.020402129046916281 0 0.0014054811199095583 -0.020485326683155496 0 0.0012830517304684768 -0.02054900792590849 0 0.0010447079085630162 -0.020642290354520094 0 0.0010095417980766409 -0.0205676374880455 0 0.00094778607361744216 -0.02057949980290211 0 0.0010095417980766409 -0.0205676374880455 0 0.00099118689773886569 -0.020402129046916281 0 0.00099858527401066742 -0.020455731098533426 0 0.0014054811199095583 -0.020485326683155496 0 0.001309368366957207 -0.020373760465300733 0 0.0012316635209086027 -0.019252526331976345 0 0.00099118689773886569 -0.020402129046916281 0 0.00088521550449596656 -0.019919888224129923 0 0.0010095417980766409 -0.0205676374880455 0 0.00099315823783066083 -0.020508041115331315 0 0.00096483757661767089 -0.020540445633387975 0 0.0010095417980766409 -0.0205676374880455 0 0.00099315823783066083 -0.020508041115331315 0 0.00099858527401066742 -0.020455731098533426 0 0.00099315823783066083 -0.020508041115331315 0 0.00099795832533372065 -0.020481123884064711 0 0.00096483757661767089 -0.020540445633387975 0 0.00099315823783066083 -0.020508041115331315 0 0.00099795832533372065 -0.020481123884064711 0 0.00099858527401066742 -0.020455731098533426 0 0.00099118689773886569 -0.020402129046916281 0 0.00061448271546286177 -0.020087084294355129 0 0.00053045962787830615 -0.020419447777288484 0 0.00099118689773886569 -0.020402129046916281 0 0.00088521550449596656 -0.019919888224129923 0 0.00061448271546286177 -0.020087084294355129 0 0.00024481569378377794 -0.019962058878819678 0 0.00046935287240117921 -0.019777694632518349 0 0.00061448271546286177 -0.020087084294355129 0 0.00046935287240117921 -0.019777694632518349 0 0.00088521550449596656 -0.019919888224129923 0 0.00061448271546286177 -0.020087084294355129 0 0.00024481569378377794 -0.019962058878819678 0 0.00061448271546286177 -0.020087084294355129 0 0.00053045962787830615 -0.020419447777288484 0 0.00014348489279036533 -0.021055927978837964 0 0.00053045962787830615 -0.020419447777288484 0 0.00103979804357054 -0.020544014171101958 0 -4.1568975117389042e-05 -0.02280398967731153 0 0.00011076686263039175 -0.023110681366850277 0 0.00014348489279036533 -0.021055927978837964 0 0.00010487697119905617 -0.022353292803790368 0 8.0080288750557447e-05 -0.023471690609642534 0 0.00099118689773886569 -0.020402129046916281 0 0.00053045962787830615 -0.020419447777288484 0 0.00103979804357054 -0.020544014171101958 0 4.4920975555104824e-07 -0.021809986458399346 0 -3.6711272016516062e-08 -0.023730885218743451 0 5.5832534153783139e-05 -0.023106678662549483 0 4.4920975555104824e-07 -0.021809986458399346 0 0.00010487697119905617 -0.022353292803790368 0 5.5832534153783139e-05 -0.023106678662549483 0 4.4920975555104824e-07 -0.021809986458399346 0 0.00014348489279036533 -0.021055927978837964 0 0.00010487697119905617 -0.022353292803790368 0 0.00010487697119905617 -0.022353292803790368 0 5.5832534153783139e-05 -0.023106678662549483 0 8.0080288750557447e-05 -0.023471690609642534 0 5.5832534153783139e-05 -0.023106678662549483 0 8.0080288750557447e-05 -0.023471690609642534 0 -6.7642757512482822e-05 -0.024423205672443448 0 -3.6711272016516062e-08 -0.023730885218743451 0 5.5832534153783139e-05 -0.023106678662549483 0 -6.7642757512482822e-05 -0.024423205672443448 0 0.00011076686263039175 -0.023110681366850277 0 0.00025773843886717495 -0.023951157560537024 0 8.0080288750557447e-05 -0.023471690609642534 0 -0.00011480634002522564 -0.025019627986841899 0 -6.7642757512482822e-05 -0.024423205672443448 0 0.00099795832533372065 -0.020481123884064711 0 0.00103979804357054 -0.020544014171101958 0 0.00096048525855522212 -0.020433876547790209 0 0.00099118689773886569 -0.020402129046916281 0 0.00099858527401066742 -0.020455731098533426 0 0.00103979804357054 -0.020544014171101958 0 0.00099795832533372065 -0.020481123884064711 0 0.00099858527401066742 -0.020455731098533426 0 0.00103979804357054 -0.020544014171101958 0 -0.00011480634002522564 -0.025019627986841899 0 -6.7642757512482822e-05 -0.024423205672443448 0 -0.00016702097926038365 -0.025782281440861012 0 -3.6711272016516062e-08 -0.023730885218743451 0 -6.7642757512482822e-05 -0.024423205672443448 0 -2.5386171621752616e-07 -0.025651174197515461 0 -6.7642757512482822e-05 -0.024423205672443448 0 -2.5386171621752616e-07 -0.025651174197515461 0 -0.00016702097926038365 -0.025782281440861012 0 -0.00020526378380805645 -0.026004922003091156 0 -0.00011480634002522564 -0.025019627986841899 0 -0.00016702097926038365 -0.025782281440861012 0 0.00036921070861008253 -0.025414668528062755 0 0.00025773843886717495 -0.023951157560537024 0 0.00036172621358402513 -0.020508860678077785 0 0.00039769179631159212 -0.02096791008080956 0 0.00077370399280067624 -0.020631707016811423 0 0.00036172621358402513 -0.020508860678077785 0 0.00096048525855522212 -0.020433876547790209 0 0.00077370399280067624 -0.020631707016811423 0 0.00039769179631159212 -0.02096791008080956 0 0.00077370399280067624 -0.020631707016811423 0 0.00077750078764512239 -0.021044392442188465 0 0.00096048525855522212 -0.020433876547790209 0 0.00077370399280067624 -0.020631707016811423 0 0.00093125327406177235 -0.020547208142130142 0 0.00099795832533372065 -0.020481123884064711 0 0.00096048525855522212 -0.020433876547790209 0 0.00093125327406177235 -0.020547208142130142 0 0.00099795832533372065 -0.020481123884064711 0 0.00093125327406177235 -0.020547208142130142 0 0.00096483757661767089 -0.020540445633387975 0 0.00093125327406177235 -0.020547208142130142 0 0.00096483757661767089 -0.020540445633387975 0 0.00094778607361744216 -0.02057949980290211 0 0.00077370399280067624 -0.020631707016811423 0 0.0013252033759745755 -0.021082905905924876 0 0.00077750078764512239 -0.021044392442188465 0 0.00077370399280067624 -0.020631707016811423 0 0.00093125327406177235 -0.020547208142130142 0 0.00094778607361744216 -0.02057949980290211 0 0.0011836122816363448 -0.020520525717419757 0 0.0012830517304684768 -0.02054900792590849 0 0.0013252033759745755 -0.021082905905924876 0 0.00099853644349429376 -0.021295481519820563 0 0.00077750078764512239 -0.021044392442188465 0 0.0010095417980766409 -0.0205676374880455 0 0.00096483757661767089 -0.020540445633387975 0 0.00094778607361744216 -0.02057949980290211 0 0.0013252033759745755 -0.021082905905924876 0 0.00138362614844533 -0.021322819965821665 0 0.00099853644349429376 -0.021295481519820563 0 0.0017872367933039303 -0.021484501605097656 0 0.0013252033759745755 -0.021082905905924876 0 0.00138362614844533 -0.021322819965821665 0 0.00138362614844533 -0.021322819965821665 0 0.0011438834875695492 -0.021543416177226646 0 0.0012673565234113942 -0.021816365703233465 0 0.00138362614844533 -0.021322819965821665 0 0.0011438834875695492 -0.021543416177226646 0 0.00099853644349429376 -0.021295481519820563 0 0.0011438834875695492 -0.021543416177226646 0 0.00099853644349429376 -0.021295481519820563 0 0.00082413691674189382 -0.021762337489244488 0 0.00099853644349429376 -0.021295481519820563 0 0.00052419922477745982 -0.021421823977331167 0 0.00082413691674189382 -0.021762337489244488 0 0.00039769179631159212 -0.02096791008080956 0 0.00052419922477745982 -0.021421823977331167 0 0.00077750078764512239 -0.021044392442188465 0 0.00099853644349429376 -0.021295481519820563 0 0.00052419922477745982 -0.021421823977331167 0 0.00077750078764512239 -0.021044392442188465 0 0.00024932485673388629 -0.022120575463581316 0 0.00052419922477745982 -0.021421823977331167 0 0.00082413691674189382 -0.021762337489244488 0 0.00024932485673388629 -0.022120575463581316 0 0.00082413691674189382 -0.021762337489244488 0 0.00077418071644366944 -0.022284106583994587 0 0.00082413691674189382 -0.021762337489244488 0 0.0011145891258839454 -0.022154155329165266 0 0.00077418071644366944 -0.022284106583994587 0 0.00138362614844533 -0.021322819965821665 0 0.0012673565234113942 -0.021816365703233465 0 0.0017045877202238812 -0.022065562500275721 0 0.0011438834875695492 -0.021543416177226646 0 0.00082413691674189382 -0.021762337489244488 0 0.0012673565234113942 -0.021816365703233465 0 0.0012673565234113942 -0.021816365703233465 0 0.0014214048741806702 -0.022132825469282292 0 0.0011145891258839454 -0.022154155329165266 0 0.0012673565234113942 -0.021816365703233465 0 0.0014214048741806702 -0.022132825469282292 0 0.0017045877202238812 -0.022065562500275721 0 0.00082413691674189382 -0.021762337489244488 0 0.0012673565234113942 -0.021816365703233465 0 0.0011145891258839454 -0.022154155329165266 0 0.0011145891258839454 -0.022154155329165266 0 0.0010613477929771573 -0.022516663126878 0 0.00077418071644366944 -0.022284106583994587 0 0.0010613477929771573 -0.022516663126878 0 0.00064607288247644926 -0.022848179817829366 0 0.0015127764134082919 -0.02286429225101089 0 0.0011145891258839454 -0.022154155329165266 0 0.0013705792694899293 -0.022339963152698813 0 0.0010613477929771573 -0.022516663126878 0 0.0014214048741806702 -0.022132825469282292 0 0.0011145891258839454 -0.022154155329165266 0 0.0013705792694899293 -0.022339963152698813 0 0.0014214048741806702 -0.022132825469282292 0 0.0013705792694899293 -0.022339963152698813 0 0.0016523931347926469 -0.022286944479481 0 0.0014621465891138596 -0.021430027238504248 0 0.0014736066344464096 -0.021407018286968203 0 0.0013705792694899293 -0.022339963152698813 0 0.0010613477929771573 -0.022516663126878 0 0.0015127764134082919 -0.02286429225101089 0 0.0013705792694899293 -0.022339963152698813 0 0.0015127764134082919 -0.02286429225101089 0 0.0016451981984283951 -0.022287661116499595 0 0.00024932485673388629 -0.022120575463581316 0 0.00077418071644366944 -0.022284106583994587 0 0.00064607288247644926 -0.022848179817829366 0 0.00040588412382482606 -0.027537154791892077 0 0.00036217594574714938 -0.026793807045010252 0 0.0010613477929771573 -0.022516663126878 0 0.00077418071644366944 -0.022284106583994587 0 0.00064607288247644926 -0.022848179817829366 0 0.0002454451699034064 -0.027284957439238058 0 0.00036217594574714938 -0.026793807045010252 0 -8.8722577391886387e-05 -0.033487701057542806 0 -0.00052316542207820292 -0.033463021795382047 0 -0.0003007234107313964 -0.033068671499735448 0 0.00036217594574714938 -0.026793807045010252 0 0.00068731960193807115 -0.027154254687285651 0 -0.00052316542207820292 -0.033463021795382047 0 -0.0003007234107313964 -0.033068671499735448 0 -0.00076125288545808361 -0.03303354110442288 0 -0.0003007234107313964 -0.033068671499735448 0 -0.00076125288545808361 -0.03303354110442288 0 -0.00046860760835790508 -0.032606192112113061 0 0.00056481928866389003 -0.028403247795593927 0 0.00065886934565168997 -0.026107483954702988 0 -0.00076125288545808361 -0.03303354110442288 0 -0.00046860760835790508 -0.032606192112113061 0 -0.00099749235808645502 -0.032593738074556226 0 0.00043613117609869192 -0.025662277191374112 0 0.00033951776098802559 -0.02552229592020664 0 0.00027834394114903247 -0.025791577384918291 0 0.0016277706074721728 -0.023137939595315925 0 0.0016121832782549632 -0.023207952616649239 0 0.0015936893861917838 -0.023167377189545143 0 0.000726193265887336 -0.025782521949685951 0 0.001299440935640067 -0.023412490942049252 0 0.00048496963744555801 -0.024837816233970657 0 0.00078729955750458892 -0.024832182963456965 0 0.00046747536325298202 -0.024911840753152757 0 0.000726193265887336 -0.025782521949685951 0 0.0011760204345268009 -0.024409238887659924 0 -0.00017422870795470778 -0.026422257537863914 0 2.4154087227578116e-05 -0.026419523788322151 0 -0.00011567883028506122 -0.026169776365740853 0 0.000726193265887336 -0.025782521949685951 0 0.00065886934565168997 -0.026107483954702988 0 0.00043613117609869192 -0.025662277191374112 0 0.00033951776098802559 -0.02552229592020664 0 0.00035580759189875785 -0.025522293099855948 0 0.00068731960193807115 -0.027154254687285651 0 0.00065886934565168997 -0.026107483954702988 0 0.00036217594574714938 -0.026793807045010252 0 0.001299440935640067 -0.023412490942049252 0 0.00051615709219416262 -0.025804135855380089 0 0.00043613117609869192 -0.025662277191374112 0 0.00027834394114903247 -0.025791577384918291 0 0.001299440935640067 -0.023412490942049252 0 0.0017569341752846465 -0.021739698001793095 0 0.0015722090128088304 -0.023204414380277202 0 0.0015936893861917838 -0.023167377189545143 0 0.0015505773393499694 -0.023151968281739408 0 0.0016121832782549632 -0.023207952616649239 0 0.0015722090128088304 -0.023204414380277202 0 0.0015936893861917838 -0.023167377189545143 0 0.0011760204345268009 -0.024409238887659924 0 0.0019332558468278867 -0.020977636434152146 0 0.0015936893861917838 -0.023167377189545143 0 0.0016048613790633204 -0.023135599732729394 0 0.0015505773393499694 -0.023151968281739408 0 0.0011760204345268009 -0.024409238887659924 0 0.0019178624309145638 -0.021541423787015717 0 0.0016277706074721728 -0.023137939595315925 0 0.0015936893861917838 -0.023167377189545143 0 0.0016048613790633204 -0.023135599732729394 0 0.0013380653230745927 -0.022818378761043583 0 0.0022636144088923442 -0.022794502113768253 0 0.0021290218265153141 -0.022481143607269355 0 0.0020022421034935622 -0.019679976710121141 0 0.0019410851392803951 -0.019538281930832565 0 0.0023086791775314545 -0.01953646690230899 0 0.0019332558468278867 -0.020977636434152146 0 0.0019178624309145638 -0.021541423787015717 0 0.0018476407306088588 -0.020514087825423202 0 0.0018344356525044688 -0.020481802091367601 0 0.0017991615037151623 -0.020506455760559008 0 0.0017569341752846465 -0.021739698001793095 0 0.0019178624309145638 -0.021541423787015717 0 0.0017569341752846465 -0.021739698001793095 0 0.0018202884236590794 -0.019352555658971999 0 0.0018387338977515141 -0.020308382247283058 0 0.0017297590622368038 -0.020399030320853929 0 0.0015667710167502672 -0.020296244319708716 0 0.0017297590622368038 -0.020399030320853929 0 0.0019053528819540004 -0.020465376734999281 0 0.001711190817599213 -0.020498753725380403 0 0.00155842293271481 -0.021193144238337409 0 0.0014203557143325797 -0.019857412599794514 0 0.0017297590622368038 -0.020399030320853929 0 0.001711190817599213 -0.020498753725380403 0 0.0016263122082372599 -0.020425853737583335 0 0.0022898978679338319 -0.021825733357359919 0 0.0019411602630998019 -0.022604891022011055 0 0.0021157963867080216 -0.022572826473737668 0 0.0022898978679338319 -0.021825733357359919 0 0.0015979494219005106 -0.021805599887906667 0 0.0019411602630998019 -0.022604891022011055 0 0.0017569341752846465 -0.021739698001793095 0 0.00155842293271481 -0.021193144238337409 0 0.0018387338977515141 -0.020308382247283058 0 0.0017297590622368038 -0.020399030320853929 0 0.0019053528819540004 -0.020465376734999281 0 0.001299440935640067 -0.023412490942049252 0 0.0014736066344464096 -0.021407018286968203 0 0.0014736066344464096 -0.021407018286968203 0 0.0015031772687910945 -0.021197911185239039 0 0.00155842293271481 -0.021193144238337409 0 0.0015031772687910945 -0.021197911185239039 0 0.001520968869847995 -0.02102314443127427 0 0.0018497158789381977 -0.02096210251460575 0 0.0017248166028027252 -0.021499152958903076 0 0.00155842293271481 -0.021193144238337409 0 0.0014736066344464096 -0.021407018286968203 0 0.0017872367933039303 -0.021484501605097656 0 0.00138362614844533 -0.021322819965821665 0 0.0016685310949864649 -0.021983656335096111 0 0.0017243969960937162 -0.020629004912234534 0 0.001769473158487433 -0.020435512678450528 0 0.001472221697443868 -0.020414879824243701 0 0.0017401059401067856 -0.020367271839201843 0 0.001769473158487433 -0.020435512678450528 0 0.001472221697443868 -0.020414879824243701 0 0.0015418891973604779 -0.021353911026477268 0 0.0015031772687910945 -0.021197911185239039 0 0.0014214048741806702 -0.022132825469282292 0 0.0016523931347926469 -0.022286944479481 0 0.0017045877202238812 -0.022065562500275721 0 0.0014054811199095583 -0.020485326683155496 0 0.0015031772687910945 -0.021197911185239039 0 0.0014054811199095583 -0.020485326683155496 0 0.0014203557143325797 -0.019857412599794514 0 0.0011361522223158347 -0.01942549473792687 0 0.0013972937171008372 -0.019561161247203904 0 0.00060762947455329905 -0.01929434694340932 0 0.0012316635209086027 -0.019252526331976345 0 0.00051557696002699509 -0.018664408424458365 0 0.00060762947455329905 -0.01929434694340932 0 0.00051557696002699509 -0.018664408424458365 0 0.00033338220780096775 -0.018699035936987074 0 0.0014203557143325797 -0.019857412599794514 0 0.0013972937171008372 -0.019561161247203904 0 0.0013972937171008372 -0.019561161247203904 0 0.0013973282440758702 -0.018952243557423108 0 0.00057992836639898066 -0.019459986291332682 0 0.00038247465325023157 -0.019088397884134547 0 0.00021382876653664563 -0.01937372701569046 0 0.0014975953711388662 -0.019293850056878611 0 0.0014682480418583348 -0.019298507557346353 0 0.001490749416056297 -0.019278860516757337 0 0.00038247465325023157 -0.019088397884134547 0 0.00021382876653664563 -0.01937372701569046 0 -4.4308364141063673e-05 -0.019170728898998329 0 -6.9929036693465677e-05 -0.019580812238672446 0 0.00021382876653664563 -0.01937372701569046 0 -4.4308364141063673e-05 -0.019170728898998329 0 0.0013973282440758702 -0.018952243557423108 0 0.0011912655999662771 -0.018236483234560688 0 0.0017697816259498213 -0.017511140614171937 0 0.001871444965690437 -0.01760571032725481 0 0.0019574610848512616 -0.01747267628374579 0 0.0012704344581344999 -0.019130386653943066 0 0.0013973282440758702 -0.018952243557423108 0 -6.9929036693465677e-05 -0.019580812238672446 0 -8.0208147368104714e-05 -0.019636428910367924 0 -5.6742374570308411e-05 -0.01968001073649784 0 0.0017697816259498213 -0.017511140614171937 0 0.001871444965690437 -0.01760571032725481 0 0.0017519553699587556 -0.017709431044815888 0 0.0013973282440758702 -0.018952243557423108 0 0.00169138171287695 -0.019055534671539597 0 0.001871444965690437 -0.01760571032725481 0 0.0018611714431943697 -0.017699892442879093 0 0.0017519553699587556 -0.017709431044815888 0 0.0018062227366496164 -0.019190209532960623 0 0.0018303647611195091 -0.019240744326483223 0 0.0018477164584266334 -0.019224292013642074 0 0.0014682480418583348 -0.019298507557346353 0 0.001490749416056297 -0.019278860516757337 0 0.0014719047401541411 -0.019262444721391263 0 0.0015815465918980424 -0.019525074523244625 0 0.00169138171287695 -0.019055534671539597 0 0.0017297590622368038 -0.020399030320853929 0 0.0016263122082372599 -0.020425853737583335 0 0.0015667710167502672 -0.020296244319708716 0 0.0015815465918980424 -0.019525074523244625 0 0.0018202884236590794 -0.019352555658971999 0 0.0014203557143325797 -0.019857412599794514 0 0.0015815465918980424 -0.019525074523244625 0 0.0013972937171008372 -0.019561161247203904 0 0.0015815465918980424 -0.019525074523244625 0 0.0014349657901616903 -0.019757762618393352 0 0.0013918738414524436 -0.019765653133131354 0 0.0013577500978443416 -0.019692057339431027 0 0.0018344356525044688 -0.020481802091367601 0 0.0017991615037151623 -0.020506455760559008 0 0.0017933767940750234 -0.020493344888411372 0 0.0018303647611195091 -0.019240744326483223 0 0.0018462015767237794 -0.019241062720697727 0 0.0018477164584266334 -0.019224292013642074 0 0.0018202884236590794 -0.019352555658971999 0 0.0018352618232261445 -0.018964025659670345 0 0.0016066402232809908 -0.019283968629446389 0 0.0015350709777743833 -0.019132129558804504 0 0.0015206154250349039 -0.019281524464569846 0 0.0018202884236590794 -0.019352555658971999 0 0.0019139729928032774 -0.019203013984398158 0 0.0019139729928032774 -0.019203013984398158 0 0.0018352618232261445 -0.018964025659670345 0 0.0019332558468278867 -0.020977636434152146 0 0.0022162693909717895 -0.017842741843516769 0 0.0019178624309145638 -0.021541423787015717 0 0.0019139729928032774 -0.019203013984398158 0 0.0019410851392803951 -0.019538281930832565 0 0.0023767069462767303 -0.019353940936511119 0 0.0023086791775314545 -0.01953646690230899 0 0.0020022421034935622 -0.019679976710121141 0 0.0023086791775314545 -0.01953646690230899 0 0.002346141730301266 -0.01966883431992042 0 0.0023767069462767303 -0.019353940936511119 0 0.0023086791775314545 -0.01953646690230899 0 0.0023512424470680136 -0.019622319145297336 0 0.0019139729928032774 -0.019203013984398158 0 0.0022253536462207082 -0.017843837288994913 0 0.0022501461144772495 -0.017913128767217498 0 0.0022253536462207082 -0.017843837288994913 0 0.0023086791775314545 -0.01953646690230899 0 0.0023505068643537496 -0.019622843332656684 0 0.002346141730301266 -0.01966883431992042 0 0.0027536438027025208 -0.017307282050771006 0 0.0027179677869187354 -0.017678492478645957 0 0.0029310004869427496 -0.017675316590307945 0 0.0022253536462207082 -0.017843837288994913 0 0.002214475464098377 -0.017597089768636453 0 0.0022253536462207082 -0.017843837288994913 0 0.0022162693909717895 -0.017842741843516769 0 0.0022162693909717895 -0.017842741843516769 0 0.002214475464098377 -0.017597089768636453 0 0.0023035586035678804 -0.016644905900974866 0 0.0022970667830241676 -0.016649255742764772 0 0.0022929650926513103 -0.016644992320200395 0 0.002214475464098377 -0.017597089768636453 0 0.0024667935811322431 -0.014605179404353999 0 0.0023035586035678804 -0.016644905900974866 0 0.0022929650926513103 -0.016644992320200395 0 0.0022910860191320938 -0.016640047855608436 0 0.0023053664971240916 -0.016646705194339716 0 0.0023035586035678804 -0.016644905900974866 0 0.0023005282469959281 -0.01665180247939543 0 0.0023035586035678804 -0.016644905900974866 0 0.0023005282469959281 -0.01665180247939543 0 0.0022970667830241676 -0.016649255742764772 0 0.0023054095516406785 -0.016672945676968434 0 0.0023053664971240916 -0.016646705194339716 0 0.0023005282469959281 -0.01665180247939543 0 0.0019139729928032774 -0.019203013984398158 0 0.001822637497459011 -0.018852324660869675 0 0.0023084976009976983 -0.016659696291668569 0 0.0023005282469959281 -0.01665180247939543 0 0.0023005881515937216 -0.01665445221199419 0 0.0023005282469959281 -0.01665180247939543 0 0.0022970667830241676 -0.016649255742764772 0 0.0023005881515937216 -0.01665445221199419 0 0.0022970667830241676 -0.016649255742764772 0 0.0022948363282897393 -0.016648977504963993 0 0.0023005881515937216 -0.01665445221199419 0 0.0022948363282897393 -0.016648977504963993 0 0.0022900587216418519 -0.016644968919340801 0 0.0022929650926513103 -0.016644992320200395 0 0.0022970667830241676 -0.016649255742764772 0 0.0022948363282897393 -0.016648977504963993 0 0.0022929650926513103 -0.016644992320200395 0 0.0022971344261958084 -0.016656689765617315 0 0.0023095721328755207 -0.016667966982299397 0 0.0022872180769810809 -0.016667860028455498 0 0.0022948363282897393 -0.016648977504963993 0 0.0022971344261958084 -0.016656689765617315 0 0.0022900587216418519 -0.016644968919340801 0 0.0018352618232261445 -0.018964025659670345 0 0.0020725201838343466 -0.017192682702841574 0 0.0017482896577210995 -0.017752850219848747 0 0.0017854569237050564 -0.017737480744234022 0 0.0019250680590262843 -0.017750985380491746 0 0.0022948363282897393 -0.016648977504963993 0 0.0022971344261958084 -0.016656689765617315 0 0.0023005881515937216 -0.01665445221199419 0 0.0022971344261958084 -0.016656689765617315 0 0.0023005881515937216 -0.01665445221199419 0 0.0023095721328755207 -0.016667966982299397 0 0.0023084976009976983 -0.016659696291668569 0 0.0023005881515937216 -0.01665445221199419 0 0.0023095721328755207 -0.016667966982299397 0 0.0018611714431943697 -0.017699892442879093 0 0.0017854569237050564 -0.017737480744234022 0 0.0017519553699587556 -0.017709431044815888 0 0.0017482896577210995 -0.017752850219848747 0 0.0017854569237050564 -0.017737480744234022 0 0.0017525232791184781 -0.017712018265893113 0 0.0018352618232261445 -0.018964025659670345 0 0.00169138171287695 -0.019055534671539597 0 0.0016772507011100454 -0.01903188527759898 0 0.00169138171287695 -0.019055534671539597 0 0.0018611714431943697 -0.017699892442879093 0 0.0017854569237050564 -0.017737480744234022 0 0.0019250680590262843 -0.017750985380491746 0 0.0022900587216418519 -0.016644968919340801 0 0.0022576993710436482 -0.016556761929713931 0 0.0022095620291281812 -0.016667980030891198 0 0.0022872180769810809 -0.016667860028455498 0 0.0022900587216418519 -0.016644968919340801 0 0.0022095620291281812 -0.016667980030891198 0 0.0020725201838343466 -0.017192682702841574 0 0.0022731519309194949 -0.015415666726279482 0 0.0019250680590262843 -0.017750985380491746 0 0.0021018934143627959 -0.017750152557847499 0 0.0019951019166575329 -0.017634999854716737 0 0.0022971344261958084 -0.016656689765617315 0 0.0022872180769810809 -0.016667860028455498 0 0.0022900587216418519 -0.016644968919340801 0 0.0022900587216418519 -0.016644968919340801 0 0.0022576993710436482 -0.016556761929713931 0 0.0022785400750778995 -0.016555698185219021 0 0.0025373953283821353 -0.015324189039222173 0 0.0024667935811322431 -0.014605179404353999 0 0.0022900587216418519 -0.016644968919340801 0 0.0022929650926513103 -0.016644992320200395 0 0.0022910860191320938 -0.016640047855608436 0 0.0024122254798466152 -0.014125578183334625 0 0.0024667935811322431 -0.014605179404353999 0 0.0042808859977375114 -0.01090762052152928 0 0.0034318314693393016 -0.011450691736809083 0 0.0035219115092936654 -0.012465912520919192 0 0.0024122254798466152 -0.014125578183334625 0 0.0021315064398968273 -0.012607551176521016 0 0.0024122254798466152 -0.014125578183334625 0 0.0022731519309194949 -0.015415666726279482 0 0.0042808859977375114 -0.01090762052152928 0 0.0034318314693393016 -0.011450691736809083 0 0.0025592791139307488 -0.010903185688753409 0 0.0034318314693393016 -0.011450691736809083 0 0.0029174664525919171 -0.012007531810929404 0 0.0025592791139307488 -0.010903185688753409 0 0.0034318314693393016 -0.011450691736809083 0 0.0029174664525919171 -0.012007531810929404 0 0.0035219115092936654 -0.012465912520919192 0 0.0040874537612762829 -0.012556513833278856 0 0.0034412486146734411 -0.012739972720347626 0 0.0024342225305673468 -0.01250840993105753 0 0.0022731519309194949 -0.015415666726279482 0 0.0021488084288859228 -0.014542670981533766 0 0.0029174664525919171 -0.012007531810929404 0 0.0035219115092936654 -0.012465912520919192 0 0.0022872914869752543 -0.012454975096016523 0 0.0040874537612762829 -0.012556513833278856 0 0.0034412486146734411 -0.012739972720347626 0 0.0035171718327022682 -0.013733056775192447 0 0.0022731519309194949 -0.015415666726279482 0 0.0021008449679666098 -0.015675381056768727 0 0.0021018934143627959 -0.017750152557847499 0 0.0021623698699220072 -0.017626863659498955 0 0.0019951019166575329 -0.017634999854716737 0 0.0021623698699220072 -0.017626863659498955 0 0.0019951019166575329 -0.017634999854716737 0 0.0020652308497248429 -0.017542457637071324 0 0.0035538333094343546 -0.013689213758317885 0 0.0034273102959437272 -0.013958056696600378 0 0.0037426783210288504 -0.015580577948304654 0 0.0034412486146734411 -0.012739972720347626 0 0.0035428200169491824 -0.013696439940648165 0 0.0030593285561041437 -0.013239765317491358 0 0.0021409175537097079 -0.015241595273005205 0 0.0021008449679666098 -0.015675381056768727 0 0.0035428200169491824 -0.013696439940648165 0 0.0034273102959437272 -0.013958056696600378 0 0.0029519661917529454 -0.013907083702678949 0 0.0021008449679666098 -0.015675381056768727 0 0.0021189020601604428 -0.01564267565182853 0 0.001871444965690437 -0.01760571032725481 0 0.0019951019166575329 -0.017634999854716737 0 0.0019574610848512616 -0.01747267628374579 0 0.0018611714431943697 -0.017699892442879093 0 0.0019250680590262843 -0.017750985380491746 0 0.0019951019166575329 -0.017634999854716737 0 0.001871444965690437 -0.01760571032725481 0 0.0018611714431943697 -0.017699892442879093 0 0.0019951019166575329 -0.017634999854716737 0 0.0019951019166575329 -0.017634999854716737 0 0.0019574610848512616 -0.01747267628374579 0 0.0020652308497248429 -0.017542457637071324 0 0.0019574610848512616 -0.01747267628374579 0 0.0020652308497248429 -0.017542457637071324 0 0.0021454841190785266 -0.017435249662723546 0 0.0021008449679666098 -0.015675381056768727 0 0.00140158820351141 -0.017341093618678239 0 0.0011912655999662771 -0.018236483234560688 0 0.00140158820351141 -0.017341093618678239 0 0.0021623698699220072 -0.017626863659498955 0 0.0020652308497248429 -0.017542457637071324 0 0.0021454841190785266 -0.017435249662723546 0 0.0034273102959437272 -0.013958056696600378 0 0.0037426783210288504 -0.015580577948304654 0 0.0031929450559779579 -0.014557665298436655 0 0.0023300848703012435 -0.0089874671190101566 0 0.00261499737116526 -0.0092927828886463087 0 0.0022372727198492 -0.0087605484698209651 0 0.0023300848703012435 -0.0089874671190101566 0 0.002169142879829986 -0.0091059604363291496 0 0.0020335033596862932 -0.008809071685598335 0 0.0023300848703012435 -0.0089874671190101566 0 0.0021772852413398575 -0.0087898930758734343 0 0.0020335033596862932 -0.008809071685598335 0 0.0021772852413398575 -0.0087898930758734343 0 0.0020910246392779768 -0.0086061472584997249 0 0.0020335033596862932 -0.008809071685598335 0 0.0023300848703012435 -0.0089874671190101566 0 0.0021772852413398575 -0.0087898930758734343 0 0.0022372727198492 -0.0087605484698209651 0 0.0022881863173123962 -0.0089044631711834698 0 0.0023948700044507392 -0.0087462311098240372 0 0.0023061548819417249 -0.008636578783441538 0 0.0022360507038206739 -0.010381740514523717 0 0.002174354670963048 -0.0095130376209878534 0 0.0028760186166511149 -0.0097441013867373173 0 0.0022372727198492 -0.0087605484698209651 0 0.0022124378717087679 -0.0085392892719488335 0 0.0022881863173123962 -0.0089044631711834698 0 0.0023061548819417249 -0.008636578783441538 0 0.0022124378717087679 -0.0085392892719488335 0 0.0027785930429774356 -0.0097692489319810456 0 0.0028760186166511149 -0.0097441013867373173 0 0.0022372727198492 -0.0087605484698209651 0 0.0016394793185634795 -0.013708552265401949 0 0.0010653558263910858 -0.010783487260080174 0 0.0027785930429774356 -0.0097692489319810456 0 0.0024824437885127611 -0.01023442614619665 0 0.0022372727198492 -0.0087605484698209651 0 0.0028866178690356657 -0.0097480011299225268 0 0.0024824437885127611 -0.01023442614619665 0 0.0033861089991562782 -0.010716158446992929 0 0.0016394793185634795 -0.013708552265401949 0 0.0018749782092207564 -0.014304616407608437 0 0.0027785930429774356 -0.0097692489319810456 0 0.0028866178690356657 -0.0097480011299225268 0 0.0024824437885127611 -0.01023442614619665 0 0.0016499266167614535 -0.013700715205227499 0 0.0016394793185634795 -0.013708552265401949 0 0.00261499737116526 -0.0092927828886463087 0 0.0023586364533975776 -0.0091878732954316974 0 0.0023056142202137961 -0.0094096930299699243 0 0.0023300848703012435 -0.0089874671190101566 0 0.00261499737116526 -0.0092927828886463087 0 0.0023586364533975776 -0.0091878732954316974 0 0.0023300848703012435 -0.0089874671190101566 0 0.0023586364533975776 -0.0091878732954316974 0 0.002169142879829986 -0.0091059604363291496 0 0.0023586364533975776 -0.0091878732954316974 0 0.002169142879829986 -0.0091059604363291496 0 0.0023056142202137961 -0.0094096930299699243 0 0.002169142879829986 -0.0091059604363291496 0 0.0023056142202137961 -0.0094096930299699243 0 0.0019271043669103647 -0.0093669059278463987 0 0.00261499737116526 -0.0092927828886463087 0 0.0023056142202137961 -0.0094096930299699243 0 0.0024973404019607084 -0.0098384886635305563 0 0.0023056142202137961 -0.0094096930299699243 0 0.0021358284923731563 -0.0098812884917406415 0 0.0019271043669103647 -0.0093669059278463987 0 0.0023056142202137961 -0.0094096930299699243 0 0.0024973404019607084 -0.0098384886635305563 0 0.0021358284923731563 -0.0098812884917406415 0 0.0027997451921223837 -0.010514148052842441 0 0.0024618241022553891 -0.010224191136728143 0 0.0019729146496347476 -0.010585197394300612 0 0.0021358284923731563 -0.0098812884917406415 0 0.0024618241022553891 -0.010224191136728143 0 0.0019729146496347476 -0.010585197394300612 0 0.0024973404019607084 -0.0098384886635305563 0 0.0021358284923731563 -0.0098812884917406415 0 0.0024618241022553891 -0.010224191136728143 0 0.0024169620121959018 -0.013706582609338944 0 0.0018749782092207564 -0.014304616407608437 0 0.0023375528295947212 -0.01381190875103974 0 0.0015506120589156055 -0.013823332188586342 0 0.0017645124261593365 -0.014980876393006418 0 0.0024667935811322431 -0.014605179404353999 0 0.0024169620121959018 -0.013706582609338944 0 0.0027997451921223837 -0.010514148052842441 0 0.0024618241022553891 -0.010224191136728143 0 0.0029042719264865571 -0.01030517743117239 0 0.0024122254798466152 -0.014125578183334625 0 0.0024169620121959018 -0.013706582609338944 0 0.0024973404019607084 -0.0098384886635305563 0 0.0024618241022553891 -0.010224191136728143 0 0.0029042719264865571 -0.01030517743117239 0 0.00261499737116526 -0.0092927828886463087 0 0.0024973404019607084 -0.0098384886635305563 0 0.0029042719264865571 -0.01030517743117239 0 0.0024824437885127611 -0.01023442614619665 0 0.0027868173217035488 -0.011965244127698324 0 0.0033861089991562782 -0.010716158446992929 0 0.0022360507038206739 -0.010381740514523717 0 0.0024169620121959018 -0.013706582609338944 0 0.0020762500227548475 -0.015925310483318123 0 0.0025720607052374523 -0.016192110735079802 0 0.0022153148412138385 -0.015640627031341846 0 0.0018749782092207564 -0.014304616407608437 0 0.0018295950414197401 -0.014484043904509454 0 0.001887101190037706 -0.015481761289159597 0 0.0017058582891805096 -0.015428562031301354 0 0.0017826747021473471 -0.015262535850714753 0 0.002214475464098377 -0.017597089768636453 0 0.0018749782092207564 -0.014304616407608437 0 0.001887101190037706 -0.015481761289159597 0 0.0017156069561833653 -0.015477687110609942 0 0.0017058582891805096 -0.015428562031301354 0 0.0024759216022569035 -0.016757229048726081 0 0.0020762500227548475 -0.015925310483318123 0 0.0025720607052374523 -0.016192110735079802 0 0.0025210770203809882 -0.01675681669385299 0 0.0024759216022569035 -0.016757229048726081 0 0.0025720607052374523 -0.016192110735079802 0 0.0020079668720602126 -0.019503413480053418 0 0.0015435043061259386 -0.019505177429916806 0 0.0017048778641325581 -0.019296464664320726 0 0.0020079668720602126 -0.019503413480053418 0 0.0017048778641325581 -0.019296464664320726 0 0.0018173517938514124 -0.019056146277028924 0 0.0015435043061259386 -0.019505177429916806 0 0.0017048778641325581 -0.019296464664320726 0 0.0015839648871074634 -0.01905795566448578 0 0.0022162693909717895 -0.017842741843516769 0 0.0022096890928551571 -0.01780357811230817 0 0.0017048778641325581 -0.019296464664320726 0 0.0018173517938514124 -0.019056146277028924 0 0.0015839648871074634 -0.01905795566448578 0 0.0021533650040590521 -0.020109848146324254 0 0.0022248323642068001 -0.017990593899301969 0 0.0011459478919544396 -0.023372913119021406 0 0.00096782878690623224 -0.022988333567338665 0 0.0011855321693169595 -0.023112976795279412 0 0.0025720607052374523 -0.016192110735079802 0 0.002617912413320901 -0.015633336675548528 0 0.0022153148412138385 -0.015640627031341846 0 0.0018173517938514124 -0.019056146277028924 0 0.0015839648871074634 -0.01905795566448578 0 0.0016236468281131816 -0.018606439324998558 0 0.0022096890928551571 -0.01780357811230817 0 0.0022248323642068001 -0.017990593899301969 0 0.0011559600434648144 -0.022928995369976397 0 0.00096782878690623224 -0.022988333567338665 0 0.0011855321693169595 -0.023112976795279412 0 0.0011559600434648144 -0.022928995369976397 0 0.00096782878690623224 -0.022988333567338665 0 0.00099327055021738845 -0.022704150237743286 0 0.0011559600434648144 -0.022928995369976397 0 0.0011247238507465795 -0.02268088479354451 0 0.00099327055021738845 -0.022704150237743286 0 0.0022248323642068001 -0.017990593899301969 0 0.002120570314921218 -0.017582011425565088 0 0.0027663624818289115 -0.01674389438167458 0 0.0028994842919691497 -0.017054749306805377 0 0.0029299284841264326 -0.016713794413956914 0 0.0022487727207346265 -0.016169662761253211 0 0.0022248323642068001 -0.017990593899301969 0 0.0016394793185634795 -0.013708552265401949 0 0.0022487727207346265 -0.016169662761253211 0 0.0018407410876612304 -0.015409908426868377 0 0.0024678733028252451 -0.015294918657894637 0 0.0022153148412138385 -0.015640627031341846 0 0.0018407410876612304 -0.015409908426868377 0 0.0020835665082085141 -0.015906942283355627 0 0.0022153148412138385 -0.015640627031341846 0 0.0024678733028252451 -0.015294918657894637 0 0.002617912413320901 -0.015633336675548528 0 0.0022153148412138385 -0.015640627031341846 0 0.002560936218049115 -0.0088709193415788291 0 0.0023948700044507392 -0.0087462311098240372 0 0.0024770553187420238 -0.0086713298434856964 0 0.0022487727207346265 -0.016169662761253211 0 0.0015683914345287324 -0.013637569565510087 0 0.0022881863173123962 -0.0089044631711834698 0 0.002560936218049115 -0.0088709193415788291 0 0.0023948700044507392 -0.0087462311098240372 0 0.0023948700044507392 -0.0087462311098240372 0 0.0024770553187420238 -0.0086713298434856964 0 0.0023780219975454231 -0.0086186561767418318 0 0.0023948700044507392 -0.0087462311098240372 0 0.0023780219975454231 -0.0086186561767418318 0 0.0023061548819417249 -0.008636578783441538 0 0.00090291648906591442 -0.022632901727323091 0 0.0010083439257866308 -0.022758127352576034 0 0.0011881313440856613 -0.022503867886435602 0 0.0022306918778811405 -0.017299426867585732 0 0.0022986235357502173 -0.018663538435911595 0 0.0022986235357502173 -0.018663538435911595 0 0.002120570314921218 -0.017582011425565088 0 0.0019538458895989818 -0.018877828110127354 0 0.0013239219149088247 -0.018144445136527208 0 0.0020375299132588979 -0.018009691535172744 0 0.0019470252605935262 -0.016570950409600875 0 0.0013534596752276973 -0.015186332569450079 0 0.0025753971780892626 -0.015804623159182147 0 0.0022487727207346265 -0.016169662761253211 0 0.002120570314921218 -0.017582011425565088 0 0.0019470252605935262 -0.016570950409600875 0 0.0025753971780892626 -0.015804623159182147 0 0.0025126487011911777 -0.016465517664659327 0 0.0022306918778811405 -0.017299426867585732 0 0.002120570314921218 -0.017582011425565088 0 0.0010083439257866308 -0.022758127352576034 0 0.0011881313440856613 -0.022503867886435602 0 0.0014587816843050915 -0.022697037102366271 0 0.0022986235357502173 -0.018663538435911595 0 0.0015881749857934483 -0.023110067371694017 0 0.0015881749857934483 -0.023110067371694017 0 0.00093464099625696184 -0.027712332146781753 0 0.0015426278200444633 -0.022772366671068731 0 0.001779688678878911 -0.023162157986560485 0 0.0019073915734443619 -0.022720298967500979 0 0.0015426278200444633 -0.022772366671068731 0 0.0014656517671864295 -0.023157926215209106 0 0.001779688678878911 -0.023162157986560485 0 0.0011559600434648144 -0.022928995369976397 0 0.0011247238507465795 -0.02268088479354451 0 0.0014656517671864295 -0.023157926215209106 0 0.0022986235357502173 -0.018663538435911595 0 0.0027879727798946633 -0.02052989897970104 0 0.0011976175281580481 -0.022822620321723896 0 0.0015426278200444633 -0.022772366671068731 0 0.0014656517671864295 -0.023157926215209106 0 0.0011559600434648144 -0.022928995369976397 0 0.0011855321693169595 -0.023112976795279412 0 0.0014656517671864295 -0.023157926215209106 0 0.0011459478919544396 -0.023372913119021406 0 0.0011855321693169595 -0.023112976795279412 0 0.0014656517671864295 -0.023157926215209106 0 0.0011459478919544396 -0.023372913119021406 0 0.0014656517671864295 -0.023157926215209106 0 0.0015674315236907774 -0.023346395093225621 0 0.0019332558468278867 -0.020977636434152146 0 0.0021533650040590521 -0.020109848146324254 0 0.0012962945785423546 -0.023710075277135104 0 0.0011459478919544396 -0.023372913119021406 0 0.0015064455565506985 -0.023548437035751352 0 0.0011459478919544396 -0.023372913119021406 0 0.0015064455565506985 -0.023548437035751352 0 0.0015674315236907774 -0.023346395093225621 0 0.0017150762531709736 -0.023710019629398459 0 0.0012962945785423546 -0.023710075277135104 0 0.0015064455565506985 -0.023548437035751352 0 0.0017150762531709736 -0.023710019629398459 0 0.0017338127479819682 -0.023583776340416775 0 0.0015064455565506985 -0.023548437035751352 0 0.0015064455565506985 -0.023548437035751352 0 0.0017429001485063129 -0.023449528740779373 0 0.0015674315236907774 -0.023346395093225621 0 0.0017338127479819682 -0.023583776340416775 0 0.0015064455565506985 -0.023548437035751352 0 0.0017429001485063129 -0.023449528740779373 0 0.0014656517671864295 -0.023157926215209106 0 0.0015674315236907774 -0.023346395093225621 0 0.001779688678878911 -0.023162157986560485 0 0.0017429001485063129 -0.023449528740779373 0 0.0015674315236907774 -0.023346395093225621 0 0.001779688678878911 -0.023162157986560485 0 0.0017429001485063129 -0.023449528740779373 0 0.001779688678878911 -0.023162157986560485 0 0.0018726419088537 -0.023423106466082335 0 0.001779688678878911 -0.023162157986560485 0 0.0020077325639306812 -0.023350912811499088 0 0.0021204358095217061 -0.023088713440756442 0 0.001779688678878911 -0.023162157986560485 0 0.0020077325639306812 -0.023350912811499088 0 0.0018726419088537 -0.023423106466082335 0 0.00072542569934007991 -0.025329762698889084 0 0.00077021350024539823 -0.025643227136915539 0 0.0017429001485063129 -0.023449528740779373 0 0.0018726419088537 -0.023423106466082335 0 0.0018771279804090711 -0.023613497024348857 0 0.00074986086457540018 -0.027901830788468068 0 0.0010715979387174283 -0.027889880961856711 0 0.0010856233570879627 -0.027958388325020168 0 0.0020077325639306812 -0.023350912811499088 0 0.0018726419088537 -0.023423106466082335 0 0.0018771279804090711 -0.023613497024348857 0 0.0017150762531709736 -0.023710019629398459 0 0.0017338127479819682 -0.023583776340416775 0 0.001873218769252473 -0.023645909261612322 0 0.0011760204345268009 -0.024409238887659924 0 0.00077021350024539823 -0.025643227136915539 0 0.00078729955750458892 -0.024832182963456965 0 0.00046747536325298202 -0.024911840753152757 0 0.00045337204914932161 -0.024971576906970841 0 0.0010715979387174283 -0.027889880961856711 0 0.00109297157184731 -0.027927390548106151 0 0.0010856233570879627 -0.027958388325020168 0 0.0017338127479819682 -0.023583776340416775 0 0.0017429001485063129 -0.023449528740779373 0 0.001873218769252473 -0.023645909261612322 0 0.00065886934565168997 -0.026107483954702988 0 0.0006936844457815707 -0.025866346794770966 0 0.0017429001485063129 -0.023449528740779373 0 0.0018771279804090711 -0.023613497024348857 0 0.0018656789633434492 -0.023658151537085642 0 0.000726193265887336 -0.025782521949685951 0 0.0006936844457815707 -0.025866346794770966 0 0.0006936844457815707 -0.025866346794770966 0 0.00077021350024539823 -0.025643227136915539 0 0.00077651044418341141 -0.025622774610980174 0 0.00077021350024539823 -0.025643227136915539 0 0.00074986086457540018 -0.027901830788468068 0 0.0010856233570879627 -0.027958388325020168 0 0.00058160803486588888 -0.028178388892039111 0 0.0020077325639306812 -0.023350912811499088 0 0.0018771279804090711 -0.023613497024348857 0 0.0023347761913547461 -0.023473726814374842 0 0.0018771279804090711 -0.023613497024348857 0 0.001867113737628813 -0.023655293980826796 0 0.0023347761913547461 -0.023473726814374842 0 0.00077021350024539823 -0.025643227136915539 0 0.0010353098187902722 -0.028766073432679361 0 0.0011409238980388614 -0.028568872279958035 0 0.0010353098187902722 -0.028766073432679361 0 0.0020077325639306812 -0.023350912811499088 0 0.0021204358095217061 -0.023088713440756442 0 0.0023347761913547461 -0.023473726814374842 0 0.0011409238980388614 -0.028568872279958035 0 0.00093464099625696184 -0.027712332146781753 0 0.00022617467567785426 -0.034578798112257406 0 0.0002590816605431887 -0.03462352460364166 0 0.00019996428020839616 -0.034619514151011346 0 0.001779688678878911 -0.023162157986560485 0 0.0021204358095217061 -0.023088713440756442 0 0.0019073915734443619 -0.022720298967500979 0 0.00093464099625696184 -0.027712332146781753 0 -5.6422839537232718e-05 -0.030799507314450608 0 0.0002590816605431887 -0.03462352460364166 0 0.00019921463742643262 -0.034659561354820533 0 0.00019996428020839616 -0.034619514151011346 0 -3.9455556264032592e-05 -0.034702380748394802 0 -6.9346016118629241e-05 -0.034670236027600346 0 -2.1513460764096364e-05 -0.034678904086987608 0 -8.2468557505519787e-05 -0.034691885729741294 0 -3.9455556264032592e-05 -0.034702380748394802 0 -6.9346016118629241e-05 -0.034670236027600346 0 -8.2468557505519787e-05 -0.034691885729741294 0 -6.9346016118629241e-05 -0.034670236027600346 0 -0.00011942741497534282 -0.034641151650353662 0 0.00093464099625696184 -0.027712332146781753 0 0.0012832929768226886 -0.027680136447092434 0 -6.9346016118629241e-05 -0.034670236027600346 0 -6.2646769936542103e-05 -0.034643420064691337 0 -0.00011942741497534282 -0.034641151650353662 0 -6.9346016118629241e-05 -0.034670236027600346 0 -6.2646769936542103e-05 -0.034643420064691337 0 -2.1513460764096364e-05 -0.034678904086987608 0 -6.2646769936542103e-05 -0.034643420064691337 0 -8.3611036619691921e-05 -0.034606961885504745 0 -0.00011133560933529877 -0.034599284930466746 0 -6.2646769936542103e-05 -0.034643420064691337 0 -8.3611036619691921e-05 -0.034606961885504745 0 -4.7834994208496905e-05 -0.034631111101882224 0 -8.3611036619691921e-05 -0.034606961885504745 0 -7.2248648511298051e-05 -0.034608059371094978 0 -0.00010770620072064653 -0.034583892921878953 0 -8.3611036619691921e-05 -0.034606961885504745 0 -4.7834994208496905e-05 -0.034631111101882224 0 -7.2248648511298051e-05 -0.034608059371094978 0 -8.3611036619691921e-05 -0.034606961885504745 0 -0.00011133560933529877 -0.034599284930466746 0 -0.00010778984034453172 -0.034565577453118008 0 -0.00011133560933529877 -0.034599284930466746 0 -0.00010778984034453172 -0.034565577453118008 0 -0.0001392954894189342 -0.034552898513597656 0 -6.2646769936542103e-05 -0.034643420064691337 0 -0.00011133560933529877 -0.034599284930466746 0 -0.00011942741497534282 -0.034641151650353662 0 0.001314670012011522 -0.021558407589234656 0 0.0012047635976479023 -0.021710873171141502 0 0.0016211879607197334 -0.022095159197843498 0 -0.00011133560933529877 -0.034599284930466746 0 -0.0001543355691599351 -0.034577068427976136 0 -0.00011942741497534282 -0.034641151650353662 0 0.0013783995577047754 -0.026004959094653689 0 0.0012832929768226886 -0.027680136447092434 0 0.0013783995577047754 -0.026004959094653689 0 0.00038355375840750674 -0.027907936536021406 0 -0.00011133560933529877 -0.034599284930466746 0 -0.0001543355691599351 -0.034577068427976136 0 -0.0001392954894189342 -0.034552898513597656 0 0.0010482918134849333 -0.02380619750118582 0 0.00142246285933682 -0.023250000259771714 0 0.00099988957826158131 -0.023103629721091347 0 0.0013783995577047754 -0.026004959094653689 0 0.00070033007372565035 -0.017935278066206935 0 0.001328956021865109 -0.02153356114106187 0 0.00095680612422552834 -0.021567172418556619 0 0.0009896607105205834 -0.020945847662900335 0 0.0010482918134849333 -0.02380619750118582 0 0.00099988957826158131 -0.023103629721091347 0 0.00064861675913245587 -0.023107342901393598 0 0.001328956021865109 -0.02153356114106187 0 0.0012047635976479023 -0.021710873171141502 0 0.00095680612422552834 -0.021567172418556619 0 0.0013783995577047754 -0.026004959094653689 0 0.0015536430364099115 -0.02560288076902555 0 0.0012047635976479023 -0.021710873171141502 0 0.0012381343790921001 -0.022107784579473513 0 0.00093904121240646757 -0.022116161574824367 0 0.0012047635976479023 -0.021710873171141502 0 0.0012381343790921001 -0.022107784579473513 0 0.0016211879607197334 -0.022095159197843498 0 0.0011881313440856613 -0.022503867886435602 0 0.0014587816843050915 -0.022697037102366271 0 0.0016211879607197334 -0.022095159197843498 0 0.0014587816843050915 -0.022697037102366271 0 0.0019187579672482024 -0.022629837108662298 0 0.0016211879607197334 -0.022095159197843498 0 0.0011881313440856613 -0.022503867886435602 0 0.0012381343790921001 -0.022107784579473513 0 0.0016211879607197334 -0.022095159197843498 0 0.0011881313440856613 -0.022503867886435602 0 0.0012381343790921001 -0.022107784579473513 0 0.00093904121240646757 -0.022116161574824367 0 0.0022306918778811405 -0.017299426867585732 0 0.0020000269647321395 -0.016164212246934855 0 0.00090291648906591442 -0.022632901727323091 0 0.0011881313440856613 -0.022503867886435602 0 0.00093904121240646757 -0.022116161574824367 0 0.0033622565419857819 -0.010425192098955073 0 0.0031552000640620516 -0.010000841438918716 0 0.0034202652240349408 -0.0096230966615373503 0 0.0031552000640620516 -0.010000841438918716 0 0.0030830467747434091 -0.0097213961755256272 0 0.0034202652240349408 -0.0096230966615373503 0 0.0022306918778811405 -0.017299426867585732 0 0.0012373678810903006 -0.012467071386274805 0 0.0033622565419857819 -0.010425192098955073 0 0.0031552000640620516 -0.010000841438918716 0 0.0027838051159904567 -0.0097179969076478783 0 0.0013534596752276973 -0.015186332569450079 0 0.0025753971780892626 -0.015804623159182147 0 0.00076027276138765896 -0.01380046563834896 0 0.0024770553187420238 -0.0086713298434856964 0 0.0023780219975454231 -0.0086186561767418318 0 0.0023812218752306269 -0.0085011134774939622 0 0.0015683914345287324 -0.013637569565510087 0 0.0012373678810903006 -0.012467071386274805 0 0.0023780219975454231 -0.0086186561767418318 0 0.0023812218752306269 -0.0085011134774939622 0 0.0023322607875843723 -0.0085508846242947356 0 0.0031552000640620516 -0.010000841438918716 0 0.0029988420498350808 -0.0097612293771223522 0 0.0030830467747434091 -0.0097213961755256272 0 0.0031552000640620516 -0.010000841438918716 0 0.0027838051159904567 -0.0097179969076478783 0 0.0029988420498350808 -0.0097612293771223522 0 0.0029988420498350808 -0.0097612293771223522 0 0.0030830467747434091 -0.0097213961755256272 0 0.002952127080037541 -0.0096201389870479385 0 0.0027838051159904567 -0.0097179969076478783 0 0.0029988420498350808 -0.0097612293771223522 0 0.002952127080037541 -0.0096201389870479385 0 0.002952127080037541 -0.0096201389870479385 0 0.0030626799442651366 -0.0095197101108192243 0 0.0028268337096054382 -0.0093463311801902649 0 0.0030830467747434091 -0.0097213961755256272 0 0.002952127080037541 -0.0096201389870479385 0 0.0030626799442651366 -0.0095197101108192243 0 0.0027838051159904567 -0.0097179969076478783 0 0.002952127080037541 -0.0096201389870479385 0 0.0028268337096054382 -0.0093463311801902649 0 0.0030626799442651366 -0.0095197101108192243 0 0.0028268337096054382 -0.0093463311801902649 0 0.003069357967569057 -0.0091888893726264059 0 0.0030626799442651366 -0.0095197101108192243 0 0.0034202652240349408 -0.0096230966615373503 0 0.003069357967569057 -0.0091888893726264059 0 0.0034202652240349408 -0.0096230966615373503 0 0.0034159184790083564 -0.0089326149870328601 0 0.003069357967569057 -0.0091888893726264059 0 0.0020000269647321395 -0.016164212246934855 0 0.0016013861875444426 -0.015939270183242094 0 0.0030830467747434091 -0.0097213961755256272 0 0.0030626799442651366 -0.0095197101108192243 0 0.0034202652240349408 -0.0096230966615373503 0 0.0012047635976479023 -0.021710873171141502 0 0.00093904121240646757 -0.022116161574824367 0 0.00095680612422552834 -0.021567172418556619 0 0.0034159184790083564 -0.0089326149870328601 0 0.0030157982263365525 -0.0086925262095849977 0 0.003069357967569057 -0.0091888893726264059 0 0.0016013861875444426 -0.015939270183242094 0 0.00070033007372565035 -0.017935278066206935 0 0.0034159184790083564 -0.0089326149870328601 0 0.0030157982263365525 -0.0086925262095849977 0 0.0034115957052767622 -0.0083563510392544536 0 0.0030157982263365525 -0.0086925262095849977 0 0.0027758942954236184 -0.0089395423481703137 0 0.002594547424179086 -0.0084668773897281537 0 0.0030157982263365525 -0.0086925262095849977 0 0.002594547424179086 -0.0084668773897281537 0 0.0030283856916687429 -0.0083161358186618628 0 0.0030157982263365525 -0.0086925262095849977 0 0.0027758942954236184 -0.0089395423481703137 0 0.003069357967569057 -0.0091888893726264059 0 0.0028268337096054382 -0.0093463311801902649 0 0.0027758942954236184 -0.0089395423481703137 0 0.003069357967569057 -0.0091888893726264059 0 0.0027758942954236184 -0.0089395423481703137 0 0.0023840402124791077 -0.0090341686862863268 0 0.002594547424179086 -0.0084668773897281537 0 0.0028268337096054382 -0.0093463311801902649 0 0.0027758942954236184 -0.0089395423481703137 0 0.0023840402124791077 -0.0090341686862863268 0 0.0012873795777471829 -0.0099885664853508298 0 0.001368465423220075 -0.0094046525142192118 0 0.0023840402124791077 -0.0090341686862863268 0 0.002594547424179086 -0.0084668773897281537 0 0.0020501056213468659 -0.0083536416554143931 0 0.002147270805731398 -0.0083484893141281911 0 0.001980146436701781 -0.0083696773022828869 0 0.0020501056213468659 -0.0083536416554143931 0 0.002147270805731398 -0.0083484893141281911 0 0.0020389639601801476 -0.0084237455316445668 0 0.001980146436701781 -0.0083696773022828869 0 0.002147270805731398 -0.0083484893141281911 0 0.0020389639601801476 -0.0084237455316445668 0 0.0021645903229606631 -0.0084657939520369971 0 0.0027838051159904567 -0.0097179969076478783 0 0.0028268337096054382 -0.0093463311801902649 0 0.0023840402124791077 -0.0090341686862863268 0 0.0012373678810903006 -0.012467071386274805 0 0.0012873795777471829 -0.0099885664853508298 0 0.002147270805731398 -0.0083484893141281911 0 0.0021645903229606631 -0.0084657939520369971 0 0.0022657507156937438 -0.0085087707429512705 0 0.0023812218752306269 -0.0085011134774939622 0 0.002147270805731398 -0.0083484893141281911 0 0.0022657507156937438 -0.0085087707429512705 0 0.0021645903229606631 -0.0084657939520369971 0 0.0022657507156937438 -0.0085087707429512705 0 0.0022228026539572602 -0.0085186338238516807 0 0.0022228026539572602 -0.0085186338238516807 0 0.002284698308624412 -0.0085508223458708836 0 0.0022561511055624811 -0.0085605895059085724 0 0.0022657507156937438 -0.0085087707429512705 0 0.0022228026539572602 -0.0085186338238516807 0 0.002284698308624412 -0.0085508223458708836 0 0.0022228026539572602 -0.0085186338238516807 0 0.0022561511055624811 -0.0085605895059085724 0 0.0022124378717087679 -0.0085392892719488335 0 0.0023812218752306269 -0.0085011134774939622 0 0.0022657507156937438 -0.0085087707429512705 0 0.0023322607875843723 -0.0085508846242947356 0 0.0022657507156937438 -0.0085087707429512705 0 0.002284698308624412 -0.0085508223458708836 0 0.0023322607875843723 -0.0085508846242947356 0 0.0023780219975454231 -0.0086186561767418318 0 0.0023322607875843723 -0.0085508846242947356 0 0.0023061548819417249 -0.008636578783441538 0 0.002284698308624412 -0.0085508223458708836 0 0.0023322607875843723 -0.0085508846242947356 0 0.0023061548819417249 -0.008636578783441538 0 0.002284698308624412 -0.0085508223458708836 0 0.0023061548819417249 -0.008636578783441538 0 0.0022561511055624811 -0.0085605895059085724 0 0.0023061548819417249 -0.008636578783441538 0 0.0022561511055624811 -0.0085605895059085724 0 0.0022124378717087679 -0.0085392892719488335 0 0.0021772852413398575 -0.0087898930758734343 0 0.0022372727198492 -0.0087605484698209651 0 0.0020910246392779768 -0.0086061472584997249 0 0.0020389639601801476 -0.0084237455316445668 0 0.0021645903229606631 -0.0084657939520369971 0 0.0020910246392779768 -0.0086061472584997249 0 0.0022372727198492 -0.0087605484698209651 0 0.0022124378717087679 -0.0085392892719488335 0 0.0020910246392779768 -0.0086061472584997249 0 0.0021645903229606631 -0.0084657939520369971 0 0.0022228026539572602 -0.0085186338238516807 0 0.0022124378717087679 -0.0085392892719488335 0 0.0021645903229606631 -0.0084657939520369971 0 0.0022124378717087679 -0.0085392892719488335 0 0.0020910246392779768 -0.0086061472584997249 0 0.00011299697795947333 -0.034883300756886629 0 0.00024317932940256704 -0.034938298003421547 0 0.00027794898015934792 -0.034710529049199829 0 0.00011299697795947333 -0.034883300756886629 0 0.00024317932940256704 -0.034938298003421547 0 1.3641751208098222e-05 -0.035016833262413206 0 5.5047915698820641e-06 -0.034397162122425051 0 -2.3157333309200876e-05 -0.03373444737067318 0 0.00024317932940256704 -0.034938298003421547 0 0.00027794898015934792 -0.034710529049199829 0 0.00049223488489299647 -0.034824331287965714 0 4.7492330017152527e-05 -0.034752826479297928 0 5.8397740862495135e-05 -0.034780327882718488 0 5.5486665460434096e-05 -0.034731908896897826 0 4.7492330017152527e-05 -0.034752826479297928 0 5.8397740862495135e-05 -0.034780327882718488 0 3.2964764034230487e-05 -0.034835124554490809 0 5.8397740862495135e-05 -0.034780327882718488 0 3.2964764034230487e-05 -0.034835124554490809 0 4.51888600714491e-05 -0.034859186277908738 0 5.5047915698820641e-06 -0.034397162122425051 0 4.3573692177400834e-07 -0.034758807452484504 0 4.7492330017152527e-05 -0.034752826479297928 0 3.2964764034230487e-05 -0.034835124554490809 0 -9.3154072723606642e-07 -0.034874332131647694 0 1.3641751208098222e-05 -0.035016833262413206 0 -8.4142886310494197e-07 -0.034992493364022548 0 4.3398124700576152e-06 -0.034972397321883723 0 4.3573692177400834e-07 -0.034758807452484504 0 -5.7915290800107189e-08 -0.034999604934699023 0 -8.4142886310494197e-07 -0.034992493364022548 0 4.5115439666619474e-09 -0.034999978097685819 0 -1.6719664825269255e-08 -0.035000012132987847 0 1.3641751208098222e-05 -0.035016833262413206 0 -8.4142886310494197e-07 -0.034992493364022548 0 -1.6719664825269255e-08 -0.035000012132987847 0 -8.4142886310494197e-07 -0.034992493364022548 0 2.9677469701345574e-06 -0.034992912839103538 0 4.5115439666619474e-09 -0.034999978097685819 0 0.00011299697795947333 -0.034883300756886629 0 4.3398124700576152e-06 -0.034972397321883723 0 3.9651501330051884e-05 -0.034729818458694654 0 2.9677469701345574e-06 -0.034992912839103538 0 4.3398124700576152e-06 -0.034972397321883723 0 -3.604251716664899e-06 -0.034996650450683849 0 -8.4142886310494197e-07 -0.034992493364022548 0 2.9677469701345574e-06 -0.034992912839103538 0 4.3398124700576152e-06 -0.034972397321883723 0 0.00011299697795947333 -0.034883300756886629 0 1.3641751208098222e-05 -0.035016833262413206 0 4.3398124700576152e-06 -0.034972397321883723 0 3.7175763659285136e-05 -0.034875638755494966 0 5.8350165364541229e-05 -0.034807882049815962 0 2.9677469701345574e-06 -0.034992912839103538 0 -3.604251716664899e-06 -0.034996650450683849 0 4.298273886304789e-07 -0.034998667496294669 0 2.9677469701345574e-06 -0.034992912839103538 0 3.6381126221385841e-09 -0.034999998672862825 0 4.298273886304789e-07 -0.034998667496294669 0 2.9677469701345574e-06 -0.034992912839103538 0 4.5115439666619474e-09 -0.034999978097685819 0 3.6381126221385841e-09 -0.034999998672862825 0 -3.2367246141715248e-09 -0.03499999549551458 0 3.6381126221385841e-09 -0.034999998672862825 0 2.9350298990612029e-07 -0.034999573823801103 0 3.6381126221385841e-09 -0.034999998672862825 0 4.298273886304789e-07 -0.034998667496294669 0 2.9350298990612029e-07 -0.034999573823801103 0 -3.604251716664899e-06 -0.034996650450683849 0 4.298273886304789e-07 -0.034998667496294669 0 1.0151542672274356e-06 -0.034999191043367683 0 -3.604251716664899e-06 -0.034996650450683849 0 1.0151542672274356e-06 -0.034999191043367683 0 -9.5789923496353528e-07 -0.034998591936108214 0 4.298273886304789e-07 -0.034998667496294669 0 2.9350298990612029e-07 -0.034999573823801103 0 1.0151542672274356e-06 -0.034999191043367683 0 0.00010142558215419613 -0.034628534240187976 0 0.00012618071205060125 -0.034607365094518103 0 3.9651501330051884e-05 -0.034729818458694654 0 9.9199355569175432e-05 -0.034496432833061419 0 0.00027794898015934792 -0.034710529049199829 0 5.8350165364541229e-05 -0.034807882049815962 0 0.00012618071205060125 -0.034607365094518103 0 0.00011299697795947333 -0.034883300756886629 0 3.9651501330051884e-05 -0.034729818458694654 0 0.00027794898015934792 -0.034710529049199829 0 9.9199355569175432e-05 -0.034496432833061419 0 0.00027794898015934792 -0.034710529049199829 0 0.00040237573895237667 -0.034485229358076852 0 0.00012618071205060125 -0.034607365094518103 0 0.00034649040076611075 -0.033854124352825372 0 0.00027794898015934792 -0.034710529049199829 0 0.00040237573895237667 -0.034485229358076852 0 0.00055480257475553762 -0.034621459035280765 0 0.0007032153332701402 -0.034471089638240991 0 0.00040237573895237667 -0.034485229358076852 0 0.00055480257475553762 -0.034621459035280765 0 0.0007032153332701402 -0.034471089638240991 0 0.00055480257475553762 -0.034621459035280765 0 0.00073734226599401012 -0.034711513661507848 0 0.00064103189803917169 -0.032362954744769787 0 0.00034649040076611075 -0.033854124352825372 0 0.00055480257475553762 -0.034621459035280765 0 0.00073734226599401012 -0.034711513661507848 0 0.00049223488489299647 -0.034824331287965714 0 0.00011351330325440463 -0.034582925247973802 0 0.00011198672114853652 -0.034572351353306573 0 5.6583315657848984e-05 -0.034662138237584773 0 1.5599764587482697e-05 -0.032336680555634101 0 -2.3157333309200876e-05 -0.03373444737067318 0 0.00027794898015934792 -0.034710529049199829 0 0.00055480257475553762 -0.034621459035280765 0 0.00049223488489299647 -0.034824331287965714 0 0.00066455518018362252 -0.030636683998129282 0 0.00067792152037718541 -0.030657311788473033 0 0.00063587277798139426 -0.030680368205818712 0 0.00042938126988345153 -0.027913624365126392 0 0.00074986086457540018 -0.027901830788468068 0 0.00058160803486588888 -0.028178388892039111 0 0.00098132853520381145 -0.030233646259851064 0 0.0010353098187902722 -0.028766073432679361 0 0.00063193365753138231 -0.030642250271675855 0 0.00066455518018362252 -0.030636683998129282 0 0.00063587277798139426 -0.030680368205818712 0 0.00064103189803917169 -0.032362954744769787 0 1.5599764587482697e-05 -0.032336680555634101 0 0.00011289810549926753 -0.034568339563293492 0 0.00016791423852821242 -0.034570933257224754 0 0.00013964285573824675 -0.034592472043048265 0 0.00011351330325440463 -0.034582925247973802 0 0.00011289810549926753 -0.034568339563293492 0 0.00013964285573824675 -0.034592472043048265 0 1.9456109244432702e-05 -0.032369185658616691 0 1.5599764587482697e-05 -0.032336680555634101 0 0.00022617467567785426 -0.034578798112257406 0 0.00019383569292614152 -0.034508573821978292 0 0.00016791423852821242 -0.034570933257224754 0 0.0010353098187902722 -0.028766073432679361 0 1.5599764587482697e-05 -0.032336680555634101 0 0.00019383569292614152 -0.034508573821978292 0 0.00011289810549926753 -0.034568339563293492 0 0.00016791423852821242 -0.034570933257224754 0 0.00022617467567785426 -0.034578798112257406 0 0.00019996428020839616 -0.034619514151011346 0 0.00016791423852821242 -0.034570933257224754 0 0.00019996428020839616 -0.034619514151011346 0 0.00016791423852821242 -0.034570933257224754 0 0.00015394866502291987 -0.034631919487237213 0 0.00016791423852821242 -0.034570933257224754 0 0.00015394866502291987 -0.034631919487237213 0 0.00013964285573824675 -0.034592472043048265 0 0.00011351330325440463 -0.034582925247973802 0 0.00012225612647527671 -0.034628359683092629 0 8.5014728607153367e-05 -0.034668663973049386 0 0.00015394866502291987 -0.034631919487237213 0 0.00013964285573824675 -0.034592472043048265 0 0.00012225612647527671 -0.034628359683092629 0 0.00015394866502291987 -0.034631919487237213 0 0.00012225612647527671 -0.034628359683092629 0 0.00011703973975573641 -0.034662314239279589 0 0.00011351330325440463 -0.034582925247973802 0 0.00013964285573824675 -0.034592472043048265 0 0.00012225612647527671 -0.034628359683092629 0 0.00012225612647527671 -0.034628359683092629 0 0.00011703973975573641 -0.034662314239279589 0 8.5014728607153367e-05 -0.034668663973049386 0 0.00015394866502291987 -0.034631919487237213 0 0.00011703973975573641 -0.034662314239279589 0 0.00012870381532995812 -0.034697157302571141 0 0.00011703973975573641 -0.034662314239279589 0 5.4027382233967842e-05 -0.034716493255046658 0 0.00012870381532995812 -0.034697157302571141 0 0.00019921463742643262 -0.034659561354820533 0 0.00015394866502291987 -0.034631919487237213 0 0.00012870381532995812 -0.034697157302571141 0 0.00019921463742643262 -0.034659561354820533 0 0.00019996428020839616 -0.034619514151011346 0 0.00015394866502291987 -0.034631919487237213 0 5.6583315657848984e-05 -0.034662138237584773 0 8.5014728607153367e-05 -0.034668663973049386 0 5.5486665460434096e-05 -0.034731908896897826 0 4.7492330017152527e-05 -0.034752826479297928 0 5.6583315657848984e-05 -0.034662138237584773 0 5.5486665460434096e-05 -0.034731908896897826 0 0.00011351330325440463 -0.034582925247973802 0 5.6583315657848984e-05 -0.034662138237584773 0 8.5014728607153367e-05 -0.034668663973049386 0 8.5014728607153367e-05 -0.034668663973049386 0 5.5486665460434096e-05 -0.034731908896897826 0 5.4027382233967842e-05 -0.034716493255046658 0 0.00011703973975573641 -0.034662314239279589 0 8.5014728607153367e-05 -0.034668663973049386 0 5.4027382233967842e-05 -0.034716493255046658 0 5.5486665460434096e-05 -0.034731908896897826 0 5.4027382233967842e-05 -0.034716493255046658 0 6.2782326090549565e-05 -0.034710137856003458 0 5.4027382233967842e-05 -0.034716493255046658 0 3.950933266284553e-05 -0.034689341778768909 0 1.8265015866743858e-05 -0.034692992126108137 0 5.4027382233967842e-05 -0.034716493255046658 0 3.950933266284553e-05 -0.034689341778768909 0 6.2782326090549565e-05 -0.034710137856003458 0 3.950933266284553e-05 -0.034689341778768909 0 6.2782326090549565e-05 -0.034710137856003458 0 4.3473838479469913e-05 -0.034680996321983029 0 5.5864622438209128e-05 -0.034783771971060341 0 5.4215967752124099e-05 -0.034778240879848245 0 6.5841653788261046e-05 -0.034900889999461386 0 3.887271885950397e-05 -0.034873038884360788 0 5.1967110222810445e-05 -0.034902576290632821 0 -5.6422839537232718e-05 -0.030799507314450608 0 -0.00022077829646549517 -0.03222176293260267 0 -3.9455556264032592e-05 -0.034702380748394802 0 4.700043112352007e-06 -0.03471226524683315 0 -2.1513460764096364e-05 -0.034678904086987608 0 -0.00023398859864576861 -0.032636062203985634 0 -0.00022077829646549517 -0.03222176293260267 0 5.4027382233967842e-05 -0.034716493255046658 0 4.700043112352007e-06 -0.03471226524683315 0 1.8265015866743858e-05 -0.034692992126108137 0 4.700043112352007e-06 -0.03471226524683315 0 1.8265015866743858e-05 -0.034692992126108137 0 -2.1513460764096364e-05 -0.034678904086987608 0 3.950933266284553e-05 -0.034689341778768909 0 1.8265015866743858e-05 -0.034692992126108137 0 1.3247260134381337e-05 -0.034678556328523562 0 1.8265015866743858e-05 -0.034692992126108137 0 -2.1513460764096364e-05 -0.034678904086987608 0 1.3247260134381337e-05 -0.034678556328523562 0 -6.2646769936542103e-05 -0.034643420064691337 0 -2.1513460764096364e-05 -0.034678904086987608 0 -2.0739130119810003e-05 -0.034655379074795586 0 -2.1513460764096364e-05 -0.034678904086987608 0 -2.0739130119810003e-05 -0.034655379074795586 0 1.3247260134381337e-05 -0.034678556328523562 0 -6.2646769936542103e-05 -0.034643420064691337 0 -2.0739130119810003e-05 -0.034655379074795586 0 -4.7834994208496905e-05 -0.034631111101882224 0 3.950933266284553e-05 -0.034689341778768909 0 1.3247260134381337e-05 -0.034678556328523562 0 3.712607606709736e-05 -0.034676791054715411 0 -2.0739130119810003e-05 -0.034655379074795586 0 1.3247260134381337e-05 -0.034678556328523562 0 3.712607606709736e-05 -0.034676791054715411 0 3.712607606709736e-05 -0.034676791054715411 0 -1.4742527403283527e-05 -0.034640584192954425 0 4.4591853352507154e-05 -0.034664304387121751 0 3.712607606709736e-05 -0.034676791054715411 0 5.7012083126320791e-05 -0.034723232010808104 0 4.4591853352507154e-05 -0.034664304387121751 0 -2.0739130119810003e-05 -0.034655379074795586 0 3.712607606709736e-05 -0.034676791054715411 0 -1.4742527403283527e-05 -0.034640584192954425 0 -2.0739130119810003e-05 -0.034655379074795586 0 -1.4742527403283527e-05 -0.034640584192954425 0 -4.7834994208496905e-05 -0.034631111101882224 0 -1.4742527403283527e-05 -0.034640584192954425 0 -4.7834994208496905e-05 -0.034631111101882224 0 -7.2248648511298051e-05 -0.034608059371094978 0 3.950933266284553e-05 -0.034689341778768909 0 3.712607606709736e-05 -0.034676791054715411 0 4.3473838479469913e-05 -0.034680996321983029 0 5.4215967752124099e-05 -0.034778240879848245 0 5.2936370243375125e-05 -0.034767737964359384 0 3.712607606709736e-05 -0.034676791054715411 0 4.3473838479469913e-05 -0.034680996321983029 0 5.7012083126320791e-05 -0.034723232010808104 0 3.887271885950397e-05 -0.034873038884360788 0 5.581881542805395e-05 -0.034865159567762698 0 5.7012083126320791e-05 -0.034723232010808104 0 5.581881542805395e-05 -0.034865159567762698 0 3.0667408614570134e-05 -0.034929394922240481 0 2.4887597267949336e-05 -0.034932058940968749 0 5.581881542805395e-05 -0.034865159567762698 0 3.0667408614570134e-05 -0.034929394922240481 0 5.1967110222810445e-05 -0.034902576290632821 0 3.887271885950397e-05 -0.034873038884360788 0 5.581881542805395e-05 -0.034865159567762698 0 5.1967110222810445e-05 -0.034902576290632821 0 6.5841653788261046e-05 -0.034900889999461386 0 5.1967110222810445e-05 -0.034902576290632821 0 2.7582238107710653e-05 -0.034900954830668872 0 3.0667408614570134e-05 -0.034929394922240481 0 5.1967110222810445e-05 -0.034902576290632821 0 2.7582238107710653e-05 -0.034900954830668872 0 3.2964764034230487e-05 -0.034835124554490809 0 2.7582238107710653e-05 -0.034900954830668872 0 4.51888600714491e-05 -0.034859186277908738 0 3.2964764034230487e-05 -0.034835124554490809 0 -9.3154072723606642e-07 -0.034874332131647694 0 2.7582238107710653e-05 -0.034900954830668872 0 5.3282810582567467e-05 -0.034776859289158704 0 5.5864622438209128e-05 -0.034783771971060341 0 5.8397740862495135e-05 -0.034780327882718488 0 5.5486665460434096e-05 -0.034731908896897826 0 6.2782326090549565e-05 -0.034710137856003458 0 5.8397740862495135e-05 -0.034780327882718488 0 6.5841653788261046e-05 -0.034900889999461386 0 4.51888600714491e-05 -0.034859186277908738 0 6.5841653788261046e-05 -0.034900889999461386 0 2.7582238107710653e-05 -0.034900954830668872 0 4.51888600714491e-05 -0.034859186277908738 0 -9.3154072723606642e-07 -0.034874332131647694 0 -3.892317396055304e-08 -0.034999807143947535 0 5.3139735848268568e-06 -0.034952561204504407 0 -9.3154072723606642e-07 -0.034874332131647694 0 2.7582238107710653e-05 -0.034900954830668872 0 5.3139735848268568e-06 -0.034952561204504407 0 3.0667408614570134e-05 -0.034929394922240481 0 2.7582238107710653e-05 -0.034900954830668872 0 5.3139735848268568e-06 -0.034952561204504407 0 5.3139735848268568e-06 -0.034952561204504407 0 1.6176922984258904e-08 -0.034999961073076992 0 1.2535429606148467e-05 -0.03496535467117546 0 -3.892317396055304e-08 -0.034999807143947535 0 5.3139735848268568e-06 -0.034952561204504407 0 1.6176922984258904e-08 -0.034999961073076992 0 1.6176922984258904e-08 -0.034999961073076992 0 1.2535429606148467e-05 -0.03496535467117546 0 1.2610659549006675e-08 -0.034999926803861402 0 3.0667408614570134e-05 -0.034929394922240481 0 5.3139735848268568e-06 -0.034952561204504407 0 1.2535429606148467e-05 -0.03496535467117546 0 3.0667408614570134e-05 -0.034929394922240481 0 1.2535429606148467e-05 -0.03496535467117546 0 2.4887597267949336e-05 -0.034932058940968749 0 1.2535429606148467e-05 -0.03496535467117546 0 2.4887597267949336e-05 -0.034932058940968749 0 1.2610659549006675e-08 -0.034999926803861402 0 1.2610659549006675e-08 -0.034999926803861402 0 1.4735181706408653e-05 -0.034947986649089595 0 5.886231929451506e-09 -0.034999932129118123 0 2.4887597267949336e-05 -0.034932058940968749 0 1.2610659549006675e-08 -0.034999926803861402 0 1.4735181706408653e-05 -0.034947986649089595 0 2.4887597267949336e-05 -0.034932058940968749 0 1.4735181706408653e-05 -0.034947986649089595 0 3.6212197062188343e-05 -0.034889422659762248 0 1.4735181706408653e-05 -0.034947986649089595 0 3.6212197062188343e-05 -0.034889422659762248 0 1.1755968796715988e-05 -0.034951256615764884 0 1.4735181706408653e-05 -0.034947986649089595 0 5.886231929451506e-09 -0.034999932129118123 0 1.1755968796715988e-05 -0.034951256615764884 0 5.581881542805395e-05 -0.034865159567762698 0 3.6212197062188343e-05 -0.034889422659762248 0 6.0863479303571126e-05 -0.034792450146596238 0 5.581881542805395e-05 -0.034865159567762698 0 2.4887597267949336e-05 -0.034932058940968749 0 3.6212197062188343e-05 -0.034889422659762248 0 3.6212197062188343e-05 -0.034889422659762248 0 4.2076730656594664e-05 -0.034879193319072459 0 1.1755968796715988e-05 -0.034951256615764884 0 3.6212197062188343e-05 -0.034889422659762248 0 4.2076730656594664e-05 -0.034879193319072459 0 6.0863479303571126e-05 -0.034792450146596238 0 4.2076730656594664e-05 -0.034879193319072459 0 4.756863314054954e-05 -0.034936504325012635 0 8.6479813074459509e-05 -0.034834891899985884 0 4.2076730656594664e-05 -0.034879193319072459 0 4.756863314054954e-05 -0.034936504325012635 0 1.1755968796715988e-05 -0.034951256615764884 0 4.756863314054954e-05 -0.034936504325012635 0 1.1755968796715988e-05 -0.034951256615764884 0 1.9737140866020519e-05 -0.034984867811746097 0 5.886231929451506e-09 -0.034999932129118123 0 1.1755968796715988e-05 -0.034951256615764884 0 -1.6922311430754825e-09 -0.034999957407527538 0 1.1755968796715988e-05 -0.034951256615764884 0 4.3064659441780483e-06 -0.034991720474691262 0 1.9737140866020519e-05 -0.034984867811746097 0 1.1755968796715988e-05 -0.034951256615764884 0 -1.6922311430754825e-09 -0.034999957407527538 0 4.3064659441780483e-06 -0.034991720474691262 0 -1.6922311430754825e-09 -0.034999957407527538 0 4.3064659441780483e-06 -0.034991720474691262 0 1.2418963369484266e-09 -0.035000006868827711 0 4.3064659441780483e-06 -0.034991720474691262 0 1.2418963369484266e-09 -0.035000006868827711 0 2.7693702794804282e-06 -0.035002491429321353 0 6.3828483121239946e-07 -0.034998942765064954 0 0.00012392589649028356 -0.034758719814946652 0 2.6064343439191993e-10 -0.034999999849925294 0 1.3788570077912017e-08 -0.034999503645986189 0 -3.3861366250462922e-10 -0.034999998946831402 0 1.9030848309722111e-07 -0.035001253071477938 0 9.5508788800621812e-09 -0.03499998801296688 0 -1.2957175920051876e-07 -0.034999628437077164 0 0.00012392589649028356 -0.034758719814946652 0 9.7430800633028614e-08 -0.034999202589548355 0 0.0014319524027178354 -0.033603057469740419 0 0.0011702059811829293 -0.033604445893006298 0 0.0011417186768327341 -0.033801791008234765 0 0.0014319524027178354 -0.033603057469740419 0 0.0011702059811829293 -0.033604445893006298 0 0.0011597871176767802 -0.033405616169220158 0 1.9030848309722111e-07 -0.035001253071477938 0 -1.2957175920051876e-07 -0.034999628437077164 0 -6.1872106668127571e-06 -0.034999549546522901 0 0.00012392589649028356 -0.034758719814946652 0 0.00032006801364505667 -0.034479630983624318 0 0.00012392589649028356 -0.034758719814946652 0 0.00047337132594418071 -0.034489039625768027 0 4.3064659441780483e-06 -0.034991720474691262 0 2.7693702794804282e-06 -0.035002491429321353 0 1.9737140866020519e-05 -0.034984867811746097 0 0.00042117462959967607 -0.03450376034688727 0 0.00047337132594418071 -0.034489039625768027 0 0.00085977828176865339 -0.034013914320173026 0 0.0011417186768327341 -0.033801791008234765 0 0.00094478318280665277 -0.033607341048806423 0 0.00085977828176865339 -0.034013914320173026 0 0.00094478318280665277 -0.033607341048806423 0 0.00067239436152372858 -0.033738662612629484 0 0.00094478318280665277 -0.033607341048806423 0 0.00067555994793803531 -0.033486348919026007 0 0.00067239436152372858 -0.033738662612629484 0 0.0011702059811829293 -0.033604445893006298 0 0.00094478318280665277 -0.033607341048806423 0 0.0011597871176767802 -0.033405616169220158 0 0.0011702059811829293 -0.033604445893006298 0 0.0011417186768327341 -0.033801791008234765 0 0.00094478318280665277 -0.033607341048806423 0 0.00028439089698143957 -0.034283417643802709 0 0.00032006801364505667 -0.034479630983624318 0 -2.4381616278807828e-05 -0.034989649078789042 0 -6.1792364768928708e-06 -0.034990231031702325 0 -6.1872106668127571e-06 -0.034999549546522901 0 0.00094478318280665277 -0.033607341048806423 0 0.00087094792410308491 -0.033203128871181743 0 0.0011597871176767802 -0.033405616169220158 0 0.00087094792410308491 -0.033203128871181743 0 0.00061743395585353686 -0.033221649826264833 0 0.00067555994793803531 -0.033486348919026007 0 0.00094478318280665277 -0.033607341048806423 0 0.00087094792410308491 -0.033203128871181743 0 0.00067555994793803531 -0.033486348919026007 0 0.00087094792410308491 -0.033203128871181743 0 0.00061743395585353686 -0.033221649826264833 0 0.00057439074246416017 -0.033018606988683218 0 0.00028439089698143957 -0.034283417643802709 0 0.00015745548732570461 -0.034174944642566513 0 -2.4381616278807828e-05 -0.034989649078789042 0 -6.1792364768928708e-06 -0.034990231031702325 0 -1.3404185423924793e-05 -0.034973311958933939 0 -6.1792364768928708e-06 -0.034990231031702325 0 1.5595169522779987e-06 -0.034991710637055945 0 3.6003028802314694e-07 -0.034998122153627291 0 -6.1792364768928708e-06 -0.034990231031702325 0 1.5595169522779987e-06 -0.034991710637055945 0 -1.3404185423924793e-05 -0.034973311958933939 0 -1.3538246885365156e-08 -0.035000019140691813 0 1.5595169522779987e-06 -0.034991710637055945 0 3.6003028802314694e-07 -0.034998122153627291 0 9.5508788800621812e-09 -0.03499998801296688 0 -1.3538246885365156e-08 -0.035000019140691813 0 3.6003028802314694e-07 -0.034998122153627291 0 9.5508788800621812e-09 -0.03499998801296688 0 3.6003028802314694e-07 -0.034998122153627291 0 -1.2957175920051876e-07 -0.034999628437077164 0 3.6003028802314694e-07 -0.034998122153627291 0 -1.2957175920051876e-07 -0.034999628437077164 0 -6.1872106668127571e-06 -0.034999549546522901 0 -6.1792364768928708e-06 -0.034990231031702325 0 3.6003028802314694e-07 -0.034998122153627291 0 -6.1872106668127571e-06 -0.034999549546522901 0 0.0002472646182364441 -0.033397872549146217 0 3.9150563084266723e-05 -0.033341801002950755 0 0.00016387710993446443 -0.033230524223141863 0 3.9150563084266723e-05 -0.033341801002950755 0 2.8010592157463503e-05 -0.033199178537268934 0 0.00016387710993446443 -0.033230524223141863 0 0.0002472646182364441 -0.033397872549146217 0 0.00016387710993446443 -0.033230524223141863 0 0.00031541705275591435 -0.033236111302942767 0 3.9150563084266723e-05 -0.033341801002950755 0 2.8010592157463503e-05 -0.033199178537268934 0 -0.00013045143466116209 -0.033222364599077882 0 3.9150563084266723e-05 -0.033341801002950755 0 -0.00010792656363491294 -0.03339258364633977 0 -0.00013045143466116209 -0.033222364599077882 0 2.8010592157463503e-05 -0.033199178537268934 0 -3.6275685305571901e-05 -0.033100239869190758 0 -0.00013045143466116209 -0.033222364599077882 0 2.8010592157463503e-05 -0.033199178537268934 0 -3.6275685305571901e-05 -0.033100239869190758 0 0.00012498176937695139 -0.03309647976287361 0 2.8010592157463503e-05 -0.033199178537268934 0 0.00012498176937695139 -0.03309647976287361 0 0.00016387710993446443 -0.033230524223141863 0 0.00016387710993446443 -0.033230524223141863 0 0.00023418057584673221 -0.033116530388565865 0 0.00031541705275591435 -0.033236111302942767 0 0.00012498176937695139 -0.03309647976287361 0 0.00016387710993446443 -0.033230524223141863 0 0.00023418057584673221 -0.033116530388565865 0 0.00012498176937695139 -0.03309647976287361 0 0.00023418057584673221 -0.033116530388565865 0 0.00022760538652276776 -0.033029796354188429 0 0.00023418057584673221 -0.033116530388565865 0 0.00036111717922070711 -0.033114232679289375 0 0.00030394342811308289 -0.033032512802064685 0 0.00036111717922070711 -0.033114232679289375 0 0.00040454221800415632 -0.033034883675646956 0 0.00030394342811308289 -0.033032512802064685 0 0.00036111717922070711 -0.033114232679289375 0 0.00044776006395236555 -0.033206123087175542 0 0.00047266101550676968 -0.03310510730863616 0 0.00036111717922070711 -0.033114232679289375 0 0.00047266101550676968 -0.03310510730863616 0 0.00040454221800415632 -0.033034883675646956 0 0.00036111717922070711 -0.033114232679289375 0 0.00044776006395236555 -0.033206123087175542 0 0.00031541705275591435 -0.033236111302942767 0 0.00023418057584673221 -0.033116530388565865 0 0.00036111717922070711 -0.033114232679289375 0 0.00031541705275591435 -0.033236111302942767 0 0.00047266101550676968 -0.03310510730863616 0 0.00061743395585353686 -0.033221649826264833 0 0.00057439074246416017 -0.033018606988683218 0 0.00044776006395236555 -0.033206123087175542 0 0.00047266101550676968 -0.03310510730863616 0 0.00061743395585353686 -0.033221649826264833 0 0.00061743395585353686 -0.033221649826264833 0 0.00044865982436597838 -0.033360188585706413 0 0.00067555994793803531 -0.033486348919026007 0 0.00044776006395236555 -0.033206123087175542 0 0.00061743395585353686 -0.033221649826264833 0 0.00044865982436597838 -0.033360188585706413 0 0.0002472646182364441 -0.033397872549146217 0 0.00031541705275591435 -0.033236111302942767 0 0.00044865982436597838 -0.033360188585706413 0 0.00044776006395236555 -0.033206123087175542 0 0.00031541705275591435 -0.033236111302942767 0 0.00044865982436597838 -0.033360188585706413 0 0.0002472646182364441 -0.033397872549146217 0 0.00044865982436597838 -0.033360188585706413 0 0.00040656344871295501 -0.033643086279728111 0 0.00044865982436597838 -0.033360188585706413 0 0.00040656344871295501 -0.033643086279728111 0 0.00067555994793803531 -0.033486348919026007 0 0.00040656344871295501 -0.033643086279728111 0 0.00067555994793803531 -0.033486348919026007 0 0.00067239436152372858 -0.033738662612629484 0 0.00085977828176865339 -0.034013914320173026 0 0.00067239436152372858 -0.033738662612629484 0 0.00050202346674055299 -0.033947261252458553 0 0.00040656344871295501 -0.033643086279728111 0 0.00067239436152372858 -0.033738662612629484 0 0.00050202346674055299 -0.033947261252458553 0 0.00040656344871295501 -0.033643086279728111 0 0.00020055223541108437 -0.033874438980560938 0 0.00050202346674055299 -0.033947261252458553 0 0.00020055223541108437 -0.033874438980560938 0 9.3255864530051064e-05 -0.033581371887261194 0 3.3393552705026824e-05 -0.033802368850886409 0 0.00040656344871295501 -0.033643086279728111 0 0.00020055223541108437 -0.033874438980560938 0 9.3255864530051064e-05 -0.033581371887261194 0 0.00020055223541108437 -0.033874438980560938 0 3.3393552705026824e-05 -0.033802368850886409 0 4.8163570207648994e-05 -0.034017932760165057 0 0.0002472646182364441 -0.033397872549146217 0 0.00040656344871295501 -0.033643086279728111 0 9.3255864530051064e-05 -0.033581371887261194 0 0.0002472646182364441 -0.033397872549146217 0 3.9150563084266723e-05 -0.033341801002950755 0 9.3255864530051064e-05 -0.033581371887261194 0 -0.00010792656363491294 -0.03339258364633977 0 -7.1857821311327637e-05 -0.033668016274702485 0 -0.00022137989876204421 -0.033417132302341924 0 9.3255864530051064e-05 -0.033581371887261194 0 -0.00010792656363491294 -0.03339258364633977 0 -7.1857821311327637e-05 -0.033668016274702485 0 3.9150563084266723e-05 -0.033341801002950755 0 9.3255864530051064e-05 -0.033581371887261194 0 -0.00010792656363491294 -0.03339258364633977 0 -7.1857821311327637e-05 -0.033668016274702485 0 -0.00022137989876204421 -0.033417132302341924 0 -0.00021015930209058859 -0.033856098469422946 0 9.3255864530051064e-05 -0.033581371887261194 0 -7.1857821311327637e-05 -0.033668016274702485 0 3.3393552705026824e-05 -0.033802368850886409 0 -7.1857821311327637e-05 -0.033668016274702485 0 3.3393552705026824e-05 -0.033802368850886409 0 -0.00012584116712317209 -0.033906385527418662 0 -7.1857821311327637e-05 -0.033668016274702485 0 -0.00012584116712317209 -0.033906385527418662 0 -0.00021015930209058859 -0.033856098469422946 0 -0.00094840169754631257 -0.032003323983428048 0 -0.00080834171729409561 -0.031488682742195281 0 -0.00012584116712317209 -0.033906385527418662 0 -0.0002333120670097237 -0.034000424261965694 0 -0.00021015930209058859 -0.033856098469422946 0 -0.00012584116712317209 -0.033906385527418662 0 -8.3692647645038087e-05 -0.034125160016786019 0 -0.00022855240267762841 -0.034188877821236911 0 -8.3692647645038087e-05 -0.034125160016786019 0 -9.0763264571440519e-05 -0.034268466583905144 0 -0.00022855240267762841 -0.034188877821236911 0 -8.3692647645038087e-05 -0.034125160016786019 0 4.8163570207648994e-05 -0.034017932760165057 0 3.6652303461749606e-05 -0.034253353820764422 0 -0.00012584116712317209 -0.033906385527418662 0 -8.3692647645038087e-05 -0.034125160016786019 0 4.8163570207648994e-05 -0.034017932760165057 0 3.3393552705026824e-05 -0.033802368850886409 0 -0.00012584116712317209 -0.033906385527418662 0 4.8163570207648994e-05 -0.034017932760165057 0 0.00020055223541108437 -0.033874438980560938 0 4.8163570207648994e-05 -0.034017932760165057 0 0.00026198773246673726 -0.034165344167373837 0 4.8163570207648994e-05 -0.034017932760165057 0 3.6652303461749606e-05 -0.034253353820764422 0 0.00026198773246673726 -0.034165344167373837 0 3.6652303461749606e-05 -0.034253353820764422 0 -3.0441446593962734e-05 -0.034395572922453016 0 0.00013441447252096882 -0.034609439196797008 0 3.6652303461749606e-05 -0.034253353820764422 0 0.00026198773246673726 -0.034165344167373837 0 0.00013441447252096882 -0.034609439196797008 0 -3.0441446593962734e-05 -0.034395572922453016 0 -9.0763264571440519e-05 -0.034268466583905144 0 -0.00014778567586165443 -0.034364686711247115 0 -3.0441446593962734e-05 -0.034395572922453016 0 -5.7511082849958833e-05 -0.034500292054524505 0 -0.00014778567586165443 -0.034364686711247115 0 -9.0763264571440519e-05 -0.034268466583905144 0 -0.00022855240267762841 -0.034188877821236911 0 -0.00014778567586165443 -0.034364686711247115 0 3.6652303461749606e-05 -0.034253353820764422 0 -3.0441446593962734e-05 -0.034395572922453016 0 -9.0763264571440519e-05 -0.034268466583905144 0 -8.3692647645038087e-05 -0.034125160016786019 0 3.6652303461749606e-05 -0.034253353820764422 0 -9.0763264571440519e-05 -0.034268466583905144 0 0.00042117462959967607 -0.03450376034688727 0 0.00029942113141939822 -0.034569585435749006 0 0.00085977828176865339 -0.034013914320173026 0 0.00050202346674055299 -0.033947261252458553 0 0.00056617208502655642 -0.034274462796216446 0 0.00050202346674055299 -0.033947261252458553 0 0.00026198773246673726 -0.034165344167373837 0 0.00056617208502655642 -0.034274462796216446 0 0.00020055223541108437 -0.033874438980560938 0 0.00050202346674055299 -0.033947261252458553 0 0.00026198773246673726 -0.034165344167373837 0 0.00026198773246673726 -0.034165344167373837 0 0.00056617208502655642 -0.034274462796216446 0 0.00013441447252096882 -0.034609439196797008 0 0.00029942113141939822 -0.034569585435749006 0 0.00021854185177186389 -0.034613007551308896 0 4.2076730656594664e-05 -0.034879193319072459 0 8.6479813074459509e-05 -0.034834891899985884 0 6.0863479303571126e-05 -0.034792450146596238 0 8.6479813074459509e-05 -0.034834891899985884 0 6.0863479303571126e-05 -0.034792450146596238 0 0.00013441447252096882 -0.034609439196797008 0 6.0863479303571126e-05 -0.034792450146596238 0 5.7012083126320791e-05 -0.034723232010808104 0 0.00013441447252096882 -0.034609439196797008 0 5.581881542805395e-05 -0.034865159567762698 0 6.0863479303571126e-05 -0.034792450146596238 0 5.7012083126320791e-05 -0.034723232010808104 0 -5.7511082849958833e-05 -0.034500292054524505 0 -1.0439836835321727e-05 -0.034599280858021816 0 -0.00011331232482562636 -0.034524189006976215 0 -5.7511082849958833e-05 -0.034500292054524505 0 -0.00015615227780190914 -0.034454588318918081 0 -0.00014778567586165443 -0.034364686711247115 0 -5.7511082849958833e-05 -0.034500292054524505 0 -0.00011331232482562636 -0.034524189006976215 0 -0.00015615227780190914 -0.034454588318918081 0 0.00013441447252096882 -0.034609439196797008 0 4.4591853352507154e-05 -0.034664304387121751 0 -1.0439836835321727e-05 -0.034599280858021816 0 -3.0441446593962734e-05 -0.034395572922453016 0 -5.7511082849958833e-05 -0.034500292054524505 0 0.00013441447252096882 -0.034609439196797008 0 -5.7511082849958833e-05 -0.034500292054524505 0 0.00013441447252096882 -0.034609439196797008 0 -1.0439836835321727e-05 -0.034599280858021816 0 5.7012083126320791e-05 -0.034723232010808104 0 0.00013441447252096882 -0.034609439196797008 0 4.4591853352507154e-05 -0.034664304387121751 0 -1.4742527403283527e-05 -0.034640584192954425 0 4.4591853352507154e-05 -0.034664304387121751 0 -1.0439836835321727e-05 -0.034599280858021816 0 -1.4742527403283527e-05 -0.034640584192954425 0 -1.0439836835321727e-05 -0.034599280858021816 0 -6.1246200263721285e-05 -0.034595830970460838 0 -1.0439836835321727e-05 -0.034599280858021816 0 -6.1246200263721285e-05 -0.034595830970460838 0 -0.00011331232482562636 -0.034524189006976215 0 -1.4742527403283527e-05 -0.034640584192954425 0 -6.1246200263721285e-05 -0.034595830970460838 0 -7.2248648511298051e-05 -0.034608059371094978 0 -7.2248648511298051e-05 -0.034608059371094978 0 -0.00010770620072064653 -0.034583892921878953 0 -0.00010829354315774148 -0.034572530322142206 0 -6.1246200263721285e-05 -0.034595830970460838 0 -7.2248648511298051e-05 -0.034608059371094978 0 -0.00010829354315774148 -0.034572530322142206 0 -8.3611036619691921e-05 -0.034606961885504745 0 -0.00010770620072064653 -0.034583892921878953 0 -0.00010778984034453172 -0.034565577453118008 0 -0.00010770620072064653 -0.034583892921878953 0 -0.00012435890410925613 -0.034572470316783933 0 -0.00010778984034453172 -0.034565577453118008 0 -0.00010770620072064653 -0.034583892921878953 0 -0.00012435890410925613 -0.034572470316783933 0 -0.00012690472630379814 -0.034569003769899853 0 -0.00012435890410925613 -0.034572470316783933 0 -0.00012690472630379814 -0.034569003769899853 0 -0.00015841973922392017 -0.03456323446606286 0 -0.00010770620072064653 -0.034583892921878953 0 -0.00012690472630379814 -0.034569003769899853 0 -0.00010829354315774148 -0.034572530322142206 0 -0.00012690472630379814 -0.034569003769899853 0 -0.00010829354315774148 -0.034572530322142206 0 -0.00014834023379956313 -0.034540262240093246 0 -0.00012690472630379814 -0.034569003769899853 0 -0.00014834023379956313 -0.034540262240093246 0 -0.00015841973922392017 -0.03456323446606286 0 -6.1246200263721285e-05 -0.034595830970460838 0 -0.00010829354315774148 -0.034572530322142206 0 -0.00011331232482562636 -0.034524189006976215 0 -0.00014834023379956313 -0.034540262240093246 0 -0.00015615227780190914 -0.034454588318918081 0 -0.0002505836230112676 -0.034378172277235435 0 -0.00011331232482562636 -0.034524189006976215 0 -0.00014834023379956313 -0.034540262240093246 0 -0.00015615227780190914 -0.034454588318918081 0 0.00037512784904040764 -0.030355566949581168 0 -0.00038747037831638614 -0.030402781424007555 0 -0.00010829354315774148 -0.034572530322142206 0 -0.00011331232482562636 -0.034524189006976215 0 -0.00014834023379956313 -0.034540262240093246 0 -0.00014834023379956313 -0.034540262240093246 0 -0.00015841973922392017 -0.03456323446606286 0 -0.0002505836230112676 -0.034378172277235435 0 -3.0493044301824161e-06 -0.028281520274880845 0 -0.00028102600081447645 -0.027949712600432119 0 0.0002867334708153321 -0.029045142881728228 0 -8.7743660601248579e-05 -0.028594900583831642 0 -0.00031354580415472033 -0.029905021853039712 0 -3.0493044301824161e-06 -0.028281520274880845 0 7.1072767518527222e-05 -0.026633920695692776 0 -3.0493044301824161e-06 -0.028281520274880845 0 -0.00038747037831638614 -0.030402781424007555 0 -3.0493044301824161e-06 -0.028281520274880845 0 0.00037512784904040764 -0.030355566949581168 0 -3.0493044301824161e-06 -0.028281520274880845 0 0.00038355375840750674 -0.027907936536021406 0 -0.0001216952571938472 -0.034488175318608059 0 -9.8467014569424041e-05 -0.034521386344561353 0 -0.00010778984034453172 -0.034565577453118008 0 -0.0001216952571938472 -0.034488175318608059 0 -0.00010778984034453172 -0.034565577453118008 0 -0.0001392954894189342 -0.034552898513597656 0 0.00037512784904040764 -0.030355566949581168 0 0.00028933998561880245 -0.030918593768500344 0 -0.00012435890410925613 -0.034572470316783933 0 -0.00015841973922392017 -0.03456323446606286 0 -0.00010778984034453172 -0.034565577453118008 0 0.0018108066661175542 -0.022687243153948457 0 0.00142246285933682 -0.023250000259771714 0 0.0013094686262302511 -0.02277313211855032 0 0.00142246285933682 -0.023250000259771714 0 0.00099988957826158131 -0.023103629721091347 0 0.0013094686262302511 -0.02277313211855032 0 0.00085496729978983812 -0.022866068552809874 0 0.00069488205448285819 -0.02261967901294858 0 0.00064861675913245587 -0.023107342901393598 0 0.00099988957826158131 -0.023103629721091347 0 0.0010436373204853273 -0.022837181047290146 0 0.00085496729978983812 -0.022866068552809874 0 0.00099988957826158131 -0.023103629721091347 0 0.0010436373204853273 -0.022837181047290146 0 0.0013094686262302511 -0.02277313211855032 0 0.00099988957826158131 -0.023103629721091347 0 0.00085496729978983812 -0.022866068552809874 0 0.00064861675913245587 -0.023107342901393598 0 0.00069488205448285819 -0.02261967901294858 0 0.00087829929949020274 -0.022372204171958468 0 0.00060784779646690513 -0.022126199790478175 0 0.00085496729978983812 -0.022866068552809874 0 0.00069488205448285819 -0.02261967901294858 0 0.00097198764214853108 -0.022638802620540716 0 0.0010436373204853273 -0.022837181047290146 0 0.00097198764214853108 -0.022638802620540716 0 0.0013094686262302511 -0.02277313211855032 0 0.0010436373204853273 -0.022837181047290146 0 0.00085496729978983812 -0.022866068552809874 0 0.00097198764214853108 -0.022638802620540716 0 0.00097198764214853108 -0.022638802620540716 0 0.00087829929949020274 -0.022372204171958468 0 0.0011445650509196326 -0.022461656691761152 0 0.00069488205448285819 -0.02261967901294858 0 0.00097198764214853108 -0.022638802620540716 0 0.00087829929949020274 -0.022372204171958468 0 0.0018108066661175542 -0.022687243153948457 0 0.0013094686262302511 -0.02277313211855032 0 0.0014552850052250736 -0.022410134751331041 0 0.000763520140011288 -0.027287089959948631 0 0.00023591542058544815 -0.026892952182133893 0 7.6198413490329898e-05 -0.026454470709723732 0 0.00097198764214853108 -0.022638802620540716 0 0.0013094686262302511 -0.02277313211855032 0 0.0011445650509196326 -0.022461656691761152 0 0.0013094686262302511 -0.02277313211855032 0 0.0011445650509196326 -0.022461656691761152 0 0.0014552850052250736 -0.022410134751331041 0 7.1072767518527222e-05 -0.026633920695692776 0 0.00023516300308860954 -0.025579077895605182 0 0.0011445650509196326 -0.022461656691761152 0 0.0014552850052250736 -0.022410134751331041 0 0.0011061589154811274 -0.022113376837225786 0 0.00023591542058544815 -0.026892952182133893 0 7.6198413490329898e-05 -0.026454470709723732 0 -0.00027482054918976138 -0.026474315533556971 0 -0.00028102600081447645 -0.027949712600432119 0 0.00023516300308860954 -0.025579077895605182 0 0.0020488865617469057 -0.020926419489105456 0 0.0015828683469425579 -0.020941042922640572 0 0.0014545719635322551 -0.020417706475829873 0 0.00023516300308860954 -0.025579077895605182 0 0.00092790535593374388 -0.021238005217758742 0 -0.0023304220627540354 -0.030633184752841769 0 -0.0019622688533689429 -0.03061467623521066 0 -0.0016357089779468099 -0.031433245573745827 0 0.00087829929949020274 -0.022372204171958468 0 0.0011061589154811274 -0.022113376837225786 0 0.00060784779646690513 -0.022126199790478175 0 0.00087829929949020274 -0.022372204171958468 0 0.0011445650509196326 -0.022461656691761152 0 0.0011061589154811274 -0.022113376837225786 0 -0.00048094024482464457 -0.029750137582107993 0 -0.00025830555724162406 -0.030089823555177593 0 -0.00020487479050843848 -0.030130158464702548 0 0.00023516300308860954 -0.025579077895605182 0 0.0010225918845159423 -0.024703550385535081 0 -0.0019622688533689429 -0.03061467623521066 0 -0.0016357089779468099 -0.031433245573745827 0 -0.0010166591764029322 -0.031442333093137022 0 -0.00028102600081447645 -0.027949712600432119 0 -0.00024411811117045602 -0.029974692777409325 0 -0.00023745298897308911 -0.030203377357654493 0 -0.00033024476502909421 -0.030293521133141304 0 -0.00022370440776843208 -0.03032500931429782 0 -0.00025830555724162406 -0.030089823555177593 0 -0.00020487479050843848 -0.030130158464702548 0 -4.4423852889408517e-05 -0.030401997485338464 0 -0.0003891646363850865 -0.030033392049630063 0 -0.00041668733216974039 -0.030207704172013971 0 -0.00056423182952383439 -0.030199485172634176 0 -0.0003891646363850865 -0.030033392049630063 0 -0.00023745298897308911 -0.030203377357654493 0 -0.00041668733216974039 -0.030207704172013971 0 -0.00028102600081447645 -0.027949712600432119 0 0.00014075204827245579 -0.029159319442755585 0 -0.00023745298897308911 -0.030203377357654493 0 -0.00041668733216974039 -0.030207704172013971 0 -0.00033024476502909421 -0.030293521133141304 0 -0.00041668733216974039 -0.030207704172013971 0 -0.00050816380135862145 -0.030360418677054732 0 -0.00033024476502909421 -0.030293521133141304 0 -0.00041668733216974039 -0.030207704172013971 0 -0.00056423182952383439 -0.030199485172634176 0 -0.00050816380135862145 -0.030360418677054732 0 -0.00041466659507761035 -0.030561855954952765 0 -0.00069515349784900801 -0.032004574188867381 0 -0.00056423182952383439 -0.030199485172634176 0 -0.00070018811715955032 -0.03006068047216004 0 -0.00074376032461665365 -0.030326791021131096 0 -0.0002333120670097237 -0.034000424261965694 0 -0.00027263633825920036 -0.0338448740475372 0 -0.00021015930209058859 -0.033856098469422946 0 -0.0002333120670097237 -0.034000424261965694 0 -0.00030542894348454565 -0.034055763362017495 0 -0.00027263633825920036 -0.0338448740475372 0 -0.0002333120670097237 -0.034000424261965694 0 -0.00030542894348454565 -0.034055763362017495 0 -0.00027569002785843765 -0.034056157483958183 0 -0.00036296215886669382 -0.030365617515303197 0 -0.00010721188987993637 -0.030368476693266193 0 -0.00044366459036464397 -0.030854753710755373 0 -0.00041466659507761035 -0.030561855954952765 0 -0.00056119749619154883 -0.030710434022749727 0 -0.00022855240267762841 -0.034188877821236911 0 -0.00024143498747820685 -0.034293512214335499 0 -0.00014778567586165443 -0.034364686711247115 0 -0.00080834171729409561 -0.031488682742195281 0 -0.00056119749619154883 -0.030710434022749727 0 -0.00024143498747820685 -0.034293512214335499 0 -0.00014778567586165443 -0.034364686711247115 0 -0.0002505836230112676 -0.034378172277235435 0 -0.00015615227780190914 -0.034454588318918081 0 -0.00014778567586165443 -0.034364686711247115 0 -0.0002505836230112676 -0.034378172277235435 0 -0.00041466659507761035 -0.030561855954952765 0 -0.00038747037831638614 -0.030402781424007555 0 -0.00056119749619154883 -0.030710434022749727 0 -0.00038747037831638614 -0.030402781424007555 0 -0.0003891646363850865 -0.030033392049630063 0 -0.00056423182952383439 -0.030199485172634176 0 -0.00070018811715955032 -0.03006068047216004 0 -0.00028102600081447645 -0.027949712600432119 0 -0.00041466659507761035 -0.030561855954952765 0 -0.00016300837335840951 -0.029062304621419552 0 0.00022134643455921265 -0.029044330807020739 0 0.00020738007115441267 -0.029130843279312785 0 6.4608027466245277e-05 -0.0293353889295991 0 -0.00016300837335840951 -0.029062304621419552 0 0.00020738007115441267 -0.029130843279312785 0 0.0023188905926397911 -0.0080727931974739903 0 0.0022796322201842907 -0.007778970582014667 0 0.0020013288996741699 -0.0079901362046520645 0 0.0023188905926397911 -0.0080727931974739903 0 0.0026064375882788823 -0.0077352275496353285 0 0.0022796322201842907 -0.007778970582014667 0 0.002594547424179086 -0.0084668773897281537 0 0.0023188905926397911 -0.0080727931974739903 0 0.0020501056213468659 -0.0083536416554143931 0 0.002594547424179086 -0.0084668773897281537 0 0.0023188905926397911 -0.0080727931974739903 0 0.0027718212451319649 -0.0080526304154371047 0 0.0023188905926397911 -0.0080727931974739903 0 0.0027718212451319649 -0.0080526304154371047 0 0.0026064375882788823 -0.0077352275496353285 0 0.0027718212451319649 -0.0080526304154371047 0 0.0029746548638280388 -0.0077106735301042395 0 0.0026064375882788823 -0.0077352275496353285 0 0.0027718212451319649 -0.0080526304154371047 0 0.0030283856916687429 -0.0083161358186618628 0 0.0031806749145951978 -0.0080188652536318829 0 0.0027718212451319649 -0.0080526304154371047 0 0.0031806749145951978 -0.0080188652536318829 0 0.0029746548638280388 -0.0077106735301042395 0 0.002594547424179086 -0.0084668773897281537 0 0.0027718212451319649 -0.0080526304154371047 0 0.0030283856916687429 -0.0083161358186618628 0 0.00070033007372565035 -0.017935278066206935 0 0.00097162313555475451 -0.016786460653545308 0 0.0030283856916687429 -0.0083161358186618628 0 0.0034115957052767622 -0.0083563510392544536 0 0.0031806749145951978 -0.0080188652536318829 0 0.0030157982263365525 -0.0086925262095849977 0 0.0030283856916687429 -0.0083161358186618628 0 0.0034115957052767622 -0.0083563510392544536 0 0.00069488205448285819 -0.02261967901294858 0 0.00064861675913245587 -0.023107342901393598 0 0.00037355330641928745 -0.022627582406403696 0 0.00097162313555475451 -0.016786460653545308 0 0.0014557527406828671 -0.016833233612214716 0 0.00069488205448285819 -0.02261967901294858 0 0.00037355330641928745 -0.022627582406403696 0 0.00060784779646690513 -0.022126199790478175 0 0.00037355330641928745 -0.022627582406403696 0 0.00060784779646690513 -0.022126199790478175 0 0.00010298753547174004 -0.022141768284573506 0 0.0015828683469425579 -0.020941042922640572 0 0.0014545719635322551 -0.020417706475829873 0 0.0011116962751243108 -0.020958821734374362 0 0.00092790535593374388 -0.021238005217758742 0 0.0014557527406828671 -0.016833233612214716 0 0.0014545719635322551 -0.020417706475829873 0 0.00081973901611702199 -0.020441748439687546 0 0.0011116962751243108 -0.020958821734374362 0 0.0025875847067680776 -0.0075559874520745064 0 0.0027236239495706366 -0.0078123479316647834 0 0.0024931856079936842 -0.0077975819826979469 0 0.0012669193583088887 -0.015185339049291929 0 0.0014557527406828671 -0.016833233612214716 0 0.0014557527406828671 -0.016833233612214716 0 0.002320349666408142 -0.014216426523620452 0 0.002320349666408142 -0.014216426523620452 0 0.0024564502701144015 -0.013425496664494651 0 0.0025875847067680776 -0.0075559874520745064 0 0.0024931856079936842 -0.0077975819826979469 0 0.0023304461772763831 -0.0075579885518944059 0 0.0025875847067680776 -0.0075559874520745064 0 0.0023304461772763831 -0.0075579885518944059 0 0.002443966098155133 -0.0073234471985669037 0 0.0023304461772763831 -0.0075579885518944059 0 0.0021065939398296749 -0.0076455318109034821 0 0.0021563267262957354 -0.0074327948013813375 0 0.0023304461772763831 -0.0075579885518944059 0 0.0022605197792296941 -0.0073929777000357449 0 0.0021563267262957354 -0.0074327948013813375 0 0.0023304461772763831 -0.0075579885518944059 0 0.0022796322201842907 -0.007778970582014667 0 0.0021065939398296749 -0.0076455318109034821 0 0.0024931856079936842 -0.0077975819826979469 0 0.0023304461772763831 -0.0075579885518944059 0 0.0022796322201842907 -0.007778970582014667 0 0.0023147548469388472 -0.0071779412063423262 0 0.0022943048412024363 -0.0072098191568469323 0 0.002443966098155133 -0.0073234471985669037 0 0.0022150657304752554 -0.0071533469753784626 0 0.0022943048412024363 -0.0072098191568469323 0 0.0022610976281070951 -0.0070963310503527974 0 0.0022150657304752554 -0.0071533469753784626 0 0.0022943048412024363 -0.0072098191568469323 0 0.002208416236674172 -0.0072249512363336803 0 0.0022150657304752554 -0.0071533469753784626 0 0.002208416236674172 -0.0072249512363336803 0 0.0021371734187950447 -0.0071503803086259915 0 0.0023147548469388472 -0.0071779412063423262 0 0.0022943048412024363 -0.0072098191568469323 0 0.0022944485196994945 -0.0071751464774711792 0 0.0025133472174094424 -0.014155692115608862 0 0.0027149777681052794 -0.015354945341277272 0 0.0022943048412024363 -0.0072098191568469323 0 0.0023007790937012102 -0.0072975121443276149 0 0.002443966098155133 -0.0073234471985669037 0 0.0022943048412024363 -0.0072098191568469323 0 0.002208416236674172 -0.0072249512363336803 0 0.0023007790937012102 -0.0072975121443276149 0 0.002208416236674172 -0.0072249512363336803 0 0.0021921648561113653 -0.0073126162820344011 0 0.0023007790937012102 -0.0072975121443276149 0 0.0023304461772763831 -0.0075579885518944059 0 0.0022605197792296941 -0.0073929777000357449 0 0.002443966098155133 -0.0073234471985669037 0 0.0021921648561113653 -0.0073126162820344011 0 0.0022605197792296941 -0.0073929777000357449 0 0.0023007790937012102 -0.0072975121443276149 0 0.0022605197792296941 -0.0073929777000357449 0 0.0023007790937012102 -0.0072975121443276149 0 0.002443966098155133 -0.0073234471985669037 0 0.0021921648561113653 -0.0073126162820344011 0 0.0022605197792296941 -0.0073929777000357449 0 0.0021563267262957354 -0.0074327948013813375 0 0.00081973901611702199 -0.020441748439687546 0 0.00052164152920236822 -0.019919541604163295 0 0.00084687538679344111 -0.019905216537750323 0 0.0012669193583088887 -0.015185339049291929 0 0.0015117328005501349 -0.01503516345466813 0 0.0026691864934022006 -0.017000064454670671 0 0.0020880049918489394 -0.022731019827843601 0 0.0026691864934022006 -0.017000064454670671 0 0.0015117328005501349 -0.01503516345466813 0 0.00022301554504351414 -0.019387800098293589 0 0.00052164152920236822 -0.019919541604163295 0 0.00084687538679344111 -0.019905216537750323 0 4.0363703044201875e-05 -0.032829123567797616 0 -0.00014260907931322326 -0.032725955445177479 0 -0.00021230005120366328 -0.032285751321964817 0 -0.00014260907931322326 -0.032725955445177479 0 -0.0005040774140499416 -0.032657738867382283 0 -0.00013481974501816353 -0.032977027156328456 0 -0.0001391966656266802 -0.033104808690779412 0 -0.00015786702266286837 -0.033123944355840131 0 -0.00011563072448205009 -0.033053492367287579 0 -0.0005040774140499416 -0.032657738867382283 0 -0.00021230005120366328 -0.032285751321964817 0 -0.0006011976311654639 -0.03228708955913262 0 -0.00014260907931322326 -0.032725955445177479 0 -0.0005040774140499416 -0.032657738867382283 0 -0.00021230005120366328 -0.032285751321964817 0 0.0014545719635322551 -0.020417706475829873 0 0.00081973901611702199 -0.020441748439687546 0 0.00084687538679344111 -0.019905216537750323 0 -0.0010166591764029322 -0.031442333093137022 0 -0.00021230005120366328 -0.032285751321964817 0 -0.0006011976311654639 -0.03228708955913262 0 0.0010225918845159423 -0.024703550385535081 0 0.0020880049918489394 -0.022731019827843601 0 -0.00012542881811557284 -0.031456633566292198 0 -5.3620656777015733e-05 -0.031434795981975482 0 -0.0016357089779468099 -0.031433245573745827 0 -0.0010166591764029322 -0.031442333093137022 0 -0.00097564058570085799 -0.032210391483925987 0 -0.0010166591764029322 -0.031442333093137022 0 -0.0006011976311654639 -0.03228708955913262 0 -0.00097564058570085799 -0.032210391483925987 0 -0.00020487479050843848 -0.030130158464702548 0 5.0260747166778782e-05 -0.030473646709903327 0 -4.4423852889408517e-05 -0.030401997485338464 0 -0.00024411811117045602 -0.029974692777409325 0 -5.3620656777015733e-05 -0.031434795981975482 0 -0.00017010949723313316 -0.033133533597425595 0 -0.00015786702266286837 -0.033123944355840131 0 -0.00019122344224364312 -0.033162103942869912 0 -0.0001391966656266802 -0.033104808690779412 0 -0.00017010949723313316 -0.033133533597425595 0 -0.00015786702266286837 -0.033123944355840131 0 9.2207502078733765e-05 -0.032055057181806387 0 -5.3620656777015733e-05 -0.031434795981975482 0 -0.0005040774140499416 -0.032657738867382283 0 -0.0006011976311654639 -0.03228708955913262 0 -0.00090732266061334746 -0.032240284101992554 0 -0.00014246352762570672 -0.033111666412205025 0 -0.00019477956178483503 -0.03315873856806039 0 -0.00019365464570493567 -0.033197424746051529 0 -0.00015786702266286837 -0.033123944355840131 0 -0.00014246352762570672 -0.033111666412205025 0 -0.00019477956178483503 -0.03315873856806039 0 -0.00015786702266286837 -0.033123944355840131 0 -0.00014246352762570672 -0.033111666412205025 0 -0.00011563072448205009 -0.033053492367287579 0 -0.00014246352762570672 -0.033111666412205025 0 -0.00011797004346010505 -0.033183831784263491 0 -0.00019365464570493567 -0.033197424746051529 0 -0.00011797004346010505 -0.033183831784263491 0 -0.00019365464570493567 -0.033197424746051529 0 -0.00014020434650892472 -0.033329870343684537 0 -0.00011797004346010505 -0.033183831784263491 0 -2.2110831104397478e-05 -0.033042850163194942 0 -3.5382328826915838e-05 -0.033326062994906161 0 -0.00014246352762570672 -0.033111666412205025 0 -0.00011797004346010505 -0.033183831784263491 0 -2.2110831104397478e-05 -0.033042850163194942 0 -2.2110831104397478e-05 -0.033042850163194942 0 -0.00011563072448205009 -0.033053492367287579 0 -0.00013481974501816353 -0.032977027156328456 0 -0.00014246352762570672 -0.033111666412205025 0 -2.2110831104397478e-05 -0.033042850163194942 0 -0.00011563072448205009 -0.033053492367287579 0 -0.0001391966656266802 -0.033104808690779412 0 -0.00011563072448205009 -0.033053492367287579 0 -0.00013481974501816353 -0.032977027156328456 0 9.2207502078733765e-05 -0.032055057181806387 0 0.00014207009405396554 -0.032246314128403758 0 4.0363703044201875e-05 -0.032829123567797616 0 -0.00014260907931322326 -0.032725955445177479 0 -6.3891382597706123e-05 -0.032915031657354842 0 -0.00014260907931322326 -0.032725955445177479 0 -0.00013481974501816353 -0.032977027156328456 0 -6.3891382597706123e-05 -0.032915031657354842 0 4.0363703044201875e-05 -0.032829123567797616 0 -6.3891382597706123e-05 -0.032915031657354842 0 -6.5813470738740971e-05 -0.032902714802520064 0 -6.3891382597706123e-05 -0.032915031657354842 0 -8.5631390005010296e-05 -0.032914865339043274 0 -6.5813470738740971e-05 -0.032902714802520064 0 -6.3891382597706123e-05 -0.032915031657354842 0 -7.2553963372078517e-05 -0.032969781369140055 0 -8.5631390005010296e-05 -0.032914865339043274 0 -0.00013481974501816353 -0.032977027156328456 0 -6.3891382597706123e-05 -0.032915031657354842 0 -7.2553963372078517e-05 -0.032969781369140055 0 -2.2110831104397478e-05 -0.033042850163194942 0 -0.00013481974501816353 -0.032977027156328456 0 -7.2553963372078517e-05 -0.032969781369140055 0 -2.2110831104397478e-05 -0.033042850163194942 0 -7.2553963372078517e-05 -0.032969781369140055 0 -6.8767729219019411e-05 -0.032853681174148726 0 0.00078793374322074937 -0.032172938851687413 0 0.00091413521824269958 -0.031866352286113883 0 -2.2110831104397478e-05 -0.033042850163194942 0 -6.8767729219019411e-05 -0.032853681174148726 0 3.6779542644826766e-05 -0.032535134840790271 0 -6.8767729219019411e-05 -0.032853681174148726 0 -0.00014105359633849316 -0.03284042758531109 0 -0.00016583995675821636 -0.032713985811192232 0 -6.8767729219019411e-05 -0.032853681174148726 0 -0.00016583995675821636 -0.032713985811192232 0 3.6779542644826766e-05 -0.032535134840790271 0 -6.8767729219019411e-05 -0.032853681174148726 0 -8.5631390005010296e-05 -0.032914865339043274 0 -0.00014105359633849316 -0.03284042758531109 0 -7.2553963372078517e-05 -0.032969781369140055 0 -6.8767729219019411e-05 -0.032853681174148726 0 -8.5631390005010296e-05 -0.032914865339043274 0 -8.5631390005010296e-05 -0.032914865339043274 0 -0.00015282243147854852 -0.032867583013122641 0 -0.00014105359633849316 -0.03284042758531109 0 -0.00015282243147854852 -0.032867583013122641 0 -0.00014105359633849316 -0.03284042758531109 0 -0.00025650132753664523 -0.03280456417616795 0 -0.00016583995675821636 -0.032713985811192232 0 -0.00025650132753664523 -0.03280456417616795 0 -0.0002881198351256411 -0.032524190729415751 0 -0.00014105359633849316 -0.03284042758531109 0 -0.00016583995675821636 -0.032713985811192232 0 -0.00025650132753664523 -0.03280456417616795 0 -0.00025650132753664523 -0.03280456417616795 0 -0.00036124433717389453 -0.032837460567972127 0 -0.0002881198351256411 -0.032524190729415751 0 0.0023181513920718052 -0.016976687927375944 0 0.0024852118200037669 -0.016814671408009782 0 0.0036208743557569847 -0.013300410553282779 0 0.004381766478710053 -0.016868366999525933 0 0.0025792854724412174 -0.013705974630423298 0 0.0024852118200037669 -0.016814671408009782 0 0.0031166167033358522 -0.016733104103674235 0 0.0024852118200037669 -0.016814671408009782 0 0.0036584663638084473 -0.014632513946712248 0 0.0031166167033358522 -0.016733104103674235 0 0.0036584663638084473 -0.014632513946712248 0 -0.00015282243147854852 -0.032867583013122641 0 -0.00025905772512185604 -0.032808902708439225 0 -0.00011772756650720938 -0.032894166915046742 0 -0.00015282243147854852 -0.032867583013122641 0 -0.00025650132753664523 -0.03280456417616795 0 -0.00025905772512185604 -0.032808902708439225 0 0.0039819463189227243 -0.014556139542884837 0 0.0040787157137550873 -0.015010924919839066 0 0.0029262153243510172 -0.014068796450969067 0 -8.5631390005010296e-05 -0.032914865339043274 0 -0.00015282243147854852 -0.032867583013122641 0 -6.5813470738740971e-05 -0.032902714802520064 0 -0.00015282243147854852 -0.032867583013122641 0 -0.00011772756650720938 -0.032894166915046742 0 -6.5813470738740971e-05 -0.032902714802520064 0 0.0023554247362751004 -0.016351129423452095 0 0.0023243611193127199 -0.016316850477487307 0 0.0023344261877975129 -0.016339430677504818 0 4.0363703044201875e-05 -0.032829123567797616 0 -0.00011772756650720938 -0.032894166915046742 0 -6.5813470738740971e-05 -0.032902714802520064 0 0.0026691864934022006 -0.017000064454670671 0 0.0031166167033358522 -0.016733104103674235 0 0.0026691864934022006 -0.017000064454670671 0 0.0027149777681052794 -0.015354945341277272 0 0.0022150657304752554 -0.0071533469753784626 0 0.0022610976281070951 -0.0070963310503527974 0 0.0021522253970982569 -0.0070862166525286459 0 0.0031166167033358522 -0.016733104103674235 0 0.0027149777681052794 -0.015354945341277272 0 -0.00021964064543388316 -0.033332444197691345 0 -0.00023704400207722202 -0.033266813908141506 0 -0.00021878454891476623 -0.033317049808087688 0 -0.00021964064543388316 -0.033332444197691345 0 -0.00023704400207722202 -0.033266813908141506 0 -0.00021537251523125688 -0.033278165462451874 0 -0.00021964064543388316 -0.033332444197691345 0 -0.00022137989876204421 -0.033417132302341924 0 -0.00021878454891476623 -0.033317049808087688 0 -0.00010792656363491294 -0.03339258364633977 0 -0.00022137989876204421 -0.033417132302341924 0 -0.00021878454891476623 -0.033317049808087688 0 -0.00021964064543388316 -0.033332444197691345 0 -0.00022137989876204421 -0.033417132302341924 0 -0.00024168837388148214 -0.033299140015843179 0 -0.00070067098411707876 -0.032571334031773799 0 -0.00069515349784900801 -0.032004574188867381 0 -0.00022137989876204421 -0.033417132302341924 0 -0.0003485542610127849 -0.033831473566524425 0 -0.00021015930209058859 -0.033856098469422946 0 -0.00069515349784900801 -0.032004574188867381 0 -0.00065108404987640771 -0.032042530468283141 0 -0.00069515349784900801 -0.032004574188867381 0 -0.00040200206958952906 -0.031837228519251429 0 -0.00056423182952383439 -0.030199485172634176 0 -0.00074376032461665365 -0.030326791021131096 0 -0.00050816380135862145 -0.030360418677054732 0 -0.00021964064543388316 -0.033332444197691345 0 -0.00024168837388148214 -0.033299140015843179 0 -0.00021537251523125688 -0.033278165462451874 0 -0.00021537251523125688 -0.033278165462451874 0 -0.00021118346439032837 -0.03319181776419395 0 -0.00022339805743551257 -0.033208006057149887 0 -0.00040200206958952906 -0.031837228519251429 0 -0.00020819118717886316 -0.031665784180722356 0 -0.00050816380135862145 -0.030360418677054732 0 -0.00033024476502909421 -0.030293521133141304 0 -0.00026781197520873697 -0.030404407556567561 0 -5.3620656777015733e-05 -0.031434795981975482 0 -0.00020819118717886316 -0.031665784180722356 0 5.0260747166778782e-05 -0.030473646709903327 0 -4.4423852889408517e-05 -0.030401997485338464 0 -0.00026781197520873697 -0.030404407556567561 0 -0.00017010949723313316 -0.033133533597425595 0 -0.00021118346439032837 -0.03319181776419395 0 -0.00019122344224364312 -0.033162103942869912 0 -0.00023745298897308911 -0.030203377357654493 0 -4.4423852889408517e-05 -0.030401997485338464 0 -0.00022370440776843208 -0.03032500931429782 0 -4.4423852889408517e-05 -0.030401997485338464 0 -0.00022370440776843208 -0.03032500931429782 0 -0.00026781197520873697 -0.030404407556567561 0 0.00014075204827245579 -0.029159319442755585 0 0.00025105529346931306 -0.029503475070224796 0 -0.00033024476502909421 -0.030293521133141304 0 -0.00022370440776843208 -0.03032500931429782 0 -0.00026781197520873697 -0.030404407556567561 0 -0.00021118346439032837 -0.03319181776419395 0 -0.00019122344224364312 -0.033162103942869912 0 -0.00022339805743551257 -0.033208006057149887 0 -0.00019122344224364312 -0.033162103942869912 0 -0.00022339805743551257 -0.033208006057149887 0 -0.00019477956178483503 -0.03315873856806039 0 -0.00015786702266286837 -0.033123944355840131 0 -0.00019122344224364312 -0.033162103942869912 0 -0.00019477956178483503 -0.03315873856806039 0 -0.00023704400207722202 -0.033266813908141506 0 -0.00021537251523125688 -0.033278165462451874 0 -0.00022339805743551257 -0.033208006057149887 0 -0.00023704400207722202 -0.033266813908141506 0 -0.00022339805743551257 -0.033208006057149887 0 -0.00025079321382669552 -0.033207070757508922 0 -0.00025079321382669552 -0.033207070757508922 0 -0.00019477956178483503 -0.03315873856806039 0 -0.00019365464570493567 -0.033197424746051529 0 -0.00022339805743551257 -0.033208006057149887 0 -0.00025079321382669552 -0.033207070757508922 0 -0.00019477956178483503 -0.03315873856806039 0 -0.00025079321382669552 -0.033207070757508922 0 -0.00019365464570493567 -0.033197424746051529 0 -0.00029589957339738547 -0.033226489861531566 0 -0.00025079321382669552 -0.033207070757508922 0 -0.00029589957339738547 -0.033226489861531566 0 -0.00025155336713722612 -0.033231650731815957 0 -0.00029589957339738547 -0.033226489861531566 0 -0.00025155336713722612 -0.033231650731815957 0 -0.00022032149781149888 -0.033105706352647708 0 -0.00023704400207722202 -0.033266813908141506 0 -0.00025155336713722612 -0.033231650731815957 0 -0.00021878454891476623 -0.033317049808087688 0 -0.00023704400207722202 -0.033266813908141506 0 -0.00025079321382669552 -0.033207070757508922 0 -0.00025155336713722612 -0.033231650731815957 0 -0.00025155336713722612 -0.033231650731815957 0 -0.00021878454891476623 -0.033317049808087688 0 -0.00013045143466116209 -0.033222364599077882 0 -0.00010792656363491294 -0.03339258364633977 0 -0.00021878454891476623 -0.033317049808087688 0 -0.00013045143466116209 -0.033222364599077882 0 -3.6275685305571901e-05 -0.033100239869190758 0 -0.00013045143466116209 -0.033222364599077882 0 -0.00022032149781149888 -0.033105706352647708 0 -0.00025155336713722612 -0.033231650731815957 0 -0.00013045143466116209 -0.033222364599077882 0 -0.00022032149781149888 -0.033105706352647708 0 -0.00022359042396565912 -0.033481943237797789 0 -0.00015750960891305085 -0.033669493546180984 0 -0.00048940086496915009 -0.033301440358164132 0 -0.00051943892411706585 -0.033388106557603096 0 -0.00062801357081053032 -0.033360873033015069 0 -3.6275685305571901e-05 -0.033100239869190758 0 -0.00022032149781149888 -0.033105706352647708 0 -3.1864920153714811e-05 -0.032972972703633731 0 -0.00051943892411706585 -0.033388106557603096 0 -0.00045892236310876599 -0.033477590874491411 0 -0.00061677207616008141 -0.033429658715875998 0 -0.0001019138788944196 -0.033799316387959639 0 -0.00014513040711112095 -0.03388344464117999 0 0.00026607276158561972 -0.033966114443775078 0 0.00027377314928770014 -0.033987291127483915 0 0.00028024818280469828 -0.03400104556581926 0 -0.00045892236310876599 -0.033477590874491411 0 -0.00038245822338152851 -0.033379125089495511 0 -0.00029406467007627411 -0.033543846637228772 0 -0.00051943892411706585 -0.033388106557603096 0 -0.00045892236310876599 -0.033477590874491411 0 -0.00038245822338152851 -0.033379125089495511 0 -0.00048940086496915009 -0.033301440358164132 0 -0.00051943892411706585 -0.033388106557603096 0 -0.00038245822338152851 -0.033379125089495511 0 -0.00029589957339738547 -0.033226489861531566 0 -0.00048940086496915009 -0.033301440358164132 0 -0.00038245822338152851 -0.033379125089495511 0 -0.00023075656275126427 -0.03342807081432269 0 -0.00022359042396565912 -0.033481943237797789 0 -0.00029589957339738547 -0.033226489861531566 0 -0.00038245822338152851 -0.033379125089495511 0 -0.00024323933718117647 -0.033360320774154982 0 -0.00019365464570493567 -0.033197424746051529 0 -0.00029589957339738547 -0.033226489861531566 0 -0.00024323933718117647 -0.033360320774154982 0 -0.00019365464570493567 -0.033197424746051529 0 -0.00024323933718117647 -0.033360320774154982 0 -0.00014020434650892472 -0.033329870343684537 0 -0.00024323933718117647 -0.033360320774154982 0 -0.00015242511191072516 -0.033460429350564161 0 -0.00014020434650892472 -0.033329870343684537 0 -0.00024323933718117647 -0.033360320774154982 0 -0.00015242511191072516 -0.033460429350564161 0 -0.00029406467007627411 -0.033543846637228772 0 -0.00038245822338152851 -0.033379125089495511 0 -0.00024323933718117647 -0.033360320774154982 0 -0.00029406467007627411 -0.033543846637228772 0 -0.0001019138788944196 -0.033799316387959639 0 -4.9841501303482638e-05 -0.033762607184998059 0 0.00026607276158561972 -0.033966114443775078 0 0.00014867341215071532 -0.033875578016487363 0 0.00018465051503730172 -0.033810085375838066 0 -4.9841501303482638e-05 -0.033762607184998059 0 -2.2504527144858058e-05 -0.033750449855195049 0 0.00014867341215071532 -0.033875578016487363 0 0.00018465051503730172 -0.033810085375838066 0 -3.5072537875431917e-05 -0.033663943967006345 0 -0.00015242511191072516 -0.033460429350564161 0 -0.00029406467007627411 -0.033543846637228772 0 -3.5072537875431917e-05 -0.033663943967006345 0 0.00018465051503730172 -0.033810085375838066 0 -3.5072537875431917e-05 -0.033663943967006345 0 0.00011327990632906674 -0.033715117801444448 0 0.00018465051503730172 -0.033810085375838066 0 0.00027366241362720457 -0.033913094299739738 0 0.00027103577185625034 -0.033838203308495157 0 0.00027366241362720457 -0.033913094299739738 0 0.00027103577185625034 -0.033838203308495157 0 0.00029889050237318445 -0.033945434840291763 0 0.00027366241362720457 -0.033913094299739738 0 0.00029889050237318445 -0.033945434840291763 0 0.00028024818280469828 -0.03400104556581926 0 0.00026607276158561972 -0.033966114443775078 0 0.00027366241362720457 -0.033913094299739738 0 0.00028024818280469828 -0.03400104556581926 0 0.00026607276158561972 -0.033966114443775078 0 0.00018465051503730172 -0.033810085375838066 0 0.00027366241362720457 -0.033913094299739738 0 0.0011683997525837168 -0.030588383619761312 0 0.00091413521824269958 -0.031866352286113883 0 -0.00027140242383055281 -0.031868997407326904 0 -0.0002881198351256411 -0.032524190729415751 0 -0.00060171202622243385 -0.032260797968412053 0 -0.00036124433717389453 -0.032837460567972127 0 -0.0002881198351256411 -0.032524190729415751 0 -0.00060171202622243385 -0.032260797968412053 0 -0.00027140242383055281 -0.031868997407326904 0 -0.0002881198351256411 -0.032524190729415751 0 3.6779542644826766e-05 -0.032535134840790271 0 0.0024852118200037669 -0.016814671408009782 0 0.0019598175504821191 -0.02313951976914937 0 -0.00016583995675821636 -0.032713985811192232 0 -0.0002881198351256411 -0.032524190729415751 0 3.6779542644826766e-05 -0.032535134840790271 0 9.7603907154018916e-05 -0.033500607340368541 0 0.00011621315550694633 -0.033347763659292505 0 5.573093374133389e-05 -0.033537774838703627 0 0.00011621315550694633 -0.033347763659292505 0 2.1784059294099588e-05 -0.033512850138190005 0 5.573093374133389e-05 -0.033537774838703627 0 2.1784059294099588e-05 -0.033512850138190005 0 -5.5523567200882477e-05 -0.033453957397641197 0 -3.5072537875431917e-05 -0.033663943967006345 0 2.1784059294099588e-05 -0.033512850138190005 0 -3.5382328826915838e-05 -0.033326062994906161 0 -5.5523567200882477e-05 -0.033453957397641197 0 -2.2110831104397478e-05 -0.033042850163194942 0 0.00011621315550694633 -0.033347763659292505 0 -3.5382328826915838e-05 -0.033326062994906161 0 0.00011621315550694633 -0.033347763659292505 0 2.1784059294099588e-05 -0.033512850138190005 0 -3.5382328826915838e-05 -0.033326062994906161 0 -3.5382328826915838e-05 -0.033326062994906161 0 -0.00014020434650892472 -0.033329870343684537 0 -5.5523567200882477e-05 -0.033453957397641197 0 -0.00011797004346010505 -0.033183831784263491 0 -3.5382328826915838e-05 -0.033326062994906161 0 -0.00014020434650892472 -0.033329870343684537 0 -0.00015242511191072516 -0.033460429350564161 0 -5.5523567200882477e-05 -0.033453957397641197 0 -3.5072537875431917e-05 -0.033663943967006345 0 -0.00015242511191072516 -0.033460429350564161 0 -0.00014020434650892472 -0.033329870343684537 0 -5.5523567200882477e-05 -0.033453957397641197 0 -3.5072537875431917e-05 -0.033663943967006345 0 1.4320281955169511e-05 -0.033655962772068296 0 7.9676319956190056e-06 -0.033617135061384112 0 -3.5072537875431917e-05 -0.033663943967006345 0 1.4320281955169511e-05 -0.033655962772068296 0 0.00011327990632906674 -0.033715117801444448 0 1.4320281955169511e-05 -0.033655962772068296 0 7.9676319956190056e-06 -0.033617135061384112 0 5.9392136596560257e-06 -0.033611539534295368 0 7.9676319956190056e-06 -0.033617135061384112 0 1.7039824806222363e-05 -0.033589931044904743 0 5.9392136596560257e-06 -0.033611539534295368 0 2.1784059294099588e-05 -0.033512850138190005 0 -3.5072537875431917e-05 -0.033663943967006345 0 7.9676319956190056e-06 -0.033617135061384112 0 2.1784059294099588e-05 -0.033512850138190005 0 7.9676319956190056e-06 -0.033617135061384112 0 5.573093374133389e-05 -0.033537774838703627 0 7.9676319956190056e-06 -0.033617135061384112 0 5.573093374133389e-05 -0.033537774838703627 0 1.7039824806222363e-05 -0.033589931044904743 0 5.573093374133389e-05 -0.033537774838703627 0 1.7039824806222363e-05 -0.033589931044904743 0 4.5466999875925486e-05 -0.033552896399179584 0 1.7039824806222363e-05 -0.033589931044904743 0 6.6728601640147291e-06 -0.033569519628049389 0 -1.4361343953142874e-05 -0.03357462027421497 0 1.7039824806222363e-05 -0.033589931044904743 0 6.6728601640147291e-06 -0.033569519628049389 0 4.5466999875925486e-05 -0.033552896399179584 0 6.6728601640147291e-06 -0.033569519628049389 0 4.5466999875925486e-05 -0.033552896399179584 0 4.5052182753326336e-05 -0.033546428735831482 0 6.6728601640147291e-06 -0.033569519628049389 0 -2.1853702658690143e-05 -0.033564919812993879 0 4.5052182753326336e-05 -0.033546428735831482 0 9.7603907154018916e-05 -0.033500607340368541 0 4.5466999875925486e-05 -0.033552896399179584 0 4.5052182753326336e-05 -0.033546428735831482 0 9.7603907154018916e-05 -0.033500607340368541 0 5.573093374133389e-05 -0.033537774838703627 0 4.5466999875925486e-05 -0.033552896399179584 0 0.0011683997525837168 -0.030588383619761312 0 0.00091492818417839451 -0.026637219783232934 0 0.00019519455324304121 -0.026597483651764911 0 0.00080505150867323373 -0.024924775243371999 0 -5.4919704547206214e-05 -0.030794932050656271 0 0.00037410885931643149 -0.028179285127059483 0 0.00059784297847601344 -0.029866948776931738 0 0.00090071078341051342 -0.029476932287743486 0 0.001082120318859242 -0.028634816622176953 0 0.00043699739914186659 -0.026561158782164529 0 0.00035248043967771976 -0.026720921221939108 0 0.00050301614674281756 -0.026470730913406935 0 -0.00012242608435470906 -0.033465647020965703 0 -5.0621413197586351e-05 -0.033537856104839649 0 -2.1853702658690143e-05 -0.033564919812993879 0 0.00059784297847601344 -0.029866948776931738 0 0.00090071078341051342 -0.029476932287743486 0 0.00072059672533020009 -0.030310028312010465 0 0.00029599807834957982 -0.027570818469052856 0 0.00019519455324304121 -0.026597483651764911 0 -0.00012242608435470906 -0.033465647020965703 0 -7.9693695506115168e-05 -0.033491225924114354 0 -5.5956027910265574e-05 -0.033304278835738166 0 -7.9693695506115168e-05 -0.033491225924114354 0 -5.0621413197586351e-05 -0.033537856104839649 0 -4.0977676012506184e-05 -0.033543830817916918 0 -0.00012242608435470906 -0.033465647020965703 0 -7.9693695506115168e-05 -0.033491225924114354 0 -5.0621413197586351e-05 -0.033537856104839649 0 -2.1113306279061919e-05 -0.033564621101211008 0 -5.0621413197586351e-05 -0.033537856104839649 0 -2.1853702658690143e-05 -0.033564919812993879 0 0.00029599807834957982 -0.027570818469052856 0 0.00037410885931643149 -0.028179285127059483 0 6.6728601640147291e-06 -0.033569519628049389 0 -2.1113306279061919e-05 -0.033564621101211008 0 -2.1853702658690143e-05 -0.033564919812993879 0 6.6728601640147291e-06 -0.033569519628049389 0 -2.1113306279061919e-05 -0.033564621101211008 0 -1.4361343953142874e-05 -0.03357462027421497 0 -2.1113306279061919e-05 -0.033564621101211008 0 -5.0621413197586351e-05 -0.033537856104839649 0 -1.4361343953142874e-05 -0.03357462027421497 0 -5.0621413197586351e-05 -0.033537856104839649 0 -1.4361343953142874e-05 -0.03357462027421497 0 -4.0977676012506184e-05 -0.033543830817916918 0 -1.4361343953142874e-05 -0.03357462027421497 0 -1.9760601686227789e-05 -0.033559401087058925 0 -4.0977676012506184e-05 -0.033543830817916918 0 -1.4361343953142874e-05 -0.03357462027421497 0 -1.9760601686227789e-05 -0.033559401087058925 0 5.9392136596560257e-06 -0.033611539534295368 0 1.7039824806222363e-05 -0.033589931044904743 0 -1.4361343953142874e-05 -0.03357462027421497 0 5.9392136596560257e-06 -0.033611539534295368 0 1.3850055835751908e-05 -0.033497097132191372 0 0.00011869212595963669 -0.033490619455490409 0 -7.9693695506115168e-05 -0.033491225924114354 0 0.00025507655362415452 -0.033398928959305491 0 -5.5956027910265574e-05 -0.033304278835738166 0 -7.9693695506115168e-05 -0.033491225924114354 0 -1.9760601686227789e-05 -0.033559401087058925 0 1.3764965785770521e-05 -0.033556497959243495 0 -7.9693695506115168e-05 -0.033491225924114354 0 -1.9760601686227789e-05 -0.033559401087058925 0 -4.0977676012506184e-05 -0.033543830817916918 0 -1.9760601686227789e-05 -0.033559401087058925 0 1.3764965785770521e-05 -0.033556497959243495 0 5.9392136596560257e-06 -0.033611539534295368 0 1.3764965785770521e-05 -0.033556497959243495 0 5.9392136596560257e-06 -0.033611539534295368 0 3.9661065716436916e-05 -0.033623889972817352 0 1.4320281955169511e-05 -0.033655962772068296 0 3.9661065716436916e-05 -0.033623889972817352 0 0.00011327990632906674 -0.033715117801444448 0 1.4320281955169511e-05 -0.033655962772068296 0 5.9392136596560257e-06 -0.033611539534295368 0 3.9661065716436916e-05 -0.033623889972817352 0 1.3764965785770521e-05 -0.033556497959243495 0 3.9661065716436916e-05 -0.033623889972817352 0 9.2250143974757063e-05 -0.033565537321705571 0 0.00011869212595963669 -0.033490619455490409 0 0.00027035152612064466 -0.033487296509351776 0 0.00025507655362415452 -0.033398928959305491 0 0.00034506385023706993 -0.033233975577562858 0 0.00047608986688492839 -0.033371054095276353 0 0.00034506385023706993 -0.033233975577562858 0 0.00045151412760681409 -0.033179012266370607 0 0.00047608986688492839 -0.033371054095276353 0 0.00034506385023706993 -0.033233975577562858 0 0.00045151412760681409 -0.033179012266370607 0 0.00029696009756764778 -0.033013847711162891 0 0.00045151412760681409 -0.033179012266370607 0 0.00029696009756764778 -0.033013847711162891 0 0.00037805623288470288 -0.032904881818988214 0 0.00034506385023706993 -0.033233975577562858 0 0.00029696009756764778 -0.033013847711162891 0 0.00012202499750111321 -0.033170458623514226 0 0.00029696009756764778 -0.033013847711162891 0 0.00010998491774134759 -0.032805277506261672 0 0.00024914075272009851 -0.032620505512915676 0 0.00029696009756764778 -0.033013847711162891 0 0.00012202499750111321 -0.033170458623514226 0 0.00010998491774134759 -0.032805277506261672 0 0.00025507655362415452 -0.033398928959305491 0 0.00034506385023706993 -0.033233975577562858 0 0.00012202499750111321 -0.033170458623514226 0 0.00025507655362415452 -0.033398928959305491 0 -5.5956027910265574e-05 -0.033304278835738166 0 0.00012202499750111321 -0.033170458623514226 0 -5.5956027910265574e-05 -0.033304278835738166 0 -2.0972813219705468e-05 -0.033146572709438403 0 -0.00016989154246537224 -0.033073292619191896 0 -5.5956027910265574e-05 -0.033304278835738166 0 -2.0972813219705468e-05 -0.033146572709438403 0 0.00012202499750111321 -0.033170458623514226 0 0.00012202499750111321 -0.033170458623514226 0 1.3455422976358998e-05 -0.033052248126542748 0 0.00010998491774134759 -0.032805277506261672 0 -0.00013305879050450528 -0.03164300095434483 0 -0.00013767631115308172 -0.031855438258932119 0 0.00010998491774134759 -0.032805277506261672 0 -0.00016989154246537224 -0.033073292619191896 0 5.1814585565656445e-05 -0.032241302873097476 0 -2.0972813219705468e-05 -0.033146572709438403 0 0.00012202499750111321 -0.033170458623514226 0 1.3455422976358998e-05 -0.033052248126542748 0 1.3455422976358998e-05 -0.033052248126542748 0 0.00010998491774134759 -0.032805277506261672 0 -0.00016989154246537224 -0.033073292619191896 0 -2.0972813219705468e-05 -0.033146572709438403 0 1.3455422976358998e-05 -0.033052248126542748 0 -0.00016989154246537224 -0.033073292619191896 0 0.00029582585041931564 -0.031162872396435923 0 0.00036841425052227796 -0.03141066623462959 0 0.0002998551245892035 -0.03182823968525611 0 0.00015994006842729165 -0.031072410485002457 0 0.00052952411238907371 -0.031002838681464247 0 0.0002998551245892035 -0.03182823968525611 0 -0.00043441546201337548 -0.027190974395963071 0 -0.00062194234006658785 -0.028866398104000313 0 0.00042014383196862148 -0.031518611177588043 0 0.00036841425052227796 -0.03141066623462959 0 0.0002998551245892035 -0.03182823968525611 0 0.00044271743267413987 -0.031324108413796452 0 0.00051363695687405985 -0.031213291121410192 0 0.00052604156587965714 -0.031406804280971042 0 0.00042014383196862148 -0.031518611177588043 0 0.00044271743267413987 -0.031324108413796452 0 0.00052604156587965714 -0.031406804280971042 0 0.00042014383196862148 -0.031518611177588043 0 0.00036841425052227796 -0.03141066623462959 0 0.00044271743267413987 -0.031324108413796452 0 0.00036841425052227796 -0.03141066623462959 0 0.00044271743267413987 -0.031324108413796452 0 0.00039709809692174117 -0.031262756929284465 0 0.00044271743267413987 -0.031324108413796452 0 0.00039709809692174117 -0.031262756929284465 0 0.00051363695687405985 -0.031213291121410192 0 0.00029582585041931564 -0.031162872396435923 0 0.00039709809692174117 -0.031262756929284465 0 0.00051363695687405985 -0.031213291121410192 0 0.00029582585041931564 -0.031162872396435923 0 0.00036841425052227796 -0.03141066623462959 0 0.00039709809692174117 -0.031262756929284465 0 -0.00043441546201337548 -0.027190974395963071 0 0.00019519455324304121 -0.026597483651764911 0 0.00059784297847601344 -0.029866948776931738 0 0.00015994006842729165 -0.031072410485002457 0 0.00072059672533020009 -0.030310028312010465 0 0.00077483801257475344 -0.023096426348166506 0 0.00094264263456557168 -0.022463760258567545 0 0.001713315823051819 -0.022550874590964831 0 -0.00012242608435470906 -0.033465647020965703 0 -5.5956027910265574e-05 -0.033304278835738166 0 -0.00016989154246537224 -0.033073292619191896 0 -5.4919704547206214e-05 -0.030794932050656271 0 -0.00013305879050450528 -0.03164300095434483 0 0.00015994006842729165 -0.031072410485002457 0 0.00052952411238907371 -0.031002838681464247 0 0.00072059672533020009 -0.030310028312010465 0 0.00032697783010449463 -0.033786671649589484 0 0.00024161280301118073 -0.033726943403216553 0 0.00037690538866752966 -0.033562696113584818 0 0.00032697783010449463 -0.033786671649589484 0 0.00037690538866752966 -0.033562696113584818 0 0.00037176719193754621 -0.033737635233224414 0 0.00032697783010449463 -0.033786671649589484 0 0.00037176719193754621 -0.033737635233224414 0 0.0003197535006297089 -0.033901479168183118 0 0.00029889050237318445 -0.033945434840291763 0 0.00032697783010449463 -0.033786671649589484 0 0.0003197535006297089 -0.033901479168183118 0 0.00027103577185625034 -0.033838203308495157 0 0.00029889050237318445 -0.033945434840291763 0 0.00032697783010449463 -0.033786671649589484 0 0.00027103577185625034 -0.033838203308495157 0 0.00032697783010449463 -0.033786671649589484 0 0.00024161280301118073 -0.033726943403216553 0 0.00018465051503730172 -0.033810085375838066 0 0.00027103577185625034 -0.033838203308495157 0 0.00024161280301118073 -0.033726943403216553 0 0.00018465051503730172 -0.033810085375838066 0 0.00024161280301118073 -0.033726943403216553 0 0.00011327990632906674 -0.033715117801444448 0 0.00024161280301118073 -0.033726943403216553 0 0.00011327990632906674 -0.033715117801444448 0 9.2250143974757063e-05 -0.033565537321705571 0 3.9661065716436916e-05 -0.033623889972817352 0 0.00011327990632906674 -0.033715117801444448 0 9.2250143974757063e-05 -0.033565537321705571 0 0.00024161280301118073 -0.033726943403216553 0 9.2250143974757063e-05 -0.033565537321705571 0 0.00037690538866752966 -0.033562696113584818 0 0.00027035152612064466 -0.033487296509351776 0 0.00034245586343470874 -0.033493011311354272 0 0.00047608986688492839 -0.033371054095276353 0 0.00052887932288529771 -0.033337802681154834 0 0.00037690538866752966 -0.033562696113584818 0 0.00045151412760681409 -0.033179012266370607 0 0.00047608986688492839 -0.033371054095276353 0 0.00052887932288529771 -0.033337802681154834 0 0.00045151412760681409 -0.033179012266370607 0 0.00052887932288529771 -0.033337802681154834 0 0.00045439888249492009 -0.032937414888728929 0 0.00052887932288529771 -0.033337802681154834 0 0.00047855820315485434 -0.033543181533918352 0 0.00037690538866752966 -0.033562696113584818 0 0.00047855820315485434 -0.033543181533918352 0 0.00037690538866752966 -0.033562696113584818 0 0.00037176719193754621 -0.033737635233224414 0 0.00047855820315485434 -0.033543181533918352 0 0.00037176719193754621 -0.033737635233224414 0 0.00035606108963673756 -0.033775470387820729 0 0.00035606108963673756 -0.033775470387820729 0 0.00025397687433489257 -0.03400796795597813 0 0.00030201228368894153 -0.033930600859400119 0 0.00035606108963673756 -0.033775470387820729 0 0.00025397687433489257 -0.03400796795597813 0 0.00030182997034266775 -0.033867656067315025 0 0.00025397687433489257 -0.03400796795597813 0 0.00030201228368894153 -0.033930600859400119 0 0.00022536083970615378 -0.034100406257577758 0 0.00037176719193754621 -0.033737635233224414 0 0.00035606108963673756 -0.033775470387820729 0 0.00030201228368894153 -0.033930600859400119 0 0.00030201228368894153 -0.033930600859400119 0 0.00027535653500029676 -0.034041058413957555 0 0.0003197535006297089 -0.033901479168183118 0 0.00037176719193754621 -0.033737635233224414 0 0.00030201228368894153 -0.033930600859400119 0 0.0003197535006297089 -0.033901479168183118 0 0.00030201228368894153 -0.033930600859400119 0 0.00027535653500029676 -0.034041058413957555 0 0.00022536083970615378 -0.034100406257577758 0 0.00027535653500029676 -0.034041058413957555 0 0.00028406689027289759 -0.034039503327460467 0 0.00025559284713581718 -0.034136345299144943 0 0.00027535653500029676 -0.034041058413957555 0 0.0003197535006297089 -0.033901479168183118 0 0.00028406689027289759 -0.034039503327460467 0 0.00029889050237318445 -0.033945434840291763 0 0.0003197535006297089 -0.033901479168183118 0 0.00028406689027289759 -0.034039503327460467 0 0.00017472622711411681 -0.034297255133281801 0 0.00014552026115779963 -0.034297319214025707 0 0.00012267306447637244 -0.034433110063198852 0 0.00017472622711411681 -0.034297255133281801 0 0.00021519044894097283 -0.034188749924900043 0 0.0002120901596266044 -0.034244746196658904 0 0.00017472622711411681 -0.034297255133281801 0 0.00012267306447637244 -0.034433110063198852 0 0.00016704404613667961 -0.034363722841685908 0 0.00021519044894097283 -0.034188749924900043 0 0.00025559284713581718 -0.034136345299144943 0 0.0002120901596266044 -0.034244746196658904 0 0.00027535653500029676 -0.034041058413957555 0 0.00021519044894097283 -0.034188749924900043 0 0.00025559284713581718 -0.034136345299144943 0 0.00027535653500029676 -0.034041058413957555 0 0.00021519044894097283 -0.034188749924900043 0 0.00022536083970615378 -0.034100406257577758 0 0.00021519044894097283 -0.034188749924900043 0 0.00014552026115779963 -0.034297319214025707 0 0.00022536083970615378 -0.034100406257577758 0 0.00017472622711411681 -0.034297255133281801 0 0.00021519044894097283 -0.034188749924900043 0 0.00014552026115779963 -0.034297319214025707 0 0.00014552026115779963 -0.034297319214025707 0 0.00016281029601651197 -0.034177066395007186 0 0.0001147976689488255 -0.034298875423089334 0 0.00014552026115779963 -0.034297319214025707 0 0.00016281029601651197 -0.034177066395007186 0 0.00022536083970615378 -0.034100406257577758 0 0.00025397687433489257 -0.03400796795597813 0 0.00016281029601651197 -0.034177066395007186 0 0.00022536083970615378 -0.034100406257577758 0 0.00025397687433489257 -0.03400796795597813 0 0.00016281029601651197 -0.034177066395007186 0 0.00017754122603675735 -0.034161594431475185 0 0.00016281029601651197 -0.034177066395007186 0 8.2468802618732134e-05 -0.034286305674884811 0 0.00017754122603675735 -0.034161594431475185 0 8.2468802618732134e-05 -0.034286305674884811 0 5.5892007434846141e-05 -0.034332391372464813 0 5.8097880560554238e-05 -0.03442002322862478 0 5.5892007434846141e-05 -0.034332391372464813 0 5.8097880560554238e-05 -0.03442002322862478 0 7.5618513549672616e-05 -0.034458933121007132 0 8.2468802618732134e-05 -0.034286305674884811 0 5.8097880560554238e-05 -0.03442002322862478 0 7.8087038033970558e-05 -0.034430811716134657 0 5.8097880560554238e-05 -0.03442002322862478 0 6.4509978989179452e-05 -0.034543365994988758 0 6.3556878647066671e-05 -0.034605815598783389 0 5.8097880560554238e-05 -0.03442002322862478 0 6.4509978989179452e-05 -0.034543365994988758 0 7.8087038033970558e-05 -0.034430811716134657 0 0.00014552026115779963 -0.034297319214025707 0 7.8087038033970558e-05 -0.034430811716134657 0 0.0001147976689488255 -0.034298875423089334 0 0.00016281029601651197 -0.034177066395007186 0 8.2468802618732134e-05 -0.034286305674884811 0 0.0001147976689488255 -0.034298875423089334 0 8.2468802618732134e-05 -0.034286305674884811 0 7.8087038033970558e-05 -0.034430811716134657 0 0.0001147976689488255 -0.034298875423089334 0 -4.7261538709062867e-10 -0.035000056080350776 0 1.7060082106531778e-05 -0.034998190815061982 0 4.7130836047917438e-06 -0.035001534822595833 0 0.00020709428407311541 -0.034431892842275137 0 0.00010567253131566273 -0.034337340724532005 0 7.5618513549672616e-05 -0.034458933121007132 0 0.00020709428407311541 -0.034431892842275137 0 7.5618513549672616e-05 -0.034458933121007132 0 8.8660045819788036e-05 -0.034639881721213094 0 5.5892007434846141e-05 -0.034332391372464813 0 0.00010567253131566273 -0.034337340724532005 0 7.5618513549672616e-05 -0.034458933121007132 0 5.8097880560554238e-05 -0.03442002322862478 0 7.5618513549672616e-05 -0.034458933121007132 0 6.3556878647066671e-05 -0.034605815598783389 0 6.3556878647066671e-05 -0.034605815598783389 0 8.8660045819788036e-05 -0.034639881721213094 0 6.6017976779221487e-05 -0.034763205159337465 0 7.5618513549672616e-05 -0.034458933121007132 0 6.3556878647066671e-05 -0.034605815598783389 0 8.8660045819788036e-05 -0.034639881721213094 0 -4.7261538709062867e-10 -0.035000056080350776 0 1.7060082106531778e-05 -0.034998190815061982 0 5.9465569652951574e-05 -0.034920111854499676 0 0.00020709428407311541 -0.034431892842275137 0 8.8660045819788036e-05 -0.034639881721213094 0 5.9465569652951574e-05 -0.034920111854499676 0 -4.7261538709062867e-10 -0.035000056080350776 0 1.4916096609829042e-07 -0.034999508481465991 0 5.9465569652951574e-05 -0.034920111854499676 0 6.1509848023591233e-05 -0.034704739534340501 0 6.6301629200771225e-05 -0.034742402469072869 0 8.8660045819788036e-05 -0.034639881721213094 0 5.9465569652951574e-05 -0.034920111854499676 0 6.6017976779221487e-05 -0.034763205159337465 0 1.4916096609829042e-07 -0.034999508481465991 0 5.086999451959911e-05 -0.034862595674147491 0 3.0323356353034528e-05 -0.034885123492940824 0 1.4916096609829042e-07 -0.034999508481465991 0 5.9465569652951574e-05 -0.034920111854499676 0 5.086999451959911e-05 -0.034862595674147491 0 5.9465569652951574e-05 -0.034920111854499676 0 5.086999451959911e-05 -0.034862595674147491 0 6.6017976779221487e-05 -0.034763205159337465 0 5.086999451959911e-05 -0.034862595674147491 0 6.105043462936873e-05 -0.034723296697151927 0 3.0323356353034528e-05 -0.034885123492940824 0 5.086999451959911e-05 -0.034862595674147491 0 6.105043462936873e-05 -0.034723296697151927 0 6.6017976779221487e-05 -0.034763205159337465 0 6.3556878647066671e-05 -0.034605815598783389 0 6.105043462936873e-05 -0.034723296697151927 0 6.6017976779221487e-05 -0.034763205159337465 0 6.4509978989179452e-05 -0.034543365994988758 0 6.3556878647066671e-05 -0.034605815598783389 0 6.105043462936873e-05 -0.034723296697151927 0 6.105043462936873e-05 -0.034723296697151927 0 5.5175071428501425e-05 -0.034695945679856184 0 7.2108825266487887e-05 -0.034571048786862575 0 6.105043462936873e-05 -0.034723296697151927 0 5.5175071428501425e-05 -0.034695945679856184 0 3.0323356353034528e-05 -0.034885123492940824 0 5.5175071428501425e-05 -0.034695945679856184 0 3.0323356353034528e-05 -0.034885123492940824 0 2.9453404681692163e-05 -0.034785653157364954 0 1.4916096609829042e-07 -0.034999508481465991 0 3.0323356353034528e-05 -0.034885123492940824 0 8.2258472871308378e-09 -0.034999706003230227 0 0.00014552026115779963 -0.034297319214025707 0 7.8087038033970558e-05 -0.034430811716134657 0 9.9056884442245564e-05 -0.034450652704012492 0 0.00014552026115779963 -0.034297319214025707 0 9.9056884442245564e-05 -0.034450652704012492 0 0.00012267306447637244 -0.034433110063198852 0 7.8087038033970558e-05 -0.034430811716134657 0 9.9056884442245564e-05 -0.034450652704012492 0 7.2108825266487887e-05 -0.034571048786862575 0 6.4509978989179452e-05 -0.034543365994988758 0 7.8087038033970558e-05 -0.034430811716134657 0 7.2108825266487887e-05 -0.034571048786862575 0 6.4509978989179452e-05 -0.034543365994988758 0 6.105043462936873e-05 -0.034723296697151927 0 7.2108825266487887e-05 -0.034571048786862575 0 9.9056884442245564e-05 -0.034450652704012492 0 7.2108825266487887e-05 -0.034571048786862575 0 8.1823806798626285e-05 -0.034556190585147896 0 5.5175071428501425e-05 -0.034695945679856184 0 8.1823806798626285e-05 -0.034556190585147896 0 7.2330921294033122e-05 -0.034575475116706021 0 5.5175071428501425e-05 -0.034695945679856184 0 7.2108825266487887e-05 -0.034571048786862575 0 8.1823806798626285e-05 -0.034556190585147896 0 8.1823806798626285e-05 -0.034556190585147896 0 0.00012267306447637244 -0.034433110063198852 0 7.2330921294033122e-05 -0.034575475116706021 0 9.9056884442245564e-05 -0.034450652704012492 0 8.1823806798626285e-05 -0.034556190585147896 0 0.00012267306447637244 -0.034433110063198852 0 0.00012267306447637244 -0.034433110063198852 0 7.2330921294033122e-05 -0.034575475116706021 0 0.00016704404613667961 -0.034363722841685908 0 7.2330921294033122e-05 -0.034575475116706021 0 6.7548437885710342e-06 -0.034774512175232322 0 9.3943918724917152e-05 -0.034430012538254937 0 2.3381361546104597e-05 -0.034521098143272401 0 4.9496408118150972e-06 -0.034480064708493754 0 7.2330921294033122e-05 -0.034575475116706021 0 9.3943918724917152e-05 -0.034430012538254937 0 0.00016704404613667961 -0.034363722841685908 0 9.3943918724917152e-05 -0.034430012538254937 0 0.00019468486721785092 -0.034234640337208702 0 0.00016704404613667961 -0.034363722841685908 0 3.0323356353034528e-05 -0.034885123492940824 0 8.2258472871308378e-09 -0.034999706003230227 0 2.9453404681692163e-05 -0.034785653157364954 0 5.5175071428501425e-05 -0.034695945679856184 0 7.2330921294033122e-05 -0.034575475116706021 0 2.9453404681692163e-05 -0.034785653157364954 0 7.2330921294033122e-05 -0.034575475116706021 0 2.9453404681692163e-05 -0.034785653157364954 0 6.7548437885710342e-06 -0.034774512175232322 0 8.2258472871308378e-09 -0.034999706003230227 0 2.9453404681692163e-05 -0.034785653157364954 0 6.7548437885710342e-06 -0.034774512175232322 0 8.2258472871308378e-09 -0.034999706003230227 0 6.7548437885710342e-06 -0.034774512175232322 0 6.0913198556520434e-08 -0.034999846045303186 0 6.7548437885710342e-06 -0.034774512175232322 0 6.0913198556520434e-08 -0.034999846045303186 0 -1.2743272822659192e-05 -0.034942489986186299 0 6.7548437885710342e-06 -0.034774512175232322 0 -1.2743272822659192e-05 -0.034942489986186299 0 -7.674401579859012e-05 -0.034898883243529868 0 1.5595169522779987e-06 -0.034991710637055945 0 -1.2743272822659192e-05 -0.034942489986186299 0 -8.3431560234159338e-05 -0.034983021062114004 0 -2.4815462679015295e-06 -0.034826707458318139 0 -2.181936365798579e-05 -0.034771862041768568 0 1.5595169522779987e-06 -0.034991710637055945 0 6.0913198556520434e-08 -0.034999846045303186 0 -1.2743272822659192e-05 -0.034942489986186299 0 -1.3538246885365156e-08 -0.035000019140691813 0 1.5595169522779987e-06 -0.034991710637055945 0 6.0913198556520434e-08 -0.034999846045303186 0 4.9496408118150972e-06 -0.034480064708493754 0 -2.4542882412210165e-05 -0.034368761500982871 0 -0.00015806420819640307 -0.034908661092417567 0 -0.0002234081540368573 -0.034946524900608178 0 -0.00025163621740059423 -0.034877212151285246 0 -0.00015806420819640307 -0.034908661092417567 0 -0.00014558435609047631 -0.034841013120410602 0 -0.00025163621740059423 -0.034877212151285246 0 6.7548437885710342e-06 -0.034774512175232322 0 -0.00014558435609047631 -0.034841013120410602 0 -7.674401579859012e-05 -0.034898883243529868 0 -0.00015806420819640307 -0.034908661092417567 0 -0.00014558435609047631 -0.034841013120410602 0 -7.674401579859012e-05 -0.034898883243529868 0 -1.2743272822659192e-05 -0.034942489986186299 0 -7.674401579859012e-05 -0.034898883243529868 0 -8.3431560234159338e-05 -0.034983021062114004 0 -0.00015806420819640307 -0.034908661092417567 0 -7.674401579859012e-05 -0.034898883243529868 0 -8.3431560234159338e-05 -0.034983021062114004 0 -2.4381616278807828e-05 -0.034989649078789042 0 -1.3404185423924793e-05 -0.034973311958933939 0 -4.4703391517580368e-05 -0.034955584749786356 0 -0.00015806420819640307 -0.034908661092417567 0 -8.3431560234159338e-05 -0.034983021062114004 0 -0.0002234081540368573 -0.034946524900608178 0 -2.4381616278807828e-05 -0.034989649078789042 0 -5.3219902703227428e-05 -0.034967350407599178 0 -4.4703391517580368e-05 -0.034955584749786356 0 -2.181936365798579e-05 -0.034771862041768568 0 -4.723056607376289e-05 -0.034585032347797577 0 -5.3219902703227428e-05 -0.034967350407599178 0 -4.4703391517580368e-05 -0.034955584749786356 0 -8.7307572602687511e-05 -0.034937093770532605 0 -4.723056607376289e-05 -0.034585032347797577 0 -8.8145199807152466e-06 -0.034174491766827214 0 0.00047266101550676968 -0.03310510730863616 0 0.00057439074246416017 -0.033018606988683218 0 0.00040454221800415632 -0.033034883675646956 0 -0.0002234081540368573 -0.034946524900608178 0 -0.00025163621740059423 -0.034877212151285246 0 -0.00034202048141868455 -0.034911787113399477 0 0.00019468486721785092 -0.034234640337208702 0 0.00023895706438490473 -0.034203202138002847 0 0.00025895924609141294 -0.034157267553218087 0 -0.00025163621740059423 -0.034877212151285246 0 -0.00035344594630959733 -0.034903383282505633 0 -0.00034202048141868455 -0.034911787113399477 0 -2.4542882412210165e-05 -0.034368761500982871 0 -6.4249087028441358e-06 -0.034153555476688705 0 0.00023895706438490473 -0.034203202138002847 0 0.00025895924609141294 -0.034157267553218087 0 0.00026206134464900341 -0.034160898000473755 0 0.00029705735353013262 -0.032863314532076637 0 0.00026082006815836072 -0.032891231846371424 0 0.00023457590910691193 -0.03285188067244426 0 -8.8145199807152466e-06 -0.034174491766827214 0 -2.154102787135028e-05 -0.034100593457732052 0 -5.9673096809860539e-06 -0.034104002102659792 0 -1.0840202597239006e-05 -0.034100649173117663 0 -1.5393136632607484e-06 -0.034102696999176542 0 -6.4249087028441358e-06 -0.034153555476688705 0 -8.8145199807152466e-06 -0.034174491766827214 0 0.00057439074246416017 -0.033018606988683218 0 0.00035035371483219341 -0.032955415674034018 0 0.00040454221800415632 -0.033034883675646956 0 0.00029705735353013262 -0.032863314532076637 0 0.0002893392872368368 -0.032913271755175229 0 0.00035035371483219341 -0.032955415674034018 0 0.0002893392872368368 -0.032913271755175229 0 0.00026082006815836072 -0.032891231846371424 0 0.00024918285050091462 -0.032943498709138645 0 0.00057439074246416017 -0.033018606988683218 0 0.00029705735353013262 -0.032863314532076637 0 0.00035035371483219341 -0.032955415674034018 0 0.00029705735353013262 -0.032863314532076637 0 0.0002893392872368368 -0.032913271755175229 0 0.00026082006815836072 -0.032891231846371424 0 0.00015745548732570461 -0.034174944642566513 0 -8.8145199807152466e-06 -0.034174491766827214 0 0.0002893392872368368 -0.032913271755175229 0 0.00035035371483219341 -0.032955415674034018 0 0.00024918285050091462 -0.032943498709138645 0 0.00030394342811308289 -0.033032512802064685 0 0.00022760538652276776 -0.033029796354188429 0 0.00024918285050091462 -0.032943498709138645 0 0.00035035371483219341 -0.032955415674034018 0 0.00030394342811308289 -0.033032512802064685 0 0.00024918285050091462 -0.032943498709138645 0 0.00035035371483219341 -0.032955415674034018 0 0.00040454221800415632 -0.033034883675646956 0 0.00030394342811308289 -0.033032512802064685 0 0.00012498176937695139 -0.03309647976287361 0 0.00022760538652276776 -0.033029796354188429 0 0.00016990126125080422 -0.033001392297023618 0 0.00016432644430704475 -0.032931153165135479 0 -3.1864920153714811e-05 -0.032972972703633731 0 0.00023457590910691193 -0.03285188067244426 0 0.00023418057584673221 -0.033116530388565865 0 0.00030394342811308289 -0.033032512802064685 0 0.00022760538652276776 -0.033029796354188429 0 8.5938404028395283e-05 -0.033002010082045841 0 0.00016432644430704475 -0.032931153165135479 0 -3.1864920153714811e-05 -0.032972972703633731 0 -0.00015750960891305085 -0.033669493546180984 0 -2.154102787135028e-05 -0.034100593457732052 0 0.00022760538652276776 -0.033029796354188429 0 0.00016990126125080422 -0.033001392297023618 0 0.00024918285050091462 -0.032943498709138645 0 0.00012498176937695139 -0.03309647976287361 0 0.00016990126125080422 -0.033001392297023618 0 8.5938404028395283e-05 -0.033002010082045841 0 0.00016990126125080422 -0.033001392297023618 0 8.5938404028395283e-05 -0.033002010082045841 0 0.00016432644430704475 -0.032931153165135479 0 0.00026082006815836072 -0.032891231846371424 0 0.00022719732467766174 -0.032904724757942372 0 0.00023457590910691193 -0.03285188067244426 0 0.00026082006815836072 -0.032891231846371424 0 0.00022719732467766174 -0.032904724757942372 0 0.00024918285050091462 -0.032943498709138645 0 0.00016432644430704475 -0.032931153165135479 0 0.00022719732467766174 -0.032904724757942372 0 0.00024918285050091462 -0.032943498709138645 0 0.00016432644430704475 -0.032931153165135479 0 0.00022719732467766174 -0.032904724757942372 0 0.00023457590910691193 -0.03285188067244426 0 0.00016990126125080422 -0.033001392297023618 0 0.00016432644430704475 -0.032931153165135479 0 0.00024918285050091462 -0.032943498709138645 0 -3.6275685305571901e-05 -0.033100239869190758 0 8.5938404028395283e-05 -0.033002010082045841 0 -3.1864920153714811e-05 -0.032972972703633731 0 -3.6275685305571901e-05 -0.033100239869190758 0 0.00012498176937695139 -0.03309647976287361 0 8.5938404028395283e-05 -0.033002010082045841 0 -0.00062801357081053032 -0.033360873033015069 0 -0.00061677207616008141 -0.033429658715875998 0 -0.00074276743989934284 -0.033400936241918686 0 0.00027377314928770014 -0.033987291127483915 0 0.00025985590701155438 -0.033993521476579226 0 0.00028024818280469828 -0.03400104556581926 0 -0.00051943892411706585 -0.033388106557603096 0 -0.00062801357081053032 -0.033360873033015069 0 -0.00061677207616008141 -0.033429658715875998 0 0.00027377314928770014 -0.033987291127483915 0 0.00024193240640140869 -0.033978451787186247 0 0.00025985590701155438 -0.033993521476579226 0 -0.00014513040711112095 -0.03388344464117999 0 -2.154102787135028e-05 -0.034100593457732052 0 0.00023877214886251593 -0.033979377270453061 0 0.00024193240640140869 -0.033978451787186247 0 0.00025985590701155438 -0.033993521476579226 0 -6.4249087028441358e-06 -0.034153555476688705 0 -2.154102787135028e-05 -0.034100593457732052 0 -6.4249087028441358e-06 -0.034153555476688705 0 0.00013516649528617781 -0.034161364814374269 0 0.00025895924609141294 -0.034157267553218087 0 0.00026970510051077995 -0.034125427089147141 0 0.00026206134464900341 -0.034160898000473755 0 0.00026206134464900341 -0.034160898000473755 0 0.00027389177622637323 -0.034101283105922794 0 0.00024652780216306971 -0.034191225393116517 0 0.00026970510051077995 -0.034125427089147141 0 0.00026206134464900341 -0.034160898000473755 0 0.00027389177622637323 -0.034101283105922794 0 0.00026970510051077995 -0.034125427089147141 0 0.00027389177622637323 -0.034101283105922794 0 0.00028024818280469828 -0.03400104556581926 0 0.00027389177622637323 -0.034101283105922794 0 0.00028024818280469828 -0.03400104556581926 0 0.00028400079717479505 -0.034021183273344788 0 0.00013516649528617781 -0.034161364814374269 0 0.00017290664602118594 -0.034156713782565046 0 0.00027389177622637323 -0.034101283105922794 0 0.00028406689027289759 -0.034039503327460467 0 0.00028400079717479505 -0.034021183273344788 0 0.00029889050237318445 -0.033945434840291763 0 0.00028024818280469828 -0.03400104556581926 0 0.00028400079717479505 -0.034021183273344788 0 0.00029889050237318445 -0.033945434840291763 0 0.00028406689027289759 -0.034039503327460467 0 0.00028400079717479505 -0.034021183273344788 0 0.00027389177622637323 -0.034101283105922794 0 0.00025559284713581718 -0.034136345299144943 0 0.00024652780216306971 -0.034191225393116517 0 0.00027389177622637323 -0.034101283105922794 0 0.00028406689027289759 -0.034039503327460467 0 0.00025559284713581718 -0.034136345299144943 0 0.0002120901596266044 -0.034244746196658904 0 0.00021586153227514502 -0.034261976892912126 0 0.00024652780216306971 -0.034191225393116517 0 0.00025559284713581718 -0.034136345299144943 0 0.0002120901596266044 -0.034244746196658904 0 0.00024652780216306971 -0.034191225393116517 0 0.0002120901596266044 -0.034244746196658904 0 0.00016704404613667961 -0.034363722841685908 0 0.00021586153227514502 -0.034261976892912126 0 0.00017472622711411681 -0.034297255133281801 0 0.0002120901596266044 -0.034244746196658904 0 0.00016704404613667961 -0.034363722841685908 0 0.00019468486721785092 -0.034234640337208702 0 0.00016704404613667961 -0.034363722841685908 0 0.00021586153227514502 -0.034261976892912126 0 0.00019468486721785092 -0.034234640337208702 0 0.00023895706438490473 -0.034203202138002847 0 0.00021586153227514502 -0.034261976892912126 0 0.00023895706438490473 -0.034203202138002847 0 0.00021586153227514502 -0.034261976892912126 0 0.00024652780216306971 -0.034191225393116517 0 0.00023895706438490473 -0.034203202138002847 0 0.00026206134464900341 -0.034160898000473755 0 0.00024652780216306971 -0.034191225393116517 0 0.0033895572182183749 0.0023940445987493324 0 0.0039171424254980502 0.0010069635217530739 0 0.0023806533296981528 0.0009853374477186848 0 0.0033895572182183749 0.0023940445987493324 0 0.0051756610635510254 0.0010243465221562004 0 0.0039171424254980502 0.0010069635217530739 0 0.0014962444201335723 0.0014087412694007797 0 0.00056923964611543083 0.0021034354453198711 0 0.0033895572182183749 0.0023940445987493324 0 0.001869578418955898 0.0027463666421156901 0 0.0023806533296981528 0.0009853374477186848 0 0.001869578418955898 0.0027463666421156901 0 0.0023806533296981528 0.0009853374477186848 0 0.00089847531225976148 0.0026316111233875353 0 0.0033895572182183749 0.0023940445987493324 0 0.0025229941959641778 0.0032262643237219225 0 0.001869578418955898 0.0027463666421156901 0 0.0025229941959641778 0.0032262643237219225 0 0.001869578418955898 0.0027463666421156901 0 0.0019090116744079717 0.0038023909816669896 0 0.001869578418955898 0.0027463666421156901 0 0.0019090116744079717 0.0038023909816669896 0 0.00084014969830758222 0.0034843950769758956 0 0.001869578418955898 0.0027463666421156901 0 0.00089847531225976148 0.0026316111233875353 0 0.00084014969830758222 0.0034843950769758956 0 0.0019090116744079717 0.0038023909816669896 0 0.00084014969830758222 0.0034843950769758956 0 0.0012237916945102853 0.0044613413499771356 0 0.0025229941959641778 0.0032262643237219225 0 0.0019090116744079717 0.0038023909816669896 0 0.0029131280542482375 0.0041457267753024158 0 0.0019090116744079717 0.0038023909816669896 0 0.0029131280542482375 0.0041457267753024158 0 0.0021129478418954787 0.0047459009995736469 0 0.0033895572182183749 0.0023940445987493324 0 0.0029131280542482375 0.0041457267753024158 0 0.0048148351283547287 0.003882612154984433 0 0.0033895572182183749 0.0023940445987493324 0 0.0025229941959641778 0.0032262643237219225 0 0.0029131280542482375 0.0041457267753024158 0 0.0048503514072207096 0.0023698555805090485 0 0.0057743319766698871 0.0022623724021906678 0 0.0051756610635510254 0.0010243465221562004 0 0.0048503514072207096 0.0023698555805090485 0 0.0057743319766698871 0.0022623724021906678 0 0.0058635746282741192 0.003375709141555612 0 0.0062555430142089202 0.001835424113782313 0 0.0057743319766698871 0.0022623724021906678 0 0.0066221650984928182 0.0027844781826248787 0 0.0062555430142089202 0.001835424113782313 0 0.0061449835018252824 0.0010249467518582489 0 0.0051756610635510254 0.0010243465221562004 0 0.0062555430142089202 0.001835424113782313 0 0.0057743319766698871 0.0022623724021906678 0 0.0051756610635510254 0.0010243465221562004 0 0.0047352588314786004 0.0036038874292471535 0 0.0049742956130811736 0.0023165907019131304 0 0.0033895572182183749 0.0023940445987493324 0 0.0048148351283547287 0.003882612154984433 0 0.0051756610635510254 0.0010243465221562004 0 0.0051756610635510254 0.0010243465221562004 0 0.0061981021011351684 0.00027512753488326361 0 0.0046517716207617526 -0.00019077569326195201 0 0.0051756610635510254 0.0010243465221562004 0 0.0046517716207617526 -0.00019077569326195201 0 0.0039171424254980502 0.0010069635217530739 0 0.0061449835018252824 0.0010249467518582489 0 0.0051756610635510254 0.0010243465221562004 0 0.0061981021011351684 0.00027512753488326361 0 0.0061981021011351684 0.00027512753488326361 0 0.0046517716207617526 -0.00019077569326195201 0 0.0060010302967880196 -0.00092535537600814182 0 0.0029929050799240814 0.00027267528361207295 0 0.004338900096098392 -0.00093119684243697437 0 0.0010589242403005385 -5.7971999955422696e-05 0 0.0016682797660986983 -0.00091271950426399025 0 0.001812941191729916 0.0008885584883435054 0 0.00061872158692694414 0.00091407712938824741 0 0.001719008900962447 -0.00041348843926891697 0 0.001812941191729916 0.0008885584883435054 0 0.0005495989469374707 0.0017967014043259002 0 0.00061872158692694414 0.00091407712938824741 0 0.0029929050799240814 0.00027267528361207295 0 0.0014962444201335723 0.0014087412694007797 0 0.0046517716207617526 -0.00019077569326195201 0 0.0039171424254980502 0.0010069635217530739 0 0.0023806533296981528 0.0009853374477186848 0 0.0005495989469374707 0.0017967014043259002 0 0.00012205275057598466 0.0014265008656409995 0 0.00061872158692694414 0.00091407712938824741 0 0.0005495989469374707 0.0017967014043259002 0 0.00012205275057598466 0.0014265008656409995 0 -5.7844529391410324e-05 0.0020475355356469336 0 0.00012205275057598466 0.0014265008656409995 0 0.00061872158692694414 0.00091407712938824741 0 -0.0001394735637220573 0.00077645076134276588 0 0.00061872158692694414 0.00091407712938824741 0 -0.0001394735637220573 0.00077645076134276588 0 0.00058847329540163572 -0.00035641196248265813 0 -0.00076488935001871089 0.0013499219754912525 0 -0.0015216076181897619 0.001404860342979425 0 -0.0016680686880893186 0.0018181891951412784 0 -0.00076488935001871089 0.0013499219754912525 0 -0.0015216076181897619 0.001404860342979425 0 -0.0015853933816658112 0.00047577545943289912 0 -0.0019113160929375855 0.0019692218493691069 0 -0.0018772609623049418 0.0023236675730051062 0 -0.0023447003289491764 0.0023681561698191797 0 -0.0019218137713311204 0.0019244029507293481 0 -0.0015216076181897619 0.001404860342979425 0 -0.0015853933816658112 0.00047577545943289912 0 -0.0019218137713311204 0.0019244029507293481 0 -0.0019113160929375855 0.0019692218493691069 0 -0.0023447003289491764 0.0023681561698191797 0 -0.0018827200929088413 0.0014018455814435009 0 -0.0018071160142981292 0.001242974333083289 0 -0.0019113160929375855 0.0019692218493691069 0 -0.0015033121905565468 0.0022256712972157171 0 -0.0018772609623049418 0.0023236675730051062 0 -0.0019218137713311204 0.0019244029507293481 0 -0.0015216076181897619 0.001404860342979425 0 -0.0016680686880893186 0.0018181891951412784 0 -0.0019218137713311204 0.0019244029507293481 0 -0.0019113160929375855 0.0019692218493691069 0 -0.0019920321033975461 0.0020184209532745937 0 -0.0019218137713311204 0.0019244029507293481 0 -0.0016680686880893186 0.0018181891951412784 0 -0.0019920321033975461 0.0020184209532745937 0 -0.0016680686880893186 0.0018181891951412784 0 -0.0016336282201155233 0.0021371004738381834 0 -0.0019920321033975461 0.0020184209532745937 0 -0.00076488935001871089 0.0013499219754912525 0 -0.0016680686880893186 0.0018181891951412784 0 -0.0016336282201155233 0.0021371004738381834 0 0.00012205275057598466 0.0014265008656409995 0 -0.0001394735637220573 0.00077645076134276588 0 -0.00030851342507934808 0.0015864464854368561 0 -0.0001394735637220573 0.00077645076134276588 0 -0.0009016242544621219 0.0016920960466034014 0 -0.00030851342507934808 0.0015864464854368561 0 -0.0009016242544621219 0.0016920960466034014 0 -0.00030851342507934808 0.0015864464854368561 0 -0.00057028674133498833 0.0020154913823689133 0 -0.00046676347835025565 0.001014662253344445 0 -0.001188794908615888 0.0018070062178943973 0 0.00012205275057598466 0.0014265008656409995 0 -0.00030851342507934808 0.0015864464854368561 0 -5.7844529391410324e-05 0.0020475355356469336 0 -0.0006270882564276231 0.010098566018435737 0 -0.00058703323369122928 0.010061981598062113 0 -0.00098289713910649297 0.0023065343603905029 0 -0.00129237235814814 0.0017935278425667172 0 -0.00081706836541425322 0.0014936127344726657 0 -0.00098289713910649297 0.0023065343603905029 0 -0.00081706836541425322 0.0014936127344726657 0 -0.00021094693356670446 0.0024751481712539918 0 -0.00098289713910649297 0.0023065343603905029 0 -0.00129237235814814 0.0017935278425667172 0 -0.0015033121905565468 0.0022256712972157171 0 -0.0019113160929375855 0.0019692218493691069 0 -0.0015033121905565468 0.0022256712972157171 0 -0.0015672318621129924 0.001812018692701871 0 -0.00129237235814814 0.0017935278425667172 0 -0.0015033121905565468 0.0022256712972157171 0 -0.0015672318621129924 0.001812018692701871 0 -3.1669619414758334e-05 0.0039615422926725019 0 6.2422389491903324e-07 0.0051088087744416248 0 -0.00129237235814814 0.0017935278425667172 0 -0.0015389340456943362 0.001300340069647738 0 -0.00081706836541425322 0.0014936127344726657 0 -0.0019113160929375855 0.0019692218493691069 0 -0.0015672318621129924 0.001812018692701871 0 -0.0015389340456943362 0.001300340069647738 0 -0.00129237235814814 0.0017935278425667172 0 -0.0015672318621129924 0.001812018692701871 0 -0.0015389340456943362 0.001300340069647738 0 -0.00052699540995436867 0.018467136847558314 0 -0.00064131181060167052 0.019016732892794395 0 -0.00017970527023649944 0.019242430354045149 0 -0.0006270882564276231 0.010098566018435737 0 -0.00046737910550621111 0.010553612225384919 0 -0.00052699540995436867 0.018467136847558314 0 -0.00064131181060167052 0.019016732892794395 0 -0.0010262124971083552 0.018853372084850408 0 -0.00064131181060167052 0.019016732892794395 0 -0.00059478112075469667 0.019402635842717238 0 -0.00086028411531744971 0.019254772634558725 0 -0.00064131181060167052 0.019016732892794395 0 -0.00017970527023649944 0.019242430354045149 0 -0.00059478112075469667 0.019402635842717238 0 6.2422389491903324e-07 0.0051088087744416248 0 -0.00046737910550621111 0.010553612225384919 0 -0.0019920321033975461 0.0020184209532745937 0 -0.0021935153608648758 0.0027116032207793327 0 -0.0020378257821681129 0.0027593359557666359 0 -0.0015389340456943362 0.001300340069647738 0 -0.00081706836541425322 0.0014936127344726657 0 -0.0013038823223775059 0.00068556710670562653 0 0.00044828698713219299 0.016985819376688166 0 0.0014435060940617638 0.018975805681631229 0 -0.00015228574707698775 0.018742525825313786 0 -0.00046737910550621111 0.010553612225384919 0 0.00011343509177354462 0.010880947723019804 0 -0.0020378257821681129 0.0027593359557666359 0 -0.001500057087383967 0.0029086325652296361 0 -0.0014862490572243078 0.0042058041863265658 0 -0.0021935153608648758 0.0027116032207793327 0 -0.0020378257821681129 0.0027593359557666359 0 -0.0014862490572243078 0.0042058041863265658 0 -0.00046737910550621111 0.010553612225384919 0 -0.0013812209282644127 0.016505539533531285 0 -0.00017970527023649944 0.019242430354045149 0 -0.00059478112075469667 0.019402635842717238 0 -0.00041424719212550037 0.019878597746951734 0 -0.00059478112075469667 0.019402635842717238 0 -0.00041424719212550037 0.019878597746951734 0 -0.00092892752637097954 0.019584275573718175 0 -0.00059478112075469667 0.019402635842717238 0 -0.00086028411531744971 0.019254772634558725 0 -0.00092892752637097954 0.019584275573718175 0 0.0005495989469374707 0.0017967014043259002 0 -5.7844529391410324e-05 0.0020475355356469336 0 -0.0003183755222699504 0.0027500049472805464 0 0.0023806533296981528 0.0009853374477186848 0 0.00089847531225976148 0.0026316111233875353 0 -0.0003183755222699504 0.0027500049472805464 0 -0.00029185146363820696 0.0023344845071777958 0 -5.7844529391410324e-05 0.0020475355356469336 0 -0.0003183755222699504 0.0027500049472805464 0 -0.00029185146363820696 0.0023344845071777958 0 -0.00046076688845303991 0.0025506186369088414 0 -0.00070670177766861051 0.0024500488280089225 0 -0.00046076688845303991 0.0025506186369088414 0 -0.00052375360083017138 0.0026807822820188502 0 -0.00070670177766861051 0.0024500488280089225 0 -0.00046076688845303991 0.0025506186369088414 0 -0.00052375360083017138 0.0026807822820188502 0 -0.0003183755222699504 0.0027500049472805464 0 -0.00029185146363820696 0.0023344845071777958 0 -0.00046076688845303991 0.0025506186369088414 0 -0.0003183755222699504 0.0027500049472805464 0 -0.00029185146363820696 0.0023344845071777958 0 -0.00057028674133498833 0.0020154913823689133 0 -0.00070670177766861051 0.0024500488280089225 0 -0.00029185146363820696 0.0023344845071777958 0 -5.7844529391410324e-05 0.0020475355356469336 0 -0.00057028674133498833 0.0020154913823689133 0 -0.00030851342507934808 0.0015864464854368561 0 -5.7844529391410324e-05 0.0020475355356469336 0 -0.00057028674133498833 0.0020154913823689133 0 -0.0009016242544621219 0.0016920960466034014 0 -0.0008500318362375536 0.0021430128174993496 0 -0.0012369178705325808 0.002427385902194123 0 -0.0016336282201155233 0.0021371004738381834 0 -0.0019920321033975461 0.0020184209532745937 0 -0.0020378257821681129 0.0027593359557666359 0 -0.0009016242544621219 0.0016920960466034014 0 -0.0020378257821681129 0.0027593359557666359 0 -0.0012369178705325808 0.002427385902194123 0 -0.001188794908615888 0.0018070062178943973 0 -0.0015985302758991194 0.0022504074641563686 0 -0.00057028674133498833 0.0020154913823689133 0 -0.0008500318362375536 0.0021430128174993496 0 -0.00070670177766861051 0.0024500488280089225 0 -0.0009016242544621219 0.0016920960466034014 0 -0.00057028674133498833 0.0020154913823689133 0 -0.0008500318362375536 0.0021430128174993496 0 -0.0020378257821681129 0.0027593359557666359 0 -0.0012369178705325808 0.002427385902194123 0 -0.001500057087383967 0.0029086325652296361 0 -0.0012369178705325808 0.002427385902194123 0 -0.00070670177766861051 0.0024500488280089225 0 -0.0010321477061497244 0.0029353534433741307 0 -0.0008500318362375536 0.0021430128174993496 0 -0.0012369178705325808 0.002427385902194123 0 -0.00070670177766861051 0.0024500488280089225 0 -0.00070670177766861051 0.0024500488280089225 0 -0.0006927831455022901 0.0027390192766727659 0 -0.0010321477061497244 0.0029353534433741307 0 -0.00052375360083017138 0.0026807822820188502 0 -0.00070670177766861051 0.0024500488280089225 0 -0.0006927831455022901 0.0027390192766727659 0 0.0011502888174100808 0.0075392480399149231 0 0.00011343509177354462 0.010880947723019804 0 -0.0006927831455022901 0.0027390192766727659 0 -0.0010321477061497244 0.0029353534433741307 0 -0.00049650137070531009 0.0029020152444092142 0 -0.0010321477061497244 0.0029353534433741307 0 -0.001500057087383967 0.0029086325652296361 0 -0.0014862490572243078 0.0042058041863265658 0 -0.00049650137070531009 0.0029020152444092142 0 -0.00067581867567141412 0.0044046946147976466 0 -0.0020325302482308576 0.0050735344998887833 0 -0.0010321477061497244 0.0029353534433741307 0 -0.00049650137070531009 0.0029020152444092142 0 -0.0014862490572243078 0.0042058041863265658 0 -0.0012369178705325808 0.002427385902194123 0 -0.0010321477061497244 0.0029353534433741307 0 -0.001500057087383967 0.0029086325652296361 0 -9.1731757286413272e-05 0.0039559152103181604 0 -0.00049650137070531009 0.0029020152444092142 0 -0.00067581867567141412 0.0044046946147976466 0 -9.1731757286413272e-05 0.0039559152103181604 0 -0.0001105922537855903 0.0032222016570611204 0 0.00022148059501791341 0.0035288393014582032 0 -9.1731757286413272e-05 0.0039559152103181604 0 -0.0001105922537855903 0.0032222016570611204 0 -0.00049650137070531009 0.0029020152444092142 0 -0.0001105922537855903 0.0032222016570611204 0 0.00029185974187397615 0.0031270467273333564 0 0.00022148059501791341 0.0035288393014582032 0 -0.0001105922537855903 0.0032222016570611204 0 -0.0003183755222699504 0.0027500049472805464 0 0.00029185974187397615 0.0031270467273333564 0 -0.00052375360083017138 0.0026807822820188502 0 -0.0003183755222699504 0.0027500049472805464 0 -0.00049650137070531009 0.0029020152444092142 0 -0.0001105922537855903 0.0032222016570611204 0 -0.0003183755222699504 0.0027500049472805464 0 -0.00049650137070531009 0.0029020152444092142 0 -0.00052375360083017138 0.0026807822820188502 0 -0.0006927831455022901 0.0027390192766727659 0 -0.00049650137070531009 0.0029020152444092142 0 0.00089847531225976148 0.0026316111233875353 0 0.00029185974187397615 0.0031270467273333564 0 0.00084014969830758222 0.0034843950769758956 0 0.00089847531225976148 0.0026316111233875353 0 -0.0003183755222699504 0.0027500049472805464 0 0.00029185974187397615 0.0031270467273333564 0 0.00029185974187397615 0.0031270467273333564 0 0.00084014969830758222 0.0034843950769758956 0 0.00022148059501791341 0.0035288393014582032 0 0.00084014969830758222 0.0034843950769758956 0 0.00048857499210939938 0.0040953226718612344 0 0.0012237916945102853 0.0044613413499771356 0 0.00084014969830758222 0.0034843950769758956 0 0.00022148059501791341 0.0035288393014582032 0 0.00048857499210939938 0.0040953226718612344 0 -9.1731757286413272e-05 0.0039559152103181604 0 0.00022148059501791341 0.0035288393014582032 0 0.00048857499210939938 0.0040953226718612344 0 0.00048857499210939938 0.0040953226718612344 0 0.00036677607488159959 0.0049663343515726661 0 0.0012237916945102853 0.0044613413499771356 0 -9.1731757286413272e-05 0.0039559152103181604 0 0.00048857499210939938 0.0040953226718612344 0 0.00036677607488159959 0.0049663343515726661 0 0.00036677607488159959 0.0049663343515726661 0 0.00056050593721115633 0.0064835333398704995 0 0.0015481306612866528 0.0056281592559905011 0 0.00036677607488159959 0.0049663343515726661 0 -0.00042934243019352976 0.0056140810960820945 0 0.00056050593721115633 0.0064835333398704995 0 0.00036677607488159959 0.0049663343515726661 0 -0.00042934243019352976 0.0056140810960820945 0 -0.00067581867567141412 0.0044046946147976466 0 -9.1731757286413272e-05 0.0039559152103181604 0 0.00036677607488159959 0.0049663343515726661 0 -0.00067581867567141412 0.0044046946147976466 0 -0.00042934243019352976 0.0056140810960820945 0 -0.00067581867567141412 0.0044046946147976466 0 -0.0020325302482308576 0.0050735344998887833 0 -0.00042934243019352976 0.0056140810960820945 0 -0.0020325302482308576 0.0050735344998887833 0 -0.00079803987453666613 0.0074065608669371067 0 0.00011343509177354462 0.010880947723019804 0 0.00051571993803698434 0.010292313189276292 0 0.0014494908304322339 0.011227436700980706 0 0.0018569510533024425 0.012008727657952903 0 0.001381498421803129 0.012049191869156132 0 -0.00042934243019352976 0.0056140810960820945 0 -0.00079803987453666613 0.0074065608669371067 0 0.00056050593721115633 0.0064835333398704995 0 -0.00079803987453666613 0.0074065608669371067 0 0.00056050593721115633 0.0064835333398704995 0 0.00081437978838079441 0.0079651683702304556 0 -0.00041424719212550037 0.019878597746951734 0 -0.0010546508880320763 0.01991229393251067 0 -0.0010130616425025152 0.020310564885349807 0 -0.0013812209282644127 0.016505539533531285 0 -0.0015662650925125871 0.018033347692363023 0 -0.00041424719212550037 0.019878597746951734 0 -0.00092892752637097954 0.019584275573718175 0 -0.0010546508880320763 0.01991229393251067 0 0.0014435060940617638 0.018975805681631229 0 -0.00015228574707698775 0.018742525825313786 0 0.00021738946797774284 0.020545383642310972 0 0.0014494908304322339 0.011227436700980706 0 0.00095593972606235298 0.01187819913991337 0 0.001381498421803129 0.012049191869156132 0 0.00011343509177354462 0.010880947723019804 0 -0.00052120588780225701 0.014469746203216239 0 -0.00015228574707698775 0.018742525825313786 0 0.00021738946797774284 0.020545383642310972 0 -0.00060252848401608021 0.020448652517605269 0 -0.00041424719212550037 0.019878597746951734 0 -0.00060252848401608021 0.020448652517605269 0 -0.0010130616425025152 0.020310564885349807 0 0.00021738946797774284 0.020545383642310972 0 -0.00060252848401608021 0.020448652517605269 0 -0.00053404078350952544 0.020872995144042568 0 -0.00060252848401608021 0.020448652517605269 0 -0.00081882922603384374 0.020857971330258154 0 -0.00053404078350952544 0.020872995144042568 0 -0.00060252848401608021 0.020448652517605269 0 -0.00081882922603384374 0.020857971330258154 0 -0.00089996813941860937 0.020582936132980345 0 -0.00060252848401608021 0.020448652517605269 0 -0.00089996813941860937 0.020582936132980345 0 -0.0010130616425025152 0.020310564885349807 0 0.00095593972606235298 0.01187819913991337 0 0.00043807532609772116 0.01251979253568589 0 0.00049348447029007943 0.012491050466770634 0 0.00021738946797774284 0.020545383642310972 0 -0.00066808356496719356 0.021408756636071034 0 -0.00053404078350952544 0.020872995144042568 0 0.00095593972606235298 0.01187819913991337 0 0.00049348447029007943 0.012491050466770634 0 0.0010452565150806021 0.012448968289396062 0 -0.00052120588780225701 0.014469746203216239 0 -0.00092104870390056538 0.016204626942123705 0 0.00043289911656894595 0.012516503700101425 0 0.00049348447029007943 0.012491050466770634 0 0.00047504801123204957 0.012652409787786466 0 -0.00092104870390056538 0.016204626942123705 0 -0.00090957053358540715 0.016194726128340241 0 -0.00066808356496719356 0.021408756636071034 0 -0.0007289595061718238 0.021082804274297463 0 -0.00096321304395449833 0.021229850285941595 0 -0.0007289595061718238 0.021082804274297463 0 -0.00081882922603384374 0.020857971330258154 0 -0.00096321304395449833 0.021229850285941595 0 -0.00066808356496719356 0.021408756636071034 0 -0.0007289595061718238 0.021082804274297463 0 -0.00053404078350952544 0.020872995144042568 0 -0.0007289595061718238 0.021082804274297463 0 -0.00081882922603384374 0.020857971330258154 0 -0.00053404078350952544 0.020872995144042568 0 0.00049348447029007943 0.012491050466770634 0 0.0010452565150806021 0.012448968289396062 0 0.00065550382520141468 0.012747428220550522 0 0.00095593972606235298 0.01187819913991337 0 0.0010452565150806021 0.012448968289396062 0 0.001381498421803129 0.012049191869156132 0 0.0010452565150806021 0.012448968289396062 0 0.001381498421803129 0.012049191869156132 0 0.001569278092596294 0.012576018032859871 0 0.0011016849070678376 0.012872919450910089 0 0.00076845526807628201 0.013117256331012144 0 0.0014734209891917266 0.013193516029205017 0 0.0011016849070678376 0.012872919450910089 0 0.001569278092596294 0.012576018032859871 0 0.0014734209891917266 0.013193516029205017 0 0.0010452565150806021 0.012448968289396062 0 0.0011016849070678376 0.012872919450910089 0 0.001569278092596294 0.012576018032859871 0 0.0010452565150806021 0.012448968289396062 0 0.0011016849070678376 0.012872919450910089 0 0.00065550382520141468 0.012747428220550522 0 0.00065550382520141468 0.012747428220550522 0 0.00076845526807628201 0.013117256331012144 0 0.00038708952066984992 0.012881584506493373 0 0.0011016849070678376 0.012872919450910089 0 0.00065550382520141468 0.012747428220550522 0 0.00076845526807628201 0.013117256331012144 0 0.00076845526807628201 0.013117256331012144 0 0.00038708952066984992 0.012881584506493373 0 0.00026738512050907855 0.013210852052983068 0 0.00038708952066984992 0.012881584506493373 0 0.00047504801123204957 0.012652409787786466 0 0.00031137317051406434 0.012637585370900161 0 0.00065550382520141468 0.012747428220550522 0 0.00038708952066984992 0.012881584506493373 0 0.00047504801123204957 0.012652409787786466 0 0.00049348447029007943 0.012491050466770634 0 0.00065550382520141468 0.012747428220550522 0 0.00047504801123204957 0.012652409787786466 0 0.00043289911656894595 0.012516503700101425 0 0.00047504801123204957 0.012652409787786466 0 0.00031137317051406434 0.012637585370900161 0 -0.00092104870390056538 0.016204626942123705 0 -0.00085351349533321311 0.016098496977758246 0 0.00051571993803698434 0.010292313189276292 0 0.0015371126825174958 0.011254264245937593 0 -0.00079803987453666613 0.0074065608669371067 0 0.00081437978838079441 0.0079651683702304556 0 0.00043692450816109897 0.009772138527353617 0 0.0018569510533024425 0.012008727657952903 0 0.001381498421803129 0.012049191869156132 0 0.001569278092596294 0.012576018032859871 0 0.0018569510533024425 0.012008727657952903 0 0.001569278092596294 0.012576018032859871 0 0.0022657916153167338 0.012794792878549769 0 0.0015371126825174958 0.011254264245937593 0 0.0012117886237570622 0.012274519244340023 0 0.001569278092596294 0.012576018032859871 0 0.0022657916153167338 0.012794792878549769 0 0.0014734209891917266 0.013193516029205017 0 0.0024088687869983721 0.012734857533731372 0 0.0016534305905661457 0.013102375557662549 0 0.0022592907742606449 0.013253392901843694 0 0.0015371126825174958 0.011254264245937593 0 0.0019007001132376629 0.011903786769552227 0 0.00073427255792107014 0.0096447749292349391 0 0.0023106754445092349 0.010177237587246672 0 0.0015518626039673546 0.011255488504782812 0 0.0023106754445092349 0.010177237587246672 0 0.0038431920919783143 0.0095724285094802158 0 0.0022197568885903938 0.0089469177323918802 0 0.0015371126825174958 0.011254264245937593 0 0.0022228365411873217 0.010455874779333688 0 0.00073427255792107014 0.0096447749292349391 0 0.0023106754445092349 0.010177237587246672 0 0.0022197568885903938 0.0089469177323918802 0 0.0038431920919783143 0.0095724285094802158 0 0.0052392636175302501 0.010460816835466605 0 0.0033491079082963097 0.0111192163494918 0 0.0023106754445092349 0.010177237587246672 0 0.0038431920919783143 0.0095724285094802158 0 0.0033491079082963097 0.0111192163494918 0 0.0040027771031652774 0.0076908195802631359 0 0.0042762473923524469 0.0060912584810184529 0 0.0038431920919783143 0.0095724285094802158 0 0.0034927870795593225 0.0082634988628704359 0 0.0022197568885903938 0.0089469177323918802 0 0.0038431920919783143 0.0095724285094802158 0 0.0034927870795593225 0.0082634988628704359 0 0.0042938804387235149 0.0068599453327957919 0 0.0026176195283701973 0.010118680541427214 0 0.0022228365411873217 0.010455874779333688 0 0.0034927870795593225 0.0082634988628704359 0 0.0019419422166588442 0.0090462585953222582 0 0.0019388493582091944 0.0071253342803229485 0 0.00081437978838079441 0.0079651683702304556 0 0.0019419422166588442 0.0090462585953222582 0 0.0019388493582091944 0.0071253342803229485 0 0.00081437978838079441 0.0079651683702304556 0 0.00043692450816109897 0.009772138527353617 0 0.0019419422166588442 0.0090462585953222582 0 0.00056050593721115633 0.0064835333398704995 0 0.00081437978838079441 0.0079651683702304556 0 0.0019388493582091944 0.0071253342803229485 0 0.00056050593721115633 0.0064835333398704995 0 0.0019388493582091944 0.0071253342803229485 0 0.0015481306612866528 0.0056281592559905011 0 0.0019388493582091944 0.0071253342803229485 0 0.0029681583133185302 0.0056932431063067401 0 0.0015481306612866528 0.0056281592559905011 0 0.0034927870795593225 0.0082634988628704359 0 0.0019388493582091944 0.0071253342803229485 0 0.0031791499310494164 0.0069906287978419813 0 0.0034927870795593225 0.0082634988628704359 0 0.0031791499310494164 0.0069906287978419813 0 0.0042938804387235149 0.0068599453327957919 0 0.0031791499310494164 0.0069906287978419813 0 0.0029681583133185302 0.0056932431063067401 0 0.0042938804387235149 0.0068599453327957919 0 0.0019388493582091944 0.0071253342803229485 0 0.0031791499310494164 0.0069906287978419813 0 0.0029681583133185302 0.0056932431063067401 0 0.0029131280542482375 0.0041457267753024158 0 0.0048148351283547287 0.003882612154984433 0 0.0029681583133185302 0.0056932431063067401 0 0.0048148351283547287 0.003882612154984433 0 0.0029681583133185302 0.0056932431063067401 0 0.0042938804387235149 0.0068599453327957919 0 0.0029131280542482375 0.0041457267753024158 0 0.0029681583133185302 0.0056932431063067401 0 0.0021129478418954787 0.0047459009995736469 0 0.00036677607488159959 0.0049663343515726661 0 0.0012237916945102853 0.0044613413499771356 0 0.0015481306612866528 0.0056281592559905011 0 0.0021129478418954787 0.0047459009995736469 0 0.0012237916945102853 0.0044613413499771356 0 0.0015481306612866528 0.0056281592559905011 0 0.0019090116744079717 0.0038023909816669896 0 0.0021129478418954787 0.0047459009995736469 0 0.0012237916945102853 0.0044613413499771356 0 0.0029681583133185302 0.0056932431063067401 0 0.0021129478418954787 0.0047459009995736469 0 0.0015481306612866528 0.0056281592559905011 0 0.0057743319766698871 0.0022623724021906678 0 0.0058635746282741192 0.003375709141555612 0 0.0066221650984928182 0.0027844781826248787 0 0.0058635746282741192 0.003375709141555612 0 0.0066221650984928182 0.0027844781826248787 0 0.0066431645856211341 0.0036611584139519282 0 0.0048503514072207096 0.0023698555805090485 0 0.0058635746282741192 0.003375709141555612 0 0.0040221650340802641 0.0056885140027817856 0 0.0047352588314786004 0.0036038874292471535 0 0.0042762473923524469 0.0060912584810184529 0 0.0058635746282741192 0.003375709141555612 0 0.0040221650340802641 0.0056885140027817856 0 0.0061140511131936269 0.0060081053940224099 0 0.0073328543604690571 0.0035331437865034764 0 0.0082257268333834673 0.0040223516925076358 0 0.0058635746282741192 0.003375709141555612 0 0.0061140511131936269 0.0060081053940224099 0 0.0083853188998056112 0.0065013479163427415 0 0.0062214447667101229 0.0083941193418211966 0 0.008086853814015818 0.0089088835967005356 0 0.0083853188998056112 0.0065013479163427415 0 0.0061140511131936269 0.0060081053940224099 0 0.0062214447667101229 0.0083941193418211966 0 0.0083853188998056112 0.0065013479163427415 0 0.0038431920919783143 0.0095724285094802158 0 0.0040221650340802641 0.0056885140027817856 0 0.0062214447667101229 0.0083941193418211966 0 0.0040221650340802641 0.0056885140027817856 0 0.0061140511131936269 0.0060081053940224099 0 0.0062214447667101229 0.0083941193418211966 0 0.0062214447667101229 0.0083941193418211966 0 0.0052392636175302501 0.010460816835466605 0 0.0067002535303972242 0.010968597207074451 0 0.0038431920919783143 0.0095724285094802158 0 0.0062214447667101229 0.0083941193418211966 0 0.0052392636175302501 0.010460816835466605 0 0.0062214447667101229 0.0083941193418211966 0 0.008086853814015818 0.0089088835967005356 0 0.0067002535303972242 0.010968597207074451 0 0.008086853814015818 0.0089088835967005356 0 0.0084288434499129958 0.010609727077454494 0 0.0067002535303972242 0.010968597207074451 0 0.0073624844177191066 0.0042904702240066346 0 0.0079323709450431559 0.0035076224060283227 0 0.0066431645856211341 0.0036611584139519282 0 0.008086853814015818 0.0089088835967005356 0 0.010151624821719102 0.009093592427152861 0 0.0084288434499129958 0.010609727077454494 0 0.0093474466720153207 0.0033657869407565395 0 0.0082257268333834673 0.0040223516925076358 0 0.008086853814015818 0.0089088835967005356 0 0.010151624821719102 0.009093592427152861 0 0.0083853188998056112 0.0065013479163427415 0 0.0093474466720153207 0.0033657869407565395 0 0.0058697345340129941 -0.0054478106390008453 0 0.0073624844177191066 0.0042904702240066346 0 0.0083934517332938351 0.0043382761715060406 0 0.0080097924856162937 0.0049456025912890033 0 0.0013926830712355585 -0.031054729724573592 0 0.0012821635074957655 -0.03111782540788105 0 0.0013610135632418975 -0.030809722729363095 0 0.0013926830712355585 -0.031054729724573592 0 0.0012821635074957655 -0.03111782540788105 0 0.001318379500327749 -0.031199526710095179 0 0.0065385159663547427 -0.010360076155306545 0 0.006526960266221727 -0.011788829079332189 0 0.0083934517332938351 0.0043382761715060406 0 0.0079323709450431559 0.0035076224060283227 0 0.0088247897036938475 0.0036726188292682841 0 0.0073624844177191066 0.0042904702240066346 0 0.0083934517332938351 0.0043382761715060406 0 0.0079323709450431559 0.0035076224060283227 0 0.0079323709450431559 0.0035076224060283227 0 0.008577799042073949 0.0031501128720782508 0 0.0088247897036938475 0.0036726188292682841 0 0.0079323709450431559 0.0035076224060283227 0 0.008577799042073949 0.0031501128720782508 0 0.0083035056576759563 0.0024530798813995548 0 0.008577799042073949 0.0031501128720782508 0 0.0083035056576759563 0.0024530798813995548 0 0.0092284432838600251 0.0029660492221789182 0 0.010494199191920911 -0.0054570479325072195 0 0.0064568386481348109 -0.011444956440730387 0 0.0079323709450431559 0.0035076224060283227 0 0.0083035056576759563 0.0024530798813995548 0 0.0073595220913746217 0.0029130196037023708 0 0.0083035056576759563 0.0024530798813995548 0 0.0073595220913746217 0.0029130196037023708 0 0.0073809912593809628 0.0019977104630727513 0 0.0073595220913746217 0.0029130196037023708 0 0.0066221650984928182 0.0027844781826248787 0 0.0073809912593809628 0.0019977104630727513 0 0.0079323709450431559 0.0035076224060283227 0 0.0073595220913746217 0.0029130196037023708 0 0.0066431645856211341 0.0036611584139519282 0 0.0073595220913746217 0.0029130196037023708 0 0.0066221650984928182 0.0027844781826248787 0 0.0066431645856211341 0.0036611584139519282 0 0.00094264263456557168 -0.022463760258567545 0 0.001713315823051819 -0.022550874590964831 0 0.001493145686433754 -0.021982355363093321 0 -0.00043441546201337548 -0.027190974395963071 0 0.00037484384328037291 -0.024482572676655347 0 0.00029582585041931564 -0.031162872396435923 0 0.00070027392602063892 -0.030924753675306702 0 0.00051363695687405985 -0.031213291121410192 0 0.00070027392602063892 -0.030924753675306702 0 0.00066941813582201473 -0.031262705274745117 0 0.00082270893623083636 -0.03116830234853445 0 0.00070027392602063892 -0.030924753675306702 0 0.00051363695687405985 -0.031213291121410192 0 0.00066941813582201473 -0.031262705274745117 0 0.00051363695687405985 -0.031213291121410192 0 0.00052604156587965714 -0.031406804280971042 0 0.00066941813582201473 -0.031262705274745117 0 0.00052604156587965714 -0.031406804280971042 0 0.00066941813582201473 -0.031262705274745117 0 0.00061207095760209629 -0.031474978605472499 0 0.00066941813582201473 -0.031262705274745117 0 0.00061207095760209629 -0.031474978605472499 0 0.00075622116457902842 -0.031373427337576185 0 0.00066941813582201473 -0.031262705274745117 0 0.00082270893623083636 -0.03116830234853445 0 0.00075622116457902842 -0.031373427337576185 0 0.00082270893623083636 -0.03116830234853445 0 0.00096030037095389301 -0.031233370332128925 0 0.00096597785931465461 -0.030984649344608459 0 0.00082270893623083636 -0.03116830234853445 0 0.00096030037095389301 -0.031233370332128925 0 0.00075622116457902842 -0.031373427337576185 0 0.00070027392602063892 -0.030924753675306702 0 0.00082270893623083636 -0.03116830234853445 0 0.00096597785931465461 -0.030984649344608459 0 0.00070027392602063892 -0.030924753675306702 0 0.00096597785931465461 -0.030984649344608459 0 0.00097672177357200555 -0.030719455675679287 0 0.00037484384328037291 -0.024482572676655347 0 0.0014266855203838916 -0.020429515828371062 0 0.00096597785931465461 -0.030984649344608459 0 0.0011566170589031634 -0.030825409840948396 0 0.00097672177357200555 -0.030719455675679287 0 0.00096597785931465461 -0.030984649344608459 0 0.0011566170589031634 -0.030825409840948396 0 0.0011358014055677307 -0.031060869960529269 0 0.00096030037095389301 -0.031233370332128925 0 0.00096597785931465461 -0.030984649344608459 0 0.0011358014055677307 -0.031060869960529269 0 0.00096030037095389301 -0.031233370332128925 0 0.0011358014055677307 -0.031060869960529269 0 0.0010984339925999538 -0.031272278181846795 0 0.0011358014055677307 -0.031060869960529269 0 0.0012821635074957655 -0.03111782540788105 0 0.0010984339925999538 -0.031272278181846795 0 0.0011358014055677307 -0.031060869960529269 0 0.0012821635074957655 -0.03111782540788105 0 0.0013610135632418975 -0.030809722729363095 0 0.0011566170589031634 -0.030825409840948396 0 0.0011358014055677307 -0.031060869960529269 0 0.0013610135632418975 -0.030809722729363095 0 0.008577799042073949 0.0031501128720782508 0 0.0088247897036938475 0.0036726188292682841 0 0.0092284432838600251 0.0029660492221789182 0 0.006526960266221727 -0.011788829079332189 0 0.0064568386481348109 -0.011444956440730387 0 0.0011566170589031634 -0.030825409840948396 0 0.0013610135632418975 -0.030809722729363095 0 0.0012586460874406773 -0.030515624027473702 0 0.0095062277240511289 0.0030256550667845318 0 0.01012022955171933 0.0020515750181147271 0 0.0093270823355910398 0.0022835583909411052 0 0.0083035056576759563 0.0024530798813995548 0 0.0095062277240511289 0.0030256550667845318 0 0.0093270823355910398 0.0022835583909411052 0 0.0064568386481348109 -0.011444956440730387 0 0.0059108364222784388 -0.010144095204622488 0 0.0034653828352338794 -0.02149197451634613 0 0.002529099146243852 -0.02113938565505025 0 0.0029164191243456999 -0.020567612678108773 0 0.0034653828352338794 -0.02149197451634613 0 0.0026014779352218349 -0.022010726433944871 0 0.002529099146243852 -0.02113938565505025 0 0.0064568386481348109 -0.011444956440730387 0 0.0014266855203838916 -0.020429515828371062 0 0.0011566170589031634 -0.030825409840948396 0 0.0012586460874406773 -0.030515624027473702 0 0.00097672177357200555 -0.030719455675679287 0 0.0026014779352218349 -0.022010726433944871 0 0.0019901413554295672 -0.021608778327886748 0 0.002529099146243852 -0.02113938565505025 0 0.001713315823051819 -0.022550874590964831 0 0.0026014779352218349 -0.022010726433944871 0 0.0019901413554295672 -0.021608778327886748 0 0.0019901413554295672 -0.021608778327886748 0 0.002529099146243852 -0.02113938565505025 0 0.0019823672611481223 -0.020865223843690991 0 0.0019823672611481223 -0.020865223843690991 0 0.0012723117836242485 -0.021351891737567037 0 0.00154033446663822 -0.020433785960090042 0 0.00080505150867323373 -0.024924775243371999 0 0.00080725813400260127 -0.025774239345742671 0 0.00052003376430853469 -0.026400835557584906 0 0.00050301614674281756 -0.026470730913406935 0 0.00063174974566527532 -0.026248828651064093 0 0.0019901413554295672 -0.021608778327886748 0 0.0019823672611481223 -0.020865223843690991 0 0.0012723117836242485 -0.021351891737567037 0 0.00043699739914186659 -0.026561158782164529 0 0.00052003376430853469 -0.026400835557584906 0 0.00050301614674281756 -0.026470730913406935 0 0.0019901413554295672 -0.021608778327886748 0 0.0012723117836242485 -0.021351891737567037 0 0.001493145686433754 -0.021982355363093321 0 0.001713315823051819 -0.022550874590964831 0 0.0019901413554295672 -0.021608778327886748 0 0.001493145686433754 -0.021982355363093321 0 0.00094264263456557168 -0.022463760258567545 0 0.0012723117836242485 -0.021351891737567037 0 0.001493145686433754 -0.021982355363093321 0 -0.00027140242383055281 -0.031868997407326904 0 -0.00082505559324929929 -0.031479153733019932 0 -0.00075305541520245519 -0.031122056038729494 0 0.0015420315303551607 -0.019799420006569046 0 0.0017667569935414019 -0.019764846266355798 0 0.0017193238630035098 -0.019188327796456198 0 0.0017667569935414019 -0.019764846266355798 0 0.0016138574792832511 -0.020314756604997781 0 0.0022241246598208629 -0.02032990072326292 0 0.0011415945285930438 -0.024244965271007907 0 0.00081277881220389551 -0.02565306406705898 0 0.0017667569935414019 -0.019764846266355798 0 0.0014086952075866186 -0.020426683990905279 0 0.0015668867697826412 -0.020654541955255113 0 0.0015420315303551607 -0.019799420006569046 0 0.0017667569935414019 -0.019764846266355798 0 0.0014086952075866186 -0.020426683990905279 0 0.0014637765741107715 -0.025050655204900105 0 0.00091492818417839451 -0.026637219783232934 0 0.0002717307020242801 -0.027836910342589682 0 0.00074131695451708994 -0.025574331877781079 0 0.00091183530324097362 -0.026259159650907804 0 0.00037410885931643149 -0.028179285127059483 0 0.00091492818417839451 -0.026637219783232934 0 0.00074131695451708994 -0.025574331877781079 0 0.00091183530324097362 -0.026259159650907804 0 0.00099747578516866517 -0.025942077621829568 0 0.00091492818417839451 -0.026637219783232934 0 0.00081277881220389551 -0.02565306406705898 0 0.00080725813400260127 -0.025774239345742671 0 0.00081277881220389551 -0.02565306406705898 0 0.00037410885931643149 -0.028179285127059483 0 0.00080725813400260127 -0.025774239345742671 0 0.0019823672611481223 -0.020865223843690991 0 0.00154033446663822 -0.020433785960090042 0 0.0015723687515532766 -0.020311047935779387 0 0.00045867405943089923 -0.024515633057144832 0 0.00081277881220389551 -0.02565306406705898 0 0.0022241246598208629 -0.02032990072326292 0 0.002407657945775125 -0.019663337179351478 0 0.0029164191243456999 -0.020567612678108773 0 0.002529099146243852 -0.02113938565505025 0 0.0019823672611481223 -0.020865223843690991 0 0.0022241246598208629 -0.02032990072326292 0 0.002529099146243852 -0.02113938565505025 0 0.0022241246598208629 -0.02032990072326292 0 0.0029164191243456999 -0.020567612678108773 0 0.0019823672611481223 -0.020865223843690991 0 0.0016138574792832511 -0.020314756604997781 0 0.0022241246598208629 -0.02032990072326292 0 0.0017667569935414019 -0.019764846266355798 0 0.0022241246598208629 -0.02032990072326292 0 0.002407657945775125 -0.019663337179351478 0 0.0017667569935414019 -0.019764846266355798 0 0.002407657945775125 -0.019663337179351478 0 0.0017193238630035098 -0.019188327796456198 0 0.0055500125890924996 -0.010273787623871381 0 0.0059108364222784388 -0.010144095204622488 0 0.010890823912379286 0.00092588771268690734 0 0.0099493838548633962 0.0012420304597803374 0 0.0095521721810703161 0.00045940075842476716 0 0.010890823912379286 0.00092588771268690734 0 0.0099493838548633962 0.0012420304597803374 0 0.01012022955171933 0.0020515750181147271 0 0.0099493838548633962 0.0012420304597803374 0 0.01012022955171933 0.0020515750181147271 0 0.0092803587044731125 0.0014812126839611652 0 0.01012022955171933 0.0020515750181147271 0 0.0093270823355910398 0.0022835583909411052 0 0.0092803587044731125 0.0014812126839611652 0 0.0092803587044731125 0.0014812126839611652 0 0.0095521721810703161 0.00045940075842476716 0 0.0084046810955256315 0.0010754090939363472 0 0.0099493838548633962 0.0012420304597803374 0 0.0092803587044731125 0.0014812126839611652 0 0.0095521721810703161 0.00045940075842476716 0 0.0087792185806996777 -9.0009485885188934e-05 0 0.0082326789270025461 -0.00053840363033761242 0 0.0097532922462273096 -0.0011247937090860273 0 0.0081078700220195716 -0.0007341628613261416 0 0.0085776156660385874 -0.002111012482132513 0 0.0095521721810703161 0.00045940075842476716 0 0.0097532922462273096 -0.0011247937090860273 0 0.0081078700220195716 -0.0007341628613261416 0 0.0097532922462273096 -0.0011247937090860273 0 0.010579751628214035 -0.00019225660965256459 0 0.010809780851242559 -0.0010607561918728665 0 0.0097532922462273096 -0.0011247937090860273 0 0.010809780851242559 -0.0010607561918728665 0 0.010540073333308912 -0.0018182381968218091 0 0.010890823912379286 0.00092588771268690734 0 0.0095521721810703161 0.00045940075842476716 0 0.010579751628214035 -0.00019225660965256459 0 0.0095521721810703161 0.00045940075842476716 0 0.0097532922462273096 -0.0011247937090860273 0 0.010579751628214035 -0.00019225660965256459 0 0.002407657945775125 -0.019663337179351478 0 0.0019031707923322081 -0.018670411177225107 0 0.0017193238630035098 -0.019188327796456198 0 0.0055500125890924996 -0.010273787623871381 0 0.0048248072731312168 -0.011356269317067293 0 0.010890823912379286 0.00092588771268690734 0 0.010579751628214035 -0.00019225660965256459 0 0.011778308563560809 -0.00052082810964888978 0 0.010809780851242559 -0.0010607561918728665 0 0.011778308563560809 -0.00052082810964888978 0 0.011362692795851389 -0.0016214095909587009 0 0.010579751628214035 -0.00019225660965256459 0 0.010809780851242559 -0.0010607561918728665 0 0.011778308563560809 -0.00052082810964888978 0 0.0011808750749689818 -0.017724174907497493 0 0.0014529238796505536 -0.018200305374349416 0 0.0013658540026020433 -0.018754146299900496 0 0.0048248072731312168 -0.011356269317067293 0 0.0036584663638084473 -0.014632513946712248 0 0.0019031707923322081 -0.018670411177225107 0 0.0014529238796505536 -0.018200305374349416 0 0.0013627246183717998 -0.017651073995673186 0 0.011778308563560809 -0.00052082810964888978 0 0.012610715820039588 -0.0020601106180635179 0 0.011362692795851389 -0.0016214095909587009 0 0.0019031707923322081 -0.018670411177225107 0 0.0014529238796505536 -0.018200305374349416 0 0.0013658540026020433 -0.018754146299900496 0 -0.00027140242383055281 -0.031868997407326904 0 -0.00082505559324929929 -0.031479153733019932 0 -0.00060171202622243385 -0.032260797968412053 0 0.0015842624577409568 -0.019817228138623678 0 0.0013658540026020433 -0.018754146299900496 0 0.0017193238630035098 -0.019188327796456198 0 0.0014637765741107715 -0.025050655204900105 0 0.0019598175504821191 -0.02313951976914937 0 0.0019031707923322081 -0.018670411177225107 0 0.0013658540026020433 -0.018754146299900496 0 0.0017193238630035098 -0.019188327796456198 0 0.0014637765741107715 -0.025050655204900105 0 0.0016664001376206793 -0.023730797370259887 0 0.0073809912593809628 0.0019977104630727513 0 0.0084046810955256315 0.0010754090939363472 0 0.0070726292157756556 0.00084477420747187493 0 0.0062555430142089202 0.001835424113782313 0 0.0061449835018252824 0.0010249467518582489 0 0.0070726292157756556 0.00084477420747187493 0 0.0062555430142089202 0.001835424113782313 0 0.0073809912593809628 0.0019977104630727513 0 0.0070726292157756556 0.00084477420747187493 0 0.0062555430142089202 0.001835424113782313 0 0.0066221650984928182 0.0027844781826248787 0 0.0073809912593809628 0.0019977104630727513 0 0.0083035056576759563 0.0024530798813995548 0 0.0073809912593809628 0.0019977104630727513 0 0.0084046810955256315 0.0010754090939363472 0 0.0083035056576759563 0.0024530798813995548 0 0.0092803587044731125 0.0014812126839611652 0 0.0084046810955256315 0.0010754090939363472 0 0.0083035056576759563 0.0024530798813995548 0 0.0093270823355910398 0.0022835583909411052 0 0.0092803587044731125 0.0014812126839611652 0 0.0084046810955256315 0.0010754090939363472 0 0.0078828207328205512 0.0001059978357437676 0 0.0070726292157756556 0.00084477420747187493 0 0.0095521721810703161 0.00045940075842476716 0 0.0084046810955256315 0.0010754090939363472 0 0.0088085511964391284 -0.00012909686968281484 0 0.0084046810955256315 0.0010754090939363472 0 0.0088085511964391284 -0.00012909686968281484 0 0.0078828207328205512 0.0001059978357437676 0 0.0082326789270025461 -0.00053840363033761242 0 0.0071444430106979906 -0.0014018122224743106 0 0.0088085511964391284 -0.00012909686968281484 0 0.0078828207328205512 0.0001059978357437676 0 0.0080000118413929514 -0.00089739750909286961 0 0.0078828207328205512 0.0001059978357437676 0 0.0070709192567677001 -0.00038417711323319808 0 0.0080000118413929514 -0.00089739750909286961 0 0.0078828207328205512 0.0001059978357437676 0 0.0070709192567677001 -0.00038417711323319808 0 0.0070726292157756556 0.00084477420747187493 0 0.0061981021011351684 0.00027512753488326361 0 0.0070709192567677001 -0.00038417711323319808 0 0.0070726292157756556 0.00084477420747187493 0 0.0061449835018252824 0.0010249467518582489 0 0.0061981021011351684 0.00027512753488326361 0 0.0070726292157756556 0.00084477420747187493 0 0.0061981021011351684 0.00027512753488326361 0 0.0070709192567677001 -0.00038417711323319808 0 0.0060010302967880196 -0.00092535537600814182 0 0.0070709192567677001 -0.00038417711323319808 0 0.0071255144561121466 -0.0017091324343624246 0 0.0060010302967880196 -0.00092535537600814182 0 0.0056230535288973914 -0.0025316164642770426 0 0.004338900096098392 -0.00093119684243697437 0 0.0045570757698137152 -0.0014410728804219164 0 0.0046928169906861814 -0.0013236326885079034 0 0.0032522346012774229 -0.00020221659195555192 0 0.0037555437322904198 -0.0016612713878413278 0 0.0045570757698137152 -0.0014410728804219164 0 0.0032522346012774229 -0.00020221659195555192 0 0.0037555437322904198 -0.0016612713878413278 0 0.0045570757698137152 -0.0014410728804219164 0 0.0043874566420034778 -0.0018123637764064283 0 0.0047337210476362168 -0.0016850648856806406 0 0.004688992983355884 -0.0013283291051531076 0 0.0051223896533002401 -0.0019688753906711501 0 0.0045943085050805408 -0.0017368526099030904 0 0.0045570757698137152 -0.0014410728804219164 0 0.0043874566420034778 -0.0018123637764064283 0 0.0047337210476362168 -0.0016850648856806406 0 0.0045943085050805408 -0.0017368526099030904 0 0.0045570757698137152 -0.0014410728804219164 0 0.0047337210476362168 -0.0016850648856806406 0 0.0045570757698137152 -0.0014410728804219164 0 0.004688992983355884 -0.0013283291051531076 0 0.0056193802997976574 -0.0025280159177208713 0 0.0056230535288973914 -0.0025316164642770426 0 0.0070709192567677001 -0.00038417711323319808 0 0.0071255144561121466 -0.0017091324343624246 0 0.0080000118413929514 -0.00089739750909286961 0 0.0056230535288973914 -0.0025316164642770426 0 0.0071444430106979906 -0.0014018122224743106 0 0.0067695601474018667 -0.0018980763975308958 0 0.007679406114923357 -0.0029924131132783413 0 0.0085776156660385874 -0.002111012482132513 0 0.0081078700220195716 -0.0007341628613261416 0 0.0067695601474018667 -0.0018980763975308958 0 0.0085776156660385874 -0.002111012482132513 0 0.007679406114923357 -0.0029924131132783413 0 0.0070182739259438583 -0.0042584918963853016 0 0.0089350181318611204 -0.0035093691286273631 0 0.007679406114923357 -0.0029924131132783413 0 0.0085776156660385874 -0.002111012482132513 0 0.0089350181318611204 -0.0035093691286273631 0 0.007679406114923357 -0.0029924131132783413 0 0.0067682857799420517 -0.0030651810544268586 0 0.0070182739259438583 -0.0042584918963853016 0 0.005444575846226464 -0.0030528905121471783 0 0.0067695601474018667 -0.0018980763975308958 0 0.0067682857799420517 -0.0030651810544268586 0 0.005444575846226464 -0.0030528905121471783 0 0.0067682857799420517 -0.0030651810544268586 0 0.0070182739259438583 -0.0042584918963853016 0 0.0067695601474018667 -0.0018980763975308958 0 0.007679406114923357 -0.0029924131132783413 0 0.0067682857799420517 -0.0030651810544268586 0 0.0047003530792749 -0.0046610332204985415 0 0.0037216830759577236 -0.004878049576879877 0 0.0060411621323179223 -0.0023781304611196824 0 0.0051223896533002401 -0.0019688753906711501 0 0.0050980753163364081 -0.0027432308727958947 0 0.0017108058370714078 -0.0070916829349995875 0 0.0017215848067807103 -0.0071022309919414909 0 0.0017490691264863221 -0.0071242077778512674 0 0.0017108058370714078 -0.0070916829349995875 0 0.0017579221757308286 -0.0070827980365368087 0 0.0017490691264863221 -0.0071242077778512674 0 0.0047003530792749 -0.0046610332204985415 0 0.0055621223770598166 -0.0063018042973765984 0 0.0047003530792749 -0.0046610332204985415 0 0.0042224222471112551 -0.0047749913685326143 0 0.0017215848067807103 -0.0071022309919414909 0 0.0016453019115996957 -0.0070682523639839547 0 0.0017333792340340998 -0.0071606563492369367 0 0.0016632808268307248 -0.0070159141752630114 0 0.0017215848067807103 -0.0071022309919414909 0 0.0016453019115996957 -0.0070682523639839547 0 0.0016632808268307248 -0.0070159141752630114 0 0.0016453019115996957 -0.0070682523639839547 0 0.0016037728468270276 -0.00702062687861571 0 0.0016453019115996957 -0.0070682523639839547 0 0.0016037728468270276 -0.00702062687861571 0 0.0015793103630122862 -0.0069997830379474168 0 0.0016076123100485834 -0.0070093057124340314 0 0.0016037728468270276 -0.00702062687861571 0 0.0015793103630122862 -0.0069997830379474168 0 0.0030967823402546085 -0.0049897080537658327 0 0.0037216830759577236 -0.004878049576879877 0 0.0030967823402546085 -0.0049897080537658327 0 0.0030154151572640742 -0.0052437009938197717 0 0.0015243264623945349 -0.0068456700329962905 0 0.0014910909997796846 -0.0069740757752167802 0 0.0014467981146775088 -0.0067600915524163195 0 0.0030967823402546085 -0.0049897080537658327 0 0.0025195201024432283 -0.0055393611576776388 0 0.0037555437322904198 -0.0016612713878413278 0 0.0043222193254874187 -0.0022711416684893411 0 0.0029330154387641545 -0.0017801851732598809 0 0.004147751057463866 -0.0031186731789270145 0 0.0043222193254874187 -0.0022711416684893411 0 0.0029330154387641545 -0.0017801851732598809 0 0.0030967823402546085 -0.0049897080537658327 0 0.0026879811071584621 -0.002737618416058771 0 0.0037555437322904198 -0.0016612713878413278 0 0.0043222193254874187 -0.0022711416684893411 0 0.0043874566420034778 -0.0018123637764064283 0 0.0043222193254874187 -0.0022711416684893411 0 0.0043874566420034778 -0.0018123637764064283 0 0.0046991748893413015 -0.0020085462031031419 0 0.0056230535288973914 -0.0025316164642770426 0 0.0047003530792749 -0.0046610332204985415 0 0.004688992983355884 -0.0013283291051531076 0 0.0060411621323179223 -0.0023781304611196824 0 0.0051223896533002401 -0.0019688753906711501 0 0.0045943085050805408 -0.0017368526099030904 0 0.0043874566420034778 -0.0018123637764064283 0 0.0046991748893413015 -0.0020085462031031419 0 0.0047337210476362168 -0.0016850648856806406 0 0.0045943085050805408 -0.0017368526099030904 0 0.0046991748893413015 -0.0020085462031031419 0 0.0047337210476362168 -0.0016850648856806406 0 0.0046991748893413015 -0.0020085462031031419 0 0.0051223896533002401 -0.0019688753906711501 0 0.0046991748893413015 -0.0020085462031031419 0 0.0051223896533002401 -0.0019688753906711501 0 0.0050980753163364081 -0.0027432308727958947 0 0.004147751057463866 -0.0031186731789270145 0 0.0043222193254874187 -0.0022711416684893411 0 0.0050980753163364081 -0.0027432308727958947 0 0.0043222193254874187 -0.0022711416684893411 0 0.0046991748893413015 -0.0020085462031031419 0 0.0050980753163364081 -0.0027432308727958947 0 0.0022610976281070951 -0.0070963310503527974 0 0.0021522253970982569 -0.0070862166525286459 0 0.0020639352114813422 -0.0069507010732478194 0 0.0027149777681052794 -0.015354945341277272 0 0.0040471586427587181 -0.012674300780685056 0 0.00207298965347676 -0.0070858405876023248 0 0.0020639352114813422 -0.0069507010732478194 0 0.0019659166323459463 -0.0070857253029170779 0 0.0021522253970982569 -0.0070862166525286459 0 0.00207298965347676 -0.0070858405876023248 0 0.0021371734187950447 -0.0071503803086259915 0 0.0021522253970982569 -0.0070862166525286459 0 0.00207298965347676 -0.0070858405876023248 0 0.0020639352114813422 -0.0069507010732478194 0 0.0039819463189227243 -0.014556139542884837 0 0.0035642424105849805 -0.01382249778712524 0 0.0029262153243510172 -0.014068796450969067 0 0.012610715820039588 -0.0020601106180635179 0 0.011903869260090825 -0.0023226460727065121 0 0.011362692795851389 -0.0016214095909587009 0 0.0036584663638084473 -0.014632513946712248 0 0.0040471586427587181 -0.012674300780685056 0 0.0011808750749689818 -0.017724174907497493 0 0.0014529238796505536 -0.018200305374349416 0 0.0013627246183717998 -0.017651073995673186 0 0.011362692795851389 -0.0016214095909587009 0 0.010806954930727069 -0.0027540925324860801 0 0.010540073333308912 -0.0018182381968218091 0 0.011903869260090825 -0.0023226460727065121 0 0.011362692795851389 -0.0016214095909587009 0 0.010806954930727069 -0.0027540925324860801 0 0.010809780851242559 -0.0010607561918728665 0 0.011362692795851389 -0.0016214095909587009 0 0.010540073333308912 -0.0018182381968218091 0 0.0040471586427587181 -0.012674300780685056 0 0.0059204767275033649 -0.0089806251620299718 0 0.0019163596273093213 -0.007010465832564948 0 0.0019659166323459463 -0.0070857253029170779 0 0.0018570309407503762 -0.007142764592485985 0 0.0020639352114813422 -0.0069507010732478194 0 0.0019163596273093213 -0.007010465832564948 0 0.0019659166323459463 -0.0070857253029170779 0 0.0059204767275033649 -0.0089806251620299718 0 0.0055621223770598166 -0.0063018042973765984 0 0.010806954930727069 -0.0027540925324860801 0 0.0097317210057874335 -0.0022705320117059969 0 0.0089350181318611204 -0.0035093691286273631 0 0.0019163596273093213 -0.007010465832564948 0 0.0017579221757308286 -0.0070827980365368087 0 0.0018570309407503762 -0.007142764592485985 0 0.010806954930727069 -0.0027540925324860801 0 0.0097317210057874335 -0.0022705320117059969 0 0.010540073333308912 -0.0018182381968218091 0 0.0097532922462273096 -0.0011247937090860273 0 0.0097317210057874335 -0.0022705320117059969 0 0.010540073333308912 -0.0018182381968218091 0 0.0097532922462273096 -0.0011247937090860273 0 0.0097317210057874335 -0.0022705320117059969 0 0.0085776156660385874 -0.002111012482132513 0 0.0097317210057874335 -0.0022705320117059969 0 0.0085776156660385874 -0.002111012482132513 0 0.0089350181318611204 -0.0035093691286273631 0 0.0017490691264863221 -0.0071242077778512674 0 0.0017775662349742763 -0.0071957127092900806 0 0.0018570309407503762 -0.007142764592485985 0 0.0017579221757308286 -0.0070827980365368087 0 0.0017490691264863221 -0.0071242077778512674 0 0.0018570309407503762 -0.007142764592485985 0 0.0017215848067807103 -0.0071022309919414909 0 0.0017490691264863221 -0.0071242077778512674 0 0.0017775662349742763 -0.0071957127092900806 0 0.0017215848067807103 -0.0071022309919414909 0 0.0017775662349742763 -0.0071957127092900806 0 0.0017333792340340998 -0.0071606563492369367 0 0.0017775662349742763 -0.0071957127092900806 0 0.001846844110222801 -0.0072375546495849121 0 0.0018570309407503762 -0.007142764592485985 0 0.0017775662349742763 -0.0071957127092900806 0 0.0017954650486647382 -0.0072679020004173586 0 0.0017760201428766431 -0.007222210505054916 0 0.0017775662349742763 -0.0071957127092900806 0 0.001846844110222801 -0.0072375546495849121 0 0.0017954650486647382 -0.0072679020004173586 0 0.001846844110222801 -0.0072375546495849121 0 0.0018222956593982249 -0.0073587221389830489 0 0.0017954650486647382 -0.0072679020004173586 0 0.0019659166323459463 -0.0070857253029170779 0 0.0018570309407503762 -0.007142764592485985 0 0.001934055813598644 -0.0071898971774945405 0 0.0019659166323459463 -0.0070857253029170779 0 0.001934055813598644 -0.0071898971774945405 0 0.0020346945875629983 -0.0071630358620881473 0 0.00207298965347676 -0.0070858405876023248 0 0.0019659166323459463 -0.0070857253029170779 0 0.0020346945875629983 -0.0071630358620881473 0 0.001934055813598644 -0.0071898971774945405 0 0.0019743979810877008 -0.0072727553630390221 0 0.0020346945875629983 -0.0071630358620881473 0 0.001846844110222801 -0.0072375546495849121 0 0.0018570309407503762 -0.007142764592485985 0 0.001934055813598644 -0.0071898971774945405 0 0.001846844110222801 -0.0072375546495849121 0 0.001934055813598644 -0.0071898971774945405 0 0.0019743979810877008 -0.0072727553630390221 0 0.001846844110222801 -0.0072375546495849121 0 0.0019743979810877008 -0.0072727553630390221 0 0.0018222956593982249 -0.0073587221389830489 0 0.0019743979810877008 -0.0072727553630390221 0 0.0020877899297179069 -0.0073296664676931068 0 0.0019903003917428642 -0.0074580649670499318 0 0.0019743979810877008 -0.0072727553630390221 0 0.0020877899297179069 -0.0073296664676931068 0 0.0021096077201513902 -0.007230154791609239 0 0.0021921648561113653 -0.0073126162820344011 0 0.0020877899297179069 -0.0073296664676931068 0 0.0021563267262957354 -0.0074327948013813375 0 0.0021921648561113653 -0.0073126162820344011 0 0.0020877899297179069 -0.0073296664676931068 0 0.0021096077201513902 -0.007230154791609239 0 0.002208416236674172 -0.0072249512363336803 0 0.0021921648561113653 -0.0073126162820344011 0 0.0021096077201513902 -0.007230154791609239 0 0.002208416236674172 -0.0072249512363336803 0 0.0021096077201513902 -0.007230154791609239 0 0.0021371734187950447 -0.0071503803086259915 0 0.0019743979810877008 -0.0072727553630390221 0 0.0021096077201513902 -0.007230154791609239 0 0.0020346945875629983 -0.0071630358620881473 0 0.0021096077201513902 -0.007230154791609239 0 0.0020346945875629983 -0.0071630358620881473 0 0.0021371734187950447 -0.0071503803086259915 0 0.00207298965347676 -0.0070858405876023248 0 0.0020346945875629983 -0.0071630358620881473 0 0.0021371734187950447 -0.0071503803086259915 0 0.0022150657304752554 -0.0071533469753784626 0 0.0021522253970982569 -0.0070862166525286459 0 0.0021371734187950447 -0.0071503803086259915 0 0.0021065939398296749 -0.0076455318109034821 0 0.0019903003917428642 -0.0074580649670499318 0 0.0019128258025186513 -0.0077353457961583747 0 0.0022796322201842907 -0.007778970582014667 0 0.0021065939398296749 -0.0076455318109034821 0 0.0020013288996741699 -0.0079901362046520645 0 0.0021065939398296749 -0.0076455318109034821 0 0.0019128258025186513 -0.0077353457961583747 0 0.0020013288996741699 -0.0079901362046520645 0 0.0021065939398296749 -0.0076455318109034821 0 0.0021563267262957354 -0.0074327948013813375 0 0.0019903003917428642 -0.0074580649670499318 0 0.0020877899297179069 -0.0073296664676931068 0 0.0021563267262957354 -0.0074327948013813375 0 0.0019903003917428642 -0.0074580649670499318 0 0.0019743979810877008 -0.0072727553630390221 0 0.0019903003917428642 -0.0074580649670499318 0 0.0018222956593982249 -0.0073587221389830489 0 0.0019903003917428642 -0.0074580649670499318 0 0.0018222956593982249 -0.0073587221389830489 0 0.0017970419096290154 -0.007607107313647261 0 0.0019128258025186513 -0.0077353457961583747 0 0.0017970419096290154 -0.007607107313647261 0 0.0016871871871025055 -0.0079528950878638045 0 0.0019903003917428642 -0.0074580649670499318 0 0.0019128258025186513 -0.0077353457961583747 0 0.0017970419096290154 -0.007607107313647261 0 0.0015439198843042947 -0.0073526957357504114 0 0.0014450717161713761 -0.0074344092385451189 0 0.0015739608173786857 -0.0074875980703794356 0 0.0016494642841559466 -0.0074579410577195384 0 0.0016695945175841448 -0.0077022011190605718 0 0.0017970419096290154 -0.007607107313647261 0 0.0015901491068119394 -0.0075564745188189172 0 0.0016871871871025055 -0.0079528950878638045 0 0.0018222956593982249 -0.0073587221389830489 0 0.0017970419096290154 -0.007607107313647261 0 0.0015901491068119394 -0.0075564745188189172 0 0.0016980941615256499 -0.0074199804125628958 0 0.0016494642841559466 -0.0074579410577195384 0 0.0018222956593982249 -0.0073587221389830489 0 0.0017954650486647382 -0.0072679020004173586 0 0.0017876667801783113 -0.0072428040684562565 0 0.0017954650486647382 -0.0072679020004173586 0 0.0017876667801783113 -0.0072428040684562565 0 0.0017760201428766431 -0.007222210505054916 0 0.0017775662349742763 -0.0071957127092900806 0 0.0017760201428766431 -0.007222210505054916 0 0.0017333792340340998 -0.0071606563492369367 0 0.0017876667801783113 -0.0072428040684562565 0 0.0017760201428766431 -0.007222210505054916 0 0.0017668550367819079 -0.0072163597018610253 0 0.0017760201428766431 -0.007222210505054916 0 0.0017668550367819079 -0.0072163597018610253 0 0.0017333792340340998 -0.0071606563492369367 0 0.0016494642841559466 -0.0074579410577195384 0 0.0016218770679593604 -0.0074143322080749514 0 0.0017668550367819079 -0.0072163597018610253 0 0.0017616176822058216 -0.007228331267480426 0 0.0017247713540950163 -0.0071845051894190879 0 0.0017876667801783113 -0.0072428040684562565 0 0.0017668550367819079 -0.0072163597018610253 0 0.0017616176822058216 -0.007228331267480426 0 0.0014450717161713761 -0.0074344092385451189 0 0.001470413541481355 -0.0075404717977034181 0 0.0015739608173786857 -0.0074875980703794356 0 0.001470413541481355 -0.0075404717977034181 0 0.0016303765043544226 -0.0076427674214299985 0 0.001397064918767408 -0.0076497906263744333 0 0.0016695945175841448 -0.0077022011190605718 0 0.001709198061869203 -0.0079343070327955369 0 0.001470413541481355 -0.0075404717977034181 0 0.0015739608173786857 -0.0074875980703794356 0 0.0016303765043544226 -0.0076427674214299985 0 0.0019128258025186513 -0.0077353457961583747 0 0.0016871871871025055 -0.0079528950878638045 0 0.0020013288996741699 -0.0079901362046520645 0 0.0016871871871025055 -0.0079528950878638045 0 0.0020013288996741699 -0.0079901362046520645 0 0.0017840597067583642 -0.0082685947150318642 0 0.0020013288996741699 -0.0079901362046520645 0 0.0020501056213468659 -0.0083536416554143931 0 0.0017840597067583642 -0.0082685947150318642 0 0.0023188905926397911 -0.0080727931974739903 0 0.0020013288996741699 -0.0079901362046520645 0 0.0020501056213468659 -0.0083536416554143931 0 0.0015594489932595609 -0.0071174038662719322 0 0.0014948911747739359 -0.0072852315183194608 0 0.0014374367986464613 -0.0071732009484235552 0 0.0015594489932595609 -0.0071174038662719322 0 0.0014910909997796846 -0.0069740757752167802 0 0.0014374367986464613 -0.0071732009484235552 0 0.0014910909997796846 -0.0069740757752167802 0 0.0014374367986464613 -0.0071732009484235552 0 0.0013735900460569524 -0.0069692493275660076 0 0.0015243264623945349 -0.0068456700329962905 0 0.0014910909997796846 -0.0069740757752167802 0 0.0015793103630122862 -0.0069997830379474168 0 0.0015594489932595609 -0.0071174038662719322 0 0.0015793103630122862 -0.0069997830379474168 0 0.0016183120787325775 -0.0070707893271997526 0 0.0015594489932595609 -0.0071174038662719322 0 0.0014910909997796846 -0.0069740757752167802 0 0.0015793103630122862 -0.0069997830379474168 0 0.0015594489932595609 -0.0071174038662719322 0 0.0016183120787325775 -0.0070707893271997526 0 0.0016709542173380533 -0.0071323354741745686 0 0.0016453019115996957 -0.0070682523639839547 0 0.0015793103630122862 -0.0069997830379474168 0 0.0016183120787325775 -0.0070707893271997526 0 0.0016453019115996957 -0.0070682523639839547 0 0.0016183120787325775 -0.0070707893271997526 0 0.0016709542173380533 -0.0071323354741745686 0 0.0016453019115996957 -0.0070682523639839547 0 0.0016709542173380533 -0.0071323354741745686 0 0.0017333792340340998 -0.0071606563492369367 0 0.0016709542173380533 -0.0071323354741745686 0 0.0017333792340340998 -0.0071606563492369367 0 0.0017247713540950163 -0.0071845051894190879 0 0.0017668550367819079 -0.0072163597018610253 0 0.0017333792340340998 -0.0071606563492369367 0 0.0017247713540950163 -0.0071845051894190879 0 0.0017616176822058216 -0.007228331267480426 0 0.0017247713540950163 -0.0071845051894190879 0 0.0016641251244089133 -0.007200703756406442 0 0.0016709542173380533 -0.0071323354741745686 0 0.0017247713540950163 -0.0071845051894190879 0 0.0016641251244089133 -0.007200703756406442 0 0.0015594489932595609 -0.0071174038662719322 0 0.0016641251244089133 -0.007200703756406442 0 0.0014948911747739359 -0.0072852315183194608 0 0.0015594489932595609 -0.0071174038662719322 0 0.0016709542173380533 -0.0071323354741745686 0 0.0016641251244089133 -0.007200703756406442 0 0.0016823993641686677 -0.0073174687960944427 0 0.0014273285614188858 -0.0075083102213407841 0 0.0014948911747739359 -0.0072852315183194608 0 0.0016641251244089133 -0.007200703756406442 0 0.0016823993641686677 -0.0073174687960944427 0 0.0014948911747739359 -0.0072852315183194608 0 0.0017616176822058216 -0.007228331267480426 0 0.0016641251244089133 -0.007200703756406442 0 0.0016823993641686677 -0.0073174687960944427 0 0.0016218770679593604 -0.0074143322080749514 0 0.0015573433111739999 -0.0074391996652703029 0 0.0014450717161713761 -0.0074344092385451189 0 0.001470413541481355 -0.0075404717977034181 0 0.0013658655134728096 -0.0075199774163997859 0 0.001470413541481355 -0.0075404717977034181 0 0.0013658655134728096 -0.0075199774163997859 0 0.001397064918767408 -0.0076497906263744333 0 0.0013658655134728096 -0.0075199774163997859 0 0.001397064918767408 -0.0076497906263744333 0 0.0013395108939782479 -0.0076196127740423506 0 0.0015573433111739999 -0.0074391996652703029 0 0.0015186958733962141 -0.0074637257776808937 0 0.0013658655134728096 -0.0075199774163997859 0 0.0014273285614188858 -0.0075083102213407841 0 0.0013395108939782479 -0.0076196127740423506 0 0.0014273285614188858 -0.0075083102213407841 0 0.0014948911747739359 -0.0072852315183194608 0 0.0013561967226176259 -0.0074255622634862841 0 0.0014948911747739359 -0.0072852315183194608 0 0.0014374367986464613 -0.0071732009484235552 0 0.0013561967226176259 -0.0074255622634862841 0 0.0014374367986464613 -0.0071732009484235552 0 0.0013561967226176259 -0.0074255622634862841 0 0.0013208869937366046 -0.0072623618253096342 0 0.0013561967226176259 -0.0074255622634862841 0 0.0012056724964709302 -0.0074300613639481936 0 0.0013208869937366046 -0.0072623618253096342 0 0.0012056724964709302 -0.0074300613639481936 0 0.0011759438217132858 -0.0072495031562015994 0 0.0013208869937366046 -0.0072623618253096342 0 0.0011224381774409314 -0.0072980656684805967 0 0.0010762553348972453 -0.0073580096480698022 0 0.0012056724964709302 -0.0074300613639481936 0 0.0011759438217132858 -0.0072495031562015994 0 0.0010349090696413097 -0.0074485781284103145 0 0.0011759438217132858 -0.0072495031562015994 0 0.0013735900460569524 -0.0069692493275660076 0 0.0011948836749981536 -0.0070691964627616075 0 0.0011759438217132858 -0.0072495031562015994 0 0.0010334548352160179 -0.007151773405308863 0 0.0011948836749981536 -0.0070691964627616075 0 0.0011759438217132858 -0.0072495031562015994 0 0.0013208869937366046 -0.0072623618253096342 0 0.0013735900460569524 -0.0069692493275660076 0 0.0014374367986464613 -0.0071732009484235552 0 0.0013208869937366046 -0.0072623618253096342 0 0.0013735900460569524 -0.0069692493275660076 0 0.0010063479481168707 -0.0072047272993430731 0 0.00096752522426739752 -0.0072217816592709599 0 0.0010148925891294543 -0.0072775644442379696 0 0.0010063479481168707 -0.0072047272993430731 0 0.0010148925891294543 -0.0072775644442379696 0 0.0010483684962832062 -0.0072766571242628194 0 0.0011759438217132858 -0.0072495031562015994 0 0.0010063479481168707 -0.0072047272993430731 0 0.0010483684962832062 -0.0072766571242628194 0 0.0011759438217132858 -0.0072495031562015994 0 0.0010334548352160179 -0.007151773405308863 0 0.0010063479481168707 -0.0072047272993430731 0 0.0010334548352160179 -0.007151773405308863 0 0.0010063479481168707 -0.0072047272993430731 0 0.00097036067106514852 -0.0071409723057488652 0 0.0010063479481168707 -0.0072047272993430731 0 0.00095545143155672228 -0.007123122915235299 0 0.00096752522426739752 -0.0072217816592709599 0 -0.0011121699457147108 0.0018564051956361384 0 -0.00040890470817071041 0.00015887580467896566 0 0.0010063479481168707 -0.0072047272993430731 0 0.00097036067106514852 -0.0071409723057488652 0 0.00095545143155672228 -0.007123122915235299 0 -0.00087012622517626504 0.0015416637300110173 0 -0.00038235179149380297 0.001377545386207701 0 -0.0011121699457147108 0.0018564051956361384 0 -0.00038235179149380297 0.001377545386207701 0 -0.00096279691087507234 0.0017191141004608004 0 -0.00099615348518465575 0.0015670359207145075 0 -0.00071418000448240644 0.001631262111474559 0 0.00097036067106514852 -0.0071409723057488652 0 0.00095545143155672228 -0.007123122915235299 0 0.00093484911591449379 -0.0071123187824108135 0 -0.00087012622517626504 0.0015416637300110173 0 -0.0011121699457147108 0.0018564051956361384 0 -0.0027797736045634901 0.005821140862126057 0 -0.0026900509293732227 0.0062524889309715148 0 -0.0023720580607737478 0.0059296559781636107 0 -0.00046150910468516898 -0.0068963319255278595 0 0.00093484911591449379 -0.0071123187824108135 0 0.00074614672118218466 -0.0065469960509690166 0 0.0010334548352160179 -0.007151773405308863 0 0.00097036067106514852 -0.0071409723057488652 0 0.00093484911591449379 -0.0071123187824108135 0 0.0010334548352160179 -0.007151773405308863 0 0.00093484911591449379 -0.0071123187824108135 0 0.0011948836749981536 -0.0070691964627616075 0 0.00093484911591449379 -0.0071123187824108135 0 0.00074614672118218466 -0.0065469960509690166 0 0.001236941086166214 -0.0068614377061731371 0 0.00093484911591449379 -0.0071123187824108135 0 0.0011948836749981536 -0.0070691964627616075 0 0.001236941086166214 -0.0068614377061731371 0 0.00074614672118218466 -0.0065469960509690166 0 0.00092923914143725318 -0.0051319671731712589 0 -0.00034762583648498323 -0.0053588664733395823 0 0.00074614672118218466 -0.0065469960509690166 0 0.0014993250142046135 -0.0064150784845695159 0 0.00092923914143725318 -0.0051319671731712589 0 0.00074614672118218466 -0.0065469960509690166 0 0.001236941086166214 -0.0068614377061731371 0 0.0014993250142046135 -0.0064150784845695159 0 -0.00046150910468516898 -0.0068963319255278595 0 0.00074614672118218466 -0.0065469960509690166 0 -0.00034762583648498323 -0.0053588664733395823 0 -0.0032320104706928692 0.0056958977214161535 0 -0.0034290488687683837 0.0048474756607154671 0 -0.0028031715905502842 0.0050093285687669055 0 -0.00087012622517626504 0.0015416637300110173 0 -0.0011659952609167214 0.00033042133692174562 0 0.0013735900460569524 -0.0069692493275660076 0 0.0011948836749981536 -0.0070691964627616075 0 0.001236941086166214 -0.0068614377061731371 0 0.0013735900460569524 -0.0069692493275660076 0 0.001236941086166214 -0.0068614377061731371 0 0.0014993250142046135 -0.0064150784845695159 0 0.0021246463714785775 -0.0057781208223989539 0 0.0025195201024432283 -0.0055393611576776388 0 0.0013735900460569524 -0.0069692493275660076 0 0.0014993250142046135 -0.0064150784845695159 0 0.0014467981146775088 -0.0067600915524163195 0 0.0014910909997796846 -0.0069740757752167802 0 0.0013735900460569524 -0.0069692493275660076 0 0.0014467981146775088 -0.0067600915524163195 0 0.003867885325104195 -0.0055463209892810655 0 0.0023112079246938519 -0.0043317114378524134 0 0.0038269928434953352 -0.0023827148766228765 0 0.0059524392215974395 -0.0047262837875026945 0 0.003867885325104195 -0.0055463209892810655 0 0.0038269928434953352 -0.0023827148766228765 0 0.0022958212359333804 -0.0028702469135864794 0 0.0023112079246938519 -0.0043317114378524134 0 0.0038269928434953352 -0.0023827148766228765 0 0.0022958212359333804 -0.0028702469135864794 0 0.0013554025642709049 -0.0036253286072755507 0 0.0013178192799709774 -0.0024751053992346848 0 0.0022958212359333804 -0.0028702469135864794 0 0.0023112079246938519 -0.0043317114378524134 0 0.0013554025642709049 -0.0036253286072755507 0 0.0023112079246938519 -0.0043317114378524134 0 0.00092923914143725318 -0.0051319671731712589 0 0.0013554025642709049 -0.0036253286072755507 0 0.0014993250142046135 -0.0064150784845695159 0 0.003867885325104195 -0.0055463209892810655 0 0.0023112079246938519 -0.0043317114378524134 0 0.0014993250142046135 -0.0064150784845695159 0 0.0023112079246938519 -0.0043317114378524134 0 0.00092923914143725318 -0.0051319671731712589 0 0.00092923914143725318 -0.0051319671731712589 0 -0.00034762583648498323 -0.0053588664733395823 0 0.00034986032526330128 -0.0038633687154739972 0 0.00092923914143725318 -0.0051319671731712589 0 0.0013554025642709049 -0.0036253286072755507 0 0.00034986032526330128 -0.0038633687154739972 0 -0.0034290488687683837 0.0048474756607154671 0 -0.0032318226870571213 0.0042573523781455859 0 -0.0036285133781396254 0.0039781153867279526 0 -0.00034762583648498323 -0.0053588664733395823 0 -8.6044225968727133e-05 -0.0033383890104393028 0 0.00034986032526330128 -0.0038633687154739972 0 -0.0034290488687683837 0.0048474756607154671 0 -0.0028140337732719374 0.0043363125766859561 0 -0.0028031715905502842 0.0050093285687669055 0 -0.0011659952609167214 0.00033042133692174562 0 -0.0010158716143824481 0.00017882469213265884 0 -0.0034290488687683837 0.0048474756607154671 0 -0.0032318226870571213 0.0042573523781455859 0 -0.0028140337732719374 0.0043363125766859561 0 -0.0036285133781396254 0.0039781153867279526 0 -0.0030539054963968637 0.0038637047166997286 0 -0.0030197882684331379 0.0032026153558490289 0 -0.0032318226870571213 0.0042573523781455859 0 -0.0030539054963968637 0.0038637047166997286 0 -0.0028140337732719374 0.0043363125766859561 0 -0.0032318226870571213 0.0042573523781455859 0 -0.0036285133781396254 0.0039781153867279526 0 -0.0030539054963968637 0.0038637047166997286 0 -0.00011346264090117334 -0.0032173884227734931 0 0.00069684026328804935 -0.0029108191441409698 0 0.00059099150275881138 -0.0014511094341144533 0 0.0013554025642709049 -0.0036253286072755507 0 0.00034986032526330128 -0.0038633687154739972 0 0.00069684026328804935 -0.0029108191441409698 0 -0.00011346264090117334 -0.0032173884227734931 0 0.00034986032526330128 -0.0038633687154739972 0 0.00069684026328804935 -0.0029108191441409698 0 -0.0010158716143824481 0.00017882469213265884 0 -0.00086343155633964634 -5.2396861895490984e-05 0 0.0013554025642709049 -0.0036253286072755507 0 0.00069684026328804935 -0.0029108191441409698 0 0.0013178192799709774 -0.0024751053992346848 0 -0.0010158716143824481 0.00017882469213265884 0 -0.00096699494200386336 -0.00045914217614368216 0 0.00059099150275881138 -0.0014511094341144533 0 0.00058847329540163572 -0.00035641196248265813 0 0.0016736050781284892 -0.0016053509375368491 0 0.0013178192799709774 -0.0024751053992346848 0 0.00059099150275881138 -0.0014511094341144533 0 0.0016736050781284892 -0.0016053509375368491 0 0.00069684026328804935 -0.0029108191441409698 0 0.0013178192799709774 -0.0024751053992346848 0 0.00059099150275881138 -0.0014511094341144533 0 0.00035027040942629405 -0.0025270393066462375 0 0.00059099150275881138 -0.0014511094341144533 0 -0.00065403794804146348 -0.0011882942027348705 0 -0.0010158716143824481 0.00017882469213265884 0 -0.0015834283041227064 0.00088655117136721834 0 0.00059099150275881138 -0.0014511094341144533 0 0.00058847329540163572 -0.00035641196248265813 0 -0.00065403794804146348 -0.0011882942027348705 0 -0.00046676347835025565 0.001014662253344445 0 2.067917474651268e-05 0.00046474884392552762 0 -0.00076488935001871089 0.0013499219754912525 0 0.00058847329540163572 -0.00035641196248265813 0 -0.00061688833346866404 7.7576455572290928e-05 0 0.00058847329540163572 -0.00035641196248265813 0 -0.00061688833346866404 7.7576455572290928e-05 0 -0.00065403794804146348 -0.0011882942027348705 0 0.00061872158692694414 0.00091407712938824741 0 0.00058847329540163572 -0.00035641196248265813 0 0.0018377011292757125 -0.00033943252337023726 0 0.00058847329540163572 -0.00035641196248265813 0 0.0018377011292757125 -0.00033943252337023726 0 0.0016736050781284892 -0.0016053509375368491 0 0.001812941191729916 0.0008885584883435054 0 0.001719008900962447 -0.00041348843926891697 0 0.0032522346012774229 -0.00020221659195555192 0 0.001719008900962447 -0.00041348843926891697 0 0.0032522346012774229 -0.00020221659195555192 0 0.0029330154387641545 -0.0017801851732598809 0 0.0037555437322904198 -0.0016612713878413278 0 0.0032522346012774229 -0.00020221659195555192 0 0.0029330154387641545 -0.0017801851732598809 0 0.0018377011292757125 -0.00033943252337023726 0 0.0038269928434953352 -0.0023827148766228765 0 0.0016736050781284892 -0.0016053509375368491 0 0.0022958212359333804 -0.0028702469135864794 0 0.0038269928434953352 -0.0023827148766228765 0 0.0016736050781284892 -0.0016053509375368491 0 0.0016682797660986983 -0.00091271950426399025 0 0.0026879811071584621 -0.002737618416058771 0 0.0022958212359333804 -0.0028702469135864794 0 0.0013178192799709774 -0.0024751053992346848 0 0.0016736050781284892 -0.0016053509375368491 0 -0.0012638264205652879 0.003204112856545544 0 -0.00168955810143553 0.003464958058097537 0 -0.0013781353919720878 0.0039055644680760738 0 -0.0012638264205652879 0.003204112856545544 0 -0.0017062995165521933 0.0027251375508768202 0 -0.00168955810143553 0.003464958058097537 0 -0.0012638264205652879 0.003204112856545544 0 -0.00094319852577762957 0.0035706504474499801 0 -0.0013781353919720878 0.0039055644680760738 0 -0.00071160862079641749 0.0030582407067349651 0 -0.00049727089932385406 0.0037802787685246595 0 -0.0002196095653924244 0.0033636137391196063 0 -0.00094319852577762957 0.0035706504474499801 0 -0.00071160862079641749 0.0030582407067349651 0 -0.00049727089932385406 0.0037802787685246595 0 -0.0012638264205652879 0.003204112856545544 0 -0.00094319852577762957 0.0035706504474499801 0 -0.00071160862079641749 0.0030582407067349651 0 -0.00098289713910649297 0.0023065343603905029 0 -0.00071160862079641749 0.0030582407067349651 0 -0.00021094693356670446 0.0024751481712539918 0 -0.00071160862079641749 0.0030582407067349651 0 -0.00021094693356670446 0.0024751481712539918 0 -0.0002196095653924244 0.0033636137391196063 0 -0.00098289713910649297 0.0023065343603905029 0 -0.00071160862079641749 0.0030582407067349651 0 -0.0012495706492771546 0.0027380768226524443 0 -0.00098289713910649297 0.0023065343603905029 0 -0.0015033121905565468 0.0022256712972157171 0 -0.0012495706492771546 0.0027380768226524443 0 -0.0012638264205652879 0.003204112856545544 0 -0.00071160862079641749 0.0030582407067349651 0 -0.0012495706492771546 0.0027380768226524443 0 -0.0012638264205652879 0.003204112856545544 0 -0.0012495706492771546 0.0027380768226524443 0 -0.0017062995165521933 0.0027251375508768202 0 -0.0015033121905565468 0.0022256712972157171 0 -0.0018772609623049418 0.0023236675730051062 0 -0.0017062995165521933 0.0027251375508768202 0 -0.0015033121905565468 0.0022256712972157171 0 -0.0012495706492771546 0.0027380768226524443 0 -0.0017062995165521933 0.0027251375508768202 0 -0.0018772609623049418 0.0023236675730051062 0 -0.0017062995165521933 0.0027251375508768202 0 -0.0023447003289491764 0.0023681561698191797 0 -0.0017062995165521933 0.0027251375508768202 0 -0.0023447003289491764 0.0023681561698191797 0 -0.002158754040967944 0.0032208763860781743 0 -0.0018071160142981292 0.001242974333083289 0 -0.0015834283041227064 0.00088655117136721834 0 -0.0023447003289491764 0.0023681561698191797 0 -0.0030197882684331379 0.0032026153558490289 0 -0.002158754040967944 0.0032208763860781743 0 -0.00061688833346866404 7.7576455572290928e-05 0 -0.0015853933816658112 0.00047577545943289912 0 -0.00065403794804146348 -0.0011882942027348705 0 -0.00076488935001871089 0.0013499219754912525 0 -0.00061688833346866404 7.7576455572290928e-05 0 -0.0015853933816658112 0.00047577545943289912 0 -0.0030197882684331379 0.0032026153558490289 0 -0.002158754040967944 0.0032208763860781743 0 -0.00258857558558442 0.0036917258209983646 0 -0.0030539054963968637 0.0038637047166997286 0 -0.0030197882684331379 0.0032026153558490289 0 -0.00258857558558442 0.0036917258209983646 0 -0.00168955810143553 0.003464958058097537 0 -0.002158754040967944 0.0032208763860781743 0 -0.0020950734395457577 0.0040090566948802284 0 -0.0017062995165521933 0.0027251375508768202 0 -0.00168955810143553 0.003464958058097537 0 -0.002158754040967944 0.0032208763860781743 0 -0.002158754040967944 0.0032208763860781743 0 -0.0020950734395457577 0.0040090566948802284 0 -0.00258857558558442 0.0036917258209983646 0 -0.00168955810143553 0.003464958058097537 0 -0.0020950734395457577 0.0040090566948802284 0 -0.0013781353919720878 0.0039055644680760738 0 -0.0020950734395457577 0.0040090566948802284 0 -0.0016387156911349822 0.0044613050006557381 0 -0.0013781353919720878 0.0039055644680760738 0 -0.0020950734395457577 0.0040090566948802284 0 -0.00258857558558442 0.0036917258209983646 0 -0.0028140337732719374 0.0043363125766859561 0 -0.0030539054963968637 0.0038637047166997286 0 -0.00258857558558442 0.0036917258209983646 0 -0.0028140337732719374 0.0043363125766859561 0 -0.0020950734395457577 0.0040090566948802284 0 -0.0028140337732719374 0.0043363125766859561 0 -0.0022047987584880024 0.0047563558720019033 0 -0.0028140337732719374 0.0043363125766859561 0 -0.0022047987584880024 0.0047563558720019033 0 -0.0028031715905502842 0.0050093285687669055 0 -0.0022047987584880024 0.0047563558720019033 0 -0.0016387156911349822 0.0044613050006557381 0 -0.0014189911045999189 0.0051241740019113561 0 -0.0020950734395457577 0.0040090566948802284 0 -0.0022047987584880024 0.0047563558720019033 0 -0.0016387156911349822 0.0044613050006557381 0 -0.0016387156911349822 0.0044613050006557381 0 -0.00095120750750239149 0.0045490780030782024 0 -0.0014189911045999189 0.0051241740019113561 0 -0.0013781353919720878 0.0039055644680760738 0 -0.00087889075093799246 0.0040216502447943539 0 -0.00095120750750239149 0.0045490780030782024 0 -0.0016387156911349822 0.0044613050006557381 0 -0.0013781353919720878 0.0039055644680760738 0 -0.00095120750750239149 0.0045490780030782024 0 -0.00094319852577762957 0.0035706504474499801 0 -0.0013781353919720878 0.0039055644680760738 0 -0.00087889075093799246 0.0040216502447943539 0 -0.00049727089932385406 0.0037802787685246595 0 -0.00047170529209347451 0.0041950357089448956 0 -5.6176842062162232e-05 0.0039755092032855571 0 -0.00049727089932385406 0.0037802787685246595 0 -0.00087889075093799246 0.0040216502447943539 0 -0.00047170529209347451 0.0041950357089448956 0 -0.00094319852577762957 0.0035706504474499801 0 -0.00049727089932385406 0.0037802787685246595 0 -0.00087889075093799246 0.0040216502447943539 0 -0.00087889075093799246 0.0040216502447943539 0 -0.00047170529209347451 0.0041950357089448956 0 -0.00095120750750239149 0.0045490780030782024 0 -0.00095120750750239149 0.0045490780030782024 0 -0.00040125910203848725 0.0048890672423537876 0 -0.0014189911045999189 0.0051241740019113561 0 -0.0012102347950712568 0.0042056575045761688 0 -0.0015749205001980078 0.0041183967797503249 0 -0.00045759732378960989 0.0077403102065595674 0 -0.00021612508440583357 0.0084021635992538504 0 -0.00095120750750239149 0.0045490780030782024 0 -0.00040125910203848725 0.0048890672423537876 0 8.8045739049433266e-05 0.0046610180040937499 0 -0.00047170529209347451 0.0041950357089448956 0 -0.00095120750750239149 0.0045490780030782024 0 -3.4413577370512339e-05 0.0045806619805763725 0 -0.00040125910203848725 0.0048890672423537876 0 -0.00039790920260066747 0.0052829652329378831 0 -0.0011913976815043305 0.0052542484385876935 0 -0.00040125910203848725 0.0048890672423537876 0 -0.00039790920260066747 0.0052829652329378831 0 3.8273759834083176e-05 0.0051401789198165246 0 -0.00039790920260066747 0.0052829652329378831 0 -0.00053940308773588403 0.0056223857783428222 0 -0.0011913976815043305 0.0052542484385876935 0 -0.00039790920260066747 0.0052829652329378831 0 -0.00053940308773588403 0.0056223857783428222 0 0.00018534099790646629 0.0055272364407665331 0 -0.00053940308773588403 0.0056223857783428222 0 -0.00095845533866577629 0.0057035229242952965 0 -0.00068330719260435539 0.0059394684742853617 0 -0.0011913976815043305 0.0052542484385876935 0 -0.00095845533866577629 0.0057035229242952965 0 -0.001292454793513664 0.0060686847316538733 0 -0.00053940308773588403 0.0056223857783428222 0 -0.0011913976815043305 0.0052542484385876935 0 -0.00095845533866577629 0.0057035229242952965 0 -0.00095845533866577629 0.0057035229242952965 0 -0.001292454793513664 0.0060686847316538733 0 -0.00068330719260435539 0.0059394684742853617 0 -0.001292454793513664 0.0060686847316538733 0 -0.00051478339480875578 0.0064719142485106483 0 -0.00092899075966855417 0.0064387811024325383 0 -0.00089725929826496966 0.0066632700891625174 0 -0.00052450559688098136 0.00689197916865056 0 -0.001292454793513664 0.0060686847316538733 0 -0.0016218463168970678 0.0065401820316455502 0 -0.00092899075966855417 0.0064387811024325383 0 -0.001292454793513664 0.0060686847316538733 0 -0.00039221618056749772 0.0063431602100645496 0 -0.00068330719260435539 0.0059394684742853617 0 -0.00053940308773588403 0.0056223857783428222 0 -0.00068330719260435539 0.0059394684742853617 0 -0.00021212637627792731 0.0059537739053199205 0 -0.00039221618056749772 0.0063431602100645496 0 -0.00068330719260435539 0.0059394684742853617 0 -0.00021212637627792731 0.0059537739053199205 0 -0.00087012622517626504 0.0015416637300110173 0 -0.0019763961363694587 0.003520464061857792 0 -0.0032320104706928692 0.0056958977214161535 0 -0.0028031715905502842 0.0050093285687669055 0 -0.0023343055004616002 0.0053975046415888853 0 -0.0027797736045634901 0.005821140862126057 0 -0.0019846047885540802 0.0055479507384876333 0 -0.0023720580607737478 0.0059296559781636107 0 -0.0022047987584880024 0.0047563558720019033 0 -0.0028031715905502842 0.0050093285687669055 0 -0.0023343055004616002 0.0053975046415888853 0 -0.0022047987584880024 0.0047563558720019033 0 -0.0014189911045999189 0.0051241740019113561 0 -0.0023343055004616002 0.0053975046415888853 0 -0.0015749205001980078 0.0041183967797503249 0 -0.0019763961363694587 0.003520464061857792 0 -0.0011913976815043305 0.0052542484385876935 0 -0.001292454793513664 0.0060686847316538733 0 -0.0019846047885540802 0.0055479507384876333 0 -0.001292454793513664 0.0060686847316538733 0 -0.0020326014058155402 0.0060966898516123221 0 -0.0016218463168970678 0.0065401820316455502 0 -0.001292454793513664 0.0060686847316538733 0 -0.0019846047885540802 0.0055479507384876333 0 -0.0020326014058155402 0.0060966898516123221 0 -0.0026900509293732227 0.0062524889309715148 0 -0.0020326014058155402 0.0060966898516123221 0 -0.0016218463168970678 0.0065401820316455502 0 -0.0026900509293732227 0.0062524889309715148 0 -0.0020326014058155402 0.0060966898516123221 0 -0.0023720580607737478 0.0059296559781636107 0 -0.0019846047885540802 0.0055479507384876333 0 -0.0020326014058155402 0.0060966898516123221 0 -0.0023720580607737478 0.0059296559781636107 0 -0.00062955778889069386 0.0066720050445036438 0 -0.0005968047122826873 0.0067159216337298027 0 -0.0006030394067893446 0.0067478229172995606 0 -0.00062955778889069386 0.0066720050445036438 0 -0.0005968047122826873 0.0067159216337298027 0 -0.00056215731891005644 0.0067241556773692639 0 -0.0011121699457147108 0.0018564051956361384 0 -0.00070937923023580557 0.0043970060959327975 0 -0.0005968047122826873 0.0067159216337298027 0 -0.00056215731891005644 0.0067241556773692639 0 -0.00057188151851474166 0.0067487922261974071 0 -0.00056215731891005644 0.0067241556773692639 0 -0.00057188151851474166 0.0067487922261974071 0 -0.00055403450432033551 0.0067675982655067456 0 -0.00057188151851474166 0.0067487922261974071 0 -0.00055403450432033551 0.0067675982655067456 0 -0.00055519877050177969 0.0067848880272348699 0 -0.00057188151851474166 0.0067487922261974071 0 -0.0006030394067893446 0.0067478229172995606 0 -0.00055519877050177969 0.0067848880272348699 0 -0.0005968047122826873 0.0067159216337298027 0 -0.00057188151851474166 0.0067487922261974071 0 -0.0006030394067893446 0.0067478229172995606 0 -0.00058189571369508255 0.0067612418308646647 0 -0.00043616829032821868 0.0067410268456840903 0 -0.00046993092121200693 0.0068296391602575999 0 -0.00051478339480875578 0.0064719142485106483 0 -0.00058189571369508255 0.0067612418308646647 0 -0.00043616829032821868 0.0067410268456840903 0 -0.00051478339480875578 0.0064719142485106483 0 -0.00058189571369508255 0.0067612418308646647 0 -0.00092899075966855417 0.0064387811024325383 0 -0.0016218463168970678 0.0065401820316455502 0 -0.00058189571369508255 0.0067612418308646647 0 -0.00092899075966855417 0.0064387811024325383 0 -0.00070937923023580557 0.0043970060959327975 0 -0.00052057687158275771 0.0050918290138417116 0 -0.00056215731891005644 0.0067241556773692639 0 -0.00058189571369508255 0.0067612418308646647 0 -0.00055403450432033551 0.0067675982655067456 0 -0.00058189571369508255 0.0067612418308646647 0 -0.00055403450432033551 0.0067675982655067456 0 -0.00053498160462411729 0.0067994926512185304 0 -0.00055403450432033551 0.0067675982655067456 0 -0.00053498160462411729 0.0067994926512185304 0 -0.00052488968840739864 0.0068117072081885777 0 -0.00058189571369508255 0.0067612418308646647 0 -0.00053498160462411729 0.0067994926512185304 0 -0.00046993092121200693 0.0068296391602575999 0 -0.00053498160462411729 0.0067994926512185304 0 -0.00049017819425421771 0.0068290483537306445 0 -0.00046993092121200693 0.0068296391602575999 0 -0.00049017819425421771 0.0068290483537306445 0 -0.00052488968840739864 0.0068117072081885777 0 -0.0004877114887553341 0.0068374552457927508 0 -0.00053498160462411729 0.0067994926512185304 0 -0.00049017819425421771 0.0068290483537306445 0 -0.00052488968840739864 0.0068117072081885777 0 -0.00052488968840739864 0.0068117072081885777 0 -0.00052793535242289793 0.0068159619429747301 0 -0.00055519877050177969 0.0067848880272348699 0 -0.00055403450432033551 0.0067675982655067456 0 -0.00052488968840739864 0.0068117072081885777 0 -0.00055519877050177969 0.0067848880272348699 0 -0.00052488968840739864 0.0068117072081885777 0 -0.00052793535242289793 0.0068159619429747301 0 -0.00051321605853427718 0.0068313858529519388 0 -0.00052793535242289793 0.0068159619429747301 0 -0.00051321605853427718 0.0068313858529519388 0 -0.00052603952923868907 0.0068198817550109321 0 -0.00051321605853427718 0.0068313858529519388 0 -0.0004877114887553341 0.0068374552457927508 0 -0.00049994523804209592 0.0068517463147661261 0 -0.00052488968840739864 0.0068117072081885777 0 -0.00051321605853427718 0.0068313858529519388 0 -0.0004877114887553341 0.0068374552457927508 0 -0.00051321605853427718 0.0068313858529519388 0 -0.00049994523804209592 0.0068517463147661261 0 -0.00051528402627302702 0.0068316561298037192 0 -0.00051321605853427718 0.0068313858529519388 0 -0.00051528402627302702 0.0068316561298037192 0 -0.00052603952923868907 0.0068198817550109321 0 -0.00051528402627302702 0.0068316561298037192 0 -0.00051710808365223668 0.0068209596301257334 0 -0.00052603952923868907 0.0068198817550109321 0 -0.00051528402627302702 0.0068316561298037192 0 -0.00051813610969295523 0.0068219239017467785 0 -0.00051710808365223668 0.0068209596301257334 0 -0.00051813610969295523 0.0068219239017467785 0 -0.00050870888872275464 0.0068096424325189715 0 -0.00051710808365223668 0.0068209596301257334 0 0.0029402963340523229 0.018368160558926767 0 0.0039980597351142689 0.017332475748500376 0 0.0026565720593351352 0.017375057878616838 0 -0.00049994523804209592 0.0068517463147661261 0 -0.00051528402627302702 0.0068316561298037192 0 -0.00051813610969295523 0.0068219239017467785 0 0.00054421210853012301 0.011571980994647348 0 0.00047585327906358581 0.0095492104131655337 0 0.001067130041204963 -0.0074884262802334452 0 0.0010748242683839299 -0.0075015564309763878 0 0.0010638030147723269 -0.0074811210319703711 0 0.0010377490699547826 -0.0075071967638701493 0 0.0010574659419628951 -0.0074799133314490014 0 0.0010286390119582346 -0.0074952649747081421 0 0.001067130041204963 -0.0074884262802334452 0 0.0010377490699547826 -0.0075071967638701493 0 0.0010574659419628951 -0.0074799133314490014 0 0.001067130041204963 -0.0074884262802334452 0 0.0010638030147723269 -0.0074811210319703711 0 0.0010377490699547826 -0.0075071967638701493 0 0.0010574659419628951 -0.0074799133314490014 0 0.0010286390119582346 -0.0074952649747081421 0 0.0010695024670674929 -0.0074358001404680836 0 0.001067130041204963 -0.0074884262802334452 0 0.0010748242683839299 -0.0075015564309763878 0 0.0010888055971579463 -0.0074493697187104678 0 0.0010574659419628951 -0.0074799133314490014 0 0.0010888055971579463 -0.0074493697187104678 0 0.0010695024670674929 -0.0074358001404680836 0 0.001067130041204963 -0.0074884262802334452 0 0.0010574659419628951 -0.0074799133314490014 0 0.0010888055971579463 -0.0074493697187104678 0 -0.00051247045696881923 0.0068105519362829745 0 -0.00050870888872275464 0.0068096424325189715 0 -0.00051710808365223668 0.0068209596301257334 0 -0.00051247045696881923 0.0068105519362829745 0 -0.00051710808365223668 0.0068209596301257334 0 -0.00052449544345834073 0.0068151553019978805 0 -0.00051710808365223668 0.0068209596301257334 0 -0.00052449544345834073 0.0068151553019978805 0 -0.00052603952923868907 0.0068198817550109321 0 -0.00051247045696881923 0.0068105519362829745 0 -0.00052449544345834073 0.0068151553019978805 0 -0.00053635741397353167 0.0068086879891685742 0 -0.00052449544345834073 0.0068151553019978805 0 -0.00052603952923868907 0.0068198817550109321 0 -0.00053635741397353167 0.0068086879891685742 0 -0.00051247045696881923 0.0068105519362829745 0 -0.00053635741397353167 0.0068086879891685742 0 -0.00056271259551617103 0.0067939053819039896 0 0.00054006803243703536 0.0002461584843662664 0 6.9968077056935233e-05 -0.00011061909883648703 0 0.0010638030147723269 -0.0074811210319703711 0 0.00098678668640643811 -0.0073217873403558882 0 0.0010357403802702368 -0.0073269418915011889 0 0.0010199947487072023 -0.0074618472479389859 0 0.0010300172483377302 -0.0074336540547946996 0 0.0010748242683839299 -0.0075015564309763878 0 0.0010638030147723269 -0.0074811210319703711 0 0.00098678668640643811 -0.0073217873403558882 0 0.0010638030147723269 -0.0074811210319703711 0 0.0010377490699547826 -0.0075071967638701493 0 0.00099621330993771994 -0.0075604389898023044 0 -0.00052793535242289793 0.0068159619429747301 0 -0.00054213671695578058 0.0068051602581592936 0 -0.00055519877050177969 0.0067848880272348699 0 -0.00056271259551617103 0.0067939053819039896 0 -0.00054213671695578058 0.0068051602581592936 0 -0.00055519877050177969 0.0067848880272348699 0 -0.00052603952923868907 0.0068198817550109321 0 -0.00053635741397353167 0.0068086879891685742 0 -0.00054213671695578058 0.0068051602581592936 0 -0.00052793535242289793 0.0068159619429747301 0 -0.00052603952923868907 0.0068198817550109321 0 -0.00054213671695578058 0.0068051602581592936 0 -0.00053635741397353167 0.0068086879891685742 0 -0.00056271259551617103 0.0067939053819039896 0 -0.00054213671695578058 0.0068051602581592936 0 0.00096752522426739752 -0.0072217816592709599 0 0.00098678668640643811 -0.0073217873403558882 0 0.0010148925891294543 -0.0072775644442379696 0 -0.00040890470817071041 0.00015887580467896566 0 6.9968077056935233e-05 -0.00011061909883648703 0 -0.0006030394067893446 0.0067478229172995606 0 -0.00056271259551617103 0.0067939053819039896 0 -0.00055519877050177969 0.0067848880272348699 0 0.0010148925891294543 -0.0072775644442379696 0 0.0010483684962832062 -0.0072766571242628194 0 0.0010357403802702368 -0.0073269418915011889 0 0.0010762553348972453 -0.0073580096480698022 0 0.0010300172483377302 -0.0074336540547946996 0 0.0010349090696413097 -0.0074485781284103145 0 0.0010347016429519747 -0.0075416783847871869 0 0.0011221124626126983 -0.0075302789186262337 0 0.0010347016429519747 -0.0075416783847871869 0 0.0011221124626126983 -0.0075302789186262337 0 0.0010430418222844055 -0.0075694088477128016 0 0.0010349090696413097 -0.0074485781284103145 0 0.0010347016429519747 -0.0075416783847871869 0 0.00099621330993771994 -0.0075604389898023044 0 0.00098678668640643811 -0.0073217873403558882 0 0.0010148925891294543 -0.0072775644442379696 0 0.0010357403802702368 -0.0073269418915011889 0 0.0010347016429519747 -0.0075416783847871869 0 0.00099621330993771994 -0.0075604389898023044 0 0.001004004386952817 -0.0075619578788797973 0 0.0013561967226176259 -0.0074255622634862841 0 0.0012056724964709302 -0.0074300613639481936 0 0.0012592661034970338 -0.0075433520415717856 0 0.0012056724964709302 -0.0074300613639481936 0 0.0012592661034970338 -0.0075433520415717856 0 0.0011221124626126983 -0.0075302789186262337 0 0.0012056724964709302 -0.0074300613639481936 0 0.0010349090696413097 -0.0074485781284103145 0 0.0011221124626126983 -0.0075302789186262337 0 0.0011221124626126983 -0.0075302789186262337 0 0.001169295745347861 -0.0076014736952616747 0 0.0010430418222844055 -0.0075694088477128016 0 0.0012592661034970338 -0.0075433520415717856 0 0.001169295745347861 -0.0076014736952616747 0 0.0012814563165174126 -0.0076213146144703953 0 0.0012592661034970338 -0.0075433520415717856 0 0.0011221124626126983 -0.0075302789186262337 0 0.001169295745347861 -0.0076014736952616747 0 0.001169295745347861 -0.0076014736952616747 0 0.0012814563165174126 -0.0076213146144703953 0 0.0012802393364259512 -0.0077037084890425643 0 0.001169295745347861 -0.0076014736952616747 0 0.0010389092042442066 -0.0076004839169246628 0 0.0010430418222844055 -0.0075694088477128016 0 0.0011200360142002463 -0.0076809232107331706 0 0.0010389092042442066 -0.0076004839169246628 0 0.00092732451944753283 -0.0076087620912864739 0 0.0011200360142002463 -0.0076809232107331706 0 0.00092732451944753283 -0.0076087620912864739 0 0.00094036057976558136 -0.0078158085029759287 0 0.001169295745347861 -0.0076014736952616747 0 0.0011200360142002463 -0.0076809232107331706 0 0.0010389092042442066 -0.0076004839169246628 0 0.001169295745347861 -0.0076014736952616747 0 0.0011200360142002463 -0.0076809232107331706 0 0.0012802393364259512 -0.0077037084890425643 0 0.0010377490699547826 -0.0075071967638701493 0 0.00099621330993771994 -0.0075604389898023044 0 0.0010046581807694286 -0.0075424200177255322 0 0.00099621330993771994 -0.0075604389898023044 0 0.0010046581807694286 -0.0075424200177255322 0 0.001004004386952817 -0.0075619578788797973 0 0.0010046581807694286 -0.0075424200177255322 0 0.001004004386952817 -0.0075619578788797973 0 0.00097859937780353685 -0.0075754172850132822 0 0.0010347016429519747 -0.0075416783847871869 0 0.001004004386952817 -0.0075619578788797973 0 0.0010430418222844055 -0.0075694088477128016 0 0.0010389092042442066 -0.0076004839169246628 0 0.0010430418222844055 -0.0075694088477128016 0 0.00097859937780353685 -0.0075754172850132822 0 0.001004004386952817 -0.0075619578788797973 0 0.0010430418222844055 -0.0075694088477128016 0 0.00097859937780353685 -0.0075754172850132822 0 0.00097859937780353685 -0.0075754172850132822 0 0.00092732451944753283 -0.0076087620912864739 0 0.00098988459931667887 -0.0075334257814931738 0 0.0010389092042442066 -0.0076004839169246628 0 0.00097859937780353685 -0.0075754172850132822 0 0.00092732451944753283 -0.0076087620912864739 0 0.00092732451944753283 -0.0076087620912864739 0 0.00098988459931667887 -0.0075334257814931738 0 0.00097263327551592093 -0.0074711113980554409 0 0.00098988459931667887 -0.0075334257814931738 0 0.0010108563563031195 -0.0074658343707157855 0 0.00097263327551592093 -0.0074711113980554409 0 0.0010046581807694286 -0.0075424200177255322 0 0.00097859937780353685 -0.0075754172850132822 0 0.00098988459931667887 -0.0075334257814931738 0 0.0010046581807694286 -0.0075424200177255322 0 0.00098988459931667887 -0.0075334257814931738 0 0.0010286390119582346 -0.0074952649747081421 0 0.0010377490699547826 -0.0075071967638701493 0 0.0010046581807694286 -0.0075424200177255322 0 0.0010286390119582346 -0.0074952649747081421 0 0.00098988459931667887 -0.0075334257814931738 0 0.0010286390119582346 -0.0074952649747081421 0 0.0010108563563031195 -0.0074658343707157855 0 0.0010286390119582346 -0.0074952649747081421 0 0.0010430595906992333 -0.0074329255006608825 0 0.0010108563563031195 -0.0074658343707157855 0 0.0010430595906992333 -0.0074329255006608825 0 0.0010108563563031195 -0.0074658343707157855 0 0.0010180949990710978 -0.0073758255575537982 0 0.0010430595906992333 -0.0074329255006608825 0 0.0010180949990710978 -0.0073758255575537982 0 0.0010777886923505431 -0.0073515433928680561 0 0.0010180949990710978 -0.0073758255575537982 0 0.00096738764387747477 -0.0073635386704287743 0 0.00097263327551592093 -0.0074711113980554409 0 0.0010108563563031195 -0.0074658343707157855 0 0.0010180949990710978 -0.0073758255575537982 0 0.00097263327551592093 -0.0074711113980554409 0 0.00043376886933971497 -0.0066289641832768392 0 0.0004356158223280476 -0.0060555863303616278 0 0.00092732451944753283 -0.0076087620912864739 0 0.00094036057976558136 -0.0078158085029759287 0 0.00080819143840498895 -0.0079207904258660963 0 0.00092732451944753283 -0.0076087620912864739 0 0.00097263327551592093 -0.0074711113980554409 0 0.00088671327718599477 -0.0073656588589503845 0 0.00038902573820476271 -0.0061773673783615283 0 0.0004356158223280476 -0.0060555863303616278 0 0.00096738764387747477 -0.0073635386704287743 0 0.00097263327551592093 -0.0074711113980554409 0 0.00088671327718599477 -0.0073656588589503845 0 0.00094036057976558136 -0.0078158085029759287 0 0.00075925422207603367 -0.0079808088172200579 0 0.00081350160513497111 -0.0082864571170850315 0 0.00075925422207603367 -0.0079808088172200579 0 0.00081350160513497111 -0.0082864571170850315 0 0.00074823041786373971 -0.0083815141838582408 0 0.00073174905580478003 -0.0047168190804505799 0 0.0010293690434059429 -0.0044518750524744624 0 0.00081002277968710934 -0.0042295191707737044 0 0.0004356158223280476 -0.0060555863303616278 0 0.00077775214572991592 -0.0058938914661145281 0 0.00098817497863541953 -0.0072488078085576517 0 0.0010859489603217676 -0.0071370239755999109 0 0.0010804478279760931 -0.007246601580242748 0 0.00086271177312213863 -0.0044036117950960255 0 0.0018145553890350839 -0.001896269041170175 0 0.0010180949990710978 -0.0073758255575537982 0 0.00098817497863541953 -0.0072488078085576517 0 0.0010804478279760931 -0.007246601580242748 0 0.00096738764387747477 -0.0073635386704287743 0 0.00088671327718599477 -0.0073656588589503845 0 0.00098817497863541953 -0.0072488078085576517 0 0.0004356158223280476 -0.0060555863303616278 0 0.00086271177312213863 -0.0044036117950960255 0 0.0010180949990710978 -0.0073758255575537982 0 0.00096738764387747477 -0.0073635386704287743 0 0.00098817497863541953 -0.0072488078085576517 0 0.00091398074945338499 -0.0081392390098389954 0 0.0010104755962611995 -0.0080310516125504938 0 0.0011200360142002463 -0.0076809232107331706 0 0.0011821762224699338 -0.007874823211610751 0 0.0012802393364259512 -0.0077037084890425643 0 0.00072638732582388729 -0.0084365139491622814 0 0.00071808432531358056 -0.0084501716867006541 0 0.00069974704418127021 -0.0083611460494823538 0 0.0011200360142002463 -0.0076809232107331706 0 0.00094036057976558136 -0.0078158085029759287 0 0.0011821762224699338 -0.007874823211610751 0 0.00081350160513497111 -0.0082864571170850315 0 0.00072638732582388729 -0.0084365139491622814 0 0.00076167759010713904 -0.0083802604951323176 0 0.00094036057976558136 -0.0078158085029759287 0 0.00081350160513497111 -0.0082864571170850315 0 0.0011821762224699338 -0.007874823211610751 0 0.00084589350498852388 -0.0082049713311677704 0 0.00091398074945338499 -0.0081392390098389954 0 0.00072638732582388729 -0.0084365139491622814 0 0.00076167759010713904 -0.0083802604951323176 0 0.00071808432531358056 -0.0084501716867006541 0 0.00071808432531358056 -0.0084501716867006541 0 0.00072999353555343771 -0.0083998178675326156 0 0.00071553439189380201 -0.0085056065753253592 0 0.00076167759010713904 -0.0083802604951323176 0 0.00072999353555343771 -0.0083998178675326156 0 0.0007622356659567935 -0.008368466664336268 0 0.00076167759010713904 -0.0083802604951323176 0 0.00071808432531358056 -0.0084501716867006541 0 0.00072999353555343771 -0.0083998178675326156 0 0.00076167759010713904 -0.0083802604951323176 0 0.0007622356659567935 -0.008368466664336268 0 0.0007860104275596194 -0.0083611700131365849 0 0.00081350160513497111 -0.0082864571170850315 0 0.00076167759010713904 -0.0083802604951323176 0 0.0007860104275596194 -0.0083611700131365849 0 0.0007622356659567935 -0.008368466664336268 0 0.0007860104275596194 -0.0083611700131365849 0 0.00077455468255844357 -0.0083636314786560764 0 0.0007622356659567935 -0.008368466664336268 0 0.000762716096617272 -0.0083440587794100778 0 0.00073199059659023605 -0.0083502907636182518 0 0.0007622356659567935 -0.008368466664336268 0 0.000762716096617272 -0.0083440587794100778 0 0.00077455468255844357 -0.0083636314786560764 0 0.00072999353555343771 -0.0083998178675326156 0 0.00073199059659023605 -0.0083502907636182518 0 0.0006982678900987726 -0.0083578211260644415 0 0.00072999353555343771 -0.0083998178675326156 0 0.0007622356659567935 -0.008368466664336268 0 0.00073199059659023605 -0.0083502907636182518 0 0.0010109805406925199 -0.0041556140321516539 0 0.00081002277968710934 -0.0042295191707737044 0 0.00088563040443417418 -0.0037562521744788436 0 0.0012007744875068764 -0.0050177313965186401 0 0.0018145553890350839 -0.001896269041170175 0 0.0010109805406925199 -0.0041556140321516539 0 0.00088563040443417418 -0.0037562521744788436 0 0.0013193251165560156 -0.004189358116937973 0 0.0010293690434059429 -0.0044518750524744624 0 0.0010109805406925199 -0.0041556140321516539 0 0.0013193251165560156 -0.004189358116937973 0 0.0010293690434059429 -0.0044518750524744624 0 0.0010109805406925199 -0.0041556140321516539 0 0.00081002277968710934 -0.0042295191707737044 0 0.00077775214572991592 -0.0058938914661145281 0 0.0012007744875068764 -0.0050177313965186401 0 0.00074823041786373971 -0.0083815141838582408 0 0.00077455468255844357 -0.0083636314786560764 0 0.00078944546799824395 -0.0083488975904760735 0 0.00081350160513497111 -0.0082864571170850315 0 0.00074823041786373971 -0.0083815141838582408 0 0.0007860104275596194 -0.0083611700131365849 0 0.00074823041786373971 -0.0083815141838582408 0 0.0007860104275596194 -0.0083611700131365849 0 0.00077455468255844357 -0.0083636314786560764 0 0.000762716096617272 -0.0083440587794100778 0 0.00077455468255844357 -0.0083636314786560764 0 0.00078944546799824395 -0.0083488975904760735 0 0.0013958931546170668 -0.0029062659125262489 0 0.0018559561649428185 -0.0029068476965838984 0 0.0018347629293705536 -0.0033478020249985362 0 0.0013958931546170668 -0.0029062659125262489 0 0.0018559561649428185 -0.0029068476965838984 0 0.0016358472671003505 -0.0026668362323738412 0 0.0018559561649428185 -0.0029068476965838984 0 0.0018347629293705536 -0.0033478020249985362 0 0.0021388454818869686 -0.0030855263384774595 0 0.0018559561649428185 -0.0029068476965838984 0 0.0021382111290918328 -0.0027920343875455713 0 0.0019667115153289864 -0.0026110729553720877 0 0.0018559561649428185 -0.0029068476965838984 0 0.0021388454818869686 -0.0030855263384774595 0 0.0021382111290918328 -0.0027920343875455713 0 0.0018145553890350839 -0.001896269041170175 0 0.0019686935472430045 -0.00090980837540472566 0 0.0022750632101610226 0.00025277730845297907 0 0.0022423986297292363 0.00026877868298423959 0 0.0022420272096462107 0.00022437880412892245 0 0.0028892770613383359 0.0037783763429736833 0 0.0021972807593856046 0.0036550644382302051 0 0.0031140628748106657 0.0048508610742179934 0 0.0022423986297292363 0.00026877868298423959 0 0.0022181344318679694 0.00024713608621536776 0 0.0022245360825321045 0.00030640475286161282 0 0.0022423986297292363 0.00026877868298423959 0 0.0022181344318679694 0.00024713608621536776 0 0.0022420272096462107 0.00022437880412892245 0 0.0019686935472430045 -0.00090980837540472566 0 0.0021876229878114665 0.00032117725574036169 0 0.00218893389633389 0.0020353198376127156 0 0.0021876229878114665 0.00032117725574036169 0 0.0022181344318679694 0.00024713608621536776 0 0.0022420272096462107 0.00022437880412892245 0 0.0022125037668469095 0.00019337309290851106 0 0.0021388454818869686 -0.0030855263384774595 0 0.0021382111290918328 -0.0027920343875455713 0 0.0024573517515338863 -0.002816625480232498 0 0.0026715914644331591 0.0026855206783495339 0 0.0022363644358387811 0.0025935337641689706 0 0.0020233151134742204 0.0029551046587398518 0 0.0026715914644331591 0.0026855206783495339 0 0.0020233151134742204 0.0029551046587398518 0 0.0021972807593856046 0.0036550644382302051 0 0.0020233151134742204 0.0029551046587398518 0 0.0014849936973589844 0.0034971555437087022 0 0.0018431483702755604 0.0020613053873880815 0 0.0028892770613383359 0.0037783763429736833 0 0.0026715914644331591 0.0026855206783495339 0 0.0021972807593856046 0.0036550644382302051 0 0.0022363644358387811 0.0025935337641689706 0 0.0020233151134742204 0.0029551046587398518 0 0.0018431483702755604 0.0020613053873880815 0 0.0020233151134742204 0.0029551046587398518 0 0.0014849936973589844 0.0034971555437087022 0 0.0021972807593856046 0.0036550644382302051 0 0.0016435559522962131 0.0025575097548387838 0 0.0018187399493940831 0.0018299398938389669 0 0.0013415880205330387 0.0027561748662772809 0 0.0014849936973589844 0.0034971555437087022 0 0.001830619419741506 0.0022238169116615969 0 0.0010460054924130687 0.0026571516421318672 0 0.0013415880205330387 0.0027561748662772809 0 0.00096609028162403959 0.0032631692015431257 0 0.0013415880205330387 0.0027561748662772809 0 0.00096609028162403959 0.0032631692015431257 0 0.0014849936973589844 0.0034971555437087022 0 0.00096609028162403959 0.0032631692015431257 0 0.0016585404728107613 0.0041035342106597247 0 0.00027787204245065413 0.0033973759813046497 0 0.00096609028162403959 0.0032631692015431257 0 0.0014849936973589844 0.0034971555437087022 0 0.0016585404728107613 0.0041035342106597247 0 0.0030227978408596027 0.0075908445210825029 0 0.0016100663733265737 0.008373585328605819 0 0.0016585404728107613 0.0041035342106597247 0 0.0021972807593856046 0.0036550644382302051 0 0.0031140628748106657 0.0048508610742179934 0 0.0014849936973589844 0.0034971555437087022 0 0.0016585404728107613 0.0041035342106597247 0 0.0021972807593856046 0.0036550644382302051 0 0.0036318039916580069 0.015476179416496517 0 0.0041555569661085147 0.016335451325055744 0 0.0049733527830455974 0.016132176953514155 0 0.0030227978408596027 0.0075908445210825029 0 0.0020560278256788723 0.0036945383484811782 0 0.0036318039916580069 0.015476179416496517 0 0.0031749533538509432 0.016476840191181952 0 0.0026210546268292667 0.015837341559182837 0 0.0036318039916580069 0.015476179416496517 0 0.0041555569661085147 0.016335451325055744 0 0.0031749533538509432 0.016476840191181952 0 0.0039980597351142689 0.017332475748500376 0 0.0031749533538509432 0.016476840191181952 0 0.0026565720593351352 0.017375057878616838 0 0.00047585327906358581 0.0095492104131655337 0 0.0017553817572882309 0.0035557028457656502 0 0.0039980597351142689 0.017332475748500376 0 0.0041555569661085147 0.016335451325055744 0 0.0031749533538509432 0.016476840191181952 0 0.0039980597351142689 0.017332475748500376 0 0.0041555569661085147 0.016335451325055744 0 0.0050028313519481565 0.016261858211229704 0 -0.00051247045696881923 0.0068105519362829745 0 -0.00050870888872275464 0.0068096424325189715 0 -0.0004871426034248507 0.0067802882445150278 0 0.0010748242683839299 -0.0075015564309763878 0 0.0010888055971579463 -0.0074493697187104678 0 0.0012232854918168643 -0.0072740968753757743 0 0.00054006803243703536 0.0002461584843662664 0 0.0017553817572882309 0.0035557028457656502 0 -0.00051813610969295523 0.0068219239017467785 0 -0.00050870888872275464 0.0068096424325189715 0 -0.0004871426034248507 0.0067802882445150278 0 0.0010888055971579463 -0.0074493697187104678 0 0.0011118050223201173 -0.007394413029448604 0 0.0012232854918168643 -0.0072740968753757743 0 0.0010888055971579463 -0.0074493697187104678 0 0.0011118050223201173 -0.007394413029448604 0 0.0010695024670674929 -0.0074358001404680836 0 0.0011118050223201173 -0.007394413029448604 0 0.0010695024670674929 -0.0074358001404680836 0 0.001090051452808456 -0.0073908645907324148 0 0.0010430595906992333 -0.0074329255006608825 0 0.001090051452808456 -0.0073908645907324148 0 0.0010777886923505431 -0.0073515433928680561 0 0.0010286390119582346 -0.0074952649747081421 0 0.0010430595906992333 -0.0074329255006608825 0 0.0010695024670674929 -0.0074358001404680836 0 0.0010430595906992333 -0.0074329255006608825 0 0.0010695024670674929 -0.0074358001404680836 0 0.001090051452808456 -0.0073908645907324148 0 0.0011118050223201173 -0.007394413029448604 0 0.0011256234844868537 -0.0073413223281387219 0 0.0012232854918168643 -0.0072740968753757743 0 0.001090051452808456 -0.0073908645907324148 0 0.0010777886923505431 -0.0073515433928680561 0 0.0011256234844868537 -0.0073413223281387219 0 0.0011118050223201173 -0.007394413029448604 0 0.001090051452808456 -0.0073908645907324148 0 0.0011256234844868537 -0.0073413223281387219 0 0.0010777886923505431 -0.0073515433928680561 0 0.0011134471320054483 -0.0073180396516752347 0 0.0011256234844868537 -0.0073413223281387219 0 0.0011134471320054483 -0.0073180396516752347 0 0.0011256234844868537 -0.0073413223281387219 0 0.001155948897198012 -0.0072910121266047201 0 0.0022750632101610226 0.00025277730845297907 0 0.0022423986297292363 0.00026877868298423959 0 0.0022299867372875567 0.00030911798124923142 0 0.001155948897198012 -0.0072910121266047201 0 0.0010804478279760931 -0.007246601580242748 0 0.0012040827458660861 -0.0072579264006137874 0 0.0018145553890350839 -0.001896269041170175 0 0.0017984182279199173 0.003198356418739918 0 0.0011134471320054483 -0.0073180396516752347 0 0.001155948897198012 -0.0072910121266047201 0 0.0010804478279760931 -0.007246601580242748 0 0.0010859489603217676 -0.0071370239755999109 0 0.0010804478279760931 -0.007246601580242748 0 0.0012040827458660861 -0.0072579264006137874 0 0.0010180949990710978 -0.0073758255575537982 0 0.0010777886923505431 -0.0073515433928680561 0 0.0010804478279760931 -0.007246601580242748 0 0.0010777886923505431 -0.0073515433928680561 0 0.0011134471320054483 -0.0073180396516752347 0 0.0010804478279760931 -0.007246601580242748 0 0.0022423986297292363 0.00026877868298423959 0 0.0022245360825321045 0.00030640475286161282 0 0.0022299867372875567 0.00030911798124923142 0 0.0041555569661085147 0.016335451325055744 0 0.0050028313519481565 0.016261858211229704 0 0.0049733527830455974 0.016132176953514155 0 0.00218893389633389 0.0020353198376127156 0 0.0020560278256788723 0.0036945383484811782 0 0.0011256234844868537 -0.0073413223281387219 0 0.001155948897198012 -0.0072910121266047201 0 0.0012232854918168643 -0.0072740968753757743 0 0.0017553817572882309 0.0035557028457656502 0 0.0017984182279199173 0.003198356418739918 0 0.0015616623356534179 0.0029085927224518538 0 0.0017984182279199173 0.003198356418739918 0 0.001155948897198012 -0.0072910121266047201 0 0.0012232854918168643 -0.0072740968753757743 0 0.0012096607222194695 -0.0072571276875199936 0 0.0017553817572882309 0.0035557028457656502 0 0.0020560278256788723 0.0036945383484811782 0 0.0013617468583841461 0.0028591602557203675 0 0.0011219598549253845 0.0017490325509020978 0 0.0020111860043695983 0.0022026950865292592 0 0.0020560278256788723 0.0036945383484811782 0 0.0017984182279199173 0.003198356418739918 0 0.0020389639601801476 -0.0084237455316445668 0 0.0020910246392779768 -0.0086061472584997249 0 0.0019325216267561062 -0.0085609427617035529 0 0.0019325216267561062 -0.0085609427617035529 0 0.0017492728960505598 -0.00840581655558203 0 0.0017335198192123353 -0.0087436920337108856 0 0.0020389639601801476 -0.0084237455316445668 0 0.0019325216267561062 -0.0085609427617035529 0 0.0017492728960505598 -0.00840581655558203 0 0.0020910246392779768 -0.0086061472584997249 0 0.0019325216267561062 -0.0085609427617035529 0 0.0020335033596862932 -0.008809071685598335 0 0.0017640927081604332 -0.0082539947328540038 0 0.0017467638970255753 -0.008136894303563888 0 0.0017492728960505598 -0.00840581655558203 0 0.001980146436701781 -0.0083696773022828869 0 0.0018434317408438513 -0.0083749758060045771 0 0.0017492728960505598 -0.00840581655558203 0 0.0017011462063305739 -0.0079243450224036963 0 0.0014912679392864998 -0.0082376048217950113 0 0.0020389639601801476 -0.0084237455316445668 0 0.0017492728960505598 -0.00840581655558203 0 0.001980146436701781 -0.0083696773022828869 0 0.001980146436701781 -0.0083696773022828869 0 0.0020501056213468659 -0.0083536416554143931 0 0.0017840597067583642 -0.0082685947150318642 0 0.0017467638970255753 -0.008136894303563888 0 0.001709198061869203 -0.0079343070327955369 0 0.001980146436701781 -0.0083696773022828869 0 0.0018434317408438513 -0.0083749758060045771 0 0.0017840597067583642 -0.0082685947150318642 0 0.0017011462063305739 -0.0079243450224036963 0 0.0016303765043544226 -0.0076427674214299985 0 0.0014283297855263409 -0.0079116632122982478 0 0.0016303765043544226 -0.0076427674214299985 0 0.001397064918767408 -0.0076497906263744333 0 0.0014283297855263409 -0.0079116632122982478 0 0.0014283297855263409 -0.0079116632122982478 0 0.0014912679392864998 -0.0082376048217950113 0 0.0013017293629429369 -0.0082919385513814427 0 0.0014912679392864998 -0.0082376048217950113 0 0.0013017293629429369 -0.0082919385513814427 0 0.0013044148428322058 -0.0087306996122479899 0 0.0017492728960505598 -0.00840581655558203 0 0.0014912679392864998 -0.0082376048217950113 0 0.0013044148428322058 -0.0087306996122479899 0 0.0017011462063305739 -0.0079243450224036963 0 0.0014283297855263409 -0.0079116632122982478 0 0.0014912679392864998 -0.0082376048217950113 0 0.0013017293629429369 -0.0082919385513814427 0 0.0010659450115302073 -0.008327071365462551 0 0.0012192700880991204 -0.0085329730584829538 0 0.0010659450115302073 -0.008327071365462551 0 0.0008484276287563686 -0.0081410366250246734 0 0.00086711287350951598 -0.0084463692595535909 0 0.0011776140488988145 -0.0078666088825147095 0 0.0011120492540113865 -0.0079244986315819624 0 0.0010659450115302073 -0.008327071365462551 0 0.0012325493070270022 -0.0078019099573655402 0 0.0008484276287563686 -0.0081410366250246734 0 0.0014283297855263409 -0.0079116632122982478 0 0.0013017293629429369 -0.0082919385513814427 0 0.0012325493070270022 -0.0078019099573655402 0 0.0013017293629429369 -0.0082919385513814427 0 0.0010659450115302073 -0.008327071365462551 0 0.0012325493070270022 -0.0078019099573655402 0 0.001397064918767408 -0.0076497906263744333 0 0.0014283297855263409 -0.0079116632122982478 0 0.0012325493070270022 -0.0078019099573655402 0 0.001397064918767408 -0.0076497906263744333 0 0.0013395108939782479 -0.0076196127740423506 0 0.0012325493070270022 -0.0078019099573655402 0 0.0014273285614188858 -0.0075083102213407841 0 0.0013395108939782479 -0.0076196127740423506 0 0.0013272154032797296 -0.0076304859092628336 0 0.0012325493070270022 -0.0078019099573655402 0 0.0013272154032797296 -0.0076304859092628336 0 0.0013134902835199008 -0.0076555633228521831 0 0.0013395108939782479 -0.0076196127740423506 0 0.0012325493070270022 -0.0078019099573655402 0 0.0013272154032797296 -0.0076304859092628336 0 0.0014273285614188858 -0.0075083102213407841 0 0.0013561967226176259 -0.0074255622634862841 0 0.0013272154032797296 -0.0076304859092628336 0 0.0013561967226176259 -0.0074255622634862841 0 0.0012592661034970338 -0.0075433520415717856 0 0.0013272154032797296 -0.0076304859092628336 0 0.0012592661034970338 -0.0075433520415717856 0 0.0013272154032797296 -0.0076304859092628336 0 0.0012814563165174126 -0.0076213146144703953 0 0.0012814563165174126 -0.0076213146144703953 0 0.0013134902835199008 -0.0076555633228521831 0 0.0012802393364259512 -0.0077037084890425643 0 0.0013272154032797296 -0.0076304859092628336 0 0.0012814563165174126 -0.0076213146144703953 0 0.0013134902835199008 -0.0076555633228521831 0 0.0008484276287563686 -0.0081410366250246734 0 0.00069974704418127021 -0.0083611460494823538 0 0.00086711287350951598 -0.0084463692595535909 0 0.0011120492540113865 -0.0079244986315819624 0 0.0010104755962611995 -0.0080310516125504938 0 0.00071808432531358056 -0.0084501716867006541 0 0.00069974704418127021 -0.0083611460494823538 0 0.00071553439189380201 -0.0085056065753253592 0 0.00069974704418127021 -0.0083611460494823538 0 0.00086711287350951598 -0.0084463692595535909 0 0.00071553439189380201 -0.0085056065753253592 0 0.00086711287350951598 -0.0084463692595535909 0 0.00071553439189380201 -0.0085056065753253592 0 0.00090556564596390747 -0.0086535008544870451 0 0.00020026762283036146 -0.0088521788613376545 0 0.00012249868981122164 -0.0090936097247550952 0 0.00072999353555343771 -0.0083998178675326156 0 0.00071553439189380201 -0.0085056065753253592 0 0.00067314822994225332 -0.0083884968448814708 0 0.00072999353555343771 -0.0083998178675326156 0 0.00067314822994225332 -0.0083884968448814708 0 0.0006982678900987726 -0.0083578211260644415 0 0.00067314822994225332 -0.0083884968448814708 0 0.0006982678900987726 -0.0083578211260644415 0 0.00066286313173834492 -0.0083366450503539573 0 0.00012249868981122164 -0.0090936097247550952 0 -5.6376716291973479e-05 -0.010025345735172175 0 0.0007398584619671847 -0.0088123059573083952 0 0.00092156645338427399 -0.0088845446451717453 0 0.00079684686471268886 -0.0090393450673320851 0 0.00032988667596404753 -0.0095562385845491104 0 -5.6376716291973479e-05 -0.010025345735172175 0 0.00092156645338427399 -0.0088845446451717453 0 0.00094381676117427334 -0.0090096582441122515 0 0.00079840204628910106 -0.0090313496218286608 0 0.00071553439189380201 -0.0085056065753253592 0 0.0007398584619671847 -0.0088123059573083952 0 0.00090556564596390747 -0.0086535008544870451 0 0.0007398584619671847 -0.0088123059573083952 0 0.00090556564596390747 -0.0086535008544870451 0 0.00092156645338427399 -0.0088845446451717453 0 0.00090556564596390747 -0.0086535008544870451 0 0.0010249546740989932 -0.0087675895344518622 0 0.00092156645338427399 -0.0088845446451717453 0 0.00092156645338427399 -0.0088845446451717453 0 0.0010737347546976388 -0.0089651512906561408 0 0.00094381676117427334 -0.0090096582441122515 0 0.0010249546740989932 -0.0087675895344518622 0 0.00092156645338427399 -0.0088845446451717453 0 0.0010737347546976388 -0.0089651512906561408 0 0.0010737347546976388 -0.0089651512906561408 0 0.0011769998934319356 -0.0087772307355274796 0 0.0012324016430276617 -0.0089197763880894242 0 0.0010249546740989932 -0.0087675895344518622 0 0.0010737347546976388 -0.0089651512906561408 0 0.0011769998934319356 -0.0087772307355274796 0 0.0010249546740989932 -0.0087675895344518622 0 0.0011769998934319356 -0.0087772307355274796 0 0.001075624000142672 -0.008610246048180609 0 0.0011769998934319356 -0.0087772307355274796 0 0.001075624000142672 -0.008610246048180609 0 0.0012471713131672949 -0.0086780835424733593 0 0.001075624000142672 -0.008610246048180609 0 0.0012192700880991204 -0.0085329730584829538 0 0.0012471713131672949 -0.0086780835424733593 0 0.00086711287350951598 -0.0084463692595535909 0 0.00090556564596390747 -0.0086535008544870451 0 0.001075624000142672 -0.008610246048180609 0 0.00090556564596390747 -0.0086535008544870451 0 0.0010249546740989932 -0.0087675895344518622 0 0.001075624000142672 -0.008610246048180609 0 0.0010659450115302073 -0.008327071365462551 0 0.00086711287350951598 -0.0084463692595535909 0 0.001075624000142672 -0.008610246048180609 0 0.0010659450115302073 -0.008327071365462551 0 0.001075624000142672 -0.008610246048180609 0 0.0012192700880991204 -0.0085329730584829538 0 0.0013017293629429369 -0.0082919385513814427 0 0.0012192700880991204 -0.0085329730584829538 0 0.0013044148428322058 -0.0087306996122479899 0 0.0010170868711261746 -0.0091930151322175899 0 0.00095310222480175235 -0.0094482438618652687 0 0.0013044148428322058 -0.0087306996122479899 0 0.0012471713131672949 -0.0086780835424733593 0 0.0013409533706065988 -0.0087630770299571906 0 0.0013044148428322058 -0.0087306996122479899 0 0.00075036901466440063 -0.0095084815436369124 0 0.0015312576720628217 -0.0091158828653827677 0 0.0012192700880991204 -0.0085329730584829538 0 0.0013044148428322058 -0.0087306996122479899 0 0.0012471713131672949 -0.0086780835424733593 0 0.0011769998934319356 -0.0087772307355274796 0 0.0012324016430276617 -0.0089197763880894242 0 0.0013409533706065988 -0.0087630770299571906 0 0.0011769998934319356 -0.0087772307355274796 0 0.0012471713131672949 -0.0086780835424733593 0 0.0013409533706065988 -0.0087630770299571906 0 0.0012324016430276617 -0.0089197763880894242 0 0.0013597111244353231 -0.0089648778257686457 0 0.0013409533706065988 -0.0087630770299571906 0 0.00082494837669124996 -0.010070632109300837 0 0.00095310222480175235 -0.0094482438618652687 0 0.00018638213323793253 -0.010553396369898844 0 0.00075036901466440063 -0.0095084815436369124 0 0.00091487947222205926 -0.010183397252463542 0 0.00018638213323793253 -0.010553396369898844 0 0.00091487947222205926 -0.010183397252463542 0 0.00083464550031995383 -0.010824054291526193 0 0.00075036901466440063 -0.0095084815436369124 0 0.0014917397375482351 -0.0098448906980514467 0 0.0015312576720628217 -0.0091158828653827677 0 0.00075036901466440063 -0.0095084815436369124 0 0.0014917397375482351 -0.0098448906980514467 0 0.00091487947222205926 -0.010183397252463542 0 0.0014917397375482351 -0.0098448906980514467 0 0.00091487947222205926 -0.010183397252463542 0 0.0013132328200972795 -0.010353738518640123 0 0.00091487947222205926 -0.010183397252463542 0 0.0013132328200972795 -0.010353738518640123 0 0.00083464550031995383 -0.010824054291526193 0 0.0014917397375482351 -0.0098448906980514467 0 0.0013132328200972795 -0.010353738518640123 0 0.0019729146496347476 -0.010585197394300612 0 0.0021358284923731563 -0.0098812884917406415 0 0.0014917397375482351 -0.0098448906980514467 0 0.0019729146496347476 -0.010585197394300612 0 0.0014917397375482351 -0.0098448906980514467 0 0.0019271043669103647 -0.0093669059278463987 0 0.0015312576720628217 -0.0091158828653827677 0 0.0021358284923731563 -0.0098812884917406415 0 0.0014917397375482351 -0.0098448906980514467 0 0.0019271043669103647 -0.0093669059278463987 0 0.002169142879829986 -0.0091059604363291496 0 0.0019271043669103647 -0.0093669059278463987 0 0.0018701713801344993 -0.0090124032361459435 0 0.002169142879829986 -0.0091059604363291496 0 0.0018701713801344993 -0.0090124032361459435 0 0.0020335033596862932 -0.008809071685598335 0 0.0019271043669103647 -0.0093669059278463987 0 0.0018701713801344993 -0.0090124032361459435 0 0.0015312576720628217 -0.0091158828653827677 0 0.0013044148428322058 -0.0087306996122479899 0 0.0015312576720628217 -0.0091158828653827677 0 0.0017335198192123353 -0.0087436920337108856 0 0.0018701713801344993 -0.0090124032361459435 0 0.0015312576720628217 -0.0091158828653827677 0 0.0017335198192123353 -0.0087436920337108856 0 0.0017492728960505598 -0.00840581655558203 0 0.0013044148428322058 -0.0087306996122479899 0 0.0017335198192123353 -0.0087436920337108856 0 0.0019325216267561062 -0.0085609427617035529 0 0.0017335198192123353 -0.0087436920337108856 0 0.0020335033596862932 -0.008809071685598335 0 0.0018701713801344993 -0.0090124032361459435 0 0.0017335198192123353 -0.0087436920337108856 0 0.0020335033596862932 -0.008809071685598335 0 0.00140158820351141 -0.017341093618678239 0 0.0010151252687583526 -0.017086593724519508 0 0.0037426783210288504 -0.015580577948304654 0 0.0026502096542923822 -0.014785331274394959 0 0.0019988291856639227 -0.015975635448338067 0 0.0026502096542923822 -0.014785331274394959 0 0.0017585803085679883 -0.014710888885738028 0 0.0022604656762210905 -0.013956984455237166 0 0.0037426783210288504 -0.015580577948304654 0 0.0026502096542923822 -0.014785331274394959 0 0.0031929450559779579 -0.014557665298436655 0 0.0026502096542923822 -0.014785331274394959 0 0.0017585803085679883 -0.014710888885738028 0 0.0019988291856639227 -0.015975635448338067 0 0.0011022780615734988 -0.015220485609601179 0 0.0017585803085679883 -0.014710888885738028 0 0.0019988291856639227 -0.015975635448338067 0 0.0011022780615734988 -0.015220485609601179 0 -0.00032540635554005127 -0.016502951610618981 0 0.0019988291856639227 -0.015975635448338067 0 0.0011022780615734988 -0.015220485609601179 0 0.00025566593635508269 -0.015249463444969634 0 -0.00032540635554005127 -0.016502951610618981 0 0.00025566593635508269 -0.015249463444969634 0 0.00093989210460005898 -0.014491878737903504 0 0.00037569798313573583 -0.014493986153992763 0 0.0011022780615734988 -0.015220485609601179 0 0.00025566593635508269 -0.015249463444969634 0 0.00093989210460005898 -0.014491878737903504 0 0.0011022780615734988 -0.015220485609601179 0 0.00093989210460005898 -0.014491878737903504 0 0.0017585803085679883 -0.014710888885738028 0 0.00093989210460005898 -0.014491878737903504 0 0.0017585803085679883 -0.014710888885738028 0 0.001564568965984742 -0.013973560252710475 0 0.00093989210460005898 -0.014491878737903504 0 0.001564568965984742 -0.013973560252710475 0 0.001029155615850965 -0.013521369879745494 0 0.001564568965984742 -0.013973560252710475 0 0.001739788815007706 -0.013166706348521174 0 0.0022604656762210905 -0.013956984455237166 0 0.00093989210460005898 -0.014491878737903504 0 0.001029155615850965 -0.013521369879745494 0 0.00035679378694103626 -0.01392667944665156 0 0.00093989210460005898 -0.014491878737903504 0 0.00035679378694103626 -0.01392667944665156 0 0.00037569798313573583 -0.014493986153992763 0 0.001029155615850965 -0.013521369879745494 0 0.001739788815007706 -0.013166706348521174 0 0.00089708537600058326 -0.012465140166858034 0 0.001029155615850965 -0.013521369879745494 0 0.00032362519896455937 -0.01317292272825569 0 0.00035679378694103626 -0.01392667944665156 0 0.001029155615850965 -0.013521369879745494 0 0.00089708537600058326 -0.012465140166858034 0 0.00032362519896455937 -0.01317292272825569 0 0.001564568965984742 -0.013973560252710475 0 0.001029155615850965 -0.013521369879745494 0 0.001739788815007706 -0.013166706348521174 0 0.001739788815007706 -0.013166706348521174 0 0.0024756038052038318 -0.013333437971355938 0 0.0022604656762210905 -0.013956984455237166 0 0.0017585803085679883 -0.014710888885738028 0 0.001564568965984742 -0.013973560252710475 0 0.0022604656762210905 -0.013956984455237166 0 0.0024756038052038318 -0.013333437971355938 0 0.0022604656762210905 -0.013956984455237166 0 0.0029519661917529454 -0.013907083702678949 0 0.0026502096542923822 -0.014785331274394959 0 0.0031929450559779579 -0.014557665298436655 0 0.0029519661917529454 -0.013907083702678949 0 0.0026502096542923822 -0.014785331274394959 0 0.0022604656762210905 -0.013956984455237166 0 0.0029519661917529454 -0.013907083702678949 0 0.0034273102959437272 -0.013958056696600378 0 0.0031929450559779579 -0.014557665298436655 0 0.0029519661917529454 -0.013907083702678949 0 0.0035428200169491824 -0.013696439940648165 0 0.0029519661917529454 -0.013907083702678949 0 0.0030593285561041437 -0.013239765317491358 0 0.0024756038052038318 -0.013333437971355938 0 0.0029519661917529454 -0.013907083702678949 0 0.0030593285561041437 -0.013239765317491358 0 0.0034412486146734411 -0.012739972720347626 0 0.0030593285561041437 -0.013239765317491358 0 0.0024342225305673468 -0.01250840993105753 0 0.0024756038052038318 -0.013333437971355938 0 0.0030593285561041437 -0.013239765317491358 0 0.0024342225305673468 -0.01250840993105753 0 0.001739788815007706 -0.013166706348521174 0 0.0024756038052038318 -0.013333437971355938 0 0.0024342225305673468 -0.01250840993105753 0 0.0022872914869752543 -0.012454975096016523 0 0.0023001077617576301 -0.011764297690514236 0 0.0016404902337726845 -0.011558531659328856 0 0.0029174664525919171 -0.012007531810929404 0 0.0022872914869752543 -0.012454975096016523 0 0.0023001077617576301 -0.011764297690514236 0 0.0029174664525919171 -0.012007531810929404 0 0.0023001077617576301 -0.011764297690514236 0 0.0025592791139307488 -0.010903185688753409 0 0.0023001077617576301 -0.011764297690514236 0 0.0025592791139307488 -0.010903185688753409 0 0.0016404902337726845 -0.011558531659328856 0 0.0021315064398968273 -0.012607551176521016 0 0.0015770716593084531 -0.012197553504364462 0 0.0025592791139307488 -0.010903185688753409 0 0.00083464550031995383 -0.010824054291526193 0 0.0016404902337726845 -0.011558531659328856 0 0.0013132328200972795 -0.010353738518640123 0 0.0019729146496347476 -0.010585197394300612 0 0.00083464550031995383 -0.010824054291526193 0 0.00083464550031995383 -0.010824054291526193 0 0.0016404902337726845 -0.011558531659328856 0 0.0005783715102697473 -0.011560174241448692 0 0.001739788815007706 -0.013166706348521174 0 0.0024342225305673468 -0.01250840993105753 0 0.00089708537600058326 -0.012465140166858034 0 0.0021488084288859228 -0.014542670981533766 0 0.0018148893513772631 -0.014270779365239739 0 0.0016404902337726845 -0.011558531659328856 0 0.00089708537600058326 -0.012465140166858034 0 0.0005783715102697473 -0.011560174241448692 0 0.0022872914869752543 -0.012454975096016523 0 0.0016404902337726845 -0.011558531659328856 0 0.00089708537600058326 -0.012465140166858034 0 0.00089708537600058326 -0.012465140166858034 0 -0.00037896941537591405 -0.012272027076552229 0 0.00032362519896455937 -0.01317292272825569 0 0.00089708537600058326 -0.012465140166858034 0 -0.00037896941537591405 -0.012272027076552229 0 0.0005783715102697473 -0.011560174241448692 0 -0.00037896941537591405 -0.012272027076552229 0 -0.00012758583865899947 -0.013595289378106324 0 0.00032362519896455937 -0.01317292272825569 0 0.0013597111244353231 -0.0089648778257686457 0 0.0013598083831563631 -0.0091953006933476501 0 0.0012725825457928781 -0.0090601525898206629 0 0.00018638213323793253 -0.010553396369898844 0 -0.00037896941537591405 -0.012272027076552229 0 0.0005783715102697473 -0.011560174241448692 0 0.00082494837669124996 -0.010070632109300837 0 0.00070554937088526844 -0.011006364512704449 0 0.00018638213323793253 -0.010553396369898844 0 0.00083464550031995383 -0.010824054291526193 0 0.0005783715102697473 -0.011560174241448692 0 0.0012324016430276617 -0.0089197763880894242 0 0.0012725825457928781 -0.0090601525898206629 0 0.0011868673987589587 -0.009054963655830384 0 0.0012324016430276617 -0.0089197763880894242 0 0.0013597111244353231 -0.0089648778257686457 0 0.0012725825457928781 -0.0090601525898206629 0 0.0012725825457928781 -0.0090601525898206629 0 0.0012269086080467033 -0.0091756674345502762 0 0.0011868673987589587 -0.009054963655830384 0 0.0013598083831563631 -0.0091953006933476501 0 0.0012725825457928781 -0.0090601525898206629 0 0.0012269086080467033 -0.0091756674345502762 0 0.0013598083831563631 -0.0091953006933476501 0 0.0012269086080467033 -0.0091756674345502762 0 0.0012689523134887283 -0.0092773513130552984 0 0.0012269086080467033 -0.0091756674345502762 0 0.0012689523134887283 -0.0092773513130552984 0 0.0011508903793274446 -0.0092929400849444121 0 0.0013598083831563631 -0.0091953006933476501 0 0.0012689523134887283 -0.0092773513130552984 0 0.001340644405598602 -0.0094404657150418889 0 -0.0021509745375619845 -0.013848979092611794 0 -0.0017505107621858687 -0.013946476885384152 0 -0.0019937871442967546 -0.014041519004224363 0 0.0006595664526252115 -0.012325526718242255 0 0.00013251116813841363 -0.011639516763078381 0 0.0012689523134887283 -0.0092773513130552984 0 0.001340644405598602 -0.0094404657150418889 0 0.0011508903793274446 -0.0092929400849444121 0 -0.00037896941537591405 -0.012272027076552229 0 -0.00012758583865899947 -0.013595289378106324 0 -0.00075697395235130652 -0.014229117551873744 0 0.00070554937088526844 -0.011006364512704449 0 0.0006595664526252115 -0.012325526718242255 0 -0.00012758583865899947 -0.013595289378106324 0 0.00032362519896455937 -0.01317292272825569 0 0.00035679378694103626 -0.01392667944665156 0 -0.00012758583865899947 -0.013595289378106324 0 0.00035679378694103626 -0.01392667944665156 0 -3.9187023528257179e-05 -0.01432413737535042 0 0.00035679378694103626 -0.01392667944665156 0 -3.9187023528257179e-05 -0.01432413737535042 0 0.00037569798313573583 -0.014493986153992763 0 -0.00012758583865899947 -0.013595289378106324 0 -3.9187023528257179e-05 -0.01432413737535042 0 -0.00075697395235130652 -0.014229117551873744 0 -0.0015487072079406737 -0.014435409518755266 0 -0.00092850683898311199 -0.015507883230638215 0 -0.0015668758347171974 -0.016359574631353607 0 0.0006595664526252115 -0.012325526718242255 0 0.00063701830909410311 -0.012399602744377663 0 0.00025566593635508269 -0.015249463444969634 0 -0.0014998764091837646 -0.013917911558912064 0 -0.0015487072079406737 -0.014435409518755266 0 0.00025566593635508269 -0.015249463444969634 0 -0.0015487072079406737 -0.014435409518755266 0 -0.00092850683898311199 -0.015507883230638215 0 0.00025566593635508269 -0.015249463444969634 0 -3.9187023528257179e-05 -0.01432413737535042 0 0.00037569798313573583 -0.014493986153992763 0 0.00073226722159552067 -0.012778543986230278 0 0.0006595664526252115 -0.012325526718242255 0 0.00025566593635508269 -0.015249463444969634 0 -3.9187023528257179e-05 -0.01432413737535042 0 -0.00075697395235130652 -0.014229117551873744 0 0.00025566593635508269 -0.015249463444969634 0 -0.00092850683898311199 -0.015507883230638215 0 -0.00032540635554005127 -0.016502951610618981 0 -0.0015878810107298337 -0.013953167996648497 0 -0.0013919222477085927 -0.014046377128645742 0 -0.0021509745375619845 -0.013848979092611794 0 -0.0017797346931476322 -0.012947320230884896 0 -0.0022739965956398264 -0.012440190454176358 0 -0.0021509745375619845 -0.013848979092611794 0 -0.0015487072079406737 -0.014435409518755266 0 -0.0015668758347171974 -0.016359574631353607 0 -0.0021509745375619845 -0.013848979092611794 0 -0.0022739965956398264 -0.012440190454176358 0 -0.0030775851191930108 -0.012192010177122141 0 -0.0021509745375619845 -0.013848979092611794 0 -0.0017505107621858687 -0.013946476885384152 0 -0.0015487072079406737 -0.014435409518755266 0 -0.0012592281243026288 -0.013202047953373642 0 -0.0017797346931476322 -0.012947320230884896 0 -0.0017600826898284568 -0.013675196260392175 0 -0.0021509745375619845 -0.013848979092611794 0 -0.0017797346931476322 -0.012947320230884896 0 -0.0017600826898284568 -0.013675196260392175 0 -0.0017797346931476322 -0.012947320230884896 0 -0.001331511694024157 -0.012606543359140925 0 -0.0018218814863770936 -0.01197066641982749 0 -0.0012592281243026288 -0.013202047953373642 0 -0.0017797346931476322 -0.012947320230884896 0 -0.001331511694024157 -0.012606543359140925 0 -0.0012592281243026288 -0.013202047953373642 0 -0.001331511694024157 -0.012606543359140925 0 -0.00087076718718807618 -0.012798319030657377 0 -0.001331511694024157 -0.012606543359140925 0 -0.00087076718718807618 -0.012798319030657377 0 -0.00092312059073656626 -0.012034393599064087 0 -0.00087076718718807618 -0.012798319030657377 0 -0.00013074716312350501 -0.012793880761737023 0 -0.00092312059073656626 -0.012034393599064087 0 -0.00087076718718807618 -0.012798319030657377 0 -0.00061577450762719367 -0.01338807768268715 0 -0.00013074716312350501 -0.012793880761737023 0 -0.0012592281243026288 -0.013202047953373642 0 -0.00087076718718807618 -0.012798319030657377 0 -0.00061577450762719367 -0.01338807768268715 0 -0.0012592281243026288 -0.013202047953373642 0 -0.00061577450762719367 -0.01338807768268715 0 -0.00094541292708962953 -0.013943839645667477 0 -0.00061577450762719367 -0.01338807768268715 0 -0.00094541292708962953 -0.013943839645667477 0 5.2004329884895976e-05 -0.014201217064072871 0 -0.00094541292708962953 -0.013943839645667477 0 -0.0017600826898284568 -0.013675196260392175 0 -0.0019937871442967546 -0.014041519004224363 0 -0.0012592281243026288 -0.013202047953373642 0 -0.00094541292708962953 -0.013943839645667477 0 -0.0017600826898284568 -0.013675196260392175 0 -0.0021509745375619845 -0.013848979092611794 0 -0.0017600826898284568 -0.013675196260392175 0 -0.0019937871442967546 -0.014041519004224363 0 0.0012269086080467033 -0.0091756674345502762 0 0.0011508903793274446 -0.0092929400849444121 0 0.0011129996799279713 -0.0091475767864885957 0 0.0011508903793274446 -0.0092929400849444121 0 0.0011129996799279713 -0.0091475767864885957 0 0.00098064506383534243 -0.0091583265753800262 0 0.00013251116813841363 -0.011639516763078381 0 0.00026421265393086459 -0.011214202404714277 0 0.0010737347546976388 -0.0089651512906561408 0 0.0012324016430276617 -0.0089197763880894242 0 0.0011868673987589587 -0.009054963655830384 0 0.0010737347546976388 -0.0089651512906561408 0 0.0011129996799279713 -0.0091475767864885957 0 0.0011868673987589587 -0.009054963655830384 0 0.0010737347546976388 -0.0089651512906561408 0 0.0011129996799279713 -0.0091475767864885957 0 0.00098064506383534243 -0.0091583265753800262 0 0.0012269086080467033 -0.0091756674345502762 0 0.0011129996799279713 -0.0091475767864885957 0 0.0011868673987589587 -0.009054963655830384 0 0.0010737347546976388 -0.0089651512906561408 0 0.00094381676117427334 -0.0090096582441122515 0 0.00098064506383534243 -0.0091583265753800262 0 0.00094381676117427334 -0.0090096582441122515 0 0.00098064506383534243 -0.0091583265753800262 0 0.00079840204628910106 -0.0090313496218286608 0 -0.00094541292708962953 -0.013943839645667477 0 -0.00078546746250653077 -0.014908990207531137 0 5.2004329884895976e-05 -0.014201217064072871 0 -0.00094541292708962953 -0.013943839645667477 0 -0.0019937871442967546 -0.014041519004224363 0 -0.00078546746250653077 -0.014908990207531137 0 -0.00078546746250653077 -0.014908990207531137 0 0.0002890663149742557 -0.015609810922194304 0 5.2004329884895976e-05 -0.014201217064072871 0 -0.00047440089081711667 -0.009900835531607189 0 -0.00064795688717783216 -0.010116857947766671 0 -0.00040986409189492284 -0.010259947285570364 0 -5.6376716291973479e-05 -0.010025345735172175 0 -1.9964159625801232e-05 -0.011703279493273641 0 0.00026421265393086459 -0.011214202404714277 0 -5.6376716291973479e-05 -0.010025345735172175 0 0.00066286313173834492 -0.0083366450503539573 0 0.00070237302351956971 -0.0083290464689000764 0 0.00069695021605331987 -0.0082993173334334897 0 -5.6376716291973479e-05 -0.010025345735172175 0 0.00011123374984218029 -0.0090079256428438042 0 0.00073199059659023605 -0.0083502907636182518 0 0.0006982678900987726 -0.0083578211260644415 0 0.00070237302351956971 -0.0083290464689000764 0 0.0006982678900987726 -0.0083578211260644415 0 0.00066286313173834492 -0.0083366450503539573 0 0.00070237302351956971 -0.0083290464689000764 0 0.00070237302351956971 -0.0083290464689000764 0 0.00069695021605331987 -0.0082993173334334897 0 0.00072978040542011357 -0.008311590492272293 0 -0.00064795688717783216 -0.010116857947766671 0 -0.00065906409188376742 -0.010276112280139329 0 -0.00040986409189492284 -0.010259947285570364 0 -0.00064795688717783216 -0.010116857947766671 0 -0.00065906409188376742 -0.010276112280139329 0 -0.00080587591670973542 -0.010312002814053025 0 0.00011123374984218029 -0.0090079256428438042 0 0.00042647559286648789 -0.0078489362471422693 0 -0.00065906409188376742 -0.010276112280139329 0 -0.0006997969321931929 -0.010423689634736983 0 -0.00080587591670973542 -0.010312002814053025 0 -0.0006997969321931929 -0.010423689634736983 0 -0.00054711873905106912 -0.010374811919641659 0 -0.00048401570770467293 -0.010541671405976869 0 -0.00065906409188376742 -0.010276112280139329 0 -0.00054711873905106912 -0.010374811919641659 0 -0.00040986409189492284 -0.010259947285570364 0 -0.00065906409188376742 -0.010276112280139329 0 -0.0006997969321931929 -0.010423689634736983 0 -0.00054711873905106912 -0.010374811919641659 0 -1.9964159625801232e-05 -0.011703279493273641 0 -0.00016947355599931317 -0.011537328933569794 0 -0.00061577450762719367 -0.01338807768268715 0 5.2004329884895976e-05 -0.014201217064072871 0 -0.00013074716312350501 -0.012793880761737023 0 -0.00054711873905106912 -0.010374811919641659 0 -0.00040986409189492284 -0.010259947285570364 0 -0.00048401570770467293 -0.010541671405976869 0 -0.00040986409189492284 -0.010259947285570364 0 -0.00048401570770467293 -0.010541671405976869 0 -0.00034821197309833966 -0.010608502672411296 0 -0.00034821197309833966 -0.010608502672411296 0 -0.00048694657434150619 -0.010643503277923972 0 -0.00042402866469519647 -0.010731257908647304 0 -0.00048401570770467293 -0.010541671405976869 0 -0.00034821197309833966 -0.010608502672411296 0 -0.00048694657434150619 -0.010643503277923972 0 0.00041884954168558002 -0.0081818359202967088 0 0.00049619450225887179 -0.0088575242676619797 0 -0.00068503365835450539 -0.010422434941752143 0 -0.00048401570770467293 -0.010541671405976869 0 -0.00048694657434150619 -0.010643503277923972 0 0.00041884954168558002 -0.0081818359202967088 0 0.00034108060103792343 -0.0084803415005993976 0 -0.00062153290314137782 -0.010458673438321077 0 -0.00048694657434150619 -0.010643503277923972 0 -0.00056921449001858502 -0.010624258922249096 0 -0.00062153290314137782 -0.010458673438321077 0 -0.00056921449001858502 -0.010624258922249096 0 -0.00072754470066064463 -0.010401492224242741 0 0.00059378850349983789 -0.0094937756803618444 0 0.00044179510692342685 -0.0074567837265183809 0 4.9387226112746501e-05 -0.011136299220807871 0 0.00043279542682145012 -0.011186929038840944 0 0.00030463733178559809 -0.010966014612981049 0 4.9387226112746501e-05 -0.011136299220807871 0 6.5555119494384214e-05 -0.010793647930996981 0 -0.00041038619235984712 -0.010776984358343632 0 6.5555119494384214e-05 -0.010793647930996981 0 0.00025278473942583646 -0.010507200682515745 0 0.00041646561013183408 -0.010731557000312694 0 6.5555119494384214e-05 -0.010793647930996981 0 0.00041646561013183408 -0.010731557000312694 0 0.00030463733178559809 -0.010966014612981049 0 4.9387226112746501e-05 -0.011136299220807871 0 6.5555119494384214e-05 -0.010793647930996981 0 0.00030463733178559809 -0.010966014612981049 0 -0.00048694657434150619 -0.010643503277923972 0 -0.00056921449001858502 -0.010624258922249096 0 -0.00041038619235984712 -0.010776984358343632 0 -0.00048694657434150619 -0.010643503277923972 0 -0.00042402866469519647 -0.010731257908647304 0 -0.00041038619235984712 -0.010776984358343632 0 6.5555119494384214e-05 -0.010793647930996981 0 -0.00041038619235984712 -0.010776984358343632 0 -0.00013446284214816854 -0.010614098066984882 0 0.00059378850349983789 -0.0094937756803618444 0 0.00045747489926156103 -0.0098727538346640026 0 -0.00042402866469519647 -0.010731257908647304 0 -0.00041038619235984712 -0.010776984358343632 0 -0.00051077831231069481 -0.010871712325671202 0 -0.00041038619235984712 -0.010776984358343632 0 -0.00013446284214816854 -0.010614098066984882 0 -0.00034409384255829588 -0.010325951857343495 0 -0.00041038619235984712 -0.010776984358343632 0 -0.00034409384255829588 -0.010325951857343495 0 -0.00051077831231069481 -0.010871712325671202 0 -0.00013446284214816854 -0.010614098066984882 0 -0.00034409384255829588 -0.010325951857343495 0 -0.00012861452943202056 -0.010095301402935245 0 -0.00013446284214816854 -0.010614098066984882 0 -0.00012861452943202056 -0.010095301402935245 0 0.00016336303577405329 -0.0096618941963479664 0 -0.00013446284214816854 -0.010614098066984882 0 0.00025278473942583646 -0.010507200682515745 0 0.00035091897344533853 -0.0099774552555775189 0 -0.00054204413460598878 -0.0096528188686376606 0 -0.00042085378522840227 -0.0090469546599656909 0 6.5555119494384214e-05 -0.010793647930996981 0 -0.00013446284214816854 -0.010614098066984882 0 0.00025278473942583646 -0.010507200682515745 0 -0.00012861452943202056 -0.010095301402935245 0 -0.00017194128318232988 -0.0098871047428954976 0 0.00016336303577405329 -0.0096618941963479664 0 -3.1634558656308111e-07 -0.008853601555706329 0 -0.00017194128318232988 -0.0098871047428954976 0 -7.8990092657218211e-07 -0.010531358671851152 0 -3.1634558656308111e-07 -0.008853601555706329 0 -0.00017194128318232988 -0.0098871047428954976 0 0.00016336303577405329 -0.0096618941963479664 0 -0.00017194128318232988 -0.0098871047428954976 0 -7.8990092657218211e-07 -0.010531358671851152 0 -0.00020771346682060674 -0.010740183028845197 0 -0.00034409384255829588 -0.010325951857343495 0 -0.00012861452943202056 -0.010095301402935245 0 -0.00017194128318232988 -0.0098871047428954976 0 -0.00033648350376846731 -0.011181727147543948 0 -0.00040475545568834071 -0.01138483877141282 0 -0.00034409384255829588 -0.010325951857343495 0 -0.00017194128318232988 -0.0098871047428954976 0 -0.00059188099609616544 -0.00995693546665204 0 -0.00059188099609616544 -0.00995693546665204 0 -0.0010176257750664226 -0.010492069205615209 0 -0.00060531872536658936 -0.010390988889879327 0 -0.00034409384255829588 -0.010325951857343495 0 -0.00059188099609616544 -0.00995693546665204 0 -0.00060531872536658936 -0.010390988889879327 0 -0.00059188099609616544 -0.00995693546665204 0 -0.0014262321752103763 -0.010090011960718641 0 -0.0010176257750664226 -0.010492069205615209 0 -0.00040475545568834071 -0.01138483877141282 0 -0.00069224298559743963 -0.012019201256376967 0 -7.8990092657218211e-07 -0.010531358671851152 0 -0.00020771346682060674 -0.010740183028845197 0 1.2200407909519627e-06 -0.012203820424570456 0 -0.00020771346682060674 -0.010740183028845197 0 1.2200407909519627e-06 -0.012203820424570456 0 0.00062584068058838297 -0.01053499086796481 0 -1.1602278673373898e-06 -0.012206745844813653 0 -0.00069224298559743963 -0.012019201256376967 0 1.5187296859183927e-06 -0.012209483902287623 0 0.00032701464238541866 -0.014051738914788513 0 -0.00013775656130315448 -0.013709347701175175 0 -0.00069224298559743963 -0.012019201256376967 0 -0.0008197930606405878 -0.013122571480310822 0 -0.0015359672526178267 -0.010143292890364811 0 -0.0016812233050487858 -0.011061008206635388 0 -0.0025823343731353932 -0.010479255177040956 0 -0.0016670540298649207 -0.010849330594648711 0 -0.0010176257750664226 -0.010492069205615209 0 -0.0011483630968325621 -0.011263337687351735 0 -0.00069224298559743963 -0.012019201256376967 0 -0.00087616490577220802 -0.011620777393289225 0 -0.0014262321752103763 -0.010090011960718641 0 -0.0016670540298649207 -0.010849330594648711 0 -0.0010176257750664226 -0.010492069205615209 0 -0.0010176257750664226 -0.010492069205615209 0 -0.00060531872536658936 -0.010390988889879327 0 -0.00051077831231069481 -0.010871712325671202 0 -0.00034409384255829588 -0.010325951857343495 0 -0.00060531872536658936 -0.010390988889879327 0 -0.00051077831231069481 -0.010871712325671202 0 -0.0010176257750664226 -0.010492069205615209 0 -0.00051077831231069481 -0.010871712325671202 0 -0.0011483630968325621 -0.011263337687351735 0 -0.00051077831231069481 -0.010871712325671202 0 -0.0011483630968325621 -0.011263337687351735 0 -0.00092312059073656626 -0.012034393599064087 0 -0.00013074716312350501 -0.012793880761737023 0 -0.00051077831231069481 -0.010871712325671202 0 -0.00092312059073656626 -0.012034393599064087 0 -0.00016947355599931317 -0.011537328933569794 0 -0.00027286931128914731 -0.011242856771418628 0 -0.00034821197309833966 -0.010608502672411296 0 -0.00042402866469519647 -0.010731257908647304 0 -0.00051077831231069481 -0.010871712325671202 0 -0.001331511694024157 -0.012606543359140925 0 -0.00092312059073656626 -0.012034393599064087 0 -0.0018218814863770936 -0.01197066641982749 0 -0.0017797346931476322 -0.012947320230884896 0 -0.0018218814863770936 -0.01197066641982749 0 -0.0022739965956398264 -0.012440190454176358 0 -0.0016812233050487858 -0.011061008206635388 0 -0.0018218814863770936 -0.01197066641982749 0 -0.002518554185029939 -0.011403262697644479 0 -0.00087616490577220802 -0.011620777393289225 0 -0.00095815592841670509 -0.01165023546132106 0 -0.0016670540298649207 -0.010849330594648711 0 -0.0011483630968325621 -0.011263337687351735 0 -0.0018218814863770936 -0.01197066641982749 0 -0.0011483630968325621 -0.011263337687351735 0 -0.00092312059073656626 -0.012034393599064087 0 -0.0018218814863770936 -0.01197066641982749 0 -0.0018218814863770936 -0.01197066641982749 0 -0.0022739965956398264 -0.012440190454176358 0 -0.002518554185029939 -0.011403262697644479 0 -0.0022739965956398264 -0.012440190454176358 0 -0.0030775851191930108 -0.012192010177122141 0 -0.002518554185029939 -0.011403262697644479 0 -0.0030775851191930108 -0.012192010177122141 0 -0.0036506410953597562 -0.010822457221434992 0 -0.002518554185029939 -0.011403262697644479 0 -0.0015668758347171974 -0.016359574631353607 0 -0.00065914966647751406 -0.017887239193166773 0 -0.00024660941827110656 -0.017268841263613909 0 -0.00092850683898311199 -0.015507883230638215 0 -0.0015668758347171974 -0.016359574631353607 0 -0.00032540635554005127 -0.016502951610618981 0 -0.0015668758347171974 -0.016359574631353607 0 -0.00032540635554005127 -0.016502951610618981 0 -0.00024660941827110656 -0.017268841263613909 0 -0.0013919222477085927 -0.014046377128645742 0 -0.00062702072713603319 -0.014382319186548555 0 -0.00062702072713603319 -0.014382319186548555 0 -0.0008197930606405878 -0.013122571480310822 0 -0.0036506410953597562 -0.010822457221434992 0 -0.002518554185029939 -0.011403262697644479 0 -0.0025823343731353932 -0.010479255177040956 0 -0.0016812233050487858 -0.011061008206635388 0 -0.002518554185029939 -0.011403262697644479 0 -0.0025823343731353932 -0.010479255177040956 0 0.00032701464238541866 -0.014051738914788513 0 -0.00013261457575503802 -0.014138730744388293 0 -0.00013775656130315448 -0.013709347701175175 0 -0.00013261457575503802 -0.014138730744388293 0 -0.00013775656130315448 -0.013709347701175175 0 -0.00012660096202533406 -0.014103481790043091 0 -1.4870966895524273e-06 -0.014127678201794102 0 -0.00013775656130315448 -0.013709347701175175 0 -0.00012660096202533406 -0.014103481790043091 0 1.5187296859183927e-06 -0.012209483902287623 0 -1.4870966895524273e-06 -0.014127678201794102 0 -0.00013775656130315448 -0.013709347701175175 0 -1.4870966895524273e-06 -0.014127678201794102 0 -3.2416270012583286e-05 -0.014451498709105438 0 1.444073899969715e-06 -0.015980770416509565 0 -1.4870966895524273e-06 -0.014127678201794102 0 -0.00012660096202533406 -0.014103481790043091 0 -3.2416270012583286e-05 -0.014451498709105438 0 -0.00062702072713603319 -0.014382319186548555 0 -0.0001837132545159697 -0.015325444584611917 0 -0.00010587725820472873 -0.0141243439105944 0 -0.00012660096202533406 -0.014103481790043091 0 -3.2416270012583286e-05 -0.014451498709105438 0 -0.00010587725820472873 -0.0141243439105944 0 -0.00013261457575503802 -0.014138730744388293 0 -0.00012660096202533406 -0.014103481790043091 0 0.00032850028692765819 -0.017686160140281928 0 0.00048444498739082546 -0.017484250656641193 0 0.00025465065214534362 -0.017656209651973766 0 0.00048444498739082546 -0.017484250656641193 0 5.5641952774006573e-05 -0.017108107154720678 0 5.1246592897536802e-05 -0.017791152523049605 0 0.00048444498739082546 -0.017484250656641193 0 5.1246592897536802e-05 -0.017791152523049605 0 0.00025465065214534362 -0.017656209651973766 0 0.00048444498739082546 -0.017484250656641193 0 5.5641952774006573e-05 -0.017108107154720678 0 1.2605345912103205e-06 -0.01598705934215559 0 -0.0001837132545159697 -0.015325444584611917 0 -0.00010703785815694843 -0.015505699929800967 0 5.5641952774006573e-05 -0.017108107154720678 0 1.2605345912103205e-06 -0.01598705934215559 0 -1.9937574928585458e-05 -0.017560821524350734 0 -3.7593076932366981e-07 -0.017968589254344941 0 1.2605345912103205e-06 -0.01598705934215559 0 -1.9937574928585458e-05 -0.017560821524350734 0 5.5641952774006573e-05 -0.017108107154720678 0 -1.9937574928585458e-05 -0.017560821524350734 0 5.1246592897536802e-05 -0.017791152523049605 0 0.00015968947046847689 -0.018501866264086186 0 -1.9937574928585458e-05 -0.017560821524350734 0 5.1246592897536802e-05 -0.017791152523049605 0 0.00052543857539359164 -0.017512234591585726 0 5.1246592897536802e-05 -0.017791152523049605 0 0.00033914410119955231 -0.017317912947265091 0 5.1246592897536802e-05 -0.017791152523049605 0 0.00015423371191274594 -0.017516619519715379 0 0.00033914410119955231 -0.017317912947265091 0 0.00032850028692765819 -0.017686160140281928 0 0.00025465065214534362 -0.017656209651973766 0 0.00015423371191274594 -0.017516619519715379 0 -0.00062702072713603319 -0.014382319186548555 0 -0.00062135144203512489 -0.014845495079738308 0 5.1246592897536802e-05 -0.017791152523049605 0 0.00025465065214534362 -0.017656209651973766 0 0.00015423371191274594 -0.017516619519715379 0 -0.00065914966647751406 -0.017887239193166773 0 -0.00024660941827110656 -0.017268841263613909 0 0.00015423371191274594 -0.017516619519715379 0 -0.00024660941827110656 -0.017268841263613909 0 0.00015423371191274594 -0.017516619519715379 0 0.00024004991976773487 -0.016882851656814336 0 0.00060100643176424985 -0.017055577679778382 0 0.0010151252687583526 -0.017086593724519508 0 -0.00032540635554005127 -0.016502951610618981 0 -0.00024660941827110656 -0.017268841263613909 0 0.00024004991976773487 -0.016882851656814336 0 0.00015423371191274594 -0.017516619519715379 0 0.00033914410119955231 -0.017317912947265091 0 0.00024004991976773487 -0.016882851656814336 0 0.00061587194449956736 -0.016927247485669115 0 0.00033914410119955231 -0.017317912947265091 0 0.00024004991976773487 -0.016882851656814336 0 0.0023129247384800606 -0.0018204732561813279 0 0.001880464792694425 -0.0019114259169369266 0 0.002153295146849101 -0.0015358063743427075 0 0.0023129247384800606 -0.0018204732561813279 0 0.001880464792694425 -0.0019114259169369266 0 0.0021090437320000939 -0.0021804566841045992 0 0.0023129247384800606 -0.0018204732561813279 0 0.0026712019699080148 -0.0019637409189915888 0 0.0024139612357496946 -0.0021409496169053667 0 0.001880464792694425 -0.0019114259169369266 0 0.0017788060800900984 -0.0015517496350014673 0 0.0015715577272844609 -0.0018205940858529771 0 0.001880464792694425 -0.0019114259169369266 0 0.0017788060800900984 -0.0015517496350014673 0 0.002153295146849101 -0.0015358063743427075 0 0.0017788060800900984 -0.0015517496350014673 0 0.002153295146849101 -0.0015358063743427075 0 0.002133502651876497 -0.0010988288835531159 0 0.0017788060800900984 -0.0015517496350014673 0 0.002133502651876497 -0.0010988288835531159 0 0.0018705530604422808 -0.00096128255527500625 0 0.0023129247384800606 -0.0018204732561813279 0 0.002153295146849101 -0.0015358063743427075 0 0.0025325319323514861 -0.0013794342113579551 0 0.002153295146849101 -0.0015358063743427075 0 0.0025325319323514861 -0.0013794342113579551 0 0.002133502651876497 -0.0010988288835531159 0 0.0029207781807378346 0.0036543634428957447 0 0.0034157561504612618 0.0022408705725671593 0 0.0039432228521349795 0.0050898315612503669 0 0.0041330750884105696 0.0062395949894720791 0 0.0051610563079359829 0.0040178253209712314 0 0.0023330987203832249 -5.0403134862905205e-05 0 0.0020104173138428337 0.00051126574680865941 0 0.0021293455856010632 -0.0003862113510125965 0 0.0015703665541444191 0.00067494597628417843 0 0.0020104173138428337 0.00051126574680865941 0 0.0021293455856010632 -0.0003862113510125965 0 0.0041741056623757983 0.0041735281937535663 0 0.0039432228521349795 0.0050898315612503669 0 0.0051610563079359829 0.0040178253209712314 0 0.001488336038137419 0.0024617135436087617 0 0.0015584833461622272 0.0042737366323260381 0 0.001476315604328196 0.00055721363892686701 0 0.0013552237078627788 0.00026878954978634353 0 0.00077962295614286746 0.0010842350866288556 0 0.0041741056623757983 0.0041735281937535663 0 0.0039432228521349795 0.0050898315612503669 0 0.0028192233421692192 0.0051599154915245851 0 0.0027212714126521355 0.0028921825550761436 0 0.0015584833461622272 0.0042737366323260381 0 0.0039432228521349795 0.0050898315612503669 0 0.0034206771233666142 0.0058603840709658952 0 0.0028192233421692192 0.0051599154915245851 0 0.0039432228521349795 0.0050898315612503669 0 0.0034206771233666142 0.0058603840709658952 0 0.0041330750884105696 0.0062395949894720791 0 0.0034206771233666142 0.0058603840709658952 0 0.0041330750884105696 0.0062395949894720791 0 0.0033923036155566635 0.0067014823497454192 0 0.0034206771233666142 0.0058603840709658952 0 0.0033923036155566635 0.0067014823497454192 0 0.0028016284930746081 0.006418225228254683 0 0.0023465938525631504 -0.00044284083248337554 0 0.0021869726613596894 0.00019109123883429704 0 0.0023129247384800606 -0.0018204732561813279 0 0.0025325319323514861 -0.0013794342113579551 0 0.0026712019699080148 -0.0019637409189915888 0 0.0023330987203832249 -5.0403134862905205e-05 0 0.0020104173138428337 0.00051126574680865941 0 0.0021025921253803718 0.00090329684118746717 0 0.0015703665541444191 0.00067494597628417843 0 0.0020104173138428337 0.00051126574680865941 0 0.002144892728455272 0.00095371050131703766 0 0.002191191333074714 0.00024909494217117159 0 0.0021869726613596894 0.00019109123883429704 0 0.0021869726613596894 0.00019109123883429704 0 0.0021958609516784513 3.9881043560233606e-05 0 0.0022480014143119531 0.00059597889303766676 0 0.0024720405480359838 0.0016453780822392229 0 0.0018431483702755604 0.0020613053873880815 0 0.0026712019699080148 -0.0019637409189915888 0 0.0025614909452437323 -0.0023982358244286775 0 0.0024139612357496946 -0.0021409496169053667 0 0.002144892728455272 0.00095371050131703766 0 0.0015783986034839498 0.0015669886076896389 0 0.001830619419741506 0.0022238169116615969 0 0.0021869726613596894 0.00019109123883429704 0 0.0018187399493940831 0.0018299398938389669 0 0.0015703665541444191 0.00067494597628417843 0 0.002144892728455272 0.00095371050131703766 0 0.0015783986034839498 0.0015669886076896389 0 0.0041330750884105696 0.0062395949894720791 0 0.0033923036155566635 0.0067014823497454192 0 0.0030895946277176727 0.0085008429682907304 0 0.0015703665541444191 0.00067494597628417843 0 0.0015783986034839498 0.0015669886076896389 0 0.00092311751248190727 0.0020307293311870507 0 0.0029207781807378346 0.0036543634428957447 0 0.0022970621977865943 0.0055916649042919561 0 0.0033923036155566635 0.0067014823497454192 0 0.0030895946277176727 0.0085008429682907304 0 0.0029690789978492342 0.0071724342517178775 0 0.0015783986034839498 0.0015669886076896389 0 0.0013650763639230245 0.0021210808023945675 0 0.00092311751248190727 0.0020307293311870507 0 0.0015783986034839498 0.0015669886076896389 0 0.0013650763639230245 0.0021210808023945675 0 0.001830619419741506 0.0022238169116615969 0 0.0013650763639230245 0.0021210808023945675 0 0.0013968084306418497 0.0023763534029498062 0 0.001830619419741506 0.0022238169116615969 0 0.0013415880205330387 0.0027561748662772809 0 0.0013968084306418497 0.0023763534029498062 0 0.001830619419741506 0.0022238169116615969 0 0.0010460054924130687 0.0026571516421318672 0 0.0013650763639230245 0.0021210808023945675 0 0.00092311751248190727 0.0020307293311870507 0 0.0010460054924130687 0.0026571516421318672 0 0.0013650763639230245 0.0021210808023945675 0 0.0013968084306418497 0.0023763534029498062 0 0.0010460054924130687 0.0026571516421318672 0 0.0013415880205330387 0.0027561748662772809 0 0.0013968084306418497 0.0023763534029498062 0 0.0026877009245698958 0.002677578571774824 0 0.0024720405480359838 0.0016453780822392229 0 0.0021883772878472222 0.0022392823885827402 0 0.0021876229878114665 0.00032117725574036169 0 0.0021958609516784513 3.9881043560233606e-05 0 0.0024720405480359838 0.0016453780822392229 0 0.0018431483702755604 0.0020613053873880815 0 0.0021883772878472222 0.0022392823885827402 0 0.0022363644358387811 0.0025935337641689706 0 0.0018431483702755604 0.0020613053873880815 0 0.0021883772878472222 0.0022392823885827402 0 0.0026715914644331591 0.0026855206783495339 0 0.0022363644358387811 0.0025935337641689706 0 0.0021883772878472222 0.0022392823885827402 0 0.0021876229878114665 0.00032117725574036169 0 0.0023425501500904606 0.00055432797121796485 0 0.0022817149551674289 -0.0025308053065846181 0 0.0021090437320000939 -0.0021804566841045992 0 0.0019667115153289864 -0.0026110729553720877 0 0.0021382111290918328 -0.0027920343875455713 0 0.0024573517515338863 -0.002816625480232498 0 0.0022817149551674289 -0.0025308053065846181 0 0.0024573517515338863 -0.002816625480232498 0 0.0025614909452437323 -0.0023982358244286775 0 0.0022817149551674289 -0.0025308053065846181 0 0.0021382111290918328 -0.0027920343875455713 0 0.0022817149551674289 -0.0025308053065846181 0 0.0019667115153289864 -0.0026110729553720877 0 0.0022817149551674289 -0.0025308053065846181 0 0.0021090437320000939 -0.0021804566841045992 0 0.0024139612357496946 -0.0021409496169053667 0 0.0025614909452437323 -0.0023982358244286775 0 0.0022817149551674289 -0.0025308053065846181 0 0.0024139612357496946 -0.0021409496169053667 0 0.0023129247384800606 -0.0018204732561813279 0 0.0021090437320000939 -0.0021804566841045992 0 0.0024139612357496946 -0.0021409496169053667 0 0.0021090437320000939 -0.0021804566841045992 0 0.0017527695031721909 -0.0022492970143071392 0 0.0019667115153289864 -0.0026110729553720877 0 0.001880464792694425 -0.0019114259169369266 0 0.0017527695031721909 -0.0022492970143071392 0 0.0016122478594798421 -0.0020338928567431008 0 0.001880464792694425 -0.0019114259169369266 0 0.0021090437320000939 -0.0021804566841045992 0 0.0017527695031721909 -0.0022492970143071392 0 0.0018559561649428185 -0.0029068476965838984 0 0.0019667115153289864 -0.0026110729553720877 0 0.0016358472671003505 -0.0026668362323738412 0 0.0019667115153289864 -0.0026110729553720877 0 0.0016358472671003505 -0.0026668362323738412 0 0.0014754922799424929 -0.0023819990226734721 0 0.0012007744875068764 -0.0050177313965186401 0 0.0013203809493937109 -0.0043834492671905104 0 0.0017527695031721909 -0.0022492970143071392 0 0.0019667115153289864 -0.0026110729553720877 0 0.0014191625294667513 -0.0023408638150536013 0 0.0012827154297434527 -0.0039246423958488987 0 0.0013203809493937109 -0.0043834492671905104 0 0.0013958931546170668 -0.0029062659125262489 0 0.0016358472671003505 -0.0026668362323738412 0 0.0014754922799424929 -0.0023819990226734721 0 0.00029013061523024055 -0.0056985069053993448 0 0.00022188514253110227 -0.0061579580218666637 0 0.00069184484118031274 -0.006112843569308842 0 0.0012007744875068764 -0.0050177313965186401 0 0.00094298266887454655 -0.0068128927541538506 0 0.000762716096617272 -0.0083440587794100778 0 0.00078944546799824395 -0.0083488975904760735 0 0.00076754584176025439 -0.0083117784729806292 0 0.00022188514253110227 -0.0061579580218666637 0 0.00069184484118031274 -0.006112843569308842 0 0.0006906289561813653 -0.0062165343703408961 0 0.0013203809493937109 -0.0043834492671905104 0 0.00062488744528629468 -0.005334143151583589 0 0.00022188514253110227 -0.0061579580218666637 0 0.0006906289561813653 -0.0062165343703408961 0 0.00061255036369205348 -0.0063584114037494735 0 0.0012269760614592592 -0.0020690882593203609 0 0.0014208972777508973 -0.0023291203753439539 0 0.00097579064785522089 -0.0020728689703603683 0 0.0012269760614592592 -0.0020690882593203609 0 0.0014428031316118474 -0.00218902956734787 0 0.0014244366603846025 -0.0019943140950102003 0 0.0014428031316118474 -0.00218902956734787 0 0.0016122478594798421 -0.0020338928567431008 0 0.0014244366603846025 -0.0019943140950102003 0 0.0017527695031721909 -0.0022492970143071392 0 0.0014428031316118474 -0.00218902956734787 0 0.0016122478594798421 -0.0020338928567431008 0 0.0017527695031721909 -0.0022492970143071392 0 0.0014428031316118474 -0.00218902956734787 0 0.0014191625294667513 -0.0023408638150536013 0 0.0012269760614592592 -0.0020690882593203609 0 0.0014428031316118474 -0.00218902956734787 0 0.0014208972777508973 -0.0023291203753439539 0 0.0013355022216286129 -0.0042603152013379443 0 0.0013203809493937109 -0.0043834492671905104 0 0.00073199059659023605 -0.0083502907636182518 0 0.00070237302351956971 -0.0083290464689000764 0 0.00072978040542011357 -0.008311590492272293 0 0.000762716096617272 -0.0083440587794100778 0 0.00073199059659023605 -0.0083502907636182518 0 0.00072978040542011357 -0.008311590492272293 0 0.000762716096617272 -0.0083440587794100778 0 0.00072978040542011357 -0.008311590492272293 0 0.00076754584176025439 -0.0083117784729806292 0 0.0006906289561813653 -0.0062165343703408961 0 0.00061255036369205348 -0.0063584114037494735 0 0.00098312617609087817 -0.0065456321318832951 0 0.00069184484118031274 -0.006112843569308842 0 0.0006906289561813653 -0.0062165343703408961 0 0.0011245045452950438 -0.0065624969634147561 0 0.00038566537479796311 -0.0068311136551854248 0 0.00034932873493547732 -0.0070281677221549549 0 0.00069695021605331987 -0.0082993173334334897 0 0.00072978040542011357 -0.008311590492272293 0 0.00072448353868944564 -0.0082656551480360142 0 0.00094298266887454655 -0.0068128927541538506 0 0.00042647559286648789 -0.0078489362471422693 0 0.00072978040542011357 -0.008311590492272293 0 0.00076754584176025439 -0.0083117784729806292 0 0.00072448353868944564 -0.0082656551480360142 0 0.0006906289561813653 -0.0062165343703408961 0 0.0011245045452950438 -0.0065624969634147561 0 0.0010234341213433802 -0.0065966813138342234 0 0.0005642568880405614 -0.0078907939320685908 0 0.00017227863418024203 -0.0074940055918722125 0 2.5728273539047073e-05 -0.007675402671915567 0 0.00041884954168558002 -0.0081818359202967088 0 0.00042647559286648789 -0.0078489362471422693 0 0.00041884954168558002 -0.0081818359202967088 0 0.00044179510692342685 -0.0074567837265183809 0 0.0011245045452950438 -0.0065624969634147561 0 0.0010234341213433802 -0.0065966813138342234 0 0.0010624464444163233 -0.0066399755274800919 0 0.00042647559286648789 -0.0078489362471422693 0 0.00044179510692342685 -0.0074567837265183809 0 0.00034932873493547732 -0.0070281677221549549 0 0.00044179510692342685 -0.0074567837265183809 0 0.00081849781136303249 -0.0019271392919521537 0 0.00083073434992316755 -0.0019268141234666789 0 0.00085720096416105885 -0.0019198845792423847 0 0.00062488744528629468 -0.005334143151583589 0 0.00034932873493547732 -0.0070281677221549549 0 0.00083073434992316755 -0.0019268141234666789 0 0.00085720096416105885 -0.0019198845792423847 0 0.00085856808322221036 -0.0020654720177340062 0 0.00097579064785522089 -0.0020728689703603683 0 0.00081849781136303249 -0.0019271392919521537 0 0.00085720096416105885 -0.0019198845792423847 0 0.00085720096416105885 -0.0019198845792423847 0 0.0010748173291944359 -0.0018787045764526368 0 0.0011416201858358405 -0.0014894618171114868 0 0.00097579064785522089 -0.0020728689703603683 0 0.00085720096416105885 -0.0019198845792423847 0 0.0010748173291944359 -0.0018787045764526368 0 0.00085856808322221036 -0.0020654720177340062 0 0.00066472249686872853 -0.002073717812492654 0 0.00072324314308706969 -0.0023027036212793176 0 0.00085720096416105885 -0.0019198845792423847 0 0.00085856808322221036 -0.0020654720177340062 0 0.00066472249686872853 -0.002073717812492654 0 0.0010082564735173836 -0.0020529808984662279 0 0.0009990732601837572 -0.0021312573448059955 0 0.00047768959403458519 -0.011586616516197369 0 0.00080127863879640899 -0.011209489335348039 0 0.00043279542682145012 -0.011186929038840944 0 0.00044179510692342685 -0.0074567837265183809 0 0.00066731769821873181 -0.0067314803975438075 0 4.9387226112746501e-05 -0.011136299220807871 0 0.00047768959403458519 -0.011586616516197369 0 0.00043279542682145012 -0.011186929038840944 0 0.00080127863879640899 -0.011209489335348039 0 0.00043279542682145012 -0.011186929038840944 0 0.00057312210759043886 -0.010976439169592355 0 0.00043279542682145012 -0.011186929038840944 0 0.00030463733178559809 -0.010966014612981049 0 0.00057312210759043886 -0.010976439169592355 0 0.0015715577272844609 -0.0018205940858529771 0 0.0013026371822919694 -0.0018144794820877279 0 0.0014507938133466367 -0.0015599920592295753 0 0.0017788060800900984 -0.0015517496350014673 0 0.0015715577272844609 -0.0018205940858529771 0 0.0014507938133466367 -0.0015599920592295753 0 0.001880464792694425 -0.0019114259169369266 0 0.0016122478594798421 -0.0020338928567431008 0 0.0015715577272844609 -0.0018205940858529771 0 0.0016122478594798421 -0.0020338928567431008 0 0.0015715577272844609 -0.0018205940858529771 0 0.0014244366603846025 -0.0019943140950102003 0 0.0015715577272844609 -0.0018205940858529771 0 0.0014244366603846025 -0.0019943140950102003 0 0.0013026371822919694 -0.0018144794820877279 0 0.0010748173291944359 -0.0018787045764526368 0 0.0013026371822919694 -0.0018144794820877279 0 0.0011416201858358405 -0.0014894618171114868 0 0.0012269760614592592 -0.0020690882593203609 0 0.0010748173291944359 -0.0018787045764526368 0 0.0013026371822919694 -0.0018144794820877279 0 0.0012269760614592592 -0.0020690882593203609 0 0.0014244366603846025 -0.0019943140950102003 0 0.0013026371822919694 -0.0018144794820877279 0 0.0012269760614592592 -0.0020690882593203609 0 0.00097579064785522089 -0.0020728689703603683 0 0.0010748173291944359 -0.0018787045764526368 0 0.0013026371822919694 -0.0018144794820877279 0 0.0011416201858358405 -0.0014894618171114868 0 0.0014507938133466367 -0.0015599920592295753 0 0.00084990069070251049 -0.0021496353666044681 0 0.00077669852272004068 -0.0026009952341664293 0 0.0011416201858358405 -0.0014894618171114868 0 0.0014507938133466367 -0.0015599920592295753 0 0.00151529798683425 -0.0011260121523703496 0 0.0017788060800900984 -0.0015517496350014673 0 0.0014507938133466367 -0.0015599920592295753 0 0.00151529798683425 -0.0011260121523703496 0 0.00077669852272004068 -0.0026009952341664293 0 0.0010398167802097989 -0.0022027557777526113 0 0.00042320364310645717 -0.0023023946568138682 0 0.00072324314308706969 -0.0023027036212793176 0 0.00054762060057217399 -0.002541343982033319 0 0.0009990732601837572 -0.0021312573448059955 0 0.00077669852272004068 -0.0026009952341664293 0 0.00066472249686872853 -0.002073717812492654 0 0.00042320364310645717 -0.0023023946568138682 0 0.00072324314308706969 -0.0023027036212793176 0 0.001148282805920823 -0.010803096000567055 0 0.0011618192671294459 -0.010264148838475033 0 0.0014944011349449266 -0.010373663472146966 0 0.00072624972508292306 -0.0061786966433169527 0 0.00085351096445599438 -0.0053261584248710291 0 0.0011618192671294459 -0.010264148838475033 0 0.0014944011349449266 -0.010373663472146966 0 0.001278346227976542 -0.0099696532665853876 0 0.00046608354244556519 -0.0039187576121949971 0 0.00024580594631842605 -0.0035106968503337077 0 0.00082952131813710125 -0.0035824810475138646 0 0.00024580594631842605 -0.0035106968503337077 0 0.00051742676011434709 -0.0031742232271191758 0 0.00082952131813710125 -0.0035824810475138646 0 0.00085351096445599438 -0.0053261584248710291 0 0.00096464053000428667 -0.0046657059659416088 0 0.00077669852272004068 -0.0026009952341664293 0 0.00085351096445599438 -0.0053261584248710291 0 0.00041646561013183408 -0.010731557000312694 0 0.00030463733178559809 -0.010966014612981049 0 0.00057312210759043886 -0.010976439169592355 0 0.00041646561013183408 -0.010731557000312694 0 0.00057312210759043886 -0.010976439169592355 0 0.00080014494050254263 -0.010733113629808553 0 0.00066731769821873181 -0.0067314803975438075 0 0.00072624972508292306 -0.0061786966433169527 0 0.00080127863879640899 -0.011209489335348039 0 0.001148282805920823 -0.010803096000567055 0 0.00080014494050254263 -0.010733113629808553 0 0.00080127863879640899 -0.011209489335348039 0 0.00057312210759043886 -0.010976439169592355 0 0.00080014494050254263 -0.010733113629808553 0 0.001148282805920823 -0.010803096000567055 0 0.00080014494050254263 -0.010733113629808553 0 0.00087906497223119316 -0.010403210379591729 0 0.001148282805920823 -0.010803096000567055 0 0.0011618192671294459 -0.010264148838475033 0 0.00087906497223119316 -0.010403210379591729 0 0.0011618192671294459 -0.010264148838475033 0 0.00087906497223119316 -0.010403210379591729 0 0.00097461081950962476 -0.010139698255894928 0 0.00087906497223119316 -0.010403210379591729 0 0.00056869904534827135 -0.010399379504044697 0 0.00076512529444645232 -0.010056744224478152 0 0.00080014494050254263 -0.010733113629808553 0 0.00087906497223119316 -0.010403210379591729 0 0.00056869904534827135 -0.010399379504044697 0 0.00025278473942583646 -0.010507200682515745 0 0.00056869904534827135 -0.010399379504044697 0 0.00035091897344533853 -0.0099774552555775189 0 0.00041646561013183408 -0.010731557000312694 0 0.00080014494050254263 -0.010733113629808553 0 0.00056869904534827135 -0.010399379504044697 0 0.00025278473942583646 -0.010507200682515745 0 0.00041646561013183408 -0.010731557000312694 0 0.00056869904534827135 -0.010399379504044697 0 0.00035091897344533853 -0.0099774552555775189 0 0.00076512529444645232 -0.010056744224478152 0 0.0009059647489070542 -0.0097074625189093565 0 0.00056869904534827135 -0.010399379504044697 0 0.00035091897344533853 -0.0099774552555775189 0 0.00076512529444645232 -0.010056744224478152 0 0.00076512529444645232 -0.010056744224478152 0 0.00094074304058994207 -0.0099648486178848545 0 0.0009059647489070542 -0.0097074625189093565 0 0.00087906497223119316 -0.010403210379591729 0 0.00076512529444645232 -0.010056744224478152 0 0.00097461081950962476 -0.010139698255894928 0 0.0011618192671294459 -0.010264148838475033 0 0.00097461081950962476 -0.010139698255894928 0 0.001117189331897694 -0.0099538017584795899 0 0.00076512529444645232 -0.010056744224478152 0 0.00097461081950962476 -0.010139698255894928 0 0.00094074304058994207 -0.0099648486178848545 0 0.00097461081950962476 -0.010139698255894928 0 0.00094074304058994207 -0.0099648486178848545 0 0.001117189331897694 -0.0099538017584795899 0 0.00094074304058994207 -0.0099648486178848545 0 0.0009059647489070542 -0.0097074625189093565 0 0.001117189331897694 -0.0099538017584795899 0 0.0009059647489070542 -0.0097074625189093565 0 0.001117189331897694 -0.0099538017584795899 0 0.0012829101265853344 -0.0099695892925528076 0 0.00035091897344533853 -0.0099774552555775189 0 0.0009059647489070542 -0.0097074625189093565 0 0.00087566766267507693 -0.0093755546316713727 0 0.0009059647489070542 -0.0097074625189093565 0 0.00097139113819801255 -0.0093809180585766958 0 0.0012829101265853344 -0.0099695892925528076 0 0.0009059647489070542 -0.0097074625189093565 0 0.00097139113819801255 -0.0093809180585766958 0 0.00087566766267507693 -0.0093755546316713727 0 1.3732081662927714e-07 -0.0069640056596358578 0 2.4617901278642963e-05 -0.007009436448694578 0 -1.3710644585373415e-07 -0.0071451205799909793 0 0.00011424646525558035 -0.006851165549603193 0 7.6315072069421425e-05 -0.0070377347714245192 0 3.386012894743447e-06 -0.0069612143271269465 0 0.00011424646525558035 -0.006851165549603193 0 -3.1634558656308111e-07 -0.008853601555706329 0 0.00016336303577405329 -0.0096618941963479664 0 1.0928739896238084e-06 -0.0071483185048150742 0 -0.00042085378522840227 -0.0090469546599656909 0 7.6315072069421425e-05 -0.0070377347714245192 0 0.00063900788960360522 -0.0045152827114228241 0 0.00070684503344543923 -0.0045286018267406501 0 0.00066534461639644572 -0.0045539945721119806 0 0.00096464053000428667 -0.0046657059659416088 0 0.00078312496094500483 -0.0059210804213784612 0 0.0006254018991564788 -0.0045297532837320744 0 0.00066534461639644572 -0.0045539945721119806 0 0.00062207537145993793 -0.0045614892801950913 0 0.0006254018991564788 -0.0045297532837320744 0 0.00063900788960360522 -0.0045152827114228241 0 0.00066534461639644572 -0.0045539945721119806 0 0.00095694101823695546 -0.0046669925750183368 0 0.00096464053000428667 -0.0046657059659416088 0 0.00085351096445599438 -0.0053261584248710291 0 0.00078312496094500483 -0.0059210804213784612 0 0.00065655095226640147 -0.0052553030394557956 0 0.0006270265049804659 -0.0052916083639652205 0 0.0006802053273443152 -0.0052998828309951734 0 0.0011618192671294459 -0.010264148838475033 0 0.001117189331897694 -0.0099538017584795899 0 0.001278346227976542 -0.0099696532665853876 0 0.00082438864726266047 -0.0059846331587842024 0 0.00078312496094500483 -0.0059210804213784612 0 0.00074773270264769012 -0.0046140410171329454 0 0.00066387066342380255 -0.0046007970064579845 0 0.00066534461639644572 -0.0045539945721119806 0 8.9568382203267692e-08 -0.0069634686835574038 0 1.3186853929709269e-06 -0.0068765999612815402 0 -8.9387414133598799e-08 -0.0054618139412863365 0 0.00011424646525558035 -0.006851165549603193 0 3.2196507466481449e-05 -0.0053447063851497978 0 1.3186853929709269e-06 -0.0068765999612815402 0 -8.9387414133598799e-08 -0.0054618139412863365 0 -3.9274871039171347e-06 -0.0052748657402935106 0 0.00074773270264769012 -0.0046140410171329454 0 0.00070684503344543923 -0.0045286018267406501 0 0.00066534461639644572 -0.0045539945721119806 0 0.00011424646525558035 -0.006851165549603193 0 0.00078312496094500483 -0.0059210804213784612 0 -8.9387414133598799e-08 -0.0054618139412863365 0 -3.9274871039171347e-06 -0.0052748657402935106 0 9.0067993734184452e-08 -0.0039614140201006363 0 3.2196507466481449e-05 -0.0053447063851497978 0 0.00026645698239645009 -0.004043022440777407 0 0.00066387066342380255 -0.0046007970064579845 0 0.00062207537145993793 -0.0045614892801950913 0 0.00057948037417961682 -0.0045880619420853056 0 0.00066387066342380255 -0.0046007970064579845 0 0.00066534461639644572 -0.0045539945721119806 0 0.00062207537145993793 -0.0045614892801950913 0 -3.9274871039171347e-06 -0.0052748657402935106 0 9.0067993734184452e-08 -0.0039614140201006363 0 7.952914507502038e-06 -0.0038009801771821832 0 0.00057948037417961682 -0.0045880619420853056 0 0.00051766429390608213 -0.0045097916126204457 0 0.00057427765602117054 -0.0045343498743609014 0 1.6284537266706987e-06 -0.0039604188038642697 0 0.00026645698239645009 -0.004043022440777407 0 -4.223008964225673e-09 -0.0039596447605214843 0 1.0050814585168947e-08 -0.0037500430918547922 0 -5.5478851533472874e-06 -0.003702309807810146 0 0.00062207537145993793 -0.0045614892801950913 0 0.00057948037417961682 -0.0045880619420853056 0 0.00057427765602117054 -0.0045343498743609014 0 1.0050814585168947e-08 -0.0037500430918547922 0 -5.5478851533472874e-06 -0.003702309807810146 0 -0.00027355636061165441 -0.0035826414432192388 0 -5.5478851533472874e-06 -0.003702309807810146 0 -0.00017555854644564432 -0.0034927548288048705 0 -0.00027355636061165441 -0.0035826414432192388 0 3.1097286612377037e-07 -0.0037462421936670142 0 0.00034648791525808317 -0.0020144835834878584 0 4.273074127131656e-07 -0.0037480518766605389 0 0.00019328473294047955 -0.0010720635272124042 0 4.8867054954685069e-07 -0.0017604422226411333 0 0.00026645698239645009 -0.004043022440777407 0 0.00082069324564899198 -0.0019715834825308159 0 0.00082069324564899198 -0.0019715834825308159 0 0.00034648791525808317 -0.0020144835834878584 0 0.00051766429390608213 -0.0045097916126204457 0 0.00054076907921172233 -0.0044896199375551978 0 0.00057427765602117054 -0.0045343498743609014 0 0.00082069324564899198 -0.0019715834825308159 0 0.00099632596193602319 -0.0020231104824563885 0 0.0011588340114517259 -0.00098850284938378666 0 0.00082169581825643364 -0.0013015372135875599 0 0.001508093817942453 -0.001377634030316575 0 0.0022414355586366894 -0.00050852911938601537 0 0.002281632649359701 -0.00056892529404654381 0 0.0021678892080388363 -0.00063833448875327597 0 0.00099632596193602319 -0.0020231104824563885 0 0.0011306284924989696 -0.00080805173072010048 0 0.00082069324564899198 -0.0019715834825308159 0 0.0011306284924989696 -0.00080805173072010048 0 0.00073054687720658417 -0.00073051864003532442 0 0.00063461666649551921 -0.00062082305500290723 0 0.00061032922872063797 -0.00072880910229343975 0 0.0006254018991564788 -0.0045297532837320744 0 0.00064066879197987724 -0.0045113723105121902 0 0.00054076907921172233 -0.0044896199375551978 0 0.0006254018991564788 -0.0045297532837320744 0 0.00054076907921172233 -0.0044896199375551978 0 0.00057427765602117054 -0.0045343498743609014 0 0.00096464053000428667 -0.0046657059659416088 0 0.00099632596193602319 -0.0020231104824563885 0 0.0006254018991564788 -0.0045297532837320744 0 0.00062207537145993793 -0.0045614892801950913 0 0.00057427765602117054 -0.0045343498743609014 0 0.00051742676011434709 -0.0031742232271191758 0 0.0011913632362091481 -0.0032445491434040822 0 0.00082952131813710125 -0.0035824810475138646 0 0.0018973923221342879 -0.00062677906146517783 0 0.0021383848973757441 -0.00065948269684388985 0 0.0018705530604422808 -0.00096128255527500625 0 0.0022414355586366894 -0.00050852911938601537 0 0.0018973923221342879 -0.00062677906146517783 0 0.0021383848973757441 -0.00065948269684388985 0 0.00099632596193602319 -0.0020231104824563885 0 0.0010398167802097989 -0.0022027557777526113 0 0.0035108354778372436 0.0012898805911115115 0 0.003477375143640586 0.0019794677660115233 0 0.002281632649359701 -0.00056892529404654381 0 0.0023179480057979986 -0.00072154265494977934 0 0.0022225086045951493 -0.00065886250868784908 0 0.002281632649359701 -0.00056892529404654381 0 0.0021171096200642532 5.6632927343272806e-05 0 0.0021065553561939562 -0.00042668721965644519 0 0.0022414355586366894 -0.00050852911938601537 0 0.002281632649359701 -0.00056892529404654381 0 0.0021383848973757441 -0.00065948269684388985 0 0.002281632649359701 -0.00056892529404654381 0 0.0021065553561939562 -0.00042668721965644519 0 0.0021678892080388363 -0.00063833448875327597 0 0.002281632649359701 -0.00056892529404654381 0 0.0021383848973757441 -0.00065948269684388985 0 0.0023179480057979986 -0.00072154265494977934 0 0.0023465938525631504 -0.00044284083248337554 0 0.0023677673331166248 -0.00056462662264285019 0 0.0021383848973757441 -0.00065948269684388985 0 0.0023179480057979986 -0.00072154265494977934 0 0.002133502651876497 -0.0010988288835531159 0 0.0025325319323514861 -0.0013794342113579551 0 0.0023179480057979986 -0.00072154265494977934 0 0.002133502651876497 -0.0010988288835531159 0 0.0021383848973757441 -0.00065948269684388985 0 0.002133502651876497 -0.0010988288835531159 0 0.0018705530604422808 -0.00096128255527500625 0 0.0017788060800900984 -0.0015517496350014673 0 0.0014828842048207861 -0.0009521956220756915 0 0.0018705530604422808 -0.00096128255527500625 0 0.0014828842048207861 -0.0009521956220756915 0 0.0018973923221342879 -0.00062677906146517783 0 0.0018705530604422808 -0.00096128255527500625 0 0.0021492550671444667 0.0049202449262989939 0 0.0016216228261835429 0.004330327382723243 0 0.0012496667581651192 0.0047696249894396241 0 0.0021492550671444667 0.0049202449262989939 0 0.0025503607549641864 0.0042544384511761539 0 0.0021157362600623753 0.0042990509630616673 0 0.0021492550671444667 0.0049202449262989939 0 0.0021157362600623753 0.0042990509630616673 0 0.0016216228261835429 0.004330327382723243 0 0.001476315604328196 0.00055721363892686701 0 0.0013552237078627788 0.00026878954978634353 0 0.0021171096200642532 5.6632927343272806e-05 0 0.0023330987203832249 -5.0403134862905205e-05 0 0.0023179480057979986 -0.00072154265494977934 0 0.0021293455856010632 -0.0003862113510125965 0 0.0013552237078627788 0.00026878954978634353 0 0.0021171096200642532 5.6632927343272806e-05 0 0.0018855778434304657 -0.00045294602774192206 0 0.0027212714126521355 0.0028921825550761436 0 0.003477375143640586 0.0019794677660115233 0 0.0041741056623757983 0.0041735281937535663 0 0.0051610563079359829 0.0040178253209712314 0 0.0055424363972410304 0.0032006662686686698 0 0.0034157561504612618 0.0022408705725671593 0 0.003477375143640586 0.0019794677660115233 0 0.0023179480057979986 -0.00072154265494977934 0 0.0021293455856010632 -0.0003862113510125965 0 0.0022225086045951493 -0.00065886250868784908 0 0.001488336038137419 0.0024617135436087617 0 0.0012759872894398882 0.00062759477377056854 0 0.0027965301883104633 0.0039713984915393614 0 0.0021415462052996031 0.0036972897360055528 0 0.0031462444545078093 0.0035633817064456732 0 0.0021492550671444667 0.0049202449262989939 0 0.0025503607549641864 0.0042544384511761539 0 0.0027983701645861708 0.0039647319134015471 0 0.0012343724148142056 0.00078487596236422063 0 0.0012759872894398882 0.00062759477377056854 0 0.0021171096200642532 5.6632927343272806e-05 0 0.0021065553561939562 -0.00042668721965644519 0 0.0018855778434304657 -0.00045294602774192206 0 0.0012759872894398882 0.00062759477377056854 0 0.0011306284924989696 -0.00080805173072010048 0 0.0021065553561939562 -0.00042668721965644519 0 0.0018855778434304657 -0.00045294602774192206 0 0.0021678892080388363 -0.00063833448875327597 0 0.0025503607549641864 0.0042544384511761539 0 0.0027965301883104633 0.0039713984915393614 0 0.0021415462052996031 0.0036972897360055528 0 0.0025503607549641864 0.0042544384511761539 0 0.0021415462052996031 0.0036972897360055528 0 0.0021157362600623753 0.0042990509630616673 0 0.0021415462052996031 0.0036972897360055528 0 0.0021157362600623753 0.0042990509630616673 0 0.0016216228261835429 0.004330327382723243 0 0.00031534668660133426 -0.00057813018096944651 0 0.00029135154686664411 -0.00070178489734973976 0 -1.2642019064354503e-05 -0.0005349357054039405 0 0.00031534668660133426 -0.00057813018096944651 0 0.00029135154686664411 -0.00070178489734973976 0 0.00048776351876312165 -0.00070108961379172394 0 0.00021781769403318531 0.00082559515051327755 0 8.5401046805360373e-05 -0.00013768244809120826 0 8.7615382451636462e-05 0.0010614030786123426 0 0.00029135154686664411 -0.00070178489734973976 0 0.00048776351876312165 -0.00070108961379172394 0 0.00058773305410989864 -0.00086292117213435755 0 -6.4039510564263029e-05 -0.00043307249923968768 0 0.00034648791525808317 -0.0020144835834878584 0 0.00031534668660133426 -0.00057813018096944651 0 0.00063461666649551921 -0.00062082305500290723 0 0.00048776351876312165 -0.00070108961379172394 0 0.00021781769403318531 0.00082559515051327755 0 0.00038365825326630744 -0.0008031695507147357 0 0.00019601457642971803 -0.00097164117530292547 0 0.00080197576429921974 0.00015400874693189849 0 0.0011306284924989696 -0.00080805173072010048 0 0.00063461666649551921 -0.00062082305500290723 0 0.00048776351876312165 -0.00070108961379172394 0 0.00061032922872063797 -0.00072880910229343975 0 0.00048776351876312165 -0.00070108961379172394 0 0.00061032922872063797 -0.00072880910229343975 0 0.00058773305410989864 -0.00086292117213435755 0 0.00073054687720658417 -0.00073051864003532442 0 0.00061032922872063797 -0.00072880910229343975 0 0.00058773305410989864 -0.00086292117213435755 0 0.00019328473294047955 -0.0010720635272124042 0 0.00019601457642971803 -0.00097164117530292547 0 4.8867054954685069e-07 -0.0017604422226411333 0 0.00034648791525808317 -0.0020144835834878584 0 0.00035600735611523272 -0.0019943660905768095 0 0.00019601457642971803 -0.00097164117530292547 0 4.8867054954685069e-07 -0.0017604422226411333 0 8.5401046805360373e-05 -0.00013768244809120826 0 8.5401046805360373e-05 -0.00013768244809120826 0 -7.4186290873207838e-09 0.00022723221350888777 0 8.7615382451636462e-05 0.0010614030786123426 0 4.8867054954685069e-07 -0.0017604422226411333 0 8.5401046805360373e-05 -0.00013768244809120826 0 -7.4186290873207838e-09 0.00022723221350888777 0 0.00021781769403318531 0.00082559515051327755 0 0.00019601457642971803 -0.00097164117530292547 0 8.5401046805360373e-05 -0.00013768244809120826 0 -7.4186290873207838e-09 0.00022723221350888777 0 -2.7470511999613099e-05 0.0015357169975966729 0 8.7615382451636462e-05 0.0010614030786123426 0 -2.7470511999613099e-05 0.0015357169975966729 0 -7.4232259629258363e-05 0.0024423542457515488 0 -2.7481978587833652e-07 0.002214789477752715 0 -7.4186290873207838e-09 0.00022723221350888777 0 -2.7470511999613099e-05 0.0015357169975966729 0 -2.7481978587833652e-07 0.002214789477752715 0 -2.7470511999613099e-05 0.0015357169975966729 0 -7.4232259629258363e-05 0.0024423542457515488 0 7.0233066961696892e-05 0.0019893203859814275 0 -7.4232259629258363e-05 0.0024423542457515488 0 6.7797266686449008e-05 0.002416880756037076 0 7.0233066961696892e-05 0.0019893203859814275 0 0.00021781769403318531 0.00082559515051327755 0 8.7615382451636462e-05 0.0010614030786123426 0 0.00019133797602877801 0.0022809367242989254 0 7.0233066961696892e-05 0.0019893203859814275 0 8.7615382451636462e-05 0.0010614030786123426 0 0.00019133797602877801 0.0022809367242989254 0 6.7797266686449008e-05 0.002416880756037076 0 7.0233066961696892e-05 0.0019893203859814275 0 0.00019133797602877801 0.0022809367242989254 0 -6.4039510564263029e-05 -0.00043307249923968768 0 -3.9234607427399813e-05 0.00066324125038443602 0 -2.7470511999613099e-05 0.0015357169975966729 0 7.0233066961696892e-05 0.0019893203859814275 0 8.7615382451636462e-05 0.0010614030786123426 0 -1.0165891827714368e-06 0.0042020295386740519 0 -0.00031348001077596285 0.0032159356249879009 0 -0.00035354811798811887 0.0040129099716033866 0 -7.4232259629258363e-05 0.0024423542457515488 0 -2.7481978587833652e-07 0.002214789477752715 0 -0.00031348001077596285 0.0032159356249879009 0 -1.0165891827714368e-06 0.0042020295386740519 0 -2.7481978587833652e-07 0.002214789477752715 0 -0.00031348001077596285 0.0032159356249879009 0 -7.4232259629258363e-05 0.0024423542457515488 0 -0.00031348001077596285 0.0032159356249879009 0 -0.00022309000151337361 0.0033448462479972602 0 -0.00031348001077596285 0.0032159356249879009 0 -0.00053047865913677936 0.0037488299569629147 0 -0.00035354811798811887 0.0040129099716033866 0 -0.00053047865913677936 0.0037488299569629147 0 -0.00062199426603718984 0.0037356123449309659 0 -0.00035354811798811887 0.0040129099716033866 0 -0.00053047865913677936 0.0037488299569629147 0 -0.00062391519859221229 0.0052804483960701091 0 -0.00062199426603718984 0.0037356123449309659 0 -0.00031348001077596285 0.0032159356249879009 0 -0.00053047865913677936 0.0037488299569629147 0 -0.00022309000151337361 0.0033448462479972602 0 -0.00053047865913677936 0.0037488299569629147 0 -0.00022309000151337361 0.0033448462479972602 0 -0.00020741402909445349 0.0044649783210761193 0 -0.00022309000151337361 0.0033448462479972602 0 -0.00020741402909445349 0.0044649783210761193 0 0.00012237353098568582 0.0032785966839772801 0 -0.00074732929278688309 0.0021024721781946021 0 -0.00053749463231527589 0.0017229195042574115 0 -0.00053047865913677936 0.0037488299569629147 0 -0.00020741402909445349 0.0044649783210761193 0 -0.00062391519859221229 0.0052804483960701091 0 -0.00020741402909445349 0.0044649783210761193 0 -7.7452586288395941e-05 0.0052396350501774797 0 0.0005024936235919215 0.0048572961071965586 0 -0.00020741402909445349 0.0044649783210761193 0 -7.7452586288395941e-05 0.0052396350501774797 0 -0.00062391519859221229 0.0052804483960701091 0 -7.7452586288395941e-05 0.0052396350501774797 0 -0.00062391519859221229 0.0052804483960701091 0 -0.00043951331699200544 0.0057234843883218816 0 -0.00062391519859221229 0.0052804483960701091 0 -0.00068188783481838819 0.0060253299030705873 0 -0.00081366297051545873 0.0067924755539239606 0 -0.00062391519859221229 0.0052804483960701091 0 -0.00068188783481838819 0.0060253299030705873 0 -0.00063512018139950477 0.0059377146164114056 0 -0.00035797858684598322 0.0057368621783668626 0 -0.00041356108468516188 0.0057376205981333056 0 0.0021415462052996031 0.0036972897360055528 0 0.0016216228261835429 0.004330327382723243 0 0.0011343912218207525 0.0038337181406997121 0 0.00080197576429921974 0.00015400874693189849 0 -3.9234607427399813e-05 0.00066324125038443602 0 0.00094819577460145393 0.0043305711718562637 0 0.0016216228261835429 0.004330327382723243 0 0.0011343912218207525 0.0038337181406997121 0 6.7797266686449008e-05 0.002416880756037076 0 0.00019133797602877801 0.0022809367242989254 0 0.00012237353098568582 0.0032785966839772801 0 -3.9234607427399813e-05 0.00066324125038443602 0 -0.00053749463231527589 0.0017229195042574115 0 -7.4232259629258363e-05 0.0024423542457515488 0 6.7797266686449008e-05 0.002416880756037076 0 0.00012237353098568582 0.0032785966839772801 0 -7.4232259629258363e-05 0.0024423542457515488 0 -0.00022309000151337361 0.0033448462479972602 0 0.00012237353098568582 0.0032785966839772801 0 0.00094819577460145393 0.0043305711718562637 0 0.0011343912218207525 0.0038337181406997121 0 0.00044636665521585023 0.0042134592954638089 0 0.00094819577460145393 0.0043305711718562637 0 0.00044636665521585023 0.0042134592954638089 0 0.0005024936235919215 0.0048572961071965586 0 -0.00020741402909445349 0.0044649783210761193 0 0.00044636665521585023 0.0042134592954638089 0 0.0005024936235919215 0.0048572961071965586 0 -7.7452586288395941e-05 0.0052396350501774797 0 0.0005024936235919215 0.0048572961071965586 0 0.00034361722659110905 0.0054156526480600995 0 0.0005024936235919215 0.0048572961071965586 0 0.0011138345618469611 0.005356851764811185 0 0.00034361722659110905 0.0054156526480600995 0 0.0021492550671444667 0.0049202449262989939 0 0.0012496667581651192 0.0047696249894396241 0 0.0011138345618469611 0.005356851764811185 0 0.0005024936235919215 0.0048572961071965586 0 0.0012496667581651192 0.0047696249894396241 0 0.0011138345618469611 0.005356851764811185 0 0.00094819577460145393 0.0043305711718562637 0 0.0005024936235919215 0.0048572961071965586 0 0.0012496667581651192 0.0047696249894396241 0 0.00094819577460145393 0.0043305711718562637 0 0.0016216228261835429 0.004330327382723243 0 0.0012496667581651192 0.0047696249894396241 0 0.0021492550671444667 0.0049202449262989939 0 0.0011138345618469611 0.005356851764811185 0 0.0014744045983329265 0.0058862416693346038 0 0.0014744045983329265 0.0058862416693346038 0 0.00076557932015153599 0.0063918016555969447 0 0.0006176453627895329 0.0057423495952593122 0 0.0011138345618469611 0.005356851764811185 0 0.0014744045983329265 0.0058862416693346038 0 0.0006176453627895329 0.0057423495952593122 0 0.0034206771233666142 0.0058603840709658952 0 0.0028192233421692192 0.0051599154915245851 0 0.0028016284930746081 0.006418225228254683 0 0.0027552697851041248 0.0052378416749340479 0 0.0017451890889169893 0.0066731885947855802 0 0.0016730515187632026 0.0060341677437339755 0 0.0028192233421692192 0.0051599154915245851 0 0.0017666572345811471 0.0066372985560950145 0 0.0028016284930746081 0.006418225228254683 0 0.0015584833461622272 0.0042737366323260381 0 0.0011537074741375859 0.0057776753687390292 0 0.0015584833461622272 0.0042737366323260381 0 0.0010529293393520794 0.0055550435405811414 0 0.0017666572345811471 0.0066372985560950145 0 0.0028016284930746081 0.006418225228254683 0 0.0023352695127271685 0.0071445514171904782 0 0.0033923036155566635 0.0067014823497454192 0 0.0028016284930746081 0.006418225228254683 0 0.0029690789978492342 0.0071724342517178775 0 8.3326403760753396e-05 0.0068861454156104703 0 0.00076557932015153599 0.0063918016555969447 0 0.0006176453627895329 0.0057423495952593122 0 0.00066360969631058396 0.0065808116366749521 0 0.00069751162744200346 0.0062938102473924368 0 -2.314592524332287e-06 0.0063500222073475665 0 7.1311811763813052e-05 0.0060033980270729941 0 0.0006176453627895329 0.0057423495952593122 0 0.0017451890889169893 0.0066731885947855802 0 0.00057340491313963163 0.0068326063210134083 0 0.0016730515187632026 0.0060341677437339755 0 0.00066360969631058396 0.0065808116366749521 0 0.0010529293393520794 0.0055550435405811414 0 7.1311811763813052e-05 0.0060033980270729941 0 0.00016131706699695832 0.0057391190510334466 0 0.0006176453627895329 0.0057423495952593122 0 0.0011138345618469611 0.005356851764811185 0 0.0006176453627895329 0.0057423495952593122 0 0.00034361722659110905 0.0054156526480600995 0 0.00016131706699695832 0.0057391190510334466 0 0.0006176453627895329 0.0057423495952593122 0 0.00034361722659110905 0.0054156526480600995 0 0.00016131706699695832 0.0057391190510334466 0 0.00034361722659110905 0.0054156526480600995 0 -1.7088273838874742e-05 0.005596848697084128 0 -7.7452586288395941e-05 0.0052396350501774797 0 -1.7088273838874742e-05 0.005596848697084128 0 -0.00043951331699200544 0.0057234843883218816 0 -1.7088273838874742e-05 0.005596848697084128 0 -0.00043951331699200544 0.0057234843883218816 0 -0.00015542827506714071 0.0058818672270846426 0 -7.7452586288395941e-05 0.0052396350501774797 0 0.00034361722659110905 0.0054156526480600995 0 -1.7088273838874742e-05 0.005596848697084128 0 -0.00043951331699200544 0.0057234843883218816 0 -0.00015542827506714071 0.0058818672270846426 0 -0.00039162194348749151 0.006043636650980691 0 0.00016131706699695832 0.0057391190510334466 0 -1.7088273838874742e-05 0.005596848697084128 0 -0.00015542827506714071 0.0058818672270846426 0 7.1311811763813052e-05 0.0060033980270729941 0 0.00016131706699695832 0.0057391190510334466 0 -0.00015542827506714071 0.0058818672270846426 0 -0.00043951331699200544 0.0057234843883218816 0 -0.00063512018139950477 0.0059377146164114056 0 -0.00051996749706728228 0.0059607823086353217 0 -0.00062391519859221229 0.0052804483960701091 0 -0.00043951331699200544 0.0057234843883218816 0 -0.00063512018139950477 0.0059377146164114056 0 -0.00043951331699200544 0.0057234843883218816 0 -0.00051996749706728228 0.0059607823086353217 0 -0.00039162194348749151 0.006043636650980691 0 -0.00063512018139950477 0.0059377146164114056 0 -0.00055068871874854259 0.0060996927893047235 0 -0.00060246776110598756 0.006131908426045482 0 -0.00063512018139950477 0.0059377146164114056 0 -0.00051996749706728228 0.0059607823086353217 0 -0.00055068871874854259 0.0060996927893047235 0 -0.00055068871874854259 0.0060996927893047235 0 -0.0003781865904552604 0.0062323004958979595 0 -0.00046904355095586854 0.0062825102202918722 0 -0.00051996749706728228 0.0059607823086353217 0 -0.00055068871874854259 0.0060996927893047235 0 -0.00039162194348749151 0.006043636650980691 0 -0.00055068871874854259 0.0060996927893047235 0 -0.0003781865904552604 0.0062323004958979595 0 -0.00039162194348749151 0.006043636650980691 0 7.1311811763813052e-05 0.0060033980270729941 0 -0.00015542827506714071 0.0058818672270846426 0 -0.0001899628678014611 0.0062001478006082833 0 -0.00015542827506714071 0.0058818672270846426 0 -0.00039162194348749151 0.006043636650980691 0 -0.0001899628678014611 0.0062001478006082833 0 -0.0003781865904552604 0.0062323004958979595 0 -0.0001899628678014611 0.0062001478006082833 0 -0.00026343895743794642 0.0062822934488131095 0 -0.0003781865904552604 0.0062323004958979595 0 -0.00039162194348749151 0.006043636650980691 0 -0.0001899628678014611 0.0062001478006082833 0 -0.0001899628678014611 0.0062001478006082833 0 -0.00016992251281219497 0.0063482733329973257 0 -0.00026343895743794642 0.0062822934488131095 0 -2.314592524332287e-06 0.0063500222073475665 0 -0.0001899628678014611 0.0062001478006082833 0 -0.00016992251281219497 0.0063482733329973257 0 -2.314592524332287e-06 0.0063500222073475665 0 7.1311811763813052e-05 0.0060033980270729941 0 -0.0001899628678014611 0.0062001478006082833 0 0.00066360969631058396 0.0065808116366749521 0 0.00063350967522476215 0.0065885019048901317 0 0.00066360969631058396 0.0065808116366749521 0 0.00059235075190888038 0.0086162677603768539 0 0.00057340491313963163 0.0068326063210134083 0 -0.00015091616354632797 0.0083670693364342411 0 0.00071794581694067884 0.0081322803759075867 0 -0.00011864736346373675 0.0063326924010980888 0 -0.00016992251281219497 0.0063482733329973257 0 -0.00025534211681565425 0.0064092926268764765 0 -0.00016992251281219497 0.0063482733329973257 0 -0.00026343895743794642 0.0062822934488131095 0 -0.00031117779832660517 0.0063450915722944815 0 -0.0003781865904552604 0.0062323004958979595 0 -0.00026343895743794642 0.0062822934488131095 0 -0.00031117779832660517 0.0063450915722944815 0 -0.00016992251281219497 0.0063482733329973257 0 -0.00031117779832660517 0.0063450915722944815 0 -0.00025534211681565425 0.0064092926268764765 0 -0.0003781865904552604 0.0062323004958979595 0 -0.00031117779832660517 0.0063450915722944815 0 -0.00046904355095586854 0.0062825102202918722 0 -0.00031117779832660517 0.0063450915722944815 0 -0.00046904355095586854 0.0062825102202918722 0 -0.00037404916531615041 0.0064123240708814731 0 -0.00046904355095586854 0.0062825102202918722 0 -0.00037404916531615041 0.0064123240708814731 0 -0.00046383067877809372 0.0063771767756304705 0 -0.00037404916531615041 0.0064123240708814731 0 -0.00033173413756302063 0.0065151280800628411 0 -0.00040700675973969445 0.0065058304761125311 0 -0.00037404916531615041 0.0064123240708814731 0 -0.00046383067877809372 0.0063771767756304705 0 -0.00040700675973969445 0.0065058304761125311 0 -0.00015091616354632797 0.0083670693364342411 0 -0.00010026234369926643 0.0092161393750027458 0 -0.00088666332044584639 0.0099303551769256149 0 0.00059235075190888038 0.0086162677603768539 0 0.00035137228253468447 0.01199170193748718 0 -0.00037404916531615041 0.0064123240708814731 0 -0.00025534211681565425 0.0064092926268764765 0 -0.00033173413756302063 0.0065151280800628411 0 -0.00015091616354632797 0.0083670693364342411 0 0.00021118326354887867 0.008832228279909737 0 0.00071794581694067884 0.0081322803759075867 0 -0.00015091616354632797 0.0083670693364342411 0 0.00021118326354887867 0.008832228279909737 0 -0.00010026234369926643 0.0092161393750027458 0 -0.00031117779832660517 0.0063450915722944815 0 -0.00037404916531615041 0.0064123240708814731 0 -0.00025534211681565425 0.0064092926268764765 0 -0.00010026234369926643 0.0092161393750027458 0 0.0003687747098473867 0.0094079423183545396 0 -0.00088666332044584639 0.0099303551769256149 0 0.00021118326354887867 0.008832228279909737 0 0.0003687747098473867 0.0094079423183545396 0 0.00068849527284818297 0.0089690132835052658 0 0.00021118326354887867 0.008832228279909737 0 -0.00010026234369926643 0.0092161393750027458 0 0.0003687747098473867 0.0094079423183545396 0 0.0003687747098473867 0.0094079423183545396 0 0.00068849527284818297 0.0089690132835052658 0 0.0012054273683898044 0.009136957565883003 0 0.0012054273683898044 0.009136957565883003 0 0.0026036285914856415 0.0090987328685683596 0 0.00079397659302319885 0.009861178908362694 0 0.0003687747098473867 0.0094079423183545396 0 0.0012054273683898044 0.009136957565883003 0 0.00079397659302319885 0.009861178908362694 0 0.00068849527284818297 0.0089690132835052658 0 0.0011669626429055954 0.0086421899880202539 0 0.0012054273683898044 0.009136957565883003 0 0.00068849527284818297 0.0089690132835052658 0 0.0011669626429055954 0.0086421899880202539 0 0.00071794581694067884 0.0081322803759075867 0 0.00021118326354887867 0.008832228279909737 0 0.00068849527284818297 0.0089690132835052658 0 0.00071794581694067884 0.0081322803759075867 0 0.0015580814340072702 0.0081914248810889441 0 0.0011669626429055954 0.0086421899880202539 0 0.00071794581694067884 0.0081322803759075867 0 0.0011669626429055954 0.0086421899880202539 0 0.0016652809279185795 0.0087807885519661354 0 0.0012054273683898044 0.009136957565883003 0 0.0015580814340072702 0.0081914248810889441 0 0.0011669626429055954 0.0086421899880202539 0 0.0016652809279185795 0.0087807885519661354 0 0.0016652809279185795 0.0087807885519661354 0 0.0012054273683898044 0.009136957565883003 0 0.0026036285914856415 0.0090987328685683596 0 0.0026036285914856415 0.0090987328685683596 0 0.0030895946277176727 0.0085008429682907304 0 0.0020264414582776198 0.010781692706434889 0 0.0026036285914856415 0.0090987328685683596 0 0.0030895946277176727 0.0085008429682907304 0 0.0025617367365248249 0.008317342762622592 0 0.0030895946277176727 0.0085008429682907304 0 0.0025617367365248249 0.008317342762622592 0 0.0026219763237206126 0.0077989765317893062 0 0.0026036285914856415 0.0090987328685683596 0 0.0025617367365248249 0.008317342762622592 0 0.002086920329422213 0.0084558330556580366 0 0.0016652809279185795 0.0087807885519661354 0 0.0026036285914856415 0.0090987328685683596 0 0.002086920329422213 0.0084558330556580366 0 0.0025617367365248249 0.008317342762622592 0 0.002086920329422213 0.0084558330556580366 0 0.0021357591476034356 0.0078698803285401978 0 0.0015580814340072702 0.0081914248810889441 0 0.0016652809279185795 0.0087807885519661354 0 0.002086920329422213 0.0084558330556580366 0 0.0015580814340072702 0.0081914248810889441 0 0.0021357591476034356 0.0078698803285401978 0 0.001702777272150214 0.0075951035461621465 0 0.0015580814340072702 0.0081914248810889441 0 0.002086920329422213 0.0084558330556580366 0 0.0021357591476034356 0.0078698803285401978 0 0.0021357591476034356 0.0078698803285401978 0 0.0026219763237206126 0.0077989765317893062 0 0.0023352695127271685 0.0071445514171904782 0 0.0021357591476034356 0.0078698803285401978 0 0.0023352695127271685 0.0071445514171904782 0 0.001702777272150214 0.0075951035461621465 0 0.0030895946277176727 0.0085008429682907304 0 0.0026219763237206126 0.0077989765317893062 0 0.0029690789978492342 0.0071724342517178775 0 0.0025617367365248249 0.008317342762622592 0 0.0021357591476034356 0.0078698803285401978 0 0.0026219763237206126 0.0077989765317893062 0 0.0028016284930746081 0.006418225228254683 0 0.0029690789978492342 0.0071724342517178775 0 0.0023352695127271685 0.0071445514171904782 0 0.0026219763237206126 0.0077989765317893062 0 0.0029690789978492342 0.0071724342517178775 0 0.0023352695127271685 0.0071445514171904782 0 0.0017666572345811471 0.0066372985560950145 0 0.0023352695127271685 0.0071445514171904782 0 0.001702777272150214 0.0075951035461621465 0 0.0011537074741375859 0.0057776753687390292 0 0.00084236136953937427 0.0064917771738941853 0 0.0017451890889169893 0.0066731885947855802 0 0.00057340491313963163 0.0068326063210134083 0 0.00071794581694067884 0.0081322803759075867 0 0.0017666572345811471 0.0066372985560950145 0 0.00071794581694067884 0.0081322803759075867 0 0.001702777272150214 0.0075951035461621465 0 0.0015580814340072702 0.0081914248810889441 0 0.00071794581694067884 0.0081322803759075867 0 0.001702777272150214 0.0075951035461621465 0 0.0012877505153967483 0.017991728903426513 0 0.001537978763631281 0.017947128712584273 0 0.001306341231874407 0.017799277185319012 0 0.0012877505153967483 0.017991728903426513 0 0.001441141689954228 0.018153310490248584 0 0.001537978763631281 0.017947128712584273 0 0.0011278637530765699 0.016627645033269484 0 0.0013207013277627792 0.017219623755101846 0 0.0014246153036467336 0.018684006579432474 0 0.0010026377144292224 0.018608706324728035 0 0.0011151596316529 0.018855465505398142 0 0.0013128764468966398 0.018325454279279965 0 0.0016039462056704978 0.018716923939623712 0 0.0010026377144292224 0.018608706324728035 0 0.0014351786981823599 0.017595008980370933 0 0.0011278637530765699 0.016627645033269484 0 0.001441141689954228 0.018153310490248584 0 0.001537978763631281 0.017947128712584273 0 0.0015946125500263509 0.018169549273591296 0 -0.00051218585407549367 0.0062787981874931091 0 -0.00050622324303359865 0.0062006279008634813 0 -0.00055959373484359488 0.0064358223179475076 0 0.0011278637530765699 0.016627645033269484 0 -3.5977411013035758e-05 0.014426318283114407 0 0.00020054060584657836 0.012580947194884297 0 -3.5977411013035758e-05 0.014426318283114407 0 -0.00046383067877809372 0.0063771767756304705 0 -0.00040700675973969445 0.0065058304761125311 0 -0.00055959373484359488 0.0064358223179475076 0 -0.00046383067877809372 0.0063771767756304705 0 -0.00051218585407549367 0.0062787981874931091 0 -0.00055959373484359488 0.0064358223179475076 0 -0.00046904355095586854 0.0062825102202918722 0 -0.00051218585407549367 0.0062787981874931091 0 -0.00054886171456781224 0.0061843768202027791 0 -0.00046904355095586854 0.0062825102202918722 0 -0.00046383067877809372 0.0063771767756304705 0 -0.00051218585407549367 0.0062787981874931091 0 -0.00051218585407549367 0.0062787981874931091 0 -0.00050622324303359865 0.0062006279008634813 0 -0.00054886171456781224 0.0061843768202027791 0 -0.00050622324303359865 0.0062006279008634813 0 -0.00054886171456781224 0.0061843768202027791 0 -0.00045699885139482543 0.0062776979270663209 0 -0.00055068871874854259 0.0060996927893047235 0 -0.00054886171456781224 0.0061843768202027791 0 -0.00060246776110598756 0.006131908426045482 0 -0.00055068871874854259 0.0060996927893047235 0 -0.00046904355095586854 0.0062825102202918722 0 -0.00054886171456781224 0.0061843768202027791 0 -0.00060246776110598756 0.006131908426045482 0 -0.00045699885139482543 0.0062776979270663209 0 -0.00056967295630201188 0.0064128865046100764 0 -0.00054886171456781224 0.0061843768202027791 0 -0.00060246776110598756 0.006131908426045482 0 -0.00045699885139482543 0.0062776979270663209 0 -0.00068188783481838819 0.0060253299030705873 0 -0.00063512018139950477 0.0059377146164114056 0 -0.00060246776110598756 0.006131908426045482 0 -0.00045699885139482543 0.0062776979270663209 0 -0.00019559357233086113 0.0063004805951925322 0 -0.00023722405864249704 0.0067333623514908682 0 0.001537978763631281 0.017947128712584273 0 0.0015024039259290097 0.017582976205207313 0 0.001306341231874407 0.017799277185319012 0 0.00020054060584657836 0.012580947194884297 0 0.00059188746288145434 0.01213234188421226 0 -0.00050622324303359865 0.0062006279008634813 0 -0.00045699885139482543 0.0062776979270663209 0 -0.00019559357233086113 0.0063004805951925322 0 0.0012877505153967483 0.017991728903426513 0 0.001306341231874407 0.017799277185319012 0 0.0010198048541556601 0.017830483479409513 0 0.0014351786981823599 0.017595008980370933 0 0.0013726785364289178 0.017670975924502588 0 0.001306341231874407 0.017799277185319012 0 0.0011967148362242064 0.017610064318947957 0 0.0010198048541556601 0.017830483479409513 0 0.0015024039259290097 0.017582976205207313 0 0.001306341231874407 0.017799277185319012 0 0.0011967148362242064 0.017610064318947957 0 0.0015024039259290097 0.017582976205207313 0 0.0011967148362242064 0.017610064318947957 0 0.0012100805002231924 0.01733528536944055 0 0.0011967148362242064 0.017610064318947957 0 0.0012100805002231924 0.01733528536944055 0 0.00095599383042226278 0.017457249719541896 0 0.0012100805002231924 0.01733528536944055 0 0.0013756666565165761 0.016970384522215918 0 0.00099292533372060147 0.017070536299716638 0 0.0015024039259290097 0.017582976205207313 0 0.0012100805002231924 0.01733528536944055 0 0.0013756666565165761 0.016970384522215918 0 0.0010391930795861947 0.012111650701795495 0 0.0010782645321190591 0.012147557573149979 0 -0.00019559357233086113 0.0063004805951925322 0 6.0040450658300141e-05 0.0071479328392657368 0 -0.00023722405864249704 0.0067333623514908682 0 -0.00019559357233086113 0.0063004805951925322 0 6.0040450658300141e-05 0.0071479328392657368 0 0.00015860377127839984 0.0071946214583350522 0 0.00059188746288145434 0.01213234188421226 0 0.0010782645321190591 0.012147557573149979 0 -0.00023722405864249704 0.0067333623514908682 0 -0.00023131988322815079 0.0069463395515251165 0 -0.0001144351126226487 0.007120450067650652 0 -0.00023722405864249704 0.0067333623514908682 0 -0.00023131988322815079 0.0069463395515251165 0 -0.00035731126002635133 0.0067076094185242567 0 6.0040450658300141e-05 0.0071479328392657368 0 -0.00023722405864249704 0.0067333623514908682 0 -0.0001144351126226487 0.007120450067650652 0 6.0040450658300141e-05 0.0071479328392657368 0 -0.0001144351126226487 0.007120450067650652 0 4.6958925660287751e-06 0.0073959108038168528 0 -0.0001144351126226487 0.007120450067650652 0 -8.3756414335201568e-05 0.0074523662109158952 0 4.6958925660287751e-06 0.0073959108038168528 0 -0.0001144351126226487 0.007120450067650652 0 -8.3756414335201568e-05 0.0074523662109158952 0 -0.00016364673282962978 0.0072445628654027421 0 -8.3756414335201568e-05 0.0074523662109158952 0 -2.051689577522766e-05 0.0076850777624065782 0 4.6958925660287751e-06 0.0073959108038168528 0 -0.00016364673282962978 0.0072445628654027421 0 -0.00014110253873308157 0.0075072787491676412 0 -0.00027410042483285867 0.0070464272207894545 0 -0.00023131988322815079 0.0069463395515251165 0 -0.00016364673282962978 0.0072445628654027421 0 -0.00027410042483285867 0.0070464272207894545 0 -0.00023131988322815079 0.0069463395515251165 0 -0.0001144351126226487 0.007120450067650652 0 -0.00016364673282962978 0.0072445628654027421 0 -8.3756414335201568e-05 0.0074523662109158952 0 -0.00016364673282962978 0.0072445628654027421 0 -0.00014110253873308157 0.0075072787491676412 0 -8.3756414335201568e-05 0.0074523662109158952 0 -0.00014110253873308157 0.0075072787491676412 0 -7.6251027783328818e-05 0.0076683641233866737 0 -8.3756414335201568e-05 0.0074523662109158952 0 -7.6251027783328818e-05 0.0076683641233866737 0 -2.051689577522766e-05 0.0076850777624065782 0 0.0010782645321190591 0.012147557573149979 0 0.00035167911375639502 0.012835246458667718 0 -2.051689577522766e-05 0.0076850777624065782 0 4.1633806062815486e-05 0.0075257695736304425 0 -4.0409265266158857e-05 0.0080238412681637832 0 -7.6251027783328818e-05 0.0076683641233866737 0 -2.051689577522766e-05 0.0076850777624065782 0 -6.126600610045668e-05 0.0078850389522234655 0 -2.051689577522766e-05 0.0076850777624065782 0 -4.0409265266158857e-05 0.0080238412681637832 0 -6.126600610045668e-05 0.0078850389522234655 0 4.1633806062815486e-05 0.0075257695736304425 0 4.8478384448119971e-05 0.0074339066766467201 0 7.8276917601470807e-05 0.008246910915262912 0 4.1633806062815486e-05 0.0075257695736304425 0 -4.0409265266158857e-05 0.0080238412681637832 0 7.8276917601470807e-05 0.008246910915262912 0 6.0040450658300141e-05 0.0071479328392657368 0 4.6958925660287751e-06 0.0073959108038168528 0 9.8878657551344779e-05 0.0073014762630901888 0 4.1633806062815486e-05 0.0075257695736304425 0 4.6958925660287751e-06 0.0073959108038168528 0 9.8878657551344779e-05 0.0073014762630901888 0 0.0010522335213655673 0.012070199385779466 0 0.0010782645321190591 0.012147557573149979 0 -2.051689577522766e-05 0.0076850777624065782 0 4.1633806062815486e-05 0.0075257695736304425 0 4.6958925660287751e-06 0.0073959108038168528 0 -0.00068188783481838819 0.0060253299030705873 0 -0.00056967295630201188 0.0064128865046100764 0 -0.00081366297051545873 0.0067924755539239606 0 -0.00068188783481838819 0.0060253299030705873 0 -0.00060246776110598756 0.006131908426045482 0 -0.00056967295630201188 0.0064128865046100764 0 -0.00045699885139482543 0.0062776979270663209 0 -0.00023722405864249704 0.0067333623514908682 0 -0.00035731126002635133 0.0067076094185242567 0 -0.00045699885139482543 0.0062776979270663209 0 -0.00056967295630201188 0.0064128865046100764 0 -0.00035731126002635133 0.0067076094185242567 0 -0.00056967295630201188 0.0064128865046100764 0 -0.00035731126002635133 0.0067076094185242567 0 -0.00038210001942288639 0.0070421006637880947 0 -0.00023131988322815079 0.0069463395515251165 0 -0.00035731126002635133 0.0067076094185242567 0 -0.00027410042483285867 0.0070464272207894545 0 -0.00035731126002635133 0.0067076094185242567 0 -0.00027410042483285867 0.0070464272207894545 0 -0.00038210001942288639 0.0070421006637880947 0 -0.00014110253873308157 0.0075072787491676412 0 -0.00027410042483285867 0.0070464272207894545 0 -0.00038210001942288639 0.0070421006637880947 0 -0.00038210001942288639 0.0070421006637880947 0 -0.00081366297051545873 0.0067924755539239606 0 -0.0002561591649024219 0.0076766630655404136 0 -0.00056967295630201188 0.0064128865046100764 0 -0.00038210001942288639 0.0070421006637880947 0 -0.00081366297051545873 0.0067924755539239606 0 -0.00062199426603718984 0.0037356123449309659 0 -0.00035354811798811887 0.0040129099716033866 0 8.6599582144968057e-05 0.0045586701764673996 0 -0.00041356108468516188 0.0057376205981333056 0 -0.00035549987539060533 0.0059404300721527855 0 -0.00014110253873308157 0.0075072787491676412 0 -0.00038210001942288639 0.0070421006637880947 0 -0.0002561591649024219 0.0076766630655404136 0 -0.00035354811798811887 0.0040129099716033866 0 8.6599582144968057e-05 0.0045586701764673996 0 4.618429660448942e-07 0.0061898218879621681 0 -0.00035549987539060533 0.0059404300721527855 0 -0.00029286857369711732 0.006127317746583958 0 8.6599582144968057e-05 0.0045586701764673996 0 4.618429660448942e-07 0.0061898218879621681 0 4.0162937207673819e-05 0.0071764117285901506 0 -1.0165891827714368e-06 0.0042020295386740519 0 -0.00035354811798811887 0.0040129099716033866 0 4.618429660448942e-07 0.0061898218879621681 0 -0.00010093456351122652 0.0081051316294555777 0 -9.9406597176861241e-05 0.0079354442779679089 0 -0.00010357119963961933 0.0087452551951458131 0 -0.00010093456351122652 0.0081051316294555777 0 -9.0965947390013073e-05 0.0078350024665309239 0 -9.9406597176861241e-05 0.0079354442779679089 0 -0.00010093456351122652 0.0081051316294555777 0 -4.0409265266158857e-05 0.0080238412681637832 0 -0.00010357119963961933 0.0087452551951458131 0 -0.00010093456351122652 0.0081051316294555777 0 -6.126600610045668e-05 0.0078850389522234655 0 -9.0965947390013073e-05 0.0078350024665309239 0 -7.6251027783328818e-05 0.0076683641233866737 0 -6.126600610045668e-05 0.0078850389522234655 0 -9.0965947390013073e-05 0.0078350024665309239 0 -0.00010093456351122652 0.0081051316294555777 0 -4.0409265266158857e-05 0.0080238412681637832 0 -6.126600610045668e-05 0.0078850389522234655 0 -0.00014110253873308157 0.0075072787491676412 0 -9.0965947390013073e-05 0.0078350024665309239 0 -0.0001076442773474247 0.0077246013317796847 0 -0.00014110253873308157 0.0075072787491676412 0 -0.0002561591649024219 0.0076766630655404136 0 -0.0001076442773474247 0.0077246013317796847 0 -0.00014110253873308157 0.0075072787491676412 0 -7.6251027783328818e-05 0.0076683641233866737 0 -9.0965947390013073e-05 0.0078350024665309239 0 -9.0965947390013073e-05 0.0078350024665309239 0 -0.0001076442773474247 0.0077246013317796847 0 -9.9406597176861241e-05 0.0079354442779679089 0 -0.0001076442773474247 0.0077246013317796847 0 4.0162937207673819e-05 0.0071764117285901506 0 -9.9406597176861241e-05 0.0079354442779679089 0 -0.0002561591649024219 0.0076766630655404136 0 -0.0001076442773474247 0.0077246013317796847 0 4.0162937207673819e-05 0.0071764117285901506 0 4.618429660448942e-07 0.0061898218879621681 0 4.0162937207673819e-05 0.0071764117285901506 0 -2.4878875557036263e-07 0.0081782705437961761 0 4.0162937207673819e-05 0.0071764117285901506 0 -2.4878875557036263e-07 0.0081782705437961761 0 -9.9406597176861241e-05 0.0079354442779679089 0 -2.4878875557036263e-07 0.0081782705437961761 0 -9.9406597176861241e-05 0.0079354442779679089 0 -0.00010357119963961933 0.0087452551951458131 0 -2.4878875557036263e-07 0.0081782705437961761 0 -0.00010357119963961933 0.0087452551951458131 0 -5.1783389368359726e-07 0.010166174177658582 0 -4.0409265266158857e-05 0.0080238412681637832 0 -0.00010357119963961933 0.0087452551951458131 0 7.8276917601470807e-05 0.008246910915262912 0 -0.00010357119963961933 0.0087452551951458131 0 0.00036462042345092722 0.0093133357943272106 0 7.8276917601470807e-05 0.008246910915262912 0 0.00019802544292773166 0.014015018018636074 0 0.00035167911375639502 0.012835246458667718 0 -0.00010357119963961933 0.0087452551951458131 0 -5.1783389368359726e-07 0.010166174177658582 0 0.00036462042345092722 0.0093133357943272106 0 -5.1783389368359726e-07 0.010166174177658582 0 1.8405236803712111e-06 0.012150620084073834 0 0.00036462042345092722 0.0093133357943272106 0 -6.6726749155646091e-07 0.012154826732158459 0 0.00019802544292773166 0.014015018018636074 0 4.9673221740772833e-07 0.012155615392383133 0 -5.8400958753991352e-06 0.012819441740053145 0 0.0014154998019697094 0.014265304836895233 0 0.0005133427532849152 0.015104548494255618 0 0.00025495627962661757 0.014895878213008359 0 -7.4526423081216651e-05 0.012956548420446273 0 4.9673221740772833e-07 0.012155615392383133 0 -4.9777853205918693e-07 0.01349463880668904 0 -7.4526423081216651e-05 0.012956548420446273 0 -5.993073176757836e-05 0.012851370247059032 0 7.0527263443207816e-07 0.013262862636821842 0 -7.4526423081216651e-05 0.012956548420446273 0 4.9673221740772833e-07 0.012155615392383133 0 -5.8400958753991352e-06 0.012819441740053145 0 0.00053469952478024229 0.014871974017128396 0 0.0005133427532849152 0.015104548494255618 0 -7.4526423081216651e-05 0.012956548420446273 0 -5.8400958753991352e-06 0.012819441740053145 0 -5.993073176757836e-05 0.012851370247059032 0 0.0024638023322607239 0.016499807115401659 0 0.0019896673329521833 0.018004715110591787 0 0.0015128378631953405 0.017122161478476276 0 0.0005133427532849152 0.015104548494255618 0 0.00045259977528489497 0.017064590474067515 0 -5.8400958753991352e-06 0.012819441740053145 0 -0.00017041156240173977 0.013548846364933894 0 0.0014154998019697094 0.014265304836895233 0 0.0005133427532849152 0.015104548494255618 0 0.00019802544292773166 0.014015018018636074 0 -0.00017866499960085812 0.016122613467021801 0 0.00030288786339439325 0.016350850583545365 0 0.00014567653601831875 0.016816598014830309 0 -0.00017866499960085812 0.016122613467021801 0 0.00014567653601831875 0.016816598014830309 0 -0.00034521306367478959 0.016852004945180722 0 -0.00034521306367478959 0.016852004945180722 0 -0.00012241002161972239 0.017270888242545607 0 -0.00050843803237249168 0.017572359361599409 0 0.00045259977528489497 0.017064590474067515 0 0.00031210018826408081 0.01794910154907902 0 0.00014567653601831875 0.016816598014830309 0 -0.00034521306367478959 0.016852004945180722 0 -0.00012241002161972239 0.017270888242545607 0 0.00014567653601831875 0.016816598014830309 0 -0.00012241002161972239 0.017270888242545607 0 0.00026415672110322426 0.017296254236945471 0 0.00026415672110322426 0.017296254236945471 0 0.00062760092536526398 0.017323173742783148 0 0.00064216915350367055 0.016908969713205171 0 0.00014567653601831875 0.016816598014830309 0 0.00026415672110322426 0.017296254236945471 0 0.00064216915350367055 0.016908969713205171 0 0.00090161257066391639 0.016092143693065209 0 0.0010816981458813574 0.016649214552608069 0 0.0012100805002231924 0.01733528536944055 0 0.00099292533372060147 0.017070536299716638 0 0.00095599383042226278 0.017457249719541896 0 0.00062760092536526398 0.017323173742783148 0 0.00064216915350367055 0.016908969713205171 0 0.00095599383042226278 0.017457249719541896 0 0.00099292533372060147 0.017070536299716638 0 0.00059236378657967156 0.016944001627454741 0 0.00095599383042226278 0.017457249719541896 0 0.0013756666565165761 0.016970384522215918 0 0.00099292533372060147 0.017070536299716638 0 0.00084237603713886364 0.016669714134648315 0 0.00099292533372060147 0.017070536299716638 0 0.00084237603713886364 0.016669714134648315 0 0.00059236378657967156 0.016944001627454741 0 0.00030288786339439325 0.016350850583545365 0 0.00014567653601831875 0.016816598014830309 0 0.00064216915350367055 0.016908969713205171 0 0.00023609083752224838 0.016359950404791501 0 0.00084237603713886364 0.016669714134648315 0 0.00059236378657967156 0.016944001627454741 0 0.00019802544292773166 0.014015018018636074 0 0.00090161257066391639 0.016092143693065209 0 -0.00042196924337847374 0.017357559896330158 0 -0.00057391476963057381 0.017825995327181158 0 -0.00063607902104800287 0.018132528694565827 0 -0.0004168518430724989 0.01761777386090151 0 -0.00057391476963057381 0.017825995327181158 0 -0.0006242255109748429 0.017997142228159776 0 -0.0004168518430724989 0.01761777386090151 0 -0.00042196924337847374 0.017357559896330158 0 -0.00057391476963057381 0.017825995327181158 0 -0.00014548527658709925 0.018163567459233924 0 -0.0002379061973811987 0.018560584361968335 0 -1.1372696801183053e-06 0.016667035338639152 0 -0.00014506425224577964 0.016426307928850449 0 -8.8221270511970518e-06 0.017908154520785282 0 -0.00042196924337847374 0.017357559896330158 0 -0.00014506425224577964 0.016426307928850449 0 -0.00063607902104800287 0.018132528694565827 0 -1.1372696801183053e-06 0.016667035338639152 0 -0.00014506425224577964 0.016426307928850449 0 1.9685658921139497e-06 0.014839483467266289 0 -0.00014506425224577964 0.016426307928850449 0 -5.4085120345393239e-05 0.017027122392693037 0 0.00024500172026303163 0.016277580993894435 0 -0.00042196924337847374 0.017357559896330158 0 -0.00014506425224577964 0.016426307928850449 0 -5.4085120345393239e-05 0.017027122392693037 0 -0.0004168518430724989 0.01761777386090151 0 -0.00042196924337847374 0.017357559896330158 0 -5.4085120345393239e-05 0.017027122392693037 0 -0.0004168518430724989 0.01761777386090151 0 -5.4085120345393239e-05 0.017027122392693037 0 -8.333210006813815e-05 0.017595303361562457 0 -5.4085120345393239e-05 0.017027122392693037 0 0.00054878150640342237 0.017164610685780176 0 -8.333210006813815e-05 0.017595303361562457 0 0.00054878150640342237 0.017164610685780176 0 0.00024500172026303163 0.016277580993894435 0 0.0015361963513338102 0.015948775739313158 0 -5.4085120345393239e-05 0.017027122392693037 0 0.00054878150640342237 0.017164610685780176 0 0.00024500172026303163 0.016277580993894435 0 -0.00014506425224577964 0.016426307928850449 0 1.9685658921139497e-06 0.014839483467266289 0 0.00024500172026303163 0.016277580993894435 0 1.9685658921139497e-06 0.014839483467266289 0 0.00024500172026303163 0.016277580993894435 0 0.0015361963513338102 0.015948775739313158 0 5.6835360728328567e-08 0.014836082903281965 0 0.00025495627962661757 0.014895878213008359 0 4.9564550996361727e-07 0.014835605595700923 0 -4.9777853205918693e-07 0.01349463880668904 0 7.0527263443207816e-07 0.013262862636821842 0 -7.4526423081216651e-05 0.012956548420446273 0 -4.9777853205918693e-07 0.01349463880668904 0 7.0527263443207816e-07 0.013262862636821842 0 0.0024638023322607239 0.016499807115401659 0 0.0015361963513338102 0.015948775739313158 0 0.0015128378631953405 0.017122161478476276 0 0.00054878150640342237 0.017164610685780176 0 0.0015361963513338102 0.015948775739313158 0 0.0015128378631953405 0.017122161478476276 0 0.00054878150640342237 0.017164610685780176 0 0.0015128378631953405 0.017122161478476276 0 0.00089263922245840638 0.017892638005021021 0 0.0019896673329521833 0.018004715110591787 0 0.0015128378631953405 0.017122161478476276 0 0.00089263922245840638 0.017892638005021021 0 0.0019896673329521833 0.018004715110591787 0 0.00075174050030429992 0.018973172523853405 0 0.0016207715214833678 0.019324080263421618 0 0.0019896673329521833 0.018004715110591787 0 0.00089263922245840638 0.017892638005021021 0 0.00075174050030429992 0.018973172523853405 0 0.00034514850467317617 0.018243902022359156 0 0.00041247356266430047 0.018208049504389305 0 0.00030371069775380586 0.018228867180402144 0 -4.9525910170013201e-05 0.018494087701982034 0 0.00075174050030429992 0.018973172523853405 0 0.00030371069775380586 0.018228867180402144 0 0.00089263922245840638 0.017892638005021021 0 0.00075174050030429992 0.018973172523853405 0 0.00030371069775380586 0.018228867180402144 0 0.00028804334535141932 0.01779275111049558 0 -0.00011506493947207073 0.018014672115800448 0 0.00030371069775380586 0.018228867180402144 0 0.00089263922245840638 0.017892638005021021 0 0.00028804334535141932 0.01779275111049558 0 0.00054878150640342237 0.017164610685780176 0 0.00089263922245840638 0.017892638005021021 0 0.00028804334535141932 0.01779275111049558 0 0.00054878150640342237 0.017164610685780176 0 0.00028804334535141932 0.01779275111049558 0 -8.333210006813815e-05 0.017595303361562457 0 -0.0004168518430724989 0.01761777386090151 0 -8.333210006813815e-05 0.017595303361562457 0 -0.00048466502119564193 0.017943491441175963 0 -8.333210006813815e-05 0.017595303361562457 0 -0.00011506493947207073 0.018014672115800448 0 -0.00048466502119564193 0.017943491441175963 0 0.00028804334535141932 0.01779275111049558 0 -8.333210006813815e-05 0.017595303361562457 0 -0.00011506493947207073 0.018014672115800448 0 0.00030371069775380586 0.018228867180402144 0 -0.00011506493947207073 0.018014672115800448 0 -4.9525910170013201e-05 0.018494087701982034 0 -4.9525910170013201e-05 0.018494087701982034 0 -0.00031149666838358294 0.0184852425029166 0 -0.00016675365646139599 0.018557365497991401 0 -0.00017828645438073971 0.018164905925973349 0 -0.00028012178295831779 0.01827937938854806 0 -0.00011506493947207073 0.018014672115800448 0 -4.9525910170013201e-05 0.018494087701982034 0 -0.00031149666838358294 0.0184852425029166 0 -0.00048799067009615364 0.018085039799065974 0 -0.00052921773818661113 0.018010025225446018 0 -0.00052626975514996914 0.018001993026933581 0 -0.00048799067009615364 0.018085039799065974 0 -0.00052921773818661113 0.018010025225446018 0 -0.00048466502119564193 0.017943491441175963 0 -0.00011506493947207073 0.018014672115800448 0 -0.00048799067009615364 0.018085039799065974 0 -0.00048466502119564193 0.017943491441175963 0 -0.00052921773818661113 0.018010025225446018 0 -0.00048466502119564193 0.017943491441175963 0 -0.00057896189733754825 0.017985669891332597 0 -0.00048466502119564193 0.017943491441175963 0 -0.0006242255109748429 0.017997142228159776 0 -0.00057896189733754825 0.017985669891332597 0 -0.0004168518430724989 0.01761777386090151 0 -0.00048466502119564193 0.017943491441175963 0 -0.0006242255109748429 0.017997142228159776 0 -0.0002372949030757048 0.018621183907100543 0 -0.00023736349061832335 0.018729542572214528 0 -0.00034524903202726024 0.018711315990494994 0 -0.0002372949030757048 0.018621183907100543 0 -0.00013658259957236363 0.018683214834487098 0 -0.00023736349061832335 0.018729542572214528 0 -0.00031149666838358294 0.0184852425029166 0 -0.0002372949030757048 0.018621183907100543 0 -0.00036611730883577066 0.018584864059238732 0 -0.00031149666838358294 0.0184852425029166 0 -0.0002372949030757048 0.018621183907100543 0 -0.00016675365646139599 0.018557365497991401 0 -0.0002372949030757048 0.018621183907100543 0 -0.00016675365646139599 0.018557365497991401 0 -9.132581545314965e-05 0.018590400677887482 0 -4.9525910170013201e-05 0.018494087701982034 0 -0.00016675365646139599 0.018557365497991401 0 -9.132581545314965e-05 0.018590400677887482 0 -0.0002372949030757048 0.018621183907100543 0 -9.132581545314965e-05 0.018590400677887482 0 -0.00013658259957236363 0.018683214834487098 0 -9.132581545314965e-05 0.018590400677887482 0 -4.366742577431112e-05 0.018653145311235929 0 -0.00013658259957236363 0.018683214834487098 0 -9.132581545314965e-05 0.018590400677887482 0 -4.366742577431112e-05 0.018653145311235929 0 -1.6475890544950629e-05 0.018597572834916011 0 -4.9525910170013201e-05 0.018494087701982034 0 -9.132581545314965e-05 0.018590400677887482 0 -2.4333513159026e-05 0.018538346847028476 0 -9.132581545314965e-05 0.018590400677887482 0 -2.4333513159026e-05 0.018538346847028476 0 -1.6475890544950629e-05 0.018597572834916011 0 -2.4333513159026e-05 0.018538346847028476 0 3.2735410935846119e-05 0.018568748243600303 0 -1.6475890544950629e-05 0.018597572834916011 0 0.00041247356266430047 0.018208049504389305 0 0.00031210018826408081 0.01794910154907902 0 0.00031210018826408081 0.01794910154907902 0 0.00017437204872165985 0.018317046706815582 0 3.2735410935846119e-05 0.018568748243600303 0 -1.6475890544950629e-05 0.018597572834916011 0 6.5403877843651913e-06 0.01863962611009394 0 -4.366742577431112e-05 0.018653145311235929 0 -1.6475890544950629e-05 0.018597572834916011 0 6.5403877843651913e-06 0.01863962611009394 0 -4.366742577431112e-05 0.018653145311235929 0 6.5403877843651913e-06 0.01863962611009394 0 2.0697854301594543e-06 0.018659268806755884 0 0.00017437204872165985 0.018317046706815582 0 0.00013196602475379997 0.018438143132632912 0 3.0433813707327811e-05 0.018285834740460343 0 2.0697854301594543e-06 0.018659268806755884 0 0.00025947883992051682 0.018489507357365802 0 -7.5156568746317874e-05 0.018717573207257147 0 -0.00015959895376228342 0.018808129933841317 0 -4.8561911628532989e-05 0.018914381348027382 0 2.0697854301594543e-06 0.018659268806755884 0 -7.5156568746317874e-05 0.018717573207257147 0 -4.8561911628532989e-05 0.018914381348027382 0 -4.366742577431112e-05 0.018653145311235929 0 -7.5156568746317874e-05 0.018717573207257147 0 -0.00013658259957236363 0.018683214834487098 0 -4.366742577431112e-05 0.018653145311235929 0 2.0697854301594543e-06 0.018659268806755884 0 -7.5156568746317874e-05 0.018717573207257147 0 -0.00013658259957236363 0.018683214834487098 0 -0.00015959895376228342 0.018808129933841317 0 -0.00023736349061832335 0.018729542572214528 0 -7.5156568746317874e-05 0.018717573207257147 0 -0.00013658259957236363 0.018683214834487098 0 -0.00015959895376228342 0.018808129933841317 0 -0.00023311497564375297 0.018890267123922975 0 -0.00029534000503820385 0.018825665764010704 0 -0.00032011123377737185 0.019014175627090762 0 -0.00015959895376228342 0.018808129933841317 0 -0.00023311497564375297 0.018890267123922975 0 -0.00029534000503820385 0.018825665764010704 0 -0.00015959895376228342 0.018808129933841317 0 -0.00029534000503820385 0.018825665764010704 0 -0.00023736349061832335 0.018729542572214528 0 -0.00029534000503820385 0.018825665764010704 0 -0.00023736349061832335 0.018729542572214528 0 -0.00034524903202726024 0.018711315990494994 0 0.00078230849149412893 0.018105345834268812 0 0.00063634973868410361 0.017626316794496558 0 0.00011715104290533653 0.017823991060262254 0 0.00053456910162757055 0.018037952477807043 0 0.00034907637192207531 0.017968358416030922 0 0.00078230849149412893 0.018105345834268812 0 0.0004463546936148325 0.018102707853556204 0 0.00053315980170580174 0.018349430686871109 0 0.00078230849149412893 0.018105345834268812 0 0.0010198048541556601 0.017830483479409513 0 0.0009639319725736063 0.018285608513819794 0 0.00078230849149412893 0.018105345834268812 0 0.0010198048541556601 0.017830483479409513 0 0.00063634973868410361 0.017626316794496558 0 0.0010198048541556601 0.017830483479409513 0 0.00095599383042226278 0.017457249719541896 0 0.00063634973868410361 0.017626316794496558 0 0.0011967148362242064 0.017610064318947957 0 0.0010198048541556601 0.017830483479409513 0 0.00095599383042226278 0.017457249719541896 0 0.00062760092536526398 0.017323173742783148 0 0.00095599383042226278 0.017457249719541896 0 0.00063634973868410361 0.017626316794496558 0 0.00026415672110322426 0.017296254236945471 0 0.00062760092536526398 0.017323173742783148 0 0.00063634973868410361 0.017626316794496558 0 0.00026415672110322426 0.017296254236945471 0 0.00063634973868410361 0.017626316794496558 0 0.00011715104290533653 0.017823991060262254 0 -0.00012241002161972239 0.017270888242545607 0 0.00026415672110322426 0.017296254236945471 0 0.00011715104290533653 0.017823991060262254 0 0.00031210018826408081 0.01794910154907902 0 0.00034907637192207531 0.017968358416030922 0 -0.00012241002161972239 0.017270888242545607 0 -0.00050843803237249168 0.017572359361599409 0 0.00011715104290533653 0.017823991060262254 0 3.0433813707327811e-05 0.018285834740460343 0 0.0004463546936148325 0.018102707853556204 0 0.00025947883992051682 0.018489507357365802 0 9.2819633674121483e-05 0.017985255027028638 0 3.0433813707327811e-05 0.018285834740460343 0 0.0004463546936148325 0.018102707853556204 0 0.00053315980170580174 0.018349430686871109 0 0.00025947883992051682 0.018489507357365802 0 0.00048092352488681561 0.018606384571910266 0 0.0004463546936148325 0.018102707853556204 0 0.00053315980170580174 0.018349430686871109 0 0.00025947883992051682 0.018489507357365802 0 0.00025947883992051682 0.018489507357365802 0 0.00048092352488681561 0.018606384571910266 0 0.00022784645577854877 0.018904671594137383 0 2.0697854301594543e-06 0.018659268806755884 0 0.00025947883992051682 0.018489507357365802 0 0.00022784645577854877 0.018904671594137383 0 0.00074352697465844629 0.018450670102920532 0 0.0010026377144292224 0.018608706324728035 0 0.00065030161291937426 0.018890860807536498 0 0.00048092352488681561 0.018606384571910266 0 0.00074352697465844629 0.018450670102920532 0 0.00065030161291937426 0.018890860807536498 0 0.00053315980170580174 0.018349430686871109 0 0.00048092352488681561 0.018606384571910266 0 0.00074352697465844629 0.018450670102920532 0 0.00078230849149412893 0.018105345834268812 0 0.00053315980170580174 0.018349430686871109 0 0.00074352697465844629 0.018450670102920532 0 0.00074352697465844629 0.018450670102920532 0 0.0009639319725736063 0.018285608513819794 0 0.0010026377144292224 0.018608706324728035 0 0.0013128764468966398 0.018325454279279965 0 0.0010198048541556601 0.017830483479409513 0 0.0009639319725736063 0.018285608513819794 0 0.0013128764468966398 0.018325454279279965 0 0.0009639319725736063 0.018285608513819794 0 0.0010026377144292224 0.018608706324728035 0 0.00078230849149412893 0.018105345834268812 0 0.00074352697465844629 0.018450670102920532 0 0.0009639319725736063 0.018285608513819794 0 0.0010026377144292224 0.018608706324728035 0 0.00065030161291937426 0.018890860807536498 0 0.0011151596316529 0.018855465505398142 0 0.00067410626905354436 0.018444068330212501 0 0.00092641679683805247 0.017908019053877934 0 0.0010108952952287461 0.018867742577284442 0 0.00075800090132278203 0.018798562950428848 0 0.0010315046159480562 0.018797288165457587 0 0.00089123270273252901 0.018968647697522868 0 0.00080505933674658049 0.019055884231286211 0 0.0010108952952287461 0.018867742577284442 0 0.00083728770132353715 0.018949697731232808 0 0.00082182458489738494 0.019166981192865064 0 0.0010108952952287461 0.018867742577284442 0 0.00094787215786957678 0.01883250780627534 0 0.0010198514893564937 0.01884770801112292 0 0.0010108952952287461 0.018867742577284442 0 0.00083728770132353715 0.018949697731232808 0 0.00075800090132278203 0.018798562950428848 0 0.00083728770132353715 0.018949697731232808 0 0.00075800090132278203 0.018798562950428848 0 0.00056949766749227377 0.019083048240852867 0 0.00048092352488681561 0.018606384571910266 0 0.00065030161291937426 0.018890860807536498 0 0.00022784645577854877 0.018904671594137383 0 0.00067410626905354436 0.018444068330212501 0 0.00035104353954378188 0.018694040208097458 0 0.00041800620214515956 0.018846179102698837 0 0.00056949766749227377 0.019083048240852867 0 0.00023572657429465216 0.019077241377308776 0 0.00075800090132278203 0.018798562950428848 0 0.00041800620214515956 0.018846179102698837 0 0.00056949766749227377 0.019083048240852867 0 0.00056949766749227377 0.019083048240852867 0 0.00061059630510663986 0.019414277137202767 0 0.00082182458489738494 0.019166981192865064 0 0.00056949766749227377 0.019083048240852867 0 0.00023572657429465216 0.019077241377308776 0 0.00031909294375356351 0.019315925743996164 0 0.00058515224928708752 0.019274245094162451 0 0.00034197274986689873 0.019270079292576875 0 0.00056949766749227377 0.019083048240852867 0 0.00061059630510663986 0.019414277137202767 0 0.00031909294375356351 0.019315925743996164 0 0.00042859082930216049 0.019455718175791767 0 0.00055179196811470411 0.019440171393246431 0 0.00033682215331987049 0.019354592507482143 0 0.00042859082930216049 0.019455718175791767 0 0.00033682215331987049 0.019354592507482143 0 0.00037376629730893288 0.019475690958333437 0 0.00058515224928708752 0.019274245094162451 0 0.00058723818537643232 0.019273210027926688 0 0.0010435646973509759 0.018998797356244827 0 0.00094787215786957678 0.01883250780627534 0 0.00089896636235195656 0.019067692803184554 0 0.00073845853925084981 0.019072150129437217 0 0.00094787215786957678 0.01883250780627534 0 0.00089896636235195656 0.019067692803184554 0 0.00068895145001384936 0.019053933604837241 0 0.00073845853925084981 0.019072150129437217 0 0.00094787215786957678 0.01883250780627534 0 0.00058515224928708752 0.019274245094162451 0 0.00080505933674658049 0.019055884231286211 0 0.0010435646973509759 0.018998797356244827 0 0.0010385657921041232 0.018870361984557361 0 0.00094787215786957678 0.01883250780627534 0 0.0010435646973509759 0.018998797356244827 0 0.0010385657921041232 0.018870361984557361 0 0.0010536271024373641 0.018860024043470928 0 0.0010385657921041232 0.018870361984557361 0 0.00094787215786957678 0.01883250780627534 0 0.0010198514893564937 0.01884770801112292 0 0.00083728770132353715 0.018949697731232808 0 0.00056949766749227377 0.019083048240852867 0 0.00082182458489738494 0.019166981192865064 0 -0.00019278644254932284 0.018975605129373633 0 -0.00020296142883722621 0.01917249609254278 0 -0.00032011123377737185 0.019014175627090762 0 -0.00020296142883722621 0.01917249609254278 0 -0.00032011123377737185 0.019014175627090762 0 -0.0003926427910671583 0.019229534230098638 0 -0.00023311497564375297 0.018890267123922975 0 -0.00019278644254932284 0.018975605129373633 0 -0.00032011123377737185 0.019014175627090762 0 -0.00015959895376228342 0.018808129933841317 0 -0.00023311497564375297 0.018890267123922975 0 -0.00019278644254932284 0.018975605129373633 0 -0.00015959895376228342 0.018808129933841317 0 -0.00019278644254932284 0.018975605129373633 0 -4.8561911628532989e-05 0.018914381348027382 0 -6.0907964964029992e-05 0.018852920899317064 0 7.4358287508469162e-05 0.018812419899479089 0 -0.00019278644254932284 0.018975605129373633 0 -3.8785261529819254e-05 0.019068449634502858 0 -0.00020296142883722621 0.01917249609254278 0 -0.00019278644254932284 0.018975605129373633 0 -3.8785261529819254e-05 0.019068449634502858 0 0.0001044284056751693 0.018904667254404834 0 -3.8785261529819254e-05 0.019068449634502858 0 0.0001044284056751693 0.018904667254404834 0 0.00023572657429465216 0.019077241377308776 0 0.00035104353954378188 0.018694040208097458 0 7.4358287508469162e-05 0.018812419899479089 0 2.0697854301594543e-06 0.018659268806755884 0 0.00022784645577854877 0.018904671594137383 0 -4.8561911628532989e-05 0.018914381348027382 0 0.00041800620214515956 0.018846179102698837 0 0.0001044284056751693 0.018904667254404834 0 0.00023572657429465216 0.019077241377308776 0 0.00034197274986689873 0.019270079292576875 0 9.9505438009129878e-05 0.019220868499747832 0 0.00023572657429465216 0.019077241377308776 0 0.00031909294375356351 0.019315925743996164 0 4.5374177904377763e-05 0.019231643249711605 0 0.00033682215331987049 0.019354592507482143 0 8.0115017555829364e-05 0.019260250759810783 0 0.0002002959829783462 0.019484687226814432 0 0.00033682215331987049 0.019354592507482143 0 0.0002002959829783462 0.019484687226814432 0 0.00037376629730893288 0.019475690958333437 0 8.0115017555829364e-05 0.019260250759810783 0 -6.5894317916079465e-05 0.019415134392516024 0 0.0002002959829783462 0.019484687226814432 0 -3.8785261529819254e-05 0.019068449634502858 0 0.00023572657429465216 0.019077241377308776 0 4.5374177904377763e-05 0.019231643249711605 0 -3.8785261529819254e-05 0.019068449634502858 0 4.5374177904377763e-05 0.019231643249711605 0 -0.00020296142883722621 0.01917249609254278 0 9.9505438009129878e-05 0.019220868499747832 0 -3.454987576836974e-05 0.019185051716279149 0 8.0115017555829364e-05 0.019260250759810783 0 -6.5894317916079465e-05 0.019415134392516024 0 -0.00020296142883722621 0.01917249609254278 0 -6.5894317916079465e-05 0.019415134392516024 0 -0.00030512242851550364 0.019380374312704673 0 -0.00020296142883722621 0.01917249609254278 0 -6.5894317916079465e-05 0.019415134392516024 0 -0.00030512242851550364 0.019380374312704673 0 -0.00018255997093420622 0.01955062657148194 0 -0.00030512242851550364 0.019380374312704673 0 -0.00020296142883722621 0.01917249609254278 0 -0.0003926427910671583 0.019229534230098638 0 -0.00021858814816725277 0.019730626309873926 0 -0.00018255997093420622 0.01955062657148194 0 -0.00041531678924060315 0.019563806937034963 0 -0.00030512242851550364 0.019380374312704673 0 -0.00018255997093420622 0.01955062657148194 0 -0.00041531678924060315 0.019563806937034963 0 -0.00021858814816725277 0.019730626309873926 0 -0.00018255997093420622 0.01955062657148194 0 7.92356807896443e-05 0.019658875088998613 0 -6.5894317916079465e-05 0.019415134392516024 0 -0.00018255997093420622 0.01955062657148194 0 7.92356807896443e-05 0.019658875088998613 0 -0.00021891849878759621 0.019698851995879087 0 4.7005074187237741e-05 0.01964958999140071 0 -0.00025223090168083014 0.019693147328522752 0 0.00010288683358758231 0.019615839703795664 0 7.136768302036555e-06 0.019921946420156319 0 0.00010288683358758231 0.019615839703795664 0 0.00025507131439902515 0.01966790369610465 0 0.00023424490029605007 0.019842155088112139 0 -6.5894317916079465e-05 0.019415134392516024 0 7.92356807896443e-05 0.019658875088998613 0 0.0002002959829783462 0.019484687226814432 0 4.7005074187237741e-05 0.01964958999140071 0 0.00019125945891122377 0.019622214393696255 0 7.92356807896443e-05 0.019658875088998613 0 0.0002002959829783462 0.019484687226814432 0 0.00035906594160699452 0.019569047502665957 0 0.0002002959829783462 0.019484687226814432 0 0.00037376629730893288 0.019475690958333437 0 0.00035906594160699452 0.019569047502665957 0 0.00025507131439902515 0.01966790369610465 0 0.00035906594160699452 0.019569047502665957 0 0.00036670469944323958 0.019615823411183533 0 0.00010288683358758231 0.019615839703795664 0 0.00025507131439902515 0.01966790369610465 0 0.00035906594160699452 0.019569047502665957 0 0.00025507131439902515 0.01966790369610465 0 0.00034798273623621315 0.0197520738416333 0 0.00036670469944323958 0.019615823411183533 0 0.00034798273623621315 0.0197520738416333 0 0.00023424490029605007 0.019842155088112139 0 0.00043702420798594021 0.019933720292238659 0 0.00025507131439902515 0.01966790369610465 0 0.00034798273623621315 0.0197520738416333 0 0.00023424490029605007 0.019842155088112139 0 0.00023424490029605007 0.019842155088112139 0 0.00021172753116502536 0.020130965231431899 0 0.00043702420798594021 0.019933720292238659 0 0.00021172753116502536 0.020130965231431899 0 0.00043702420798594021 0.019933720292238659 0 0.00046321358768407266 0.020320997745959166 0 0.00023424490029605007 0.019842155088112139 0 0.00021172753116502536 0.020130965231431899 0 7.136768302036555e-06 0.019921946420156319 0 0.00010288683358758231 0.019615839703795664 0 0.00023424490029605007 0.019842155088112139 0 7.136768302036555e-06 0.019921946420156319 0 -0.00025223090168083014 0.019693147328522752 0 7.136768302036555e-06 0.019921946420156319 0 -0.00021911309506285687 0.020016524750760309 0 7.136768302036555e-06 0.019921946420156319 0 -9.0674187228432973e-05 0.020241136126766663 0 -0.00021911309506285687 0.020016524750760309 0 0.00021172753116502536 0.020130965231431899 0 7.136768302036555e-06 0.019921946420156319 0 -9.0674187228432973e-05 0.020241136126766663 0 -9.0674187228432973e-05 0.020241136126766663 0 -0.00032930305318024236 0.020225252923170046 0 -0.00021911309506285687 0.020016524750760309 0 -0.00032930305318024236 0.020225252923170046 0 -0.00021911309506285687 0.020016524750760309 0 -0.00043597740864087362 0.020029506610596274 0 -0.00025223090168083014 0.019693147328522752 0 -0.00021911309506285687 0.020016524750760309 0 -0.00043597740864087362 0.020029506610596274 0 0.00073881140848118998 0.019418237511712687 0 0.00063429123179264437 0.019602718471035781 0 0.00090263951809375388 0.019600453197761995 0 0.00087923678922086383 0.019254599421534555 0 0.00073881140848118998 0.019418237511712687 0 0.00090263951809375388 0.019600453197761995 0 0.00111590771680685 0.019305887817037772 0 0.00087923678922086383 0.019254599421534555 0 0.00090263951809375388 0.019600453197761995 0 0.00111590771680685 0.019305887817037772 0 0.00090263951809375388 0.019600453197761995 0 0.001301589283393387 0.019511569903732442 0 0.0010435646973509759 0.018998797356244827 0 0.00111590771680685 0.019305887817037772 0 0.00087923678922086383 0.019254599421534555 0 0.0010435646973509759 0.018998797356244827 0 0.00089896636235195656 0.019067692803184554 0 0.00087923678922086383 0.019254599421534555 0 0.00073845853925084981 0.019072150129437217 0 0.00089896636235195656 0.019067692803184554 0 0.00087923678922086383 0.019254599421534555 0 0.00066863424909972932 0.019049739275192639 0 0.00073845853925084981 0.019072150129437217 0 0.00064971438940197965 0.019239500488024704 0 0.00087923678922086383 0.019254599421534555 0 0.00064971438940197965 0.019239500488024704 0 0.00073881140848118998 0.019418237511712687 0 0.00073845853925084981 0.019072150129437217 0 0.00087923678922086383 0.019254599421534555 0 0.00064971438940197965 0.019239500488024704 0 0.00058515224928708752 0.019274245094162451 0 0.00051748012168518803 0.019361710013431913 0 0.00042859082930216049 0.019455718175791767 0 0.00055179196811470411 0.019440171393246431 0 0.0004503107601434214 0.019546462377248264 0 0.00066863424909972932 0.019049739275192639 0 0.00064971438940197965 0.019239500488024704 0 0.00049029305476868128 0.019307027488292376 0 0.00064971438940197965 0.019239500488024704 0 0.00049029305476868128 0.019307027488292376 0 0.00060642830957684582 0.019410060932235008 0 0.00064971438940197965 0.019239500488024704 0 0.00073881140848118998 0.019418237511712687 0 0.00060642830957684582 0.019410060932235008 0 0.00042859082930216049 0.019455718175791767 0 0.00037376629730893288 0.019475690958333437 0 0.0004503107601434214 0.019546462377248264 0 0.0004503107601434214 0.019546462377248264 0 0.00035906594160699452 0.019569047502665957 0 0.00036670469944323958 0.019615823411183533 0 0.00037376629730893288 0.019475690958333437 0 0.0004503107601434214 0.019546462377248264 0 0.00035906594160699452 0.019569047502665957 0 0.00051748012168518803 0.019361710013431913 0 0.00048022187456708761 0.019410129101045892 0 0.00049029305476868128 0.019307027488292376 0 0.00036670469944323958 0.019615823411183533 0 0.00051241908101605808 0.019540626247147926 0 0.00036670469944323958 0.019615823411183533 0 0.00051241908101605808 0.019540626247147926 0 0.00047560476172521884 0.01972322983455994 0 0.00051241908101605808 0.019540626247147926 0 0.00063429123179264437 0.019602718471035781 0 0.00047560476172521884 0.01972322983455994 0 0.00034798273623621315 0.0197520738416333 0 0.00036670469944323958 0.019615823411183533 0 0.00047560476172521884 0.01972322983455994 0 0.00073881140848118998 0.019418237511712687 0 0.00060642830957684582 0.019410060932235008 0 0.00063429123179264437 0.019602718471035781 0 0.00049029305476868128 0.019307027488292376 0 0.00051241908101605808 0.019540626247147926 0 0.00060642830957684582 0.019410060932235008 0 0.00051241908101605808 0.019540626247147926 0 0.00060642830957684582 0.019410060932235008 0 0.00063429123179264437 0.019602718471035781 0 0.00063429123179264437 0.019602718471035781 0 0.00066900834021887501 0.019828217484120274 0 0.00047560476172521884 0.01972322983455994 0 0.00063429123179264437 0.019602718471035781 0 0.00066900834021887501 0.019828217484120274 0 0.00090263951809375388 0.019600453197761995 0 0.00066900834021887501 0.019828217484120274 0 0.00047560476172521884 0.01972322983455994 0 0.00043702420798594021 0.019933720292238659 0 0.00034798273623621315 0.0197520738416333 0 0.00047560476172521884 0.01972322983455994 0 0.00043702420798594021 0.019933720292238659 0 0.00066900834021887501 0.019828217484120274 0 0.00043702420798594021 0.019933720292238659 0 0.00069770273889932142 0.020111015096546041 0 0.00066900834021887501 0.019828217484120274 0 0.00087946138986142689 0.019933389218245785 0 0.00069770273889932142 0.020111015096546041 0 0.00066900834021887501 0.019828217484120274 0 0.00087946138986142689 0.019933389218245785 0 0.00090263951809375388 0.019600453197761995 0 0.00087946138986142689 0.019933389218245785 0 0.00090263951809375388 0.019600453197761995 0 0.0011778619671913603 0.019887163455291929 0 0.00090263951809375388 0.019600453197761995 0 0.0011778619671913603 0.019887163455291929 0 0.001301589283393387 0.019511569903732442 0 0.00087946138986142689 0.019933389218245785 0 0.0011778619671913603 0.019887163455291929 0 0.00096873714070510805 0.020238469301692399 0 0.0011778619671913603 0.019887163455291929 0 0.0014102185346270965 0.019984805138692399 0 0.0015421620271381842 0.019723731781453247 0 0.0014102185346270965 0.019984805138692399 0 0.0015421620271381842 0.019723731781453247 0 0.001617999856331976 0.020088414558400065 0 0.0015421620271381842 0.019723731781453247 0 0.0015896708365375736 0.019409477198828861 0 0.0018291582780944836 0.019535251684275997 0 0.0015421620271381842 0.019723731781453247 0 0.001301589283393387 0.019511569903732442 0 0.0015896708365375736 0.019409477198828861 0 0.0011778619671913603 0.019887163455291929 0 0.0015421620271381842 0.019723731781453247 0 0.001301589283393387 0.019511569903732442 0 0.00111590771680685 0.019305887817037772 0 0.001301589283393387 0.019511569903732442 0 0.0014703283269484227 0.019151881509735711 0 0.001301589283393387 0.019511569903732442 0 0.0015896708365375736 0.019409477198828861 0 0.0014703283269484227 0.019151881509735711 0 0.0015896708365375736 0.019409477198828861 0 0.0014703283269484227 0.019151881509735711 0 0.0018440265798720479 0.01924064259333675 0 0.0012344450718886385 0.018934781440535075 0 0.001381355400783726 0.018938400162869688 0 0.0010435646973509759 0.018998797356244827 0 0.00111590771680685 0.019305887817037772 0 0.0014703283269484227 0.019151881509735711 0 0.0011326785314072941 0.018926025125130367 0 0.0012344450718886385 0.018934781440535075 0 0.0009009663058085354 0.018627289119096377 0 0.00094684922273970454 0.018685141283997342 0 0.00092165381494240309 0.018681941186999316 0 0.0009009663058085354 0.018627289119096377 0 0.00094684922273970454 0.018685141283997342 0 0.00099040455655953073 0.018643018646569066 0 0.0010536923793208783 0.018783143373968313 0 0.00099040455655953073 0.018643018646569066 0 0.00099045653814066313 0.018725149683992064 0 0.00094684922273970454 0.018685141283997342 0 0.00099040455655953073 0.018643018646569066 0 0.00099045653814066313 0.018725149683992064 0 0.0015896708365375736 0.019409477198828861 0 0.0018440265798720479 0.01924064259333675 0 0.0018291582780944836 0.019535251684275997 0 0.0018440265798720479 0.01924064259333675 0 0.0020592575171932579 0.019256232285345544 0 0.0020633723567383346 0.019237198221853363 0 0.001381355400783726 0.018938400162869688 0 0.0014935879504342014 0.018932550295813349 0 0.0009009663058085354 0.018627289119096377 0 0.00099040455655953073 0.018643018646569066 0 0.00079710311007639609 0.018577474836558965 0 0.0018440265798720479 0.01924064259333675 0 0.0018291582780944836 0.019535251684275997 0 0.0020592575171932579 0.019256232285345544 0 0.0018291582780944836 0.019535251684275997 0 0.0020759330939404642 0.019746809341600034 0 0.0020592575171932579 0.019256232285345544 0 0.0013553422649293084 0.018995079598718687 0 0.0015023473756052917 0.019114161046723768 0 0.0015421620271381842 0.019723731781453247 0 0.0018546981761635405 0.019928296634886714 0 0.001617999856331976 0.020088414558400065 0 0.0015421620271381842 0.019723731781453247 0 0.0018291582780944836 0.019535251684275997 0 0.0018546981761635405 0.019928296634886714 0 0.0013553422649293084 0.018995079598718687 0 0.00085844298911314919 0.018347023690686661 0 0.0018546981761635405 0.019928296634886714 0 0.0020759330939404642 0.019746809341600034 0 0.0020129760835873958 0.020171798327922808 0 0.0018291582780944836 0.019535251684275997 0 0.0018546981761635405 0.019928296634886714 0 0.0020759330939404642 0.019746809341600034 0 0.0017559042651282817 0.01872229754413457 0 0.0019553390370443333 0.018962568335532282 0 0.0020526158069924124 0.018631459831756538 0 0.0021630194602792457 0.018820570736351173 0 0.0019553390370443333 0.018962568335532282 0 0.0020526158069924124 0.018631459831756538 0 0.0017559042651282817 0.01872229754413457 0 0.0017768164319579801 0.018878732838532062 0 0.0019553390370443333 0.018962568335532282 0 0.0017768164319579801 0.018878732838532062 0 0.0019553390370443333 0.018962568335532282 0 0.0016752143288717722 0.018841316743643574 0 0.0019553390370443333 0.018962568335532282 0 0.0016752143288717722 0.018841316743643574 0 0.0020633723567383346 0.019237198221853363 0 0.0021630194602792457 0.018820570736351173 0 0.0019553390370443333 0.018962568335532282 0 0.0020592575171932579 0.019256232285345544 0 -0.00049017819425421771 0.0068290483537306445 0 -0.0004877114887553341 0.0068374552457927508 0 -0.00043693165984678972 0.0068495606613384894 0 -0.0004877114887553341 0.0068374552457927508 0 -0.00043693165984678972 0.0068495606613384894 0 -0.00045888572408997154 0.0068446212230779254 0 -0.00050043388632422256 0.0068330644995449946 0 -0.00043693165984678972 0.0068495606613384894 0 -0.00045888572408997154 0.0068446212230779254 0 0.0017559042651282817 0.01872229754413457 0 0.0017768164319579801 0.018878732838532062 0 0.0019125997167644092 0.019001171382590956 0 0.00067721517212512459 0.012896940264158647 0 0.00059727437070055225 0.012451335993210064 0 0.0019125997167644092 0.019001171382590956 0 0.0020712892068675223 0.018500613748442939 0 0.0016752143288717722 0.018841316743643574 0 0.0017768164319579801 0.018878732838532062 0 0.0019125997167644092 0.019001171382590956 0 0.0016752143288717722 0.018841316743643574 0 -0.0004877114887553341 0.0068374552457927508 0 -0.00049994523804209592 0.0068517463147661261 0 -0.00045888572408997154 0.0068446212230779254 0 0.0029402963340523229 0.018368160558926767 0 0.0019125997167644092 0.019001171382590956 0 0.0020712892068675223 0.018500613748442939 0 0.0029402963340523229 0.018368160558926767 0 0.0020712892068675223 0.018500613748442939 0 0.0022038363630193297 0.017988381275060167 0 0.00054421210853012301 0.011571980994647348 0 0.00059727437070055225 0.012451335993210064 0 0.0020712892068675223 0.018500613748442939 0 0.0017401092855518186 0.018178988920263678 0 0.0022038363630193297 0.017988381275060167 0 0.0020712892068675223 0.018500613748442939 0 0.0016752143288717722 0.018841316743643574 0 0.0017401092855518186 0.018178988920263678 0 0.0016752143288717722 0.018841316743643574 0 0.0017401092855518186 0.018178988920263678 0 0.00142630495260598 0.018350881787530613 0 0.0017401092855518186 0.018178988920263678 0 0.0018354084344871162 0.017519012104178291 0 0.0012274958023973759 0.017797125218718259 0 0.0018354084344871162 0.017519012104178291 0 0.0012274958023973759 0.017797125218718259 0 0.001484072172241862 0.017159628202600936 0 0.0017401092855518186 0.018178988920263678 0 0.0018354084344871162 0.017519012104178291 0 0.0022038363630193297 0.017988381275060167 0 0.0018354084344871162 0.017519012104178291 0 0.0026565720593351352 0.017375057878616838 0 0.0022038363630193297 0.017988381275060167 0 0.0029402963340523229 0.018368160558926767 0 0.0026565720593351352 0.017375057878616838 0 0.0022038363630193297 0.017988381275060167 0 0.0019553390370443333 0.018962568335532282 0 0.0020592575171932579 0.019256232285345544 0 0.0020633723567383346 0.019237198221853363 0 0.00079710311007639609 0.018577474836558965 0 0.0010490862086378447 0.018543488413756887 0 0.00092653776480939134 0.018553987531114962 0 0.00079710311007639609 0.018577474836558965 0 0.00092653776480939134 0.018553987531114962 0 0.00087373720333212921 0.018585953164672455 0 0.0009009663058085354 0.018627289119096377 0 0.00079710311007639609 0.018577474836558965 0 0.00087373720333212921 0.018585953164672455 0 0.0016752143288717722 0.018841316743643574 0 0.00079710311007639609 0.018577474836558965 0 0.0010490862086378447 0.018543488413756887 0 0.001586250958117942 0.018935984358343962 0 0.0014935879504342014 0.018932550295813349 0 0.0016752143288717722 0.018841316743643574 0 0.00142630495260598 0.018350881787530613 0 0.0010490862086378447 0.018543488413756887 0 0.00142630495260598 0.018350881787530613 0 0.0010490862086378447 0.018543488413756887 0 0.0012274958023973759 0.017797125218718259 0 0.0010490862086378447 0.018543488413756887 0 0.00086544160457825714 0.018593978898592531 0 0.00092653776480939134 0.018553987531114962 0 0.00062201284571954997 0.017566666435539776 0 0.00067434149928512384 0.017255743741288777 0 0.0017401092855518186 0.018178988920263678 0 0.00142630495260598 0.018350881787530613 0 0.0012274958023973759 0.017797125218718259 0 0.00086544160457825714 0.018593978898592531 0 0.00090154995015467745 0.018609573846978849 0 0.0008771339882262106 0.018662245273212103 0 0.0009009663058085354 0.018627289119096377 0 0.00090154995015467745 0.018609573846978849 0 0.00092165381494240309 0.018681941186999316 0 0.00086544160457825714 0.018593978898592531 0 0.00090154995015467745 0.018609573846978849 0 0.00092653776480939134 0.018553987531114962 0 0.00090154995015467745 0.018609573846978849 0 0.00092653776480939134 0.018553987531114962 0 0.00087373720333212921 0.018585953164672455 0 0.0009009663058085354 0.018627289119096377 0 0.00090154995015467745 0.018609573846978849 0 0.00087373720333212921 0.018585953164672455 0 0.0008985977610650994 0.01870157057708836 0 0.0008771339882262106 0.018662245273212103 0 0.00087040573176933251 0.018730762743750663 0 0.00092165381494240309 0.018681941186999316 0 0.0008985977610650994 0.01870157057708836 0 0.0008771339882262106 0.018662245273212103 0 0.00090154995015467745 0.018609573846978849 0 0.00092165381494240309 0.018681941186999316 0 0.0008771339882262106 0.018662245273212103 0 0.00092165381494240309 0.018681941186999316 0 0.00092062840073283932 0.018720643369408138 0 0.0008985977610650994 0.01870157057708836 0 0.0008771339882262106 0.018662245273212103 0 0.00081621648270202151 0.018667935172920966 0 0.00087040573176933251 0.018730762743750663 0 0.00086544160457825714 0.018593978898592531 0 0.0008771339882262106 0.018662245273212103 0 0.00081621648270202151 0.018667935172920966 0 0.00067434149928512384 0.017255743741288777 0 0.00087162581558927505 0.016234900112810861 0 0.00087162581558927505 0.016234900112810861 0 0.00048232678770716544 0.015416037239811903 0 -0.00066487486209105932 0.013013492492502348 0 0.0012045903429940836 0.012484139008809604 0 -5.1628470075819247e-05 0.011753653659463011 0 0.00040928116841966884 0.014175069065301046 0 -0.00066487486209105932 0.013013492492502348 0 0.0012045903429940836 0.012484139008809604 0 -0.00066487486209105932 0.013013492492502348 0 -0.00085173178228650965 0.01193251075656596 0 -5.1628470075819247e-05 0.011753653659463011 0 -0.00066487486209105932 0.013013492492502348 0 -0.0017315185159203792 0.011859233189151002 0 -0.00085173178228650965 0.01193251075656596 0 0.00048232678770716544 0.015416037239811903 0 0.0001501867713324012 0.01439981253402896 0 0.00087040573176933251 0.018730762743750663 0 0.00090853200282150722 0.018735022144824046 0 0.00091723808906652706 0.018766825341007327 0 0.00093032729204320472 0.018749320165049838 0 0.00090853200282150722 0.018735022144824046 0 0.00093134664837616699 0.018743612801260655 0 0.00093032729204320472 0.018749320165049838 0 0.00090853200282150722 0.018735022144824046 0 0.00091723808906652706 0.018766825341007327 0 0.00092062840073283932 0.018720643369408138 0 0.00090853200282150722 0.018735022144824046 0 0.00093134664837616699 0.018743612801260655 0 0.00092062840073283932 0.018720643369408138 0 0.0008985977610650994 0.01870157057708836 0 0.00090853200282150722 0.018735022144824046 0 0.0008985977610650994 0.01870157057708836 0 0.00087040573176933251 0.018730762743750663 0 0.00090853200282150722 0.018735022144824046 0 0.0018354084344871162 0.017519012104178291 0 0.0026565720593351352 0.017375057878616838 0 0.002222715490923375 0.016623280107697071 0 0.0031749533538509432 0.016476840191181952 0 0.0026565720593351352 0.017375057878616838 0 0.002222715490923375 0.016623280107697071 0 0.0018354084344871162 0.017519012104178291 0 0.0012892747507376055 0.016946295744982156 0 0.002222715490923375 0.016623280107697071 0 0.0010966558920253444 0.016494858581155153 0 0.00087162581558927505 0.016234900112810861 0 0.00087162581558927505 0.016234900112810861 0 0.0010546737851477241 0.01311719609734619 0 0.0012892747507376055 0.016946295744982156 0 0.002222715490923375 0.016623280107697071 0 0.00178127392938484 0.015842833739505412 0 0.002222715490923375 0.016623280107697071 0 0.00178127392938484 0.015842833739505412 0 0.0026210546268292667 0.015837341559182837 0 0.0031749533538509432 0.016476840191181952 0 0.002222715490923375 0.016623280107697071 0 0.0026210546268292667 0.015837341559182837 0 0.00178127392938484 0.015842833739505412 0 0.0026210546268292667 0.015837341559182837 0 0.0022774180211098767 0.014770998809752467 0 0.0036318039916580069 0.015476179416496517 0 0.0026210546268292667 0.015837341559182837 0 0.0022774180211098767 0.014770998809752467 0 0.0010546737851477241 0.01311719609734619 0 0.0016100663733265737 0.008373585328605819 0 0.0012045903429940836 0.012484139008809604 0 0.00078120900654991116 0.011095945646522684 0 -5.1628470075819247e-05 0.011753653659463011 0 0.0012045903429940836 0.012484139008809604 0 0.00078120900654991116 0.011095945646522684 0 0.0020116681617545289 0.010780299361451685 0 0.00078120900654991116 0.011095945646522684 0 0.0005586337101594189 0.01070590313679967 0 9.1790341175707329e-05 0.010896956958487955 0 0.0026036285914856415 0.0090987328685683596 0 0.0005593744071775655 0.01019005997535985 0 0.00079397659302319885 0.009861178908362694 0 0.0026036285914856415 0.0090987328685683596 0 0.00053747676746627939 0.010220166173653173 0 0.0013707633371175254 0.010451322786832905 0 0.0019486181402462428 0.010754108020239971 0 0.0011246143505659759 0.01161346007529147 0 0.00082460250114844123 0.010610357731651313 0 0.00053747676746627939 0.010220166173653173 0 0.0013707633371175254 0.010451322786832905 0 0.00078120900654991116 0.011095945646522684 0 0.0005586337101594189 0.01070590313679967 0 0.00082460250114844123 0.010610357731651313 0 0.00078120900654991116 0.011095945646522684 0 0.00082460250114844123 0.010610357731651313 0 0.0013707633371175254 0.010451322786832905 0 0.0005586337101594189 0.01070590313679967 0 0.00082460250114844123 0.010610357731651313 0 0.00053747676746627939 0.010220166173653173 0 0.00078120900654991116 0.011095945646522684 0 0.0013707633371175254 0.010451322786832905 0 0.0020116681617545289 0.010780299361451685 0 0.0016786302227207517 0.0084720432768885419 0 0.0016100663733265737 0.008373585328605819 0 0.0026036285914856415 0.0090987328685683596 0 0.0013707633371175254 0.010451322786832905 0 0.0020264414582776198 0.010781692706434889 0 0.0022970621977865943 0.0055916649042919561 0 0.0016100663733265737 0.008373585328605819 0 0.0010460054924130687 0.0026571516421318672 0 0.00092311751248190727 0.0020307293311870507 0 0.00027787204245065413 0.0033973759813046497 0 0.0010460054924130687 0.0026571516421318672 0 0.00096609028162403959 0.0032631692015431257 0 0.00027787204245065413 0.0033973759813046497 0 -0.0014687942510296613 0.011300546693546153 0 -0.00085173178228650965 0.01193251075656596 0 -0.00052410996779371347 0.011194456502031346 0 -0.00014837091205784387 0.013394199394670533 0 -1.3095916579369973e-05 0.013324841713529156 0 -2.1756565446222976e-05 0.013552190539465062 0 0.00021897874683061497 0.013644316126201723 0 0.00019084915682675139 0.014352710545232638 0 -0.00047552725807514047 0.014360957012156679 0 -0.00015389466461791597 0.013682039425020611 0 0.00016735464418493097 0.014027248003550272 0 0.00021897874683061497 0.013644316126201723 0 0.0001501867713324012 0.01439981253402896 0 0.00093844943774110004 0.01873844346548037 0 0.00093616769418058477 0.018735283096309022 0 0.00093445158094490816 0.018746548203583003 0 0.0001501867713324012 0.01439981253402896 0 0.00019084915682675139 0.014352710545232638 0 5.902589745220127e-05 0.014747089341379251 0 0.0001501867713324012 0.01439981253402896 0 0.00093032729204320472 0.018749320165049838 0 0.00093844943774110004 0.01873844346548037 0 0.00093445158094490816 0.018746548203583003 0 -0.0014687942510296613 0.011300546693546153 0 -0.0017315185159203792 0.011859233189151002 0 -0.00085173178228650965 0.01193251075656596 0 -0.00085173178228650965 0.01193251075656596 0 -5.1628470075819247e-05 0.011753653659463011 0 -0.00052410996779371347 0.011194456502031346 0 0.00053747676746627939 0.010220166173653173 0 -0.0014687942510296613 0.011300546693546153 0 -0.00052410996779371347 0.011194456502031346 0 0.00078120900654991116 0.011095945646522684 0 -5.1628470075819247e-05 0.011753653659463011 0 9.1790341175707329e-05 0.010896956958487955 0 -5.1628470075819247e-05 0.011753653659463011 0 -0.00052410996779371347 0.011194456502031346 0 9.1790341175707329e-05 0.010896956958487955 0 0.0005593744071775655 0.01019005997535985 0 -0.0013954393062678191 0.0112434660988652 0 -0.0003618749605571368 0.010253452579415512 0 0.00033580557149267106 0.011698598091241293 0 0.00035137228253468447 0.01199170193748718 0 0.0011246143505659759 0.01161346007529147 0 0.00021897874683061497 0.013644316126201723 0 0.00079397659302319885 0.009861178908362694 0 -0.0003618749605571368 0.010253452579415512 0 -0.0007986825079194154 0.0099614364996882272 0 0.0003687747098473867 0.0094079423183545396 0 0.00079397659302319885 0.009861178908362694 0 -0.00088666332044584639 0.0099303551769256149 0 0.0005586337101594189 0.01070590313679967 0 0.00053747676746627939 0.010220166173653173 0 9.1790341175707329e-05 0.010896956958487955 0 0.00053747676746627939 0.010220166173653173 0 -0.00052410996779371347 0.011194456502031346 0 9.1790341175707329e-05 0.010896956958487955 0 0.0005593744071775655 0.01019005997535985 0 0.00079397659302319885 0.009861178908362694 0 -0.0003618749605571368 0.010253452579415512 0 -0.0003618749605571368 0.010253452579415512 0 -0.0007986825079194154 0.0099614364996882272 0 -0.00089098217555705665 0.010158652928156623 0 0.00017565611632906162 0.012360949693061316 0 0.0002477573288613723 0.012410410470305394 0 0.00035137228253468447 0.01199170193748718 0 0.00011143533957582845 0.01289383830584922 0 0.0002477573288613723 0.012410410470305394 0 0.00011143533957582845 0.01289383830584922 0 -0.00041181214308414388 0.012577089862218366 0 -0.00032090102458634756 0.012385276491434319 0 0.00049838218117631268 0.012543936810371937 0 0.00035137228253468447 0.01199170193748718 0 0.0002477573288613723 0.012410410470305394 0 0.00021897874683061497 0.013644316126201723 0 0.0002477573288613723 0.012410410470305394 0 -0.00014837091205784387 0.013394199394670533 0 -0.00028095221710569443 0.01367263598314609 0 -2.1756565446222976e-05 0.013552190539465062 0 -0.0013954393062678191 0.0112434660988652 0 -0.0003618749605571368 0.010253452579415512 0 -0.00089052099301341217 0.010157482444209382 0 -0.00028095221710569443 0.01367263598314609 0 -2.1756565446222976e-05 0.013552190539465062 0 -6.011516646960579e-05 0.013716568763493421 0 0.00019084915682675139 0.014352710545232638 0 0.00030720202394087816 0.014648998326387629 0 -2.1756565446222976e-05 0.013552190539465062 0 -6.011516646960579e-05 0.013716568763493421 0 0.00033807397667620859 0.013704206764529084 0 -0.00015174493710904235 0.013844706282872835 0 0.00053872587609458532 0.013821876168683809 0 0.00059095498405968225 0.013878278583014736 0 0.00035436777944843409 0.014975554731685919 0 0.00024974003591012869 0.014492643441299068 0 0.00043145820840331703 0.014972696765769962 0 -0.00015174493710904235 0.013844706282872835 0 0.00059095498405968225 0.013878278583014736 0 0.00075517523533562346 0.014023035490598927 0 -1.3095916579369973e-05 0.013324841713529156 0 -2.1756565446222976e-05 0.013552190539465062 0 0.00033807397667620859 0.013704206764529084 0 0.00011143533957582845 0.01289383830584922 0 -3.5977411013035758e-05 0.014426318283114407 0 0.00011143533957582845 0.01289383830584922 0 0.00030720202394087816 0.014648998326387629 0 0.00030720202394087816 0.014648998326387629 0 0.00030625788784188236 0.014646116249219351 0 0.0010440767826162037 0.018802769717224353 0 0.00096108746535582983 0.018778626691183648 0 0.00093573425227091707 0.018423912062761821 0 -4.0117203378793111e-05 0.015692439046247335 0 0.00030577761654978299 0.015095687758942926 0 1.689218873105549e-05 0.014612873551171291 0 0.00035436777944843409 0.014975554731685919 0 0.00024974003591012869 0.014492643441299068 0 0.00099457311955876491 0.018803935672930282 0 0.00096108746535582983 0.018778626691183648 0 0.00097980413862832792 0.018791882283044275 0 0.00099457311955876491 0.018803935672930282 0 0.0010440767826162037 0.018802769717224353 0 0.00096108746535582983 0.018778626691183648 0 -4.0715249632779189e-05 0.015706805225195034 0 -4.0117203378793111e-05 0.015692439046247335 0 0.00093616769418058477 0.018735283096309022 0 0.00092901608629881701 0.018744981387220805 0 0.00093445158094490816 0.018746548203583003 0 0.00019084915682675139 0.014352710545232638 0 -4.0117203378793111e-05 0.015692439046247335 0 0.0012509420654868348 0.017722004577344134 0 0.00083168392094939254 0.016722348513884232 0 0.00096108746535582983 0.018778626691183648 0 0.0010180083269035777 0.018845084233871923 0 0.0010111818055708959 0.018812063924757216 0 0.00098901801484919992 0.018794010834704285 0 0.00096108746535582983 0.018778626691183648 0 0.0010111818055708959 0.018812063924757216 0 0.00098901801484919992 0.018794010834704285 0 0.0010111818055708959 0.018812063924757216 0 0.0010090519864180917 0.01880585889334279 0 0.00098901801484919992 0.018794010834704285 0 0.00096108746535582983 0.018778626691183648 0 0.00097980413862832792 0.018791882283044275 0 0.0010243171040489139 0.015799118526394478 0 0.00011593182250244454 0.015625150464397011 0 0.00067717657904646739 0.015329608904340385 0 0.00096108746535582983 0.018778626691183648 0 0.00093573425227091707 0.018423912062761821 0 0.00071193859292125177 0.018427654560503676 0 0.00053850121253480707 0.013822279199950329 0 0.00059095498405968225 0.013878278583014736 0 0.00067842696657470438 0.013816671192470712 0 0.00030720202394087816 0.014648998326387629 0 0.00030577761654978299 0.015095687758942926 0 0.00030577761654978299 0.015095687758942926 0 -3.5977411013035758e-05 0.014426318283114407 0 0.00059095498405968225 0.013878278583014736 0 0.00067842696657470438 0.013816671192470712 0 0.00075517523533562346 0.014023035490598927 0 1.3726178034690083e-05 0.015354562221769001 0 0.00011593182250244454 0.015625150464397011 0 0.00067717657904646739 0.015329608904340385 0 0.00030577761654978299 0.015095687758942926 0 0.00083168392094939254 0.016722348513884232 0 0.00083168392094939254 0.016722348513884232 0 0.00092641679683805247 0.017908019053877934 0 0.0011278637530765699 0.016627645033269484 0 0.00083168392094939254 0.016722348513884232 0 0.0010180083269035777 0.018845084233871923 0 0.0010302250781777697 0.01882842835462897 0 0.0010111818055708959 0.018812063924757216 0 0.0010180083269035777 0.018845084233871923 0 0.0010302250781777697 0.01882842835462897 0 0.0010315046159480562 0.018797288165457587 0 0.0014246153036467336 0.018684006579432474 0 0.001527286707865332 0.018821268530344024 0 0.0011151596316529 0.018855465505398142 0 0.0010302250781777697 0.01882842835462897 0 0.0010315046159480562 0.018797288165457587 0 0.0010289158876746946 0.018835205343320751 0 0.0010108952952287461 0.018867742577284442 0 0.0010315046159480562 0.018797288165457587 0 0.0010289158876746946 0.018835205343320751 0 0.0010108952952287461 0.018867742577284442 0 0.0010289158876746946 0.018835205343320751 0 0.0010273627657746479 0.018838841191479945 0 0.0010302250781777697 0.01882842835462897 0 0.0010289158876746946 0.018835205343320751 0 0.0010273627657746479 0.018838841191479945 0 0.0010273627657746479 0.018838841191479945 0 0.0010253108700538441 0.018822942046988953 0 0.0010370968222700491 0.018836398095076156 0 0.0010108952952287461 0.018867742577284442 0 0.0010273627657746479 0.018838841191479945 0 0.0010198514893564937 0.01884770801112292 0 0.0010302250781777697 0.01882842835462897 0 0.0010111818055708959 0.018812063924757216 0 0.0010253108700538441 0.018822942046988953 0 0.0010302250781777697 0.01882842835462897 0 0.0010273627657746479 0.018838841191479945 0 0.0010253108700538441 0.018822942046988953 0 0.0010111818055708959 0.018812063924757216 0 0.0010253108700538441 0.018822942046988953 0 0.0010090519864180917 0.01880585889334279 0 0.0010253108700538441 0.018822942046988953 0 0.0010090519864180917 0.01880585889334279 0 0.0010193142045637823 0.018807496750195517 0 0.0010253108700538441 0.018822942046988953 0 0.0010193142045637823 0.018807496750195517 0 0.0010370968222700491 0.018836398095076156 0 0.0010193142045637823 0.018807496750195517 0 0.0010370968222700491 0.018836398095076156 0 0.0010367360696404825 0.018819975399334801 0 0.0010273627657746479 0.018838841191479945 0 0.0010198514893564937 0.01884770801112292 0 0.0010370968222700491 0.018836398095076156 0 0.0010385657921041232 0.018870361984557361 0 0.0010370968222700491 0.018836398095076156 0 0.0010536271024373641 0.018860024043470928 0 0.0010385657921041232 0.018870361984557361 0 0.0010198514893564937 0.01884770801112292 0 0.0010370968222700491 0.018836398095076156 0 0.0010435646973509759 0.018998797356244827 0 0.0010536923793208783 0.018783143373968313 0 0.0010536271024373641 0.018860024043470928 0 0.0010536923793208783 0.018783143373968313 0 0.0010536271024373641 0.018860024043470928 0 0.0010367360696404825 0.018819975399334801 0 0.0010370968222700491 0.018836398095076156 0 0.0010536271024373641 0.018860024043470928 0 0.0010367360696404825 0.018819975399334801 0 0.0010536923793208783 0.018783143373968313 0 0.0010367360696404825 0.018819975399334801 0 0.0010066277065170011 0.018776677236172618 0 0.0010536923793208783 0.018783143373968313 0 0.0010066277065170011 0.018776677236172618 0 0.00099045653814066313 0.018725149683992064 0 0.0010193142045637823 0.018807496750195517 0 0.0010367360696404825 0.018819975399334801 0 0.0010066277065170011 0.018776677236172618 0 0.0010066277065170011 0.018776677236172618 0 0.000981221555888771 0.018760211944661483 0 0.00099045653814066313 0.018725149683992064 0 0.000981221555888771 0.018760211944661483 0 0.00099045653814066313 0.018725149683992064 0 0.00095502569515550409 0.018719642626416944 0 0.00094684922273970454 0.018685141283997342 0 0.00099045653814066313 0.018725149683992064 0 0.00095502569515550409 0.018719642626416944 0 0.00094684922273970454 0.018685141283997342 0 0.00092165381494240309 0.018681941186999316 0 0.00095502569515550409 0.018719642626416944 0 0.00092165381494240309 0.018681941186999316 0 0.00095502569515550409 0.018719642626416944 0 0.00094687743865947294 0.018739329627837496 0 0.00092165381494240309 0.018681941186999316 0 0.00092062840073283932 0.018720643369408138 0 0.00094687743865947294 0.018739329627837496 0 0.000981221555888771 0.018760211944661483 0 0.00095502569515550409 0.018719642626416944 0 0.00094687743865947294 0.018739329627837496 0 0.00094687743865947294 0.018739329627837496 0 0.00094328291113019444 0.018760322208671396 0 0.00097632107642621013 0.018773923019125432 0 0.000981221555888771 0.018760211944661483 0 0.00094687743865947294 0.018739329627837496 0 0.00097632107642621013 0.018773923019125432 0 0.00093134664837616699 0.018743612801260655 0 0.00094687743865947294 0.018739329627837496 0 0.00094328291113019444 0.018760322208671396 0 0.00092062840073283932 0.018720643369408138 0 0.00093134664837616699 0.018743612801260655 0 0.00094687743865947294 0.018739329627837496 0 0.00093032729204320472 0.018749320165049838 0 0.00093134664837616699 0.018743612801260655 0 0.00094328291113019444 0.018760322208671396 0 0.00093032729204320472 0.018749320165049838 0 0.00093445158094490816 0.018746548203583003 0 0.00094328291113019444 0.018760322208671396 0 0.00092901608629881701 0.018744981387220805 0 0.00093445158094490816 0.018746548203583003 0 0.00094328291113019444 0.018760322208671396 0 0.00099457311955876491 0.018803935672930282 0 0.00094328291113019444 0.018760322208671396 0 0.00097632107642621013 0.018773923019125432 0 0.00099457311955876491 0.018803935672930282 0 0.00097215512134806012 0.018814057634042026 0 0.00094328291113019444 0.018760322208671396 0 -4.0117203378793111e-05 0.015692439046247335 0 7.3048862940760525e-05 0.016005739416994645 0 0.00099457311955876491 0.018803935672930282 0 0.00097632107642621013 0.018773923019125432 0 0.00097980413862832792 0.018791882283044275 0 0.00097632107642621013 0.018773923019125432 0 0.00097980413862832792 0.018791882283044275 0 0.00099350689152128834 0.018788986970442997 0 0.00098901801484919992 0.018794010834704285 0 0.00097980413862832792 0.018791882283044275 0 0.00099350689152128834 0.018788986970442997 0 0.00098901801484919992 0.018794010834704285 0 0.0010090519864180917 0.01880585889334279 0 0.00099350689152128834 0.018788986970442997 0 0.0010090519864180917 0.01880585889334279 0 0.0010193142045637823 0.018807496750195517 0 0.00099350689152128834 0.018788986970442997 0 0.0010193142045637823 0.018807496750195517 0 0.0010066277065170011 0.018776677236172618 0 0.00099350689152128834 0.018788986970442997 0 0.0010066277065170011 0.018776677236172618 0 0.000981221555888771 0.018760211944661483 0 0.00099350689152128834 0.018788986970442997 0 0.000981221555888771 0.018760211944661483 0 0.00097632107642621013 0.018773923019125432 0 0.00099350689152128834 0.018788986970442997 0 2.6062298728561428e-05 0.034963729166093631 0 1.1751393087422002e-07 0.035000099754303099 0 6.885425551080561e-09 0.034999895616420001 0 2.6062298728561428e-05 0.034963729166093631 0 4.6025126411387338e-06 0.03485841345024502 0 8.8079351007161069e-06 0.034943434155615169 0 -9.2349375468573069e-05 0.034262548602667073 0 -8.9831527530356218e-05 0.034516777440344606 0 2.6062298728561428e-05 0.034963729166093631 0 5.5527841790658249e-05 0.034954858385596629 0 4.6025126411387338e-06 0.03485841345024502 0 0.00026555288404865921 0.034511133471081555 0 -9.1448097706296297e-05 0.034041537476213565 0 4.6025126411387338e-06 0.03485841345024502 0 0.00026555288404865921 0.034511133471081555 0 -9.1448097706296297e-05 0.034041537476213565 0 0.00055678474707934983 0.03375760036536006 0 2.6062298728561428e-05 0.034963729166093631 0 5.5527841790658249e-05 0.034954858385596629 0 4.530507661346421e-05 0.03492188122565866 0 5.5527841790658249e-05 0.034954858385596629 0 0.0001662210060738798 0.034863779194969059 0 4.530507661346421e-05 0.03492188122565866 0 -3.3629248778469612e-05 0.033100691170433551 0 0.00051163628998850727 0.033014436395701521 0 0.00055678474707934983 0.03375760036536006 0 -9.2349375468573069e-05 0.034262548602667073 0 -0.00010227765669215721 0.033500663688462384 0 -9.1448097706296297e-05 0.034041537476213565 0 -3.3629248778469612e-05 0.033100691170433551 0 0.00055678474707934983 0.03375760036536006 0 0.0001662210060738798 0.034863779194969059 0 0.00011444787287456883 0.034757211942293836 0 0.00025472932856497176 0.03460805736035865 0 -0.00010227765669215721 0.033500663688462384 0 -6.9880737794792574e-05 0.031296353812743129 0 -3.3629248778469612e-05 0.033100691170433551 0 0.00032081845706346233 0.032624240590902263 0 9.1349657874102304e-05 0.032168480446166561 0 -3.3629248778469612e-05 0.033100691170433551 0 0.00032081845706346233 0.032624240590902263 0 0.00051163628998850727 0.033014436395701521 0 0.0001662210060738798 0.034863779194969059 0 0.00011444787287456883 0.034757211942293836 0 4.530507661346421e-05 0.03492188122565866 0 4.530507661346421e-05 0.03492188122565866 0 1.1751393087422002e-07 0.035000099754303099 0 1.9794447135896079e-05 0.034739452627221355 0 0.00011444787287456883 0.034757211942293836 0 4.530507661346421e-05 0.03492188122565866 0 1.9794447135896079e-05 0.034739452627221355 0 2.6062298728561428e-05 0.034963729166093631 0 4.530507661346421e-05 0.03492188122565866 0 1.1751393087422002e-07 0.035000099754303099 0 1.1751393087422002e-07 0.035000099754303099 0 1.9794447135896079e-05 0.034739452627221355 0 -0.00019700294700919279 0.03426272935759752 0 1.1751393087422002e-07 0.035000099754303099 0 -1.4257227232875153e-06 0.034996407511811378 0 -0.00019700294700919279 0.03426272935759752 0 1.9794447135896079e-05 0.034739452627221355 0 -0.00019700294700919279 0.03426272935759752 0 0.00011754122455025429 0.034592798967729398 0 -1.4257227232875153e-06 0.034996407511811378 0 -0.00019700294700919279 0.03426272935759752 0 2.5573373080213959e-06 0.030860906175706564 0 -0.00019700294700919279 0.03426272935759752 0 0.00060256661524225267 0.033542068311344722 0 0.00029418948663767789 0.034179914708300715 0 -0.00019700294700919279 0.03426272935759752 0 2.5573373080213959e-06 0.030860906175706564 0 0.00060256661524225267 0.033542068311344722 0 1.0321281236901242e-06 0.030851189021637276 0 0.00033576737249067025 0.029520237849843204 0 -0.00013660495159284494 0.029660848769751513 0 1.7884502530673887e-07 0.030854727936055541 0 3.5624161392766159e-05 0.031370942982795219 0 0.00060256661524225267 0.033542068311344722 0 0.00029418948663767789 0.034179914708300715 0 0.00058170471179234441 0.03468006658777114 0 3.5624161392766159e-05 0.031370942982795219 0 -6.9880737794792574e-05 0.031296353812743129 0 0.00033576737249067025 0.029520237849843204 0 0.00034394829116113964 0.029055856662903619 0 0.00013054154982584983 0.02932401245141155 0 0.00034394829116113964 0.029055856662903619 0 0.00012143596255898927 0.029049743575726841 0 0.00013054154982584983 0.02932401245141155 0 -0.00019700294700919279 0.03426272935759752 0 0.00029418948663767789 0.034179914708300715 0 0.00011754122455025429 0.034592798967729398 0 0.00029418948663767789 0.034179914708300715 0 0.00011754122455025429 0.034592798967729398 0 0.00058170471179234441 0.03468006658777114 0 1.8283844077243885e-05 0.031565016913717242 0 -6.9880737794792574e-05 0.031296353812743129 0 0.00011444787287456883 0.034757211942293836 0 0.00011754122455025429 0.034592798967729398 0 0.00025472932856497176 0.03460805736035865 0 0.00011444787287456883 0.034757211942293836 0 1.9794447135896079e-05 0.034739452627221355 0 0.00011754122455025429 0.034592798967729398 0 9.1349657874102304e-05 0.032168480446166561 0 0.00041672037051434602 0.032306150015467799 0 0.00052494478495733335 0.032167498686504592 0 -6.9880737794792574e-05 0.031296353812743129 0 0.00012336789957449106 0.029924697296827858 0 0.00032081845706346233 0.032624240590902263 0 9.1349657874102304e-05 0.032168480446166561 0 0.00041672037051434602 0.032306150015467799 0 0.00075593573234237349 0.032268361881622895 0 0.00055777801387113578 0.032192666742430556 0 0.00086774719854370241 0.032235969093963097 0 0.00012336789957449106 0.029924697296827858 0 0.00065461290384005721 0.029172216150468267 0 0.00059843055392041979 0.032534683621002848 0 0.00075593573234237349 0.032268361881622895 0 0.00055777801387113578 0.032192666742430556 0 0.00032081845706346233 0.032624240590902263 0 0.00041672037051434602 0.032306150015467799 0 0.00059843055392041979 0.032534683621002848 0 0.00041672037051434602 0.032306150015467799 0 0.00059843055392041979 0.032534683621002848 0 0.00055777801387113578 0.032192666742430556 0 9.9013809192302163e-05 0.029979953916967512 0 0.00012336789957449106 0.029924697296827858 0 0.00075593573234237349 0.032268361881622895 0 0.00086774719854370241 0.032235969093963097 0 0.00082956935504628453 0.032253376199757815 0 0.0010531388842333859 0.025057641584397973 0 0.0013625307035384023 0.025672777521171104 0 0.00056516409268368207 0.025575310627378833 0 0.00012336789957449106 0.029924697296827858 0 0.00057524466256745222 0.02833863844165738 0 0.0018249743935836937 0.025076908049353652 0 0.0010531388842333859 0.025057641584397973 0 0.0013625307035384023 0.025672777521171104 0 0.00012143596255898927 0.029049743575726841 0 -0.00013497255760324531 0.029434812291547954 0 0.00013054154982584983 0.02932401245141155 0 0.00033576737249067025 0.029520237849843204 0 0.00013054154982584983 0.02932401245141155 0 -0.00013660495159284494 0.029660848769751513 0 -0.00013497255760324531 0.029434812291547954 0 0.00013054154982584983 0.02932401245141155 0 -0.00013660495159284494 0.029660848769751513 0 0.0013625307035384023 0.025672777521171104 0 0.00093078033027096886 0.026351819756689258 0 0.00056516409268368207 0.025575310627378833 0 0.00057524466256745222 0.02833863844165738 0 0.00031023863110376577 0.027953914104449969 0 -0.00013497255760324531 0.029434812291547954 0 -0.00013660495159284494 0.029660848769751513 0 -1.1939293551664561e-05 0.029331192030682175 0 -1.1939293551664561e-05 0.029331192030682175 0 -1.0482705658278363e-06 0.029253478427607657 0 1.0647607527205909e-06 0.027653891520136056 0 -0.00013660495159284494 0.029660848769751513 0 -1.1939293551664561e-05 0.029331192030682175 0 -1.0482705658278363e-06 0.029253478427607657 0 1.0321281236901242e-06 0.030851189021637276 0 -0.00013660495159284494 0.029660848769751513 0 -1.0482705658278363e-06 0.029253478427607657 0 -0.00017190628639120807 0.026123563820639958 0 1.5596696837836199e-06 0.027648830522478001 0 -5.0652783652706802e-05 0.025976263682920529 0 -0.00017190628639120807 0.026123563820639958 0 1.5596696837836199e-06 0.027648830522478001 0 -1.3848739460912763e-06 0.025821898647076954 0 0.00093078033027096886 0.026351819756689258 0 1.5596696837836199e-06 0.027648830522478001 0 -5.0652783652706802e-05 0.025976263682920529 0 0.00031023863110376577 0.027953914104449969 0 6.0975229217659718e-07 0.027652867553392441 0 0.00093078033027096886 0.026351819756689258 0 -5.0652783652706802e-05 0.025976263682920529 0 0.00056516409268368207 0.025575310627378833 0 -0.00017190628639120807 0.026123563820639958 0 -5.0652783652706802e-05 0.025976263682920529 0 -0.0003373433090379423 0.025604705145003202 0 -5.0652783652706802e-05 0.025976263682920529 0 -3.6441126882148904e-05 0.025461924849361502 0 0.00056516409268368207 0.025575310627378833 0 -5.0652783652706802e-05 0.025976263682920529 0 -3.6441126882148904e-05 0.025461924849361502 0 -0.00036078227830961887 0.025580048090397739 0 0.0010531388842333859 0.025057641584397973 0 0.00056516409268368207 0.025575310627378833 0 0.00027984161651646014 0.025085609349078331 0 -3.6441126882148904e-05 0.025461924849361502 0 0.00056516409268368207 0.025575310627378833 0 0.00027984161651646014 0.025085609349078331 0 0.00086774719854370241 0.032235969093963097 0 0.00083554564642011355 0.032229941291950573 0 0.00084535876484549764 0.032225019959386564 0 0.00065461290384005721 0.029172216150468267 0 0.00065776804364188739 0.028624782047628777 0 0.00083554564642011355 0.032229941291950573 0 0.00081944255923976895 0.032212583822238322 0 0.00084535876484549764 0.032225019959386564 0 0.00083554564642011355 0.032229941291950573 0 0.00081944255923976895 0.032212583822238322 0 0.00071398677835323463 0.032183900788955347 0 0.00065776804364188739 0.028624782047628777 0 0.00080790141146710028 0.028064187680576457 0 0.00083554564642011355 0.032229941291950573 0 0.00071398677835323463 0.032183900788955347 0 0.00066573714061966144 0.032186053045580421 0 0.00081944255923976895 0.032212583822238322 0 0.00071398677835323463 0.032183900788955347 0 0.0008478060158802215 0.032220286196671437 0 -3.6441126882148904e-05 0.025461924849361502 0 0.00027984161651646014 0.025085609349078331 0 -0.0003272480339811781 0.025157412730272534 0 0.00071398677835323463 0.032183900788955347 0 0.00068679417919967963 0.031668144394662943 0 0.0010156973877179323 0.031653919557213778 0 0.00088154439547701773 0.032201751650702305 0 0.00094177070820419091 0.032199214105023036 0 0.00068679417919967963 0.031668144394662943 0 0.00087997404281702125 0.031436669044248515 0 0.00082670258456007549 0.031194261165306887 0 0.00058969473813576712 0.030353426355453274 0 0.00057758694588126019 0.030788797117731692 0 0.00068679417919967963 0.031668144394662943 0 0.00087997404281702125 0.031436669044248515 0 0.0010156973877179323 0.031653919557213778 0 0.00088200188024874357 0.030551590251591088 0 0.00082670258456007549 0.031194261165306887 0 0.00091183999875535718 0.0311991380133925 0 0.00087997404281702125 0.031436669044248515 0 0.00099701226625524227 0.031344301858324632 0 0.00091758095802671393 0.03129472716773965 0 0.00087997404281702125 0.031436669044248515 0 0.00082670258456007549 0.031194261165306887 0 0.00091758095802671393 0.03129472716773965 0 0.00099701226625524227 0.031344301858324632 0 0.0010156973877179323 0.031653919557213778 0 0.0011950732264129889 0.031256659511706843 0 0.00094177070820419091 0.032199214105023036 0 0.00071920315953694872 0.032797912930425159 0 0.00087997404281702125 0.031436669044248515 0 0.00099701226625524227 0.031344301858324632 0 0.0010156973877179323 0.031653919557213778 0 0.0008478060158802215 0.032220286196671437 0 0.00084535876484549764 0.032225019959386564 0 0.00082956935504628453 0.032253376199757815 0 0.00081944255923976895 0.032212583822238322 0 0.0008478060158802215 0.032220286196671437 0 0.00084535876484549764 0.032225019959386564 0 0.00086774719854370241 0.032235969093963097 0 0.00084535876484549764 0.032225019959386564 0 0.00082956935504628453 0.032253376199757815 0 0.00076277133946793844 0.032547018361672835 0 0.00078745791375421301 0.032686082823894208 0 0.00059843055392041979 0.032534683621002848 0 0.00075593573234237349 0.032268361881622895 0 0.0011197468277550653 0.033054822530112757 0 0.00059843055392041979 0.032534683621002848 0 0.0011197468277550653 0.033054822530112757 0 0.00051163628998850727 0.033014436395701521 0 0.00032081845706346233 0.032624240590902263 0 0.00059843055392041979 0.032534683621002848 0 0.00051163628998850727 0.033014436395701521 0 0.0011197468277550653 0.033054822530112757 0 0.00051163628998850727 0.033014436395701521 0 0.00055678474707934983 0.03375760036536006 0 0.0008478060158802215 0.032220286196671437 0 0.00082956935504628453 0.032253376199757815 0 0.00083483055872969104 0.03226529023468315 0 0.0011197468277550653 0.033054822530112757 0 0.001373221524178865 0.033814380859381848 0 0.00055678474707934983 0.03375760036536006 0 0.00078745791375421301 0.032686082823894208 0 0.00071920315953694872 0.032797912930425159 0 0.00071920315953694872 0.032797912930425159 0 0.00032872098557905848 0.03410293702329989 0 0.001373221524178865 0.033814380859381848 0 0.00055678474707934983 0.03375760036536006 0 0.00074390925166740822 0.03459947783656963 0 0.00026555288404865921 0.034511133471081555 0 0.00055678474707934983 0.03375760036536006 0 0.00074390925166740822 0.03459947783656963 0 0.00028694071085022429 0.034430830459414558 0 0.00029185041337159468 0.034436840650279639 0 0.00027824728080340317 0.034432308423142641 0 0.0010343771042448317 0.031013897518537271 0 0.00097255666582143517 0.031121947668284765 0 0.00086159724197707116 0.031019270907860916 0 0.0011950732264129889 0.031256659511706843 0 0.0010343771042448317 0.031013897518537271 0 0.00097255666582143517 0.031121947668284765 0 0.00071920315953694872 0.032797912930425159 0 0.00054357498267932746 0.032545965371762291 0 0.00086159724197707116 0.031019270907860916 0 0.00088847026153494174 0.031152454925352405 0 0.00091183999875535718 0.0311991380133925 0 0.00097255666582143517 0.031121947668284765 0 0.00086159724197707116 0.031019270907860916 0 0.00088847026153494174 0.031152454925352405 0 0.00019220036684763385 0.029254281967057042 0 0.00030138797252447693 0.028182325434341172 0 -0.001562334384920224 0.026342420538490185 0 -0.0010243395166230627 0.024908587289279114 0 -0.00081749797426364582 0.025536882284034387 0 0.00088847026153494174 0.031152454925352405 0 0.00082670258456007549 0.031194261165306887 0 0.00095531603105023627 0.031218237147754208 0 0.00097255666582143517 0.031121947668284765 0 0.00088847026153494174 0.031152454925352405 0 0.00095531603105023627 0.031218237147754208 0 0.00088847026153494174 0.031152454925352405 0 0.00082670258456007549 0.031194261165306887 0 0.00091183999875535718 0.0311991380133925 0 0.00082670258456007549 0.031194261165306887 0 0.00091758095802671393 0.03129472716773965 0 0.00095531603105023627 0.031218237147754208 0 0.00099701226625524227 0.031344301858324632 0 0.00091758095802671393 0.03129472716773965 0 0.00095531603105023627 0.031218237147754208 0 0.0011950732264129889 0.031256659511706843 0 0.00097255666582143517 0.031121947668284765 0 0.00095531603105023627 0.031218237147754208 0 0.00099701226625524227 0.031344301858324632 0 0.0011950732264129889 0.031256659511706843 0 0.00095531603105023627 0.031218237147754208 0 0.0001211005010453799 0.025385663761213016 0 0.00061094919790712771 0.024877785143256559 0 0.0010204856816964309 0.024580966472987766 0 -5.1227122092231307e-05 0.025475447299872393 0 0.00058245402003872539 0.025394776771564997 0 0.00083199272015224051 0.024734316144494603 0 -0.00068649830053387764 0.02385675254562207 0 -0.0001701928245930715 0.022304549435026542 0 0.0001211005010453799 0.025385663761213016 0 -6.5546147946750751e-06 0.024970706439741527 0 -0.00042174648287378227 0.025347027516579319 0 0.0001211005010453799 0.025385663761213016 0 0.00061094919790712771 0.024877785143256559 0 -6.5546147946750751e-06 0.024970706439741527 0 -5.1227122092231307e-05 0.025475447299872393 0 0.00058245402003872539 0.025394776771564997 0 0.00033318442741446806 0.025872764100793137 0 0.00061094919790712771 0.024877785143256559 0 0.00018201890779734483 0.024649782953114124 0 0.0004522408100748874 0.024443246107781723 0 0.00061094919790712771 0.024877785143256559 0 0.00076346246711311763 0.02448667314779706 0 0.0004522408100748874 0.024443246107781723 0 0.00061094919790712771 0.024877785143256559 0 0.00018201890779734483 0.024649782953114124 0 -6.5546147946750751e-06 0.024970706439741527 0 0.00018201890779734483 0.024649782953114124 0 -6.5546147946750751e-06 0.024970706439741527 0 -0.00016169629780857174 0.024637606895488308 0 -0.00016169629780857174 0.024637606895488308 0 -0.00049921179933564721 0.024647875194964718 0 -0.00040857444589663069 0.024944900751069615 0 -0.00049921179933564721 0.024647875194964718 0 -0.00040857444589663069 0.024944900751069615 0 -0.00065877277025052467 0.025093001440697333 0 -6.5546147946750751e-06 0.024970706439741527 0 -0.00016169629780857174 0.024637606895488308 0 -0.00040857444589663069 0.024944900751069615 0 -0.00049921179933564721 0.024647875194964718 0 -0.0010243395166230627 0.024908587289279114 0 -0.00065877277025052467 0.025093001440697333 0 -0.0010243395166230627 0.024908587289279114 0 -0.00065877277025052467 0.025093001440697333 0 -0.00081749797426364582 0.025536882284034387 0 -0.00065877277025052467 0.025093001440697333 0 -0.00042174648287378227 0.025347027516579319 0 -0.00081749797426364582 0.025536882284034387 0 -6.5546147946750751e-06 0.024970706439741527 0 -0.00040857444589663069 0.024944900751069615 0 -0.00042174648287378227 0.025347027516579319 0 -0.00040857444589663069 0.024944900751069615 0 -0.00065877277025052467 0.025093001440697333 0 -0.00042174648287378227 0.025347027516579319 0 0.0001211005010453799 0.025385663761213016 0 -0.00042174648287378227 0.025347027516579319 0 -0.00090055328114825594 0.026191745345080553 0 -0.00090055328114825594 0.026191745345080553 0 -5.0954047719618303e-05 0.026265883490428642 0 -0.00058705216508387009 0.02671345953030866 0 -5.1227122092231307e-05 0.025475447299872393 0 -0.00090055328114825594 0.026191745345080553 0 -5.0954047719618303e-05 0.026265883490428642 0 -0.00068649830053387764 0.02385675254562207 0 -0.00097353248238929565 0.024427599237524095 0 -0.00042174648287378227 0.025347027516579319 0 -0.00081749797426364582 0.025536882284034387 0 -0.00090055328114825594 0.026191745345080553 0 -0.001562334384920224 0.026342420538490185 0 -0.00081749797426364582 0.025536882284034387 0 -0.00090055328114825594 0.026191745345080553 0 -5.0954047719618303e-05 0.026265883490428642 0 0.00033318442741446806 0.025872764100793137 0 0.00084079144561161035 0.026240119299945578 0 -5.1227122092231307e-05 0.025475447299872393 0 -5.0954047719618303e-05 0.026265883490428642 0 0.00033318442741446806 0.025872764100793137 0 -0.00077277948186338743 0.019470440568078385 0 -0.00083432889906330738 0.019475697709566153 0 -0.00085249242613047178 0.019573731047661906 0 0.00058245402003872539 0.025394776771564997 0 0.00033318442741446806 0.025872764100793137 0 0.00084079144561161035 0.026240119299945578 0 -0.00061679087098027161 0.020279717381089812 0 -0.00073139193785956948 0.019978455193522576 0 -0.00083432889906330738 0.019475697709566153 0 -0.00085249242613047178 0.019573731047661906 0 -0.00085892991169177169 0.019464143710407712 0 -0.00083800809687261204 0.019510253089587232 0 -0.00080730704527371918 0.019528479905265725 0 -0.00085892991169177169 0.019464143710407712 0 -0.00083800809687261204 0.019510253089587232 0 -0.00085892991169177169 0.019464143710407712 0 -0.00086199841180073305 0.01947967711348491 0 -0.00080730704527371918 0.019528479905265725 0 -0.00081133627641070114 0.019539908090438346 0 -0.00080416704646667518 0.019546622868614829 0 -0.00083800809687261204 0.019510253089587232 0 -0.00081983291424993752 0.019535476177525997 0 -0.00080730704527371918 0.019528479905265725 0 -0.00081983291424993752 0.019535476177525997 0 -0.00080730704527371918 0.019528479905265725 0 -0.00081133627641070114 0.019539908090438346 0 -0.00081983291424993752 0.019535476177525997 0 -0.00081133627641070114 0.019539908090438346 0 -0.00080929825445527777 0.019540920859889257 0 -5.9455549986851111e-05 0.022887630730117424 0 -7.6430919518871945e-05 0.021914874613872495 0 -0.00061679087098027161 0.020279717381089812 0 -0.00010349148478132838 0.021594994524586769 0 -0.00085249242613047178 0.019573731047661906 0 -0.00076251582734460489 0.019722806932326867 0 -0.00077876701448266938 0.019736979772623318 0 -0.00077277948186338743 0.019470440568078385 0 -0.00085249242613047178 0.019573731047661906 0 -0.00076251582734460489 0.019722806932326867 0 0.00058245402003872539 0.025394776771564997 0 0.00084079144561161035 0.026240119299945578 0 0.00096095604016951854 0.024628292550110911 0 0.00058245402003872539 0.025394776771564997 0 0.00083199272015224051 0.024734316144494603 0 0.00096095604016951854 0.024628292550110911 0 -0.00018386657198613966 0.022406294009486599 0 -0.0001701928245930715 0.022304549435026542 0 0.00061094919790712771 0.024877785143256559 0 0.0010005431447725937 0.024603475913543657 0 0.00076346246711311763 0.02448667314779706 0 0.00076346246711311763 0.02448667314779706 0 0.00088694832445368791 0.024309718753889969 0 0.00098457972017254331 0.02443475904992834 0 0.0010005431447725937 0.024603475913543657 0 0.00076346246711311763 0.02448667314779706 0 0.00098457972017254331 0.02443475904992834 0 0.00076346246711311763 0.02448667314779706 0 0.00088694832445368791 0.024309718753889969 0 0.0006475046779010553 0.024179516006913225 0 0.00088694832445368791 0.024309718753889969 0 0.0011433014826438734 0.02422366608503013 0 0.0008726955574656336 0.024142692116167552 0 0.00088694832445368791 0.024309718753889969 0 0.0008726955574656336 0.024142692116167552 0 0.0006475046779010553 0.024179516006913225 0 0.00088694832445368791 0.024309718753889969 0 0.0011433014826438734 0.02422366608503013 0 0.00098457972017254331 0.02443475904992834 0 -1.7414714056715144e-05 0.021818328326788101 0 -7.6430919518871945e-05 0.021914874613872495 0 0.0011433014826438734 0.02422366608503013 0 0.00098457972017254331 0.02443475904992834 0 0.0011261516566435177 0.024498686388329232 0 0.0003240332613301293 0.021655503149844661 0 0.00034228472526999227 0.021383628782803119 0 0.0002429821129597533 0.021465032567148882 0 -7.6430919518871945e-05 0.021914874613872495 0 -0.00010349148478132838 0.021594994524586769 0 0.0010005431447725937 0.024603475913543657 0 0.00098457972017254331 0.02443475904992834 0 0.0011261516566435177 0.024498686388329232 0 -0.0001701928245930715 0.022304549435026542 0 -7.6430919518871945e-05 0.021914874613872495 0 -1.7414714056715144e-05 0.021818328326788101 0 -0.00010349148478132838 0.021594994524586769 0 -0.00010349148478132838 0.021594994524586769 0 -0.00012375363876568837 0.020898123786392785 0 0.00026056312166946406 0.019825038054040456 0 0.00017950081100647657 0.02007228967626664 0 -3.3256558826477221e-05 0.020060507495343171 0 0.00029173330180626349 0.01989970306170142 0 0.00026056312166946406 0.019825038054040456 0 0.00017950081100647657 0.02007228967626664 0 0.0011433014826438734 0.02422366608503013 0 0.00077732169277128606 0.023845896077794172 0 0.0008726955574656336 0.024142692116167552 0 0.00077732169277128606 0.023845896077794172 0 0.0008726955574656336 0.024142692116167552 0 0.0006475046779010553 0.024179516006913225 0 -0.00080416704646667518 0.019546622868614829 0 -0.00081022140510670357 0.019539607729588432 0 -0.00081086823459360373 0.019539094416465064 0 -0.00080416704646667518 0.019546622868614829 0 -0.00081006072995085544 0.019541419923356871 0 -0.00081022140510670357 0.019539607729588432 0 -0.00010349148478132838 0.021594994524586769 0 -0.00035839545213030706 0.020535109557351505 0 -0.00037558100079309448 0.021085353212810007 0 -0.0001912954011944884 0.020926507396644766 0 -0.00010765614058778149 0.020908464901470938 0 -0.00081006072995085544 0.019541419923356871 0 -0.00080929825445527777 0.019540920859889257 0 -0.00080435800394440559 0.019539099330489276 0 -0.00081133627641070114 0.019539908090438346 0 -0.00081006072995085544 0.019541419923356871 0 -0.00080929825445527777 0.019540920859889257 0 -0.00081133627641070114 0.019539908090438346 0 -0.00080416704646667518 0.019546622868614829 0 -0.00081006072995085544 0.019541419923356871 0 -0.00081006072995085544 0.019541419923356871 0 -0.00081022140510670357 0.019539607729588432 0 -0.00080435800394440559 0.019539099330489276 0 -0.00035649277272336102 0.020526407356979998 0 -0.00035839545213030706 0.020535109557351505 0 -0.00081022140510670357 0.019539607729588432 0 -0.00080967676310789605 0.01953471712701 0 -0.00080435800394440559 0.019539099330489276 0 -3.3256558826477221e-05 0.020060507495343171 0 -6.0837873371503862e-05 0.020448922133141544 0 -0.00034552279612155222 0.020317111271580639 0 -3.3256558826477221e-05 0.020060507495343171 0 9.0406501433879039e-05 0.020260869716162432 0 -6.0837873371503862e-05 0.020448922133141544 0 -0.0001912954011944884 0.020926507396644766 0 -0.00010765614058778149 0.020908464901470938 0 -6.8858124335813372e-06 0.020768535882395491 0 -0.00012375363876568837 0.020898123786392785 0 -0.00033001578817227318 0.020452356638354142 0 0.00017950081100647657 0.02007228967626664 0 -3.3256558826477221e-05 0.020060507495343171 0 9.0406501433879039e-05 0.020260869716162432 0 9.0406501433879039e-05 0.020260869716162432 0 0.00027565063428535168 0.020424308257573808 0 -6.0837873371503862e-05 0.020448922133141544 0 -6.0837873371503862e-05 0.020448922133141544 0 -0.00024413908783519418 0.02051381514835986 0 -0.00034552279612155222 0.020317111271580639 0 -1.7414714056715144e-05 0.021818328326788101 0 0.00010664620641360025 0.021553007898465756 0 0.00017950081100647657 0.02007228967626664 0 9.0406501433879039e-05 0.020260869716162432 0 0.00027565063428535168 0.020424308257573808 0 0.0011433014826438734 0.02422366608503013 0 0.00077732169277128606 0.023845896077794172 0 0.00061768750072875383 0.02311621613862043 0 0.00029173330180626349 0.01989970306170142 0 0.00017950081100647657 0.02007228967626664 0 0.00027565063428535168 0.020424308257573808 0 -1.7414714056715144e-05 0.021818328326788101 0 0.00029155637344708261 0.022479973398744951 0 0.00022946443022016044 0.022197941475075825 0 0.00022946643738199572 0.022294683106696498 0 0.00026765599590650613 0.022282509558567982 0 0.00061768750072875383 0.02311621613862043 0 0.00028823236593653311 0.023315505166022064 0 0.00045832777104381269 0.023539828270521462 0 0.00061768750072875383 0.02311621613862043 0 9.3908596367537082e-05 0.023097661432793251 0 0.00012257470211717253 0.022852918891553567 0 9.3908596367537082e-05 0.023097661432793251 0 0.00028823236593653311 0.023315505166022064 0 -1.9008644939118344e-07 0.023451394445801826 0 0.00061768750072875383 0.02311621613862043 0 9.3908596367537082e-05 0.023097661432793251 0 0.00028823236593653311 0.023315505166022064 0 0.00028823236593653311 0.023315505166022064 0 0.00017627631604003293 0.023588121392603027 0 0.00045832777104381269 0.023539828270521462 0 0.00028823236593653311 0.023315505166022064 0 -1.9008644939118344e-07 0.023451394445801826 0 0.00017627631604003293 0.023588121392603027 0 -1.9008644939118344e-07 0.023451394445801826 0 0.00017627631604003293 0.023588121392603027 0 -0.00011719415649334335 0.023733387701016958 0 0.00077732169277128606 0.023845896077794172 0 0.00061768750072875383 0.02311621613862043 0 0.00045832777104381269 0.023539828270521462 0 0.00017627631604003293 0.023588121392603027 0 0.00045832777104381269 0.023539828270521462 0 0.00044239914177853179 0.02384891355686964 0 0.00077732169277128606 0.023845896077794172 0 0.00045832777104381269 0.023539828270521462 0 0.00044239914177853179 0.02384891355686964 0 0.00077732169277128606 0.023845896077794172 0 0.00044239914177853179 0.02384891355686964 0 0.0006475046779010553 0.024179516006913225 0 0.00044239914177853179 0.02384891355686964 0 0.0006475046779010553 0.024179516006913225 0 0.00038081519811756121 0.024160339854854294 0 0.00017627631604003293 0.023588121392603027 0 0.00044239914177853179 0.02384891355686964 0 6.0438477030734771e-05 0.023969756809770509 0 0.00017627631604003293 0.023588121392603027 0 6.0438477030734771e-05 0.023969756809770509 0 -0.00011719415649334335 0.023733387701016958 0 0.00044239914177853179 0.02384891355686964 0 6.0438477030734771e-05 0.023969756809770509 0 0.00038081519811756121 0.024160339854854294 0 6.0438477030734771e-05 0.023969756809770509 0 0.00012637767150863892 0.024314901643359869 0 0.00038081519811756121 0.024160339854854294 0 0.00012637767150863892 0.024314901643359869 0 0.0004522408100748874 0.024443246107781723 0 0.00038081519811756121 0.024160339854854294 0 6.0438477030734771e-05 0.023969756809770509 0 0.00012637767150863892 0.024314901643359869 0 -0.0002248545003756762 0.02430890815580403 0 -0.00016169629780857174 0.024637606895488308 0 0.00012637767150863892 0.024314901643359869 0 -0.0002248545003756762 0.02430890815580403 0 0.00018201890779734483 0.024649782953114124 0 -0.00016169629780857174 0.024637606895488308 0 0.00012637767150863892 0.024314901643359869 0 0.00018201890779734483 0.024649782953114124 0 0.00012637767150863892 0.024314901643359869 0 0.0004522408100748874 0.024443246107781723 0 0.00076346246711311763 0.02448667314779706 0 0.0004522408100748874 0.024443246107781723 0 0.0006475046779010553 0.024179516006913225 0 0.0004522408100748874 0.024443246107781723 0 0.0006475046779010553 0.024179516006913225 0 0.00038081519811756121 0.024160339854854294 0 0.00088200188024874357 0.030551590251591088 0 0.00091183999875535718 0.0311991380133925 0 0.0011695479890951725 0.030550558165657264 0 0.00030138797252447693 0.028182325434341172 0 0.00054537418306141395 0.027377426616948385 0 -0.0010243395166230627 0.024908587289279114 0 -0.00036852565286256856 0.024180434604395843 0 -0.00043838509339082444 0.023568762569589383 0 -0.00049921179933564721 0.024647875194964718 0 -0.0010243395166230627 0.024908587289279114 0 -0.00036852565286256856 0.024180434604395843 0 -0.00049921179933564721 0.024647875194964718 0 -0.0002248545003756762 0.02430890815580403 0 -0.00036852565286256856 0.024180434604395843 0 -0.00016169629780857174 0.024637606895488308 0 -0.00049921179933564721 0.024647875194964718 0 -0.0002248545003756762 0.02430890815580403 0 6.0438477030734771e-05 0.023969756809770509 0 -0.00036852565286256856 0.024180434604395843 0 -0.00011719415649334335 0.023733387701016958 0 -0.00036852565286256856 0.024180434604395843 0 -0.00043838509339082444 0.023568762569589383 0 -0.00011719415649334335 0.023733387701016958 0 6.0438477030734771e-05 0.023969756809770509 0 -0.0002248545003756762 0.02430890815580403 0 -0.00036852565286256856 0.024180434604395843 0 0.00058969473813576712 0.030353426355453274 0 0.00080790141146710028 0.028064187680576457 0 0.00088200188024874357 0.030551590251591088 0 0.0011695479890951725 0.030550558165657264 0 0.0010295886800374748 0.029773082599574615 0 0.00054537418306141395 0.027377426616948385 0 0.00074099959475186711 0.027199405130967035 0 9.3908596367537082e-05 0.023097661432793251 0 -0.00043838509339082444 0.023568762569589383 0 0.00012257470211717253 0.022852918891553567 0 9.3908596367537082e-05 0.023097661432793251 0 -1.9008644939118344e-07 0.023451394445801826 0 -0.00043838509339082444 0.023568762569589383 0 -1.9008644939118344e-07 0.023451394445801826 0 -0.00043838509339082444 0.023568762569589383 0 -0.00011719415649334335 0.023733387701016958 0 0.0011695479890951725 0.030550558165657264 0 0.0010295886800374748 0.029773082599574615 0 0.0014320495688091306 0.029767326457786 0 0.00071398677835323463 0.032183900788955347 0 0.00068679417919967963 0.031668144394662943 0 0.00066573714061966144 0.032186053045580421 0 -0.00043838509339082444 0.023568762569589383 0 0.00012257470211717253 0.022852918891553567 0 0.00011025995034298682 0.022521571172063191 0 0.00080790141146710028 0.028064187680576457 0 0.00074099959475186711 0.027199405130967035 0 -0.00067846296813289613 0.027276707506918938 0 -7.3978343746301201e-05 0.027274598301725576 0 -0.00037870160861996617 0.026910668515533798 0 0.00026765599590650613 0.022282509558567982 0 0.0002667909216772806 0.022400488576084353 0 0.00025245114414427567 0.022335238831586838 0 0.00029155637344708261 0.022479973398744951 0 0.00030205817489503272 0.022493768564280141 0 0.00061768750072875383 0.02311621613862043 0 0.00020624520531373967 0.022533990117267713 0 0.0002667909216772806 0.022400488576084353 0 0.00061768750072875383 0.02311621613862043 0 0.00012257470211717253 0.022852918891553567 0 0.00020624520531373967 0.022533990117267713 0 0.00012257470211717253 0.022852918891553567 0 0.00020624520531373967 0.022533990117267713 0 0.00011025995034298682 0.022521571172063191 0 0.00073860464594365687 0.027191358046923974 0 0.00074099959475186711 0.027199405130967035 0 0.00020624520531373967 0.022533990117267713 0 0.00017573221810258404 0.022454307762211377 0 0.0002667909216772806 0.022400488576084353 0 0.00017573221810258404 0.022454307762211377 0 0.0002667909216772806 0.022400488576084353 0 0.00043117330855856122 0.022388301701823383 0 0.00074099959475186711 0.027199405130967035 0 0.00078756460881067357 0.025222964912220994 0 -7.3978343746301201e-05 0.027274598301725576 0 -0.00037870160861996617 0.026910668515533798 0 0.0002964476760101737 0.026150762884883005 0 0.00029311076213548798 0.022360808460555812 0 0.0002667909216772806 0.022400488576084353 0 0.00043117330855856122 0.022388301701823383 0 0.00029311076213548798 0.022360808460555812 0 0.0002667909216772806 0.022400488576084353 0 0.00025245114414427567 0.022335238831586838 0 -0.00050875213791057956 0.026451657947200738 0 -0.00037870160861996617 0.026910668515533798 0 0.0002964476760101737 0.026150762884883005 0 -3.6441126882148904e-05 0.025461924849361502 0 -0.0003272480339811781 0.025157412730272534 0 -0.00036078227830961887 0.025580048090397739 0 0.00080790141146710028 0.028064187680576457 0 0.00061694665800152235 0.026887440462776382 0 -0.00067846296813289613 0.027276707506918938 0 -0.00050875213791057956 0.026451657947200738 0 -0.00037870160861996617 0.026910668515533798 0 -5.0652783652706802e-05 0.025976263682920529 0 -0.00036078227830961887 0.025580048090397739 0 -0.0003373433090379423 0.025604705145003202 0 -0.00050875213791057956 0.026451657947200738 0 -0.0003373433090379423 0.025604705145003202 0 0.0002964476760101737 0.026150762884883005 0 0.00061694665800152235 0.026887440462776382 0 0.00055733973210376131 0.026532003760053116 0 0.00078756460881067357 0.025222964912220994 0 0.00073946438631587806 0.024785441859157754 0 0.0002964476760101737 0.026150762884883005 0 1.876977982712996e-05 0.02512327400643305 0 0.00016946889000215185 0.023903073157064521 0 -0.0003373433090379423 0.025604705145003202 0 0.0002964476760101737 0.026150762884883005 0 1.876977982712996e-05 0.02512327400643305 0 -0.0003373433090379423 0.025604705145003202 0 -2.0308030497298883e-05 0.024855639655938112 0 1.876977982712996e-05 0.02512327400643305 0 -2.0308030497298883e-05 0.024855639655938112 0 -1.3848739460912763e-06 0.025821898647076954 0 1.3971968861046472e-06 0.023989840904142135 0 -2.0308030497298883e-05 0.024855639655938112 0 1.876977982712996e-05 0.02512327400643305 0 0.00016946889000215185 0.023903073157064521 0 -2.0308030497298883e-05 0.024855639655938112 0 0.00016946889000215185 0.023903073157064521 0 1.3971968861046472e-06 0.023989840904142135 0 -0.00017190628639120807 0.026123563820639958 0 -0.0003373433090379423 0.025604705145003202 0 -1.3848739460912763e-06 0.025821898647076954 0 -0.0003373433090379423 0.025604705145003202 0 -2.0308030497298883e-05 0.024855639655938112 0 -1.3848739460912763e-06 0.025821898647076954 0 -0.00011706743000816788 0.021936325564587869 0 -8.7082320665537406e-07 0.022159368832849143 0 7.192973066357862e-06 0.022605103441116284 0 -0.00011706743000816788 0.021936325564587869 0 -8.7082320665537406e-07 0.022159368832849143 0 -0.00026065173529213527 0.021408592048435978 0 -8.7082320665537406e-07 0.022159368832849143 0 1.3971968861046472e-06 0.023989840904142135 0 7.192973066357862e-06 0.022605103441116284 0 0.00016946889000215185 0.023903073157064521 0 1.3971968861046472e-06 0.023989840904142135 0 7.192973066357862e-06 0.022605103441116284 0 0.00010770636585960086 0.022070500461976731 0 0.00012869630337485836 0.021788372285269364 0 0.00043117330855856122 0.022388301701823383 0 0.00016946889000215185 0.023903073157064521 0 7.192973066357862e-06 0.022605103441116284 0 0.00043117330855856122 0.022388301701823383 0 7.192973066357862e-06 0.022605103441116284 0 0.00018603608410710823 0.022339396190924322 0 7.192973066357862e-06 0.022605103441116284 0 -0.00022295435861327949 0.021456125717006995 0 0.00031275451246030764 0.020971437925876711 0 -0.00011706743000816788 0.021936325564587869 0 7.192973066357862e-06 0.022605103441116284 0 -0.00022295435861327949 0.021456125717006995 0 -0.00011706743000816788 0.021936325564587869 0 -0.00022295435861327949 0.021456125717006995 0 -0.00026065173529213527 0.021408592048435978 0 -0.00022295435861327949 0.021456125717006995 0 -0.00030975737731336428 0.021009759338296855 0 0.00031275451246030764 0.020971437925876711 0 -0.00030975737731336428 0.021009759338296855 0 0.00031275451246030764 0.020971437925876711 0 -0.00020452455239922256 0.020738165576322933 0 0.00029311076213548798 0.022360808460555812 0 0.00043117330855856122 0.022388301701823383 0 0.00018603608410710823 0.022339396190924322 0 0.00029311076213548798 0.022360808460555812 0 0.00018603608410710823 0.022339396190924322 0 0.00025245114414427567 0.022335238831586838 0 0.00010664620641360025 0.021553007898465756 0 0.00012869630337485836 0.021788372285269364 0 0.00022946643738199572 0.022294683106696498 0 0.00018603608410710823 0.022339396190924322 0 0.00025245114414427567 0.022335238831586838 0 0.00027565063428535168 0.020424308257573808 0 0.00031275451246030764 0.020971437925876711 0 -6.0837873371503862e-05 0.020448922133141544 0 0.00022946643738199572 0.022294683106696498 0 0.00026765599590650613 0.022282509558567982 0 0.00025245114414427567 0.022335238831586838 0 0.00031275451246030764 0.020971437925876711 0 -0.00020452455239922256 0.020738165576322933 0 -6.0837873371503862e-05 0.020448922133141544 0 -0.00020452455239922256 0.020738165576322933 0 -6.0837873371503862e-05 0.020448922133141544 0 -0.00024413908783519418 0.02051381514835986 0 -0.0003748336360674333 0.020288369531536517 0 -0.00033001578817227318 0.020452356638354142 0 -0.0004404430770997748 0.020225573988316013 0 -0.00033001578817227318 0.020452356638354142 0 -0.00036909944533292007 0.020601806344956401 0 -0.00053118719257485723 0.020739184017682079 0 -0.00034552279612155222 0.020317111271580639 0 -0.00024413908783519418 0.02051381514835986 0 -0.00036909944533292007 0.020601806344956401 0 -0.00034552279612155222 0.020317111271580639 0 -0.00079384283659090539 0.019542038666577027 0 -0.00083094229904185756 0.01950600986969309 0 -0.0009560785784609436 0.01968989055534243 0 -0.00020452455239922256 0.020738165576322933 0 -0.00024413908783519418 0.02051381514835986 0 -0.00036909944533292007 0.020601806344956401 0 -0.00036909944533292007 0.020601806344956401 0 -0.00045550603822226194 0.0207268576353229 0 -0.00042650898695619155 0.020806782208636854 0 -0.00036909944533292007 0.020601806344956401 0 -0.00045550603822226194 0.0207268576353229 0 -0.00053118719257485723 0.020739184017682079 0 -0.00048016772042419278 0.020757358791920887 0 -0.00045550603822226194 0.0207268576353229 0 -0.00053118719257485723 0.020739184017682079 0 -0.00048016772042419278 0.020757358791920887 0 -0.00045550603822226194 0.0207268576353229 0 -0.00042650898695619155 0.020806782208636854 0 -0.00020452455239922256 0.020738165576322933 0 -0.00036909944533292007 0.020601806344956401 0 -0.00042650898695619155 0.020806782208636854 0 -0.00048684775153987455 0.019987425630987946 0 -0.00047981547319123806 0.020123587599014295 0 -0.00079384283659090539 0.019542038666577027 0 -0.00064581340954393909 0.019495541581307289 0 -0.00083165056865235705 0.01965283167887371 0 -0.00064581340954393909 0.019495541581307289 0 -0.00071639106680704365 0.019523709237522772 0 -0.00076786772801525169 0.019510358647506391 0 -0.00083094229904185756 0.01950600986969309 0 -0.00076428245198945934 0.019489231729178887 0 -0.00073020774981366761 0.019441710279395393 0 -0.00079384283659090539 0.019542038666577027 0 -0.00083094229904185756 0.01950600986969309 0 -0.00076428245198945934 0.019489231729178887 0 -0.00079384283659090539 0.019542038666577027 0 -0.00076428245198945934 0.019489231729178887 0 -0.00064581340954393909 0.019495541581307289 0 -0.00076428245198945934 0.019489231729178887 0 -0.00073020774981366761 0.019441710279395393 0 -0.00064581340954393909 0.019495541581307289 0 -0.00083094229904185756 0.01950600986969309 0 -0.00073020774981366761 0.019441710279395393 0 -0.00070662300863384275 0.019308721607766269 0 -0.00053118719257485723 0.020739184017682079 0 -0.00049126223700839502 0.020751614225287436 0 -0.00038966064469379727 0.020673384584375048 0 -0.0004404430770997748 0.020225573988316013 0 -0.00049354157364141606 0.02008492005344267 0 -0.00048016772042419278 0.020757358791920887 0 -0.00053118719257485723 0.020739184017682079 0 -0.00049126223700839502 0.020751614225287436 0 -0.00049126223700839502 0.020751614225287436 0 -0.00049749147926376211 0.020721006176558473 0 -0.00038966064469379727 0.020673384584375048 0 -0.00030975737731336428 0.021009759338296855 0 -0.00020452455239922256 0.020738165576322933 0 -0.00042650898695619155 0.020806782208636854 0 -0.00048016772042419278 0.020757358791920887 0 -0.00049126223700839502 0.020751614225287436 0 -0.00042650898695619155 0.020806782208636854 0 -0.00049126223700839502 0.020751614225287436 0 -0.00042650898695619155 0.020806782208636854 0 -0.00043692797566186747 0.020907530755791114 0 -0.00049126223700839502 0.020751614225287436 0 -0.00049749147926376211 0.020721006176558473 0 -0.00043692797566186747 0.020907530755791114 0 -0.00022295435861327949 0.021456125717006995 0 -0.00030975737731336428 0.021009759338296855 0 -0.00043692797566186747 0.020907530755791114 0 -0.00030975737731336428 0.021009759338296855 0 -0.00042650898695619155 0.020806782208636854 0 -0.00043692797566186747 0.020907530755791114 0 -0.00040839041484712671 0.020971854159724811 0 -0.00048935244196236165 0.020476037401216649 0 -0.00026065173529213527 0.021408592048435978 0 -0.00022295435861327949 0.021456125717006995 0 -0.00043692797566186747 0.020907530755791114 0 -0.00040839041484712671 0.020971854159724811 0 -0.00022295435861327949 0.021456125717006995 0 -0.00040839041484712671 0.020971854159724811 0 -0.00026065173529213527 0.021408592048435978 0 -0.00049749147926376211 0.020721006176558473 0 -0.00043692797566186747 0.020907530755791114 0 -0.00040839041484712671 0.020971854159724811 0 -0.00049749147926376211 0.020721006176558473 0 -0.00038966064469379727 0.020673384584375048 0 -0.00048935244196236165 0.020476037401216649 0 -0.00048935244196236165 0.020476037401216649 0 -0.00044506802021523781 0.019834166307757244 0 -0.00026065173529213527 0.021408592048435978 0 -0.00049749147926376211 0.020721006176558473 0 -0.00040839041484712671 0.020971854159724811 0 -0.00048935244196236165 0.020476037401216649 0 -0.00038966064469379727 0.020673384584375048 0 -0.00044680186401409956 0.01999027316035009 0 -0.00048935244196236165 0.020476037401216649 0 -0.00044680186401409956 0.01999027316035009 0 -0.00048935244196236165 0.020476037401216649 0 -0.00044506802021523781 0.019834166307757244 0 -2.0331406936880659e-07 0.020328690802485623 0 4.4218974404750762e-06 0.01981542811717955 0 -0.00026065173529213527 0.021408592048435978 0 -0.00028451438604130497 0.019282820389000119 0 -0.00030093681497977043 0.01967480065640349 0 -8.7082320665537406e-07 0.022159368832849143 0 -2.0331406936880659e-07 0.020328690802485623 0 -0.00026065173529213527 0.021408592048435978 0 -1.1372696801183053e-06 0.016667035338639152 0 3.2124773057996898e-07 0.018498124132194722 0 -8.8221270511970518e-06 0.017908154520785282 0 -0.00044506802021523781 0.019834166307757244 0 -0.00063607902104800287 0.018132528694565827 0 -0.00047935667096686861 0.018909876554053056 0 4.4218974404750762e-06 0.01981542811717955 0 3.2124773057996898e-07 0.018498124132194722 0 -8.8221270511970518e-06 0.017908154520785282 0 -0.00028451438604130497 0.019282820389000119 0 -0.0002379061973811987 0.018560584361968335 0 -2.0331406936880659e-07 0.020328690802485623 0 4.4218974404750762e-06 0.01981542811717955 0 3.2124773057996898e-07 0.018498124132194722 0 -0.00049354157364141606 0.02008492005344267 0 -0.00048052725470557251 0.019966484332421593 0 -0.00038966064469379727 0.020673384584375048 0 -0.00044680186401409956 0.01999027316035009 0 -0.00044635064987401309 0.01915287891579999 0 -0.00054128104257149235 0.018812979812061859 0 -0.00055182050000286394 0.018761084671789548 0 -0.00044506802021523781 0.019834166307757244 0 -0.00047935667096686861 0.018909876554053056 0 -0.00044635064987401309 0.01915287891579999 0 -0.00047935667096686861 0.018909876554053056 0 -0.00044635064987401309 0.01915287891579999 0 -0.00055103238945867963 0.019206734802577737 0 -0.00070662300863384275 0.019308721607766269 0 -0.00044635064987401309 0.01915287891579999 0 -0.00055103238945867963 0.019206734802577737 0 -0.00047935667096686861 0.018909876554053056 0 -0.00061863576707394037 0.018155099492891329 0 -0.0004393908574457811 0.017918035798034131 0 -0.00047935667096686861 0.018909876554053056 0 -0.00055103238945867963 0.019206734802577737 0 -0.00053705723706241458 0.01944496105956842 0 -0.00044680186401409956 0.01999027316035009 0 -0.00044506802021523781 0.019834166307757244 0 -0.00044635064987401309 0.01915287891579999 0 -0.00063607902104800287 0.018132528694565827 0 -0.00047935667096686861 0.018909876554053056 0 -0.00064081342935022254 0.01821717842738995 0 -0.00047935667096686861 0.018909876554053056 0 -0.00061863576707394037 0.018155099492891329 0 -0.00064081342935022254 0.01821717842738995 0 -0.00057391476963057381 0.017825995327181158 0 -0.00063607902104800287 0.018132528694565827 0 -0.00064081342935022254 0.01821717842738995 0 -0.00057391476963057381 0.017825995327181158 0 -0.00064081342935022254 0.01821717842738995 0 -0.0006242255109748429 0.017997142228159776 0 -0.00061863576707394037 0.018155099492891329 0 -0.00064081342935022254 0.01821717842738995 0 -0.0006242255109748429 0.017997142228159776 0 -0.00061863576707394037 0.018155099492891329 0 -0.0006242255109748429 0.017997142228159776 0 -0.00057896189733754825 0.017985669891332597 0 -0.00061863576707394037 0.018155099492891329 0 -0.00057896189733754825 0.017985669891332597 0 -0.0004393908574457811 0.017918035798034131 0 -0.00057896189733754825 0.017985669891332597 0 -0.0004393908574457811 0.017918035798034131 0 -0.00052626975514996914 0.018001993026933581 0 -0.00073020774981366761 0.019441710279395393 0 -0.00070662300863384275 0.019308721607766269 0 -0.00053705723706241458 0.01944496105956842 0 -0.00073020774981366761 0.019441710279395393 0 -0.00053705723706241458 0.01944496105956842 0 -0.00064581340954393909 0.019495541581307289 0 -0.00070662300863384275 0.019308721607766269 0 -0.00055103238945867963 0.019206734802577737 0 -0.00053705723706241458 0.01944496105956842 0 -0.00055182050000286394 0.018761084671789548 0 -0.00059172209329897427 0.018774633763139755 0 -0.0004393908574457811 0.017918035798034131 0 -0.00052626975514996914 0.018001993026933581 0 -0.0005598847617318077 0.018031034399610187 0 -0.00053705723706241458 0.01944496105956842 0 -0.00064581340954393909 0.019495541581307289 0 -0.00068072698806357528 0.019530073746790676 0 -0.00064581340954393909 0.019495541581307289 0 -0.00068072698806357528 0.019530073746790676 0 -0.00071639106680704365 0.019523709237522772 0 -0.00052921773818661113 0.018010025225446018 0 -0.00057896189733754825 0.017985669891332597 0 -0.00052626975514996914 0.018001993026933581 0 -0.00048799067009615364 0.018085039799065974 0 -0.00052626975514996914 0.018001993026933581 0 -0.00052246810927869926 0.018063075813613185 0 -0.00028012178295831779 0.01827937938854806 0 -0.00041035744942140165 0.018468367320968126 0 -0.00052626975514996914 0.018001993026933581 0 -0.00052246810927869926 0.018063075813613185 0 -0.0005598847617318077 0.018031034399610187 0 -0.00036611730883577066 0.018584864059238732 0 -0.00047979988820392148 0.018691720867007527 0 -0.00034524903202726024 0.018711315990494994 0 -0.0002372949030757048 0.018621183907100543 0 -0.00036611730883577066 0.018584864059238732 0 -0.00034524903202726024 0.018711315990494994 0 -0.00062824126185827094 0.018817691608139155 0 -0.00059172209329897427 0.018774633763139755 0 -0.00041035744942140165 0.018468367320968126 0 -0.00062824126185827094 0.018817691608139155 0 -0.00052246810927869926 0.018063075813613185 0 -0.00057444746825318445 0.01811497154190669 0 -0.0005598847617318077 0.018031034399610187 0 -0.000736242006116505 0.019550630596361723 0 -0.00068072698806357528 0.019530073746790676 0 -0.00073284226357988051 0.019536561172613324 0 -0.00068072698806357528 0.019530073746790676 0 -0.00071639106680704365 0.019523709237522772 0 -0.00073284226357988051 0.019536561172613324 0 -0.00071639106680704365 0.019523709237522772 0 -0.00076786772801525169 0.019510358647506391 0 -0.00075807720959676661 0.019531478272535173 0 -0.00071639106680704365 0.019523709237522772 0 -0.00075807720959676661 0.019531478272535173 0 -0.00073284226357988051 0.019536561172613324 0 -0.00035839545213030706 0.020535109557351505 0 -0.00047981547319123806 0.020123587599014295 0 -0.00080967676310789605 0.01953471712701 0 -0.00076786772801525169 0.019510358647506391 0 -0.00078422785770371184 0.019532415226657378 0 -0.00079384283659090539 0.019542038666577027 0 -0.00083165056865235705 0.01965283167887371 0 -0.00095296421057354519 0.01968855715953205 0 -0.0010253571828279112 0.019794121892282138 0 -0.00083165056865235705 0.01965283167887371 0 -0.00095296421057354519 0.01968855715953205 0 -0.00076786772801525169 0.019510358647506391 0 -0.00075807720959676661 0.019531478272535173 0 -0.00078422785770371184 0.019532415226657378 0 -0.00035839545213030706 0.020535109557351505 0 -0.00033001578817227318 0.020452356638354142 0 -0.00078422785770371184 0.019532415226657378 0 -0.00080435800394440559 0.019539099330489276 0 -0.00079786310194035243 0.019542254924929059 0 -0.00080967676310789605 0.01953471712701 0 -0.00078422785770371184 0.019532415226657378 0 -0.00080435800394440559 0.019539099330489276 0 -0.00078422785770371184 0.019532415226657378 0 -0.00079786310194035243 0.019542254924929059 0 -0.00076760787011862799 0.019543497424950464 0 -0.00080929825445527777 0.019540920859889257 0 -0.00080435800394440559 0.019539099330489276 0 -0.00079786310194035243 0.019542254924929059 0 -0.000736242006116505 0.019550630596361723 0 -0.00073284226357988051 0.019536561172613324 0 -0.00076760787011862799 0.019543497424950464 0 -0.00075807720959676661 0.019531478272535173 0 -0.00073284226357988051 0.019536561172613324 0 -0.00076760787011862799 0.019543497424950464 0 -0.00075807720959676661 0.019531478272535173 0 -0.00078422785770371184 0.019532415226657378 0 -0.00076760787011862799 0.019543497424950464 0 -0.00048155900301189044 0.018705618723776487 0 -0.00062047240378863464 0.018853429405862487 0 -0.00049480829620694917 0.018824960031969533 0 -0.00062824126185827094 0.018817691608139155 0 -0.00074111342116025246 0.019069956333839615 0 -0.00079786310194035243 0.019542254924929059 0 -0.00076760787011862799 0.019543497424950464 0 -0.00080438095027547294 0.019546071563263746 0 -0.000736242006116505 0.019550630596361723 0 -0.00076760787011862799 0.019543497424950464 0 -0.00080438095027547294 0.019546071563263746 0 -0.00083800809687261204 0.019510253089587232 0 -0.00081983291424993752 0.019535476177525997 0 -0.00080438095027547294 0.019546071563263746 0 -0.00081983291424993752 0.019535476177525997 0 -0.00079786310194035243 0.019542254924929059 0 -0.00080438095027547294 0.019546071563263746 0 -0.00081983291424993752 0.019535476177525997 0 -0.00080929825445527777 0.019540920859889257 0 -0.00079786310194035243 0.019542254924929059 0 -0.00062047240378863464 0.018853429405862487 0 -0.00064849399368220541 0.018984778381215341 0 -0.00076203089579690965 0.019038421445621411 0 -0.00083800809687261204 0.019510253089587232 0 -0.00080438095027547294 0.019546071563263746 0 -0.00086199841180073305 0.01947967711348491 0 -0.00074111342116025246 0.019069956333839615 0 -0.00079512667849935821 0.019175767791765955 0 -0.00062047240378863464 0.018853429405862487 0 -0.00064849399368220541 0.018984778381215341 0 -0.00052363158443056101 0.018954438206680666 0 -0.00062047240378863464 0.018853429405862487 0 -0.00052363158443056101 0.018954438206680666 0 -0.00049480829620694917 0.018824960031969533 0 -0.00052363158443056101 0.018954438206680666 0 -0.0004167817845379052 0.018943577790166661 0 -0.00049480829620694917 0.018824960031969533 0 -0.0004167817845379052 0.018943577790166661 0 -0.00039350533538223961 0.018807861919096818 0 -0.00049480829620694917 0.018824960031969533 0 -0.00029534000503820385 0.018825665764010704 0 -0.0004167817845379052 0.018943577790166661 0 -0.00039350533538223961 0.018807861919096818 0 -0.00029534000503820385 0.018825665764010704 0 -0.0004167817845379052 0.018943577790166661 0 -0.00032011123377737185 0.019014175627090762 0 -0.00047979988820392148 0.018691720867007527 0 -0.00034524903202726024 0.018711315990494994 0 -0.00039350533538223961 0.018807861919096818 0 -0.00029534000503820385 0.018825665764010704 0 -0.00034524903202726024 0.018711315990494994 0 -0.00039350533538223961 0.018807861919096818 0 -0.00047979988820392148 0.018691720867007527 0 -0.00039350533538223961 0.018807861919096818 0 -0.00049480829620694917 0.018824960031969533 0 -0.00062824126185827094 0.018817691608139155 0 -0.00061357549382715071 0.018802927011275932 0 -0.00049047318702265372 0.019132571387718997 0 -0.00032011123377737185 0.019014175627090762 0 -0.0003926427910671583 0.019229534230098638 0 -0.0004167817845379052 0.018943577790166661 0 -0.00049047318702265372 0.019132571387718997 0 -0.00032011123377737185 0.019014175627090762 0 -0.00052363158443056101 0.018954438206680666 0 -0.0004167817845379052 0.018943577790166661 0 -0.00049047318702265372 0.019132571387718997 0 -0.00064849399368220541 0.018984778381215341 0 -0.00052363158443056101 0.018954438206680666 0 -0.0005982569875006182 0.019071592764545831 0 -0.00052363158443056101 0.018954438206680666 0 -0.00049047318702265372 0.019132571387718997 0 -0.0005982569875006182 0.019071592764545831 0 -0.00064849399368220541 0.018984778381215341 0 -0.00068214796814306433 0.019081990630914196 0 -0.00076203089579690965 0.019038421445621411 0 -0.00068214796814306433 0.019081990630914196 0 -0.00075582041319719178 0.019171171046107556 0 -0.00076203089579690965 0.019038421445621411 0 -0.00064849399368220541 0.018984778381215341 0 -0.0005982569875006182 0.019071592764545831 0 -0.00068214796814306433 0.019081990630914196 0 -0.0005982569875006182 0.019071592764545831 0 -0.00068214796814306433 0.019081990630914196 0 -0.00067423540562941094 0.019176691652813667 0 -0.0005982569875006182 0.019071592764545831 0 -0.00067423540562941094 0.019176691652813667 0 -0.0006049488225487946 0.019205929501566743 0 -0.00068214796814306433 0.019081990630914196 0 -0.00067423540562941094 0.019176691652813667 0 -0.00075582041319719178 0.019171171046107556 0 -0.00067423540562941094 0.019176691652813667 0 -0.0006049488225487946 0.019205929501566743 0 -0.00066238283877427138 0.019317693491861569 0 -0.00067423540562941094 0.019176691652813667 0 -0.00066238283877427138 0.019317693491861569 0 -0.00077076494438677262 0.019252751629351719 0 -0.00067423540562941094 0.019176691652813667 0 -0.00077076494438677262 0.019252751629351719 0 -0.00075582041319719178 0.019171171046107556 0 -0.00049047318702265372 0.019132571387718997 0 -0.0005982569875006182 0.019071592764545831 0 -0.0006049488225487946 0.019205929501566743 0 -0.00049047318702265372 0.019132571387718997 0 -0.0006049488225487946 0.019205929501566743 0 -0.00058960454970480671 0.019306198302237804 0 -0.0006049488225487946 0.019205929501566743 0 -0.00058960454970480671 0.019306198302237804 0 -0.00066238283877427138 0.019317693491861569 0 -0.00058960454970480671 0.019306198302237804 0 -0.00055916639804616075 0.019386127525931253 0 -0.0005036563319398647 0.019299244542374274 0 -0.00058956256345731159 0.019656740105759626 0 -0.00057357280329149187 0.020072299510739734 0 -0.00066238283877427138 0.019317693491861569 0 -0.0005738890594008967 0.019721103877353759 0 -0.00079771082818444277 0.019461135260221595 0 -0.00058960454970480671 0.019306198302237804 0 -0.00066238283877427138 0.019317693491861569 0 -0.00067180586259888082 0.019406730384636063 0 -0.00058960454970480671 0.019306198302237804 0 -0.00067180586259888082 0.019406730384636063 0 -0.00055916639804616075 0.019386127525931253 0 -0.00067180586259888082 0.019406730384636063 0 -0.00055916639804616075 0.019386127525931253 0 -0.00057479613329261472 0.019465187100126503 0 -0.00055916639804616075 0.019386127525931253 0 -0.00049209578403698021 0.019395485505208688 0 -0.0005036563319398647 0.019299244542374274 0 -0.00055916639804616075 0.019386127525931253 0 -0.00049209578403698021 0.019395485505208688 0 -0.00057479613329261472 0.019465187100126503 0 -0.00049047318702265372 0.019132571387718997 0 -0.00058960454970480671 0.019306198302237804 0 -0.0005036563319398647 0.019299244542374274 0 -0.00049047318702265372 0.019132571387718997 0 -0.0005036563319398647 0.019299244542374274 0 -0.0003926427910671583 0.019229534230098638 0 -0.00049209578403698021 0.019395485505208688 0 -0.0005036563319398647 0.019299244542374274 0 -0.0003926427910671583 0.019229534230098638 0 -0.00030512242851550364 0.019380374312704673 0 -0.00049209578403698021 0.019395485505208688 0 -0.0003926427910671583 0.019229534230098638 0 -0.00030512242851550364 0.019380374312704673 0 -0.00049209578403698021 0.019395485505208688 0 -0.00041531678924060315 0.019563806937034963 0 -0.00049209578403698021 0.019395485505208688 0 -0.00041531678924060315 0.019563806937034963 0 -0.00065111279565690811 0.01968798708640053 0 -0.00049209578403698021 0.019395485505208688 0 -0.00065111279565690811 0.01968798708640053 0 -0.00091567745945354991 0.019623174460058828 0 -0.00016032603920391919 0.020384251348487141 0 -0.00022463927321293638 0.020771422489899605 0 -0.00065111279565690811 0.01968798708640053 0 -0.00079982558829945569 0.019847333725557022 0 -0.00091567745945354991 0.019623174460058828 0 -0.00065111279565690811 0.01968798708640053 0 -0.00079982558829945569 0.019847333725557022 0 -0.00064196180413256503 0.020069058814859455 0 -0.00041531678924060315 0.019563806937034963 0 -0.00065111279565690811 0.01968798708640053 0 -0.00064196180413256503 0.020069058814859455 0 -0.00041531678924060315 0.019563806937034963 0 -0.0007009043570305229 0.019845154471165617 0 -0.00061787945568462935 0.01978097500770001 0 -0.0007009043570305229 0.019845154471165617 0 -0.00061787945568462935 0.01978097500770001 0 -0.00053286674062617985 0.019887056289800961 0 -0.00079982558829945569 0.019847333725557022 0 -0.00064196180413256503 0.020069058814859455 0 -0.00084367014984342763 0.020024653315560501 0 -0.00058708721294257744 0.01980375846817773 0 -0.00071259888210984659 0.020006562207944983 0 -0.00021858814816725277 0.019730626309873926 0 -0.00041531678924060315 0.019563806937034963 0 -0.00061787945568462935 0.01978097500770001 0 -0.00025223090168083014 0.019693147328522752 0 -0.00061787945568462935 0.01978097500770001 0 -0.00053286674062617985 0.019887056289800961 0 -0.00021891849878759621 0.019698851995879087 0 -0.00039494265925899349 0.01972941257330111 0 -0.00025223090168083014 0.019693147328522752 0 -0.00043597740864087362 0.020029506610596274 0 -0.00053286674062617985 0.019887056289800961 0 -0.00043597740864087362 0.020029506610596274 0 -0.00053286674062617985 0.019887056289800961 0 -0.00068948519074163884 0.020115122103558938 0 -0.00071259888210984659 0.020006562207944983 0 -0.00092730538277507933 0.020352341192833211 0 -0.0007009043570305229 0.019845154471165617 0 -0.00068948519074163884 0.020115122103558938 0 -0.00099111746200874757 0.020272597246455408 0 -0.0007009043570305229 0.019845154471165617 0 -0.00053286674062617985 0.019887056289800961 0 -0.00068948519074163884 0.020115122103558938 0 -0.00064196180413256503 0.020069058814859455 0 -0.00093392132100047326 0.020200904270844616 0 -0.00084367014984342763 0.020024653315560501 0 -0.00068948519074163884 0.020115122103558938 0 -0.00056334774299631515 0.020317516311549322 0 -0.00099111746200874757 0.020272597246455408 0 -0.00043597740864087362 0.020029506610596274 0 -0.00068948519074163884 0.020115122103558938 0 -0.00056334774299631515 0.020317516311549322 0 -0.00032930305318024236 0.020225252923170046 0 -0.00043597740864087362 0.020029506610596274 0 -0.00056334774299631515 0.020317516311549322 0 -0.0012238269643501472 0.020539979098007061 0 -0.0011008397523246032 0.02035612351429239 0 -0.001296564054956473 0.020360533353436371 0 -0.0012238269643501472 0.020539979098007061 0 -0.001296564054956473 0.020360533353436371 0 -0.0013626914902853671 0.02048132916926378 0 -0.001296564054956473 0.020360533353436371 0 -0.0013626914902853671 0.02048132916926378 0 -0.0013763927403533695 0.020392793113286681 0 -0.0012238269643501472 0.020539979098007061 0 -0.0013626914902853671 0.02048132916926378 0 -0.0014053115966584002 0.020638691531370785 0 -0.0012238269643501472 0.020539979098007061 0 -0.00095854524258389415 0.020522304745316636 0 -0.0011008397523246032 0.02035612351429239 0 -0.0011008397523246032 0.02035612351429239 0 -0.0010675693356227874 0.020189061698390416 0 -0.0011717141374440031 0.020240612017237414 0 -0.00064196180413256503 0.020069058814859455 0 -0.00095854524258389415 0.020522304745316636 0 -0.00093392132100047326 0.020200904270844616 0 -0.0011008397523246032 0.02035612351429239 0 -0.00093392132100047326 0.020200904270844616 0 -0.0010675693356227874 0.020189061698390416 0 -0.00095854524258389415 0.020522304745316636 0 -0.0011008397523246032 0.02035612351429239 0 -0.00093392132100047326 0.020200904270844616 0 -0.00093392132100047326 0.020200904270844616 0 -0.00084367014984342763 0.020024653315560501 0 -0.00099723761461991615 0.020046480341035088 0 -0.00093392132100047326 0.020200904270844616 0 -0.0010675693356227874 0.020189061698390416 0 -0.00099723761461991615 0.020046480341035088 0 -0.0010675693356227874 0.020189061698390416 0 -0.0011336690670964091 0.020094492759736082 0 -0.00099723761461991615 0.020046480341035088 0 -0.0011336690670964091 0.020094492759736082 0 -0.0012281565538629141 0.020161278599515636 0 -0.0012212945111931086 0.020060958140802769 0 -0.0012281565538629141 0.020161278599515636 0 -0.0013118969821735026 0.020208695347607265 0 -0.0012212945111931086 0.020060958140802769 0 -0.0012281565538629141 0.020161278599515636 0 -0.0011717141374440031 0.020240612017237414 0 -0.0012843507735163814 0.020241277504168514 0 -0.0011336690670964091 0.020094492759736082 0 -0.0012281565538629141 0.020161278599515636 0 -0.0011717141374440031 0.020240612017237414 0 -0.0010675693356227874 0.020189061698390416 0 -0.0011336690670964091 0.020094492759736082 0 -0.0011717141374440031 0.020240612017237414 0 -0.0011008397523246032 0.02035612351429239 0 -0.0011717141374440031 0.020240612017237414 0 -0.001296564054956473 0.020360533353436371 0 -0.001296564054956473 0.020360533353436371 0 -0.0013043475834392609 0.020286920762909579 0 -0.0013897533864145541 0.020325461577257165 0 -0.001296564054956473 0.020360533353436371 0 -0.0012843507735163814 0.020241277504168514 0 -0.0013105120117822267 0.020210468347479638 0 -0.001100122524134933 0.022362092196808972 0 -0.0010961939551745673 0.022575079060439408 0 -0.0011717141374440031 0.020240612017237414 0 -0.001296564054956473 0.020360533353436371 0 -0.0012843507735163814 0.020241277504168514 0 -0.0010961939551745673 0.022575079060439408 0 -0.00087753357290528029 0.024120537236870864 0 -0.0012281565538629141 0.020161278599515636 0 -0.0012843507735163814 0.020241277504168514 0 -0.0013118969821735026 0.020208695347607265 0 -0.0011028386661874239 0.022562704583101213 0 -0.0010961939551745673 0.022575079060439408 0 -0.0010961939551745673 0.022575079060439408 0 -0.00053426299494047503 0.022211264006028641 0 -0.0012599286095463028 0.023237997793332063 0 -0.0012608911649503944 0.023943181919310649 0 -0.0009070903810243754 0.023698946016665504 0 -0.00111217111135125 0.019925499972866804 0 -0.0013184128293946126 0.019912122663964953 0 -0.00091567745945354991 0.019623174460058828 0 -0.0013118969821735026 0.020208695347607265 0 -0.0012212945111931086 0.020060958140802769 0 -0.0013184128293946126 0.019912122663964953 0 -0.00053426299494047503 0.022211264006028641 0 -0.00087753357290528029 0.024120537236870864 0 -0.0012212945111931086 0.020060958140802769 0 -0.00111217111135125 0.019925499972866804 0 -0.0013184128293946126 0.019912122663964953 0 -0.0011336690670964091 0.020094492759736082 0 -0.0012212945111931086 0.020060958140802769 0 -0.00111217111135125 0.019925499972866804 0 -0.00084367014984342763 0.020024653315560501 0 -0.00099723761461991615 0.020046480341035088 0 -0.00093376839441886353 0.019893307475886766 0 -0.0011336690670964091 0.020094492759736082 0 -0.00111217111135125 0.019925499972866804 0 -0.00099723761461991615 0.020046480341035088 0 -0.00111217111135125 0.019925499972866804 0 -0.00099723761461991615 0.020046480341035088 0 -0.00093376839441886353 0.019893307475886766 0 -0.00111217111135125 0.019925499972866804 0 -0.00093376839441886353 0.019893307475886766 0 -0.00091567745945354991 0.019623174460058828 0 -0.00079982558829945569 0.019847333725557022 0 -0.00093376839441886353 0.019893307475886766 0 -0.00091567745945354991 0.019623174460058828 0 -0.00079982558829945569 0.019847333725557022 0 -0.00084367014984342763 0.020024653315560501 0 -0.00093376839441886353 0.019893307475886766 0 -0.0005738890594008967 0.019721103877353759 0 -0.00055051209814080328 0.020187377018415515 0 -0.00072541168501377056 0.019917615903259054 0 -0.00057357280329149187 0.020072299510739734 0 -0.00053426299494047503 0.022211264006028641 0 -0.00053426299494047503 0.022211264006028641 0 -0.00022463927321293638 0.020771422489899605 0 -0.00067180586259888082 0.019406730384636063 0 -0.00067550462760765189 0.019549530045565304 0 -0.00057479613329261472 0.019465187100126503 0 -0.00038190389856015766 0.025643800842619718 0 -0.00057003344756017735 0.025011471524686177 0 -0.00072541168501377056 0.019917615903259054 0 -0.00092520574575899938 0.019916999243372532 0 -0.00083015445226500045 0.019709294058595603 0 -0.00072541168501377056 0.019917615903259054 0 -0.00092520574575899938 0.019916999243372532 0 -0.00070322705708186859 0.020130834432672547 0 0.00080840500859793334 0.030658027001532313 0 0.00018607819911612038 0.030829037981048003 0 0.00024565466162454832 0.029883961637229953 0 0.00080840500859793334 0.030658027001532313 0 0.00055067160163178202 0.031328970641999007 0 0.00018607819911612038 0.030829037981048003 0 0.00080840500859793334 0.030658027001532313 0 0.00055067160163178202 0.031328970641999007 0 0.0009008851966962908 0.031417377566203712 0 0.00055067160163178202 0.031328970641999007 0 0.00022012222251175786 0.031736051639866279 0 0.00018607819911612038 0.030829037981048003 0 0.0009008851966962908 0.031417377566203712 0 0.00060751024338891169 0.031728800685127324 0 0.0010621149295217847 0.031828737109269901 0 0.00055067160163178202 0.031328970641999007 0 0.0009008851966962908 0.031417377566203712 0 0.00060751024338891169 0.031728800685127324 0 0.00055067160163178202 0.031328970641999007 0 0.00060751024338891169 0.031728800685127324 0 0.00022012222251175786 0.031736051639866279 0 0.00080840500859793334 0.030658027001532313 0 0.0009008851966962908 0.031417377566203712 0 0.0013191077624401699 0.031371621292408947 0 -0.00092520574575899938 0.019916999243372532 0 -0.00074418333539040245 0.020209579711218284 0 -0.00070322705708186859 0.020130834432672547 0 -0.00075120196037977999 0.020216002955916444 0 -0.00070322705708186859 0.020130834432672547 0 -0.00069149143564114785 0.020294830230976255 0 -0.00055051209814080328 0.020187377018415515 0 -0.00072541168501377056 0.019917615903259054 0 -0.00070322705708186859 0.020130834432672547 0 -0.00055051209814080328 0.020187377018415515 0 -0.00070322705708186859 0.020130834432672547 0 -0.00069149143564114785 0.020294830230976255 0 -0.00057003344756017735 0.025011471524686177 0 -0.00051442600931747475 0.024859237673833322 0 0.0009008851966962908 0.031417377566203712 0 0.0013191077624401699 0.031371621292408947 0 0.0010621149295217847 0.031828737109269901 0 -0.00057003344756017735 0.025011471524686177 0 -0.00076993680140816198 0.02555337150177607 0 -0.00087753357290528029 0.024120537236870864 0 -0.00076993680140816198 0.02555337150177607 0 -0.00016517065642449003 0.023891021380718108 0 0.00022867776272046415 0.024407885549618907 0 -0.00085598159252749876 0.025158778684239907 0 -0.00057003344756017735 0.025011471524686177 0 -0.00087753357290528029 0.024120537236870864 0 -0.0013043475834392609 0.020286920762909579 0 -0.0013857902483697317 0.020192851100941909 0 -0.001396456445430779 0.020270108196765221 0 -0.0013857902483697317 0.020192851100941909 0 -0.001396456445430779 0.020270108196765221 0 -0.0014781166415987787 0.020253783327782323 0 -0.0013043475834392609 0.020286920762909579 0 -0.001396456445430779 0.020270108196765221 0 -0.0013897533864145541 0.020325461577257165 0 -0.0014704998037215163 0.020336332562013698 0 -0.0014781166415987787 0.020253783327782323 0 -0.0016467879844814127 0.020418120534242641 0 -0.001296564054956473 0.020360533353436371 0 -0.0013897533864145541 0.020325461577257165 0 -0.0013763927403533695 0.020392793113286681 0 -0.001396456445430779 0.020270108196765221 0 -0.0013897533864145541 0.020325461577257165 0 -0.0014704998037215163 0.020336332562013698 0 -0.0013897533864145541 0.020325461577257165 0 -0.0013763927403533695 0.020392793113286681 0 -0.0014542074206242398 0.020410026311077543 0 -0.0013897533864145541 0.020325461577257165 0 -0.0014704998037215163 0.020336332562013698 0 -0.0014542074206242398 0.020410026311077543 0 -0.001396456445430779 0.020270108196765221 0 -0.0014704998037215163 0.020336332562013698 0 -0.0014781166415987787 0.020253783327782323 0 -0.00076993680140816198 0.02555337150177607 0 -0.00078496937817265904 0.026272383918233454 0 -0.00076993680140816198 0.02555337150177607 0 -0.001236299659085192 0.026855912409872198 0 0.00060751024338891169 0.031728800685127324 0 0.0010621149295217847 0.031828737109269901 0 0.00029603252259040509 0.032247500010746728 0 0.00052200254653134138 0.032055396998825807 0 0.00029603252259040509 0.032247500010746728 0 0.00029174387297117334 0.03238748681194463 0 0.00060751024338891169 0.031728800685127324 0 0.00029603252259040509 0.032247500010746728 0 0.00022012222251175786 0.031736051639866279 0 0.00029174387297117334 0.03238748681194463 0 5.1575159271769588e-05 0.032417501501872587 0 6.95101784507598e-06 0.032377809397304003 0 0.00029174387297117334 0.03238748681194463 0 5.1575159271769588e-05 0.032417501501872587 0 0.00013853222200335981 0.032370028430895065 0 0.00029603252259040509 0.032247500010746728 0 0.00029174387297117334 0.03238748681194463 0 0.00013853222200335981 0.032370028430895065 0 -0.0016467879844814127 0.020418120534242641 0 -0.0015049436381428302 0.020548347409712831 0 -0.0017287679811899515 0.020766026909703274 0 -0.0015049436381428302 0.020548347409712831 0 -0.0013626914902853671 0.02048132916926378 0 -0.0014053115966584002 0.020638691531370785 0 -0.0015049436381428302 0.020548347409712831 0 -0.0013626914902853671 0.02048132916926378 0 -0.0014542074206242398 0.020410026311077543 0 -0.0013626914902853671 0.02048132916926378 0 -0.0013763927403533695 0.020392793113286681 0 -0.0014542074206242398 0.020410026311077543 0 -0.0014704998037215163 0.020336332562013698 0 -0.0016467879844814127 0.020418120534242641 0 -0.0014542074206242398 0.020410026311077543 0 -0.0016467879844814127 0.020418120534242641 0 -0.0015049436381428302 0.020548347409712831 0 -0.0014542074206242398 0.020410026311077543 0 9.8364186886299251e-05 0.032560912190968197 0 -3.6758171233267493e-06 0.032424216614894211 0 -0.00014745576632299126 0.032440950908103533 0 9.8364186886299251e-05 0.032560912190968197 0 0.00014812029663658689 0.032425574476966541 0 -3.6758171233267493e-06 0.032424216614894211 0 0.00014812029663658689 0.032425574476966541 0 -3.6758171233267493e-06 0.032424216614894211 0 3.6881792206635498e-05 0.032363009349189904 0 -3.6758171233267493e-06 0.032424216614894211 0 5.1575159271769588e-05 0.032417501501872587 0 3.6881792206635498e-05 0.032363009349189904 0 5.1575159271769588e-05 0.032417501501872587 0 0.00013853222200335981 0.032370028430895065 0 -0.00014745576632299126 0.032440950908103533 0 -3.6758171233267493e-06 0.032424216614894211 0 5.1575159271769588e-05 0.032417501501872587 0 -0.00014745576632299126 0.032440950908103533 0 -0.00014745576632299126 0.032440950908103533 0 2.9543391303497331e-05 0.032004409813522379 0 -0.00068960243604110902 0.031443713119226689 0 0.00013853222200335981 0.032370028430895065 0 -0.00014745576632299126 0.032440950908103533 0 2.9543391303497331e-05 0.032004409813522379 0 0.00029603252259040509 0.032247500010746728 0 0.00013853222200335981 0.032370028430895065 0 2.9543391303497331e-05 0.032004409813522379 0 0.00029603252259040509 0.032247500010746728 0 2.9543391303497331e-05 0.032004409813522379 0 0.00022012222251175786 0.031736051639866279 0 -0.00024160034327011642 0.032313993559754367 0 -0.00028253467768348114 0.032190416179417418 0 -0.00014745576632299126 0.032440950908103533 0 -0.00010801245703926784 0.033223671585892997 0 0.00016118229914742152 0.03287853147062491 0 9.8364186886299251e-05 0.032560912190968197 0 -0.00014745576632299126 0.032440950908103533 0 0.00016118229914742152 0.03287853147062491 0 -0.00010801245703926784 0.033223671585892997 0 0.00013743320815117778 0.033172906936005435 0 0.00016118229914742152 0.03287853147062491 0 -0.00068960243604110902 0.031443713119226689 0 -5.6458141426838509e-05 0.031376459717536012 0 -0.00038249620070389 0.030665068233059901 0 -0.00010801245703926784 0.033223671585892997 0 0.0001347866729195801 0.033549872780864236 0 0.00013743320815117778 0.033172906936005435 0 -0.00015291811865758581 0.030213681888142125 0 -0.00017266356102742676 0.029366882574422808 0 0.00022012222251175786 0.031736051639866279 0 -5.6458141426838509e-05 0.031376459717536012 0 0.00044907629755112796 0.030731882975604436 0 2.9543391303497331e-05 0.032004409813522379 0 0.00022012222251175786 0.031736051639866279 0 -5.6458141426838509e-05 0.031376459717536012 0 2.9543391303497331e-05 0.032004409813522379 0 -0.00068960243604110902 0.031443713119226689 0 -5.6458141426838509e-05 0.031376459717536012 0 0.00044907629755112796 0.030731882975604436 0 -1.5167256391850414e-05 0.030161367556454047 0 -0.00038249620070389 0.030665068233059901 0 -5.6458141426838509e-05 0.031376459717536012 0 0.00044907629755112796 0.030731882975604436 0 -0.00038249620070389 0.030665068233059901 0 -0.00017266356102742676 0.029366882574422808 0 -0.00023968482135993543 0.026482402451994066 0 0.00044907629755112796 0.030731882975604436 0 -1.5167256391850414e-05 0.030161367556454047 0 0.00058704253213302338 0.029625115534350835 0 -1.5167256391850414e-05 0.030161367556454047 0 -0.00038249620070389 0.030665068233059901 0 -0.00056632723153996227 0.030077944180965814 0 -0.00068960243604110902 0.031443713119226689 0 -0.00038249620070389 0.030665068233059901 0 -0.0011511277910536981 0.030282597124665359 0 -0.00028253467768348114 0.032190416179417418 0 -0.00033398869881755446 0.031874781512771407 0 -0.00010801245703926784 0.033223671585892997 0 0.00012551600895648759 0.033802999249009487 0 0.0001347866729195801 0.033549872780864236 0 -0.00038249620070389 0.030665068233059901 0 -0.0011511277910536981 0.030282597124665359 0 -0.00056632723153996227 0.030077944180965814 0 -0.0011511277910536981 0.030282597124665359 0 -0.00056632723153996227 0.030077944180965814 0 -0.00088812593754201627 0.02960472641946545 0 -0.00056632723153996227 0.030077944180965814 0 -0.00031903346321042735 0.029561220543373699 0 -0.00088812593754201627 0.02960472641946545 0 -0.00031903346321042735 0.029561220543373699 0 -0.00088812593754201627 0.02960472641946545 0 -0.00080984290034461187 0.029045101693522982 0 -0.00088812593754201627 0.02960472641946545 0 -0.00080984290034461187 0.029045101693522982 0 -0.001609532530676016 0.029045577445303682 0 -0.00031903346321042735 0.029561220543373699 0 -0.00080984290034461187 0.029045101693522982 0 -0.00015514581502507673 0.028550202957282965 0 -0.00080984290034461187 0.029045101693522982 0 -0.0010116075625371493 0.028346976334531346 0 -0.001609532530676016 0.029045577445303682 0 -0.00080984290034461187 0.029045101693522982 0 -0.0010116075625371493 0.028346976334531346 0 -0.00015514581502507673 0.028550202957282965 0 4.898307230023204e-05 0.027587486561232766 0 -0.00023968482135993543 0.026482402451994066 0 -0.00014238160064834835 0.028306030122306633 0 0.00056058117766472992 0.029219366902451725 0 0.00068986787942178728 0.027789344326560807 0 -0.00031903346321042735 0.029561220543373699 0 -0.00015514581502507673 0.028550202957282965 0 0.00058704253213302338 0.029625115534350835 0 -1.5167256391850414e-05 0.030161367556454047 0 -0.00031903346321042735 0.029561220543373699 0 0.00058704253213302338 0.029625115534350835 0 -1.5167256391850414e-05 0.030161367556454047 0 -0.00056632723153996227 0.030077944180965814 0 -0.00031903346321042735 0.029561220543373699 0 -0.00038190389856015766 0.025643800842619718 0 -0.00023968482135993543 0.026482402451994066 0 -0.00092520574575899938 0.019916999243372532 0 -0.001055197941899903 0.019657773486876324 0 -0.00083015445226500045 0.019709294058595603 0 -0.001055197941899903 0.019657773486876324 0 -0.00083015445226500045 0.019709294058595603 0 -0.00079771082818444277 0.019461135260221595 0 -0.0005738890594008967 0.019721103877353759 0 -0.00072541168501377056 0.019917615903259054 0 -0.00083015445226500045 0.019709294058595603 0 -0.0005738890594008967 0.019721103877353759 0 -0.00083015445226500045 0.019709294058595603 0 -0.00079771082818444277 0.019461135260221595 0 -0.001055197941899903 0.019657773486876324 0 -0.00087599252691776888 0.019377391225845877 0 -0.00091707104762780089 0.019315020074437916 0 -0.001055197941899903 0.019657773486876324 0 -0.00079771082818444277 0.019461135260221595 0 -0.00087599252691776888 0.019377391225845877 0 -0.00023968482135993543 0.026482402451994066 0 -0.0001068285241860967 0.023927351169538012 0 -0.00091707104762780089 0.019315020074437916 0 -0.00088802122382042152 0.019317099734132058 0 -0.00084557778457938076 0.019401577021374444 0 -0.00087599252691776888 0.019377391225845877 0 -0.00091707104762780089 0.019315020074437916 0 -0.00088802122382042152 0.019317099734132058 0 -0.00079771082818444277 0.019461135260221595 0 -0.00087599252691776888 0.019377391225845877 0 -0.00077076494438677262 0.019252751629351719 0 -0.00066238283877427138 0.019317693491861569 0 -0.00079771082818444277 0.019461135260221595 0 -0.00077076494438677262 0.019252751629351719 0 -0.00088802122382042152 0.019317099734132058 0 -0.00077076494438677262 0.019252751629351719 0 -0.00075582041319719178 0.019171171046107556 0 -0.00087599252691776888 0.019377391225845877 0 -0.00088802122382042152 0.019317099734132058 0 -0.00077076494438677262 0.019252751629351719 0 -0.00088802122382042152 0.019317099734132058 0 -0.00075582041319719178 0.019171171046107556 0 -0.00076203089579690965 0.019038421445621411 0 -0.00082101919495368404 0.019213342513516585 0 -0.00079512667849935821 0.019175767791765955 0 -0.00088802122382042152 0.019317099734132058 0 -0.00085892991169177169 0.019464143710407712 0 -0.00086199841180073305 0.01947967711348491 0 -0.00083432889906330738 0.019475697709566153 0 -0.00085892991169177169 0.019464143710407712 0 -0.00084557778457938076 0.019401577021374444 0 -0.00077277948186338743 0.019470440568078385 0 -0.00091707104762780089 0.019315020074437916 0 -0.00084557778457938076 0.019401577021374444 0 -0.00088802122382042152 0.019317099734132058 0 -0.00085892991169177169 0.019464143710407712 0 -0.00084557778457938076 0.019401577021374444 0 -5.9455549986851111e-05 0.022887630730117424 0 -0.0001068285241860967 0.023927351169538012 0 -0.00077277948186338743 0.019470440568078385 0 -0.00083432889906330738 0.019475697709566153 0 -0.00084557778457938076 0.019401577021374444 0 0.00084079144561161035 0.026240119299945578 0 0.00068986787942178728 0.027789344326560807 0 4.3916392009234533e-05 0.026993110279514905 0 -5.0954047719618303e-05 0.026265883490428642 0 0.00084079144561161035 0.026240119299945578 0 4.3916392009234533e-05 0.026993110279514905 0 -5.0954047719618303e-05 0.026265883490428642 0 4.3916392009234533e-05 0.026993110279514905 0 -0.00058705216508387009 0.02671345953030866 0 4.3916392009234533e-05 0.026993110279514905 0 -0.00058705216508387009 0.02671345953030866 0 -0.00092319374504800235 0.027398672706376265 0 -0.00090055328114825594 0.026191745345080553 0 -0.00058705216508387009 0.02671345953030866 0 -0.0012017643199649126 0.026877287192693604 0 -0.00058705216508387009 0.02671345953030866 0 -0.00092319374504800235 0.027398672706376265 0 -0.0012017643199649126 0.026877287192693604 0 4.3916392009234533e-05 0.026993110279514905 0 -0.00092319374504800235 0.027398672706376265 0 -7.9009245279422046e-05 0.027625060554003579 0 -0.0010116075625371493 0.028346976334531346 0 -0.00015514581502507673 0.028550202957282965 0 -0.00092319374504800235 0.027398672706376265 0 -0.00014238160064834835 0.028306030122306633 0 -0.00092319374504800235 0.027398672706376265 0 -7.9009245279422046e-05 0.027625060554003579 0 4.898307230023204e-05 0.027587486561232766 0 -0.00016876994770950943 0.027509255028970607 0 -0.00014238160064834835 0.028306030122306633 0 0.00068986787942178728 0.027789344326560807 0 -7.9009245279422046e-05 0.027625060554003579 0 0.00068986787942178728 0.027789344326560807 0 4.3916392009234533e-05 0.026993110279514905 0 -7.9009245279422046e-05 0.027625060554003579 0 0.00025458053205411433 0.034427721675444264 0 0.00027645362930292375 0.034431626930408181 0 0.00026050968160278406 0.03442827769143926 0 -0.0010116075625371493 0.028346976334531346 0 -0.00092319374504800235 0.027398672706376265 0 -0.0020651149842209676 0.027756446240992907 0 0.00019220036684763385 0.029254281967057042 0 7.1258181711131372e-05 0.031584959333235074 0 -0.001562334384920224 0.026342420538490185 0 -0.0020651149842209676 0.027756446240992907 0 -0.0012017643199649126 0.026877287192693604 0 -0.00092319374504800235 0.027398672706376265 0 -0.0020651149842209676 0.027756446240992907 0 -0.0012017643199649126 0.026877287192693604 0 -0.001562334384920224 0.026342420538490185 0 -0.00090055328114825594 0.026191745345080553 0 -0.0012017643199649126 0.026877287192693604 0 0.00054357498267932746 0.032545965371762291 0 7.1258181711131372e-05 0.031584959333235074 0 0.0010343771042448317 0.031013897518537271 0 0.00086159724197707116 0.031019270907860916 0 0.00092998305981938491 0.030782038227654358 0 0.00027824728080340317 0.034432308423142641 0 0.00025458053205411433 0.034427721675444264 0 0.00027645362930292375 0.034431626930408181 0 0.00029185041337159468 0.034436840650279639 0 0.00027824728080340317 0.034432308423142641 0 0.00027645362930292375 0.034431626930408181 0 0.00029185041337159468 0.034436840650279639 0 0.00027645362930292375 0.034431626930408181 0 0.00029644072186884169 0.034425629912547155 0 0.00029185041337159468 0.034436840650279639 0 0.00029644072186884169 0.034425629912547155 0 0.00031269103648603005 0.03441042942819806 0 0.00032872098557905848 0.03410293702329989 0 0.00019910961885366961 0.03453572611797677 0 0.00030053790205462861 0.034429695771434267 0 0.00034342871469212802 0.034434345150362283 0 0.00031269103648603005 0.03441042942819806 0 0.00029644072186884169 0.034425629912547155 0 0.00030053790205462861 0.034429695771434267 0 0.00031269103648603005 0.03441042942819806 0 0.00027645362930292375 0.034431626930408181 0 0.00030053790205462861 0.034429695771434267 0 0.00026050968160278406 0.03442827769143926 0 0.00027645362930292375 0.034431626930408181 0 0.00029644072186884169 0.034425629912547155 0 0.00030053790205462861 0.034429695771434267 0 0.00026050968160278406 0.03442827769143926 0 0.00029885966581569837 0.034407573710955902 0 0.00019151997348588323 0.034403207181216706 0 0.00030053790205462861 0.034429695771434267 0 0.00026050968160278406 0.03442827769143926 0 0.00029885966581569837 0.034407573710955902 0 0.00030053790205462861 0.034429695771434267 0 0.00029885966581569837 0.034407573710955902 0 0.00034342871469212802 0.034434345150362283 0 0.00029885966581569837 0.034407573710955902 0 0.00034342871469212802 0.034434345150362283 0 0.00040886074059477451 0.034389862728960371 0 0.00029885966581569837 0.034407573710955902 0 0.00027105557735550143 0.034302194853638023 0 0.00019151997348588323 0.034403207181216706 0 0.00029885966581569837 0.034407573710955902 0 0.00027105557735550143 0.034302194853638023 0 0.00040886074059477451 0.034389862728960371 0 0.00012804297616646578 0.033747707564163482 0 0.00017747845857550251 0.033809529868330232 0 0.00017195038789044647 0.033870444507460205 0 0.00012804297616646578 0.033747707564163482 0 0.00017139570074948594 0.033788208720053906 0 0.00017747845857550251 0.033809529868330232 0 0.00016208634267909794 0.033641360090622255 0 0.00012804297616646578 0.033747707564163482 0 0.0001900174027167325 0.033737650316355984 0 0.00025458053205411433 0.034427721675444264 0 0.00026050968160278406 0.03442827769143926 0 0.00019151997348588323 0.034403207181216706 0 7.1258181711131372e-05 0.031584959333235074 0 -0.00011389140945719556 0.033567995388233324 0 7.1258181711131372e-05 0.031584959333235074 0 -0.00030709522687784351 0.031486185978492155 0 -0.0010116075625371493 0.028346976334531346 0 -0.0020651149842209676 0.027756446240992907 0 -0.001609532530676016 0.029045577445303682 0 -0.0011511277910536981 0.030282597124665359 0 -0.00088812593754201627 0.02960472641946545 0 -0.001609532530676016 0.029045577445303682 0 -0.00033398869881755446 0.031874781512771407 0 -0.00030709522687784351 0.031486185978492155 0 0.00012804297616646578 0.033747707564163482 0 0.0001900174027167325 0.033737650316355984 0 0.00017139570074948594 0.033788208720053906 0 0.00012551600895648759 0.033802999249009487 0 0.0001900174027167325 0.033737650316355984 0 0.00017139570074948594 0.033788208720053906 0 0.00012551600895648759 0.033802999249009487 0 0.00017139570074948594 0.033788208720053906 0 0.00018194112044497905 0.033768329435358929 0 0.00012551600895648759 0.033802999249009487 0 0.00018194112044497905 0.033768329435358929 0 0.0001347866729195801 0.033549872780864236 0 0.00018194112044497905 0.033768329435358929 0 0.0001347866729195801 0.033549872780864236 0 0.0001562308012761971 0.033962259343725314 0 0.00017139570074948594 0.033788208720053906 0 0.00018194112044497905 0.033768329435358929 0 0.00017747845857550251 0.033809529868330232 0 0.00012804297616646578 0.033747707564163482 0 0.00017195038789044647 0.033870444507460205 0 0.00017512569936309642 0.034018713360811123 0 -0.00011389140945719556 0.033567995388233324 0 -7.0872545011648911e-05 0.03380889944270165 0 0.00018194112044497905 0.033768329435358929 0 0.00017195038789044647 0.033870444507460205 0 0.0001562308012761971 0.033962259343725314 0 0.00018194112044497905 0.033768329435358929 0 0.00017747845857550251 0.033809529868330232 0 0.00017195038789044647 0.033870444507460205 0 0.00017195038789044647 0.033870444507460205 0 0.0001562308012761971 0.033962259343725314 0 0.00017512569936309642 0.034018713360811123 0 0.00069465768411121765 0.033154516240735087 0 0.00045052753991299034 0.033153758778514147 0 0.00058794951597629928 0.032933485960264998 0 0.00034753034046852043 0.033054078448087172 0 0.00045052753991299034 0.033153758778514147 0 0.00058794951597629928 0.032933485960264998 0 0.00069465768411121765 0.033154516240735087 0 0.00058794951597629928 0.032933485960264998 0 0.00080584785283799244 0.03293564335617289 0 0.00019899205616598812 0.033658057153213281 0 0.00039173504875220447 0.033642627061522344 0 0.0001347866729195801 0.033549872780864236 0 0.00069465768411121765 0.033154516240735087 0 0.00045052753991299034 0.033153758778514147 0 0.0001347866729195801 0.033549872780864236 0 0.00034753034046852043 0.033054078448087172 0 0.00013743320815117778 0.033172906936005435 0 0.0001347866729195801 0.033549872780864236 0 0.00034753034046852043 0.033054078448087172 0 0.00045052753991299034 0.033153758778514147 0 0.00034753034046852043 0.033054078448087172 0 0.00013743320815117778 0.033172906936005435 0 0.00016118229914742152 0.03287853147062491 0 0.00034753034046852043 0.033054078448087172 0 0.00016118229914742152 0.03287853147062491 0 0.00033471680151527742 0.03268650314039942 0 0.00034753034046852043 0.033054078448087172 0 0.00033471680151527742 0.03268650314039942 0 0.00058794951597629928 0.032933485960264998 0 9.8364186886299251e-05 0.032560912190968197 0 0.00016118229914742152 0.03287853147062491 0 0.00033471680151527742 0.03268650314039942 0 0.00058794951597629928 0.032933485960264998 0 0.0005483634693913839 0.032643607593955716 0 0.00074202394537592952 0.032738611393915776 0 0.00033471680151527742 0.03268650314039942 0 0.00058794951597629928 0.032933485960264998 0 0.0005483634693913839 0.032643607593955716 0 0.0005483634693913839 0.032643607593955716 0 0.00039723191292776307 0.03245741019840815 0 0.00068018982077922441 0.032446504861858731 0 0.0005483634693913839 0.032643607593955716 0 0.00074202394537592952 0.032738611393915776 0 0.00068018982077922441 0.032446504861858731 0 0.00014812029663658689 0.032425574476966541 0 0.00033471680151527742 0.03268650314039942 0 0.00039723191292776307 0.03245741019840815 0 0.00033471680151527742 0.03268650314039942 0 0.0005483634693913839 0.032643607593955716 0 0.00039723191292776307 0.03245741019840815 0 9.8364186886299251e-05 0.032560912190968197 0 0.00014812029663658689 0.032425574476966541 0 0.00033471680151527742 0.03268650314039942 0 0.0009152169349672391 0.032582433086606764 0 0.0011749626636311148 0.032675994651289272 0 0.0010683789646122399 0.032343946190708205 0 0.0009152169349672391 0.032582433086606764 0 0.00093483571539471424 0.0328036485061005 0 0.0011749626636311148 0.032675994651289272 0 0.0009152169349672391 0.032582433086606764 0 0.00074202394537592952 0.032738611393915776 0 0.00068018982077922441 0.032446504861858731 0 0.0009152169349672391 0.032582433086606764 0 0.00074202394537592952 0.032738611393915776 0 0.00093483571539471424 0.0328036485061005 0 0.00080584785283799244 0.03293564335617289 0 0.00093483571539471424 0.0328036485061005 0 0.0010529262585263904 0.03298123805055414 0 0.00074202394537592952 0.032738611393915776 0 0.00080584785283799244 0.03293564335617289 0 0.00093483571539471424 0.0328036485061005 0 0.00058794951597629928 0.032933485960264998 0 0.00074202394537592952 0.032738611393915776 0 0.00080584785283799244 0.03293564335617289 0 0.00093483571539471424 0.0328036485061005 0 0.0010529262585263904 0.03298123805055414 0 0.0011749626636311148 0.032675994651289272 0 0.0004035927951413399 0.033965522117142939 0 0.00035122637140207354 0.034152403119196095 0 0.00058305349003213861 0.034041260707602661 0 0.00039173504875220447 0.033642627061522344 0 0.00071701292495752729 0.033658405392206707 0 0.00069465768411121765 0.033154516240735087 0 0.00080584785283799244 0.03293564335617289 0 0.0010529262585263904 0.03298123805055414 0 0.0004035927951413399 0.033965522117142939 0 0.00017512569936309642 0.034018713360811123 0 0.00035122637140207354 0.034152403119196095 0 0.0001562308012761971 0.033962259343725314 0 0.0004035927951413399 0.033965522117142939 0 0.00017512569936309642 0.034018713360811123 0 0.00027105557735550143 0.034302194853638023 0 0.00019151997348588323 0.034403207181216706 0 0.00017512569936309642 0.034018713360811123 0 0.00027105557735550143 0.034302194853638023 0 0.00017512569936309642 0.034018713360811123 0 0.00035122637140207354 0.034152403119196095 0 0.00027105557735550143 0.034302194853638023 0 0.00035122637140207354 0.034152403119196095 0 0.00040886074059477451 0.034389862728960371 0 0.00035122637140207354 0.034152403119196095 0 0.00040886074059477451 0.034389862728960371 0 0.00058305349003213861 0.034041260707602661 0 0.00040886074059477451 0.034389862728960371 0 0.00027224058400741337 0.034786121394430353 0 0.00030096348938105137 0.034554895678564485 0 0.00040457725785150354 0.034541923878649648 0 0.00042265598957816797 0.034555968693707015 0 0.00040886074059477451 0.034389862728960371 0 0.00070669519032042275 0.034204994373004886 0 0.00058305349003213861 0.034041260707602661 0 0.00027224058400741337 0.034786121394430353 0 5.9983101643467113e-05 0.034982958488193557 0 2.1193263506473249e-05 0.03491363200556629 0 0.00027224058400741337 0.034786121394430353 0 2.1193263506473249e-05 0.03491363200556629 0 0.00030096348938105137 0.034554895678564485 0 0.00076392269164410722 0.033993305888711835 0 0.00085508218979301958 0.03396111082274296 0 0.00093696938594550283 0.03406002138748556 0 0.00042265598957816797 0.034555968693707015 0 0.00040030552877694237 0.034611307785951242 0 0.00070669519032042275 0.034204994373004886 0 0.00076392269164410722 0.033993305888711835 0 0.00093696938594550283 0.03406002138748556 0 0.00076392269164410722 0.033993305888711835 0 0.00085508218979301958 0.03396111082274296 0 0.00077673602861800032 0.033908655594082772 0 0.0004035927951413399 0.033965522117142939 0 0.00058305349003213861 0.034041260707602661 0 0.00077512407402014231 0.033880108237877828 0 0.00070669519032042275 0.034204994373004886 0 0.00076392269164410722 0.033993305888711835 0 0.00058305349003213861 0.034041260707602661 0 0.00076392269164410722 0.033993305888711835 0 0.00058305349003213861 0.034041260707602661 0 0.00077512407402014231 0.033880108237877828 0 0.00071701292495752729 0.033658405392206707 0 0.00084108089507651574 0.033859658790855091 0 0.0010529262585263904 0.03298123805055414 0 0.001432823055992774 0.032871393680918751 0 0.0011749626636311148 0.032675994651289272 0 0.00083820704097667159 0.033871113396166733 0 0.00084108089507651574 0.033859658790855091 0 0.00085508218979301958 0.03396111082274296 0 0.00077673602861800032 0.033908655594082772 0 0.00093744104023684512 0.033928545554784792 0 0.00084108089507651574 0.033859658790855091 0 0.0007410566006374299 0.033750049340721115 0 3.8651475745055567e-05 0.034938624914968575 0 2.5210262436922855e-05 0.034981826036722771 0 1.3638702963365444e-05 0.034961147527917812 0 2.5210262436922855e-05 0.034981826036722771 0 6.1304639951220498e-06 0.034987433959346156 0 1.3638702963365444e-05 0.034961147527917812 0 0.0014599023063369501 0.032532629150990644 0 0.0011749626636311148 0.032675994651289272 0 0.0012996432640369996 0.032352611331240094 0 0.001432823055992774 0.032871393680918751 0 0.0014599023063369501 0.032532629150990644 0 0.0011749626636311148 0.032675994651289272 0 1.589304294308013e-06 0.034997376020119174 0 1.6288655350204866e-09 0.034999989059835403 0 1.0622055007286211e-06 0.03499854336060787 0 1.589304294308013e-06 0.034997376020119174 0 2.4572290672050184e-06 0.034994321826690399 0 1.3801423358139051e-06 0.034996907693718667 0 1.589304294308013e-06 0.034997376020119174 0 1.6288655350204866e-09 0.034999989059835403 0 2.4572290672050184e-06 0.034994321826690399 0 0.00021472934403970315 0.034763612780793721 0 0.00022350353906964117 0.034715525589402177 0 6.1304639951220498e-06 0.034987433959346156 0 -1.232803695598775e-05 0.034959277150870105 0 1.3638702963365444e-05 0.034961147527917812 0 2.4572290672050184e-06 0.034994321826690399 0 6.1304639951220498e-06 0.034987433959346156 0 1.3801423358139051e-06 0.034996907693718667 0 3.8651475745055567e-05 0.034938624914968575 0 1.3638702963365444e-05 0.034961147527917812 0 -1.5534725263777031e-05 0.034954485631800446 0 0.00084108089507651574 0.033859658790855091 0 0.00022695360980251031 0.034695000513549693 0 0.00077673602861800032 0.033908655594082772 0 0.00093744104023684512 0.033928545554784792 0 0.0010627158090638726 0.033842262022736241 0 -1.232803695598775e-05 0.034959277150870105 0 1.3638702963365444e-05 0.034961147527917812 0 -1.5534725263777031e-05 0.034954485631800446 0 0.00085508218979301958 0.03396111082274296 0 0.00093744104023684512 0.033928545554784792 0 0.00094680241780538898 0.033976614965488101 0 0.00093744104023684512 0.033928545554784792 0 0.0010310321918352494 0.033946376468855656 0 0.00094680241780538898 0.033976614965488101 0 0.00093744104023684512 0.033928545554784792 0 0.0010310321918352494 0.033946376468855656 0 0.0010627158090638726 0.033842262022736241 0 0.00022695360980251031 0.034695000513549693 0 0.00012070078400144137 0.034815915004131476 0 1.1825762668078456e-06 0.034997633965390816 0 1.0622055007286211e-06 0.03499854336060787 0 7.9574585481259742e-07 0.034999286129863118 0 0.0010310321918352494 0.033946376468855656 0 0.0010627158090638726 0.033842262022736241 0 0.0011349337815490606 0.033953959856269186 0 1.6288655350204866e-09 0.034999989059835403 0 1.0622055007286211e-06 0.03499854336060787 0 2.7772527469761082e-09 0.034999997866240688 0 1.3801423358139051e-06 0.034996907693718667 0 1.1825762668078456e-06 0.034997633965390816 0 1.0622055007286211e-06 0.03499854336060787 0 1.589304294308013e-06 0.034997376020119174 0 1.3801423358139051e-06 0.034996907693718667 0 1.0622055007286211e-06 0.03499854336060787 0 0.00022350353906964117 0.034715525589402177 0 0.00022695360980251031 0.034695000513549693 0 1.0622055007286211e-06 0.03499854336060787 0 7.9574585481259742e-07 0.034999286129863118 0 2.7772527469761082e-09 0.034999997866240688 0 0.00012070078400144137 0.034815915004131476 0 2.3395803054865785e-07 0.034999034402113605 0 1.071318543087563e-07 0.034999707679536148 0 -1.9179762711224314e-10 0.034999998934477666 0 3.4064582158608434e-10 0.035000000016496266 0 1.4390384836634981e-05 0.035016775157825045 0 4.0783536577640145e-11 0.034999717705195277 0 5.9983101643467113e-05 0.034982958488193557 0 0.00012070078400144137 0.034815915004131476 0 6.1965268298000744e-07 0.034999376876789334 0 4.0783536577640145e-11 0.034999717705195277 0 5.9983101643467113e-05 0.034982958488193557 0 2.1193263506473249e-05 0.03491363200556629 0 0.00012070078400144137 0.034815915004131476 0 0.00040030552877694237 0.034611307785951242 0 0.0010310321918352494 0.033946376468855656 0 0.0011349337815490606 0.033953959856269186 0 0.00093696938594550283 0.03406002138748556 0 0.00085508218979301958 0.03396111082274296 0 0.00094680241780538898 0.033976614965488101 0 0.00093696938594550283 0.03406002138748556 0 0.0010310321918352494 0.033946376468855656 0 0.00094680241780538898 0.033976614965488101 0 0.00093696938594550283 0.03406002138748556 0 4.0783536577640145e-11 0.034999717705195277 0 2.1193263506473249e-05 0.03491363200556629 0 6.885425551080561e-09 0.034999895616420001 0 2.1193263506473249e-05 0.03491363200556629 0 9.1259548831134587e-06 0.034980280226016076 0 6.885425551080561e-09 0.034999895616420001 0 7.4674724055547896e-05 0.034777657741135705 0 0.00012374210762714063 0.034694679760566678 0 2.1193263506473249e-05 0.03491363200556629 0 0.00030096348938105137 0.034554895678564485 0 0.00022267663917398435 0.03444081852836603 0 0.00034342871469212802 0.034434345150362283 0 0.00040886074059477451 0.034389862728960371 0 0.00030096348938105137 0.034554895678564485 0 0.00034342871469212802 0.034434345150362283 0 0.00030096348938105137 0.034554895678564485 0 0.00022267663917398435 0.03444081852836603 0 0.00012374210762714063 0.034694679760566678 0 0.00019910961885366961 0.03453572611797677 0 0.00034342871469212802 0.034434345150362283 0 0.00022267663917398435 0.03444081852836603 0 0.00031269103648603005 0.03441042942819806 0 9.1259548831134587e-06 0.034980280226016076 0 1.2153454347316408e-05 0.034980915978380732 0 0.00018404567754805369 0.035050597355001517 0 0.00026555288404865921 0.034511133471081555 0 0.00018404567754805369 0.035050597355001517 0 4.6025126411387338e-06 0.03485841345024502 0 0.00026555288404865921 0.034511133471081555 0 0.00074390925166740822 0.03459947783656963 0 0.00018404567754805369 0.035050597355001517 0 1.2153454347316408e-05 0.034980915978380732 0 0.00018404567754805369 0.035050597355001517 0 4.6025126411387338e-06 0.03485841345024502 0 1.2153454347316408e-05 0.034980915978380732 0 4.6025126411387338e-06 0.03485841345024502 0 8.8079351007161069e-06 0.034943434155615169 0 9.1259548831134587e-06 0.034980280226016076 0 1.2153454347316408e-05 0.034980915978380732 0 6.885425551080561e-09 0.034999895616420001 0 2.6062298728561428e-05 0.034963729166093631 0 8.8079351007161069e-06 0.034943434155615169 0 6.885425551080561e-09 0.034999895616420001 0 1.2153454347316408e-05 0.034980915978380732 0 8.8079351007161069e-06 0.034943434155615169 0 6.885425551080561e-09 0.034999895616420001 0 -3.7732976621816103e-05 0.034974453348529874 0 -2.6156528052065339e-05 0.034992163299420169 0 -3.0649742340090702e-05 0.035002480528275197 0 2.8029848455394029e-05 0.034751053638067533 0 4.4089739811423824e-05 0.034639070652426628 0 -2.33821463904573e-05 0.034984702102439355 0 -1.5774697194129098e-05 0.034992345146499244 0 -1.5979535097750791e-05 0.034978033535420575 0 -1.5774697194129098e-05 0.034992345146499244 0 -3.6743489851122787e-06 0.034989956104031737 0 -1.5979535097750791e-05 0.034978033535420575 0 -2.33821463904573e-05 0.034984702102439355 0 -3.7732976621816103e-05 0.034974453348529874 0 -2.6156528052065339e-05 0.034992163299420169 0 -2.33821463904573e-05 0.034984702102439355 0 -3.7732976621816103e-05 0.034974453348529874 0 -1.5979535097750791e-05 0.034978033535420575 0 -2.6156528052065339e-05 0.034992163299420169 0 -2.1151734097291399e-05 0.035000817744096156 0 -3.0649742340090702e-05 0.035002480528275197 0 -2.6156528052065339e-05 0.034992163299420169 0 -1.5774697194129098e-05 0.034992345146499244 0 -2.1151734097291399e-05 0.035000817744096156 0 -2.33821463904573e-05 0.034984702102439355 0 -2.6156528052065339e-05 0.034992163299420169 0 -1.5774697194129098e-05 0.034992345146499244 0 -1.5774697194129098e-05 0.034992345146499244 0 -1.3511694336638849e-05 0.034999650500932213 0 -2.1151734097291399e-05 0.035000817744096156 0 -1.5774697194129098e-05 0.034992345146499244 0 -1.3511694336638849e-05 0.034999650500932213 0 -8.1080325802268644e-06 0.034995283362550748 0 -1.3511694336638849e-05 0.034999650500932213 0 -8.1080325802268644e-06 0.034995283362550748 0 -1.9424927013544572e-06 0.03499909920874502 0 -1.5774697194129098e-05 0.034992345146499244 0 -8.1080325802268644e-06 0.034995283362550748 0 -3.6743489851122787e-06 0.034989956104031737 0 -8.1080325802268644e-06 0.034995283362550748 0 -1.9424927013544572e-06 0.03499909920874502 0 -3.6743489851122787e-06 0.034989956104031737 0 -2.72540353989353e-09 0.035000006609709235 0 -3.6743489851122787e-06 0.034989956104031737 0 2.286373672176635e-09 0.034999916774358618 0 -2.72540353989353e-09 0.035000006609709235 0 -1.9424927013544572e-06 0.03499909920874502 0 -3.6743489851122787e-06 0.034989956104031737 0 -3.6743489851122787e-06 0.034989956104031737 0 2.286373672176635e-09 0.034999916774358618 0 -7.8091243771833006e-06 0.034974293599316107 0 -3.6743489851122787e-06 0.034989956104031737 0 -7.8091243771833006e-06 0.034974293599316107 0 -1.5979535097750791e-05 0.034978033535420575 0 -7.8091243771833006e-06 0.034974293599316107 0 -2.184250026107075e-05 0.034952097271487188 0 -1.0676639913372788e-05 0.034943817319568825 0 -2.184250026107075e-05 0.034952097271487188 0 -3.6436404737599482e-05 0.034977879380042563 0 -4.6423437445326638e-05 0.034883845640545794 0 -7.8091243771833006e-06 0.034974293599316107 0 -1.5979535097750791e-05 0.034978033535420575 0 -2.184250026107075e-05 0.034952097271487188 0 -3.7732976621816103e-05 0.034974453348529874 0 -1.5979535097750791e-05 0.034978033535420575 0 -2.184250026107075e-05 0.034952097271487188 0 -3.7732976621816103e-05 0.034974453348529874 0 -2.184250026107075e-05 0.034952097271487188 0 -3.6436404737599482e-05 0.034977879380042563 0 -2.106450791844389e-05 0.034808248865970441 0 -7.7027919644129004e-05 0.03469117162273859 0 -4.6423437445326638e-05 0.034883845640545794 0 9.4515270649644771e-05 0.034710150773884098 0 6.600388095191554e-05 0.034777319145225145 0 -2.106450791844389e-05 0.034808248865970441 0 -2.8625796658156671e-05 0.03472451404623967 0 -2.5506507206938826e-06 0.034727231335927547 0 -2.8625796658156671e-05 0.03472451404623967 0 -2.5506507206938826e-06 0.034727231335927547 0 -1.9338285587197405e-05 0.034677131801820867 0 -2.8625796658156671e-05 0.03472451404623967 0 -7.7027919644129004e-05 0.03469117162273859 0 -1.9338285587197405e-05 0.034677131801820867 0 -2.106450791844389e-05 0.034808248865970441 0 -2.8625796658156671e-05 0.03472451404623967 0 -7.7027919644129004e-05 0.03469117162273859 0 -2.106450791844389e-05 0.034808248865970441 0 -2.5506507206938826e-06 0.034727231335927547 0 2.376594816824483e-05 0.034755601739865749 0 -2.5506507206938826e-06 0.034727231335927547 0 3.291997124175659e-05 0.034676833420546074 0 6.9190744736109246e-06 0.034680262077880476 0 -2.5506507206938826e-06 0.034727231335927547 0 6.9190744736109246e-06 0.034680262077880476 0 -1.9338285587197405e-05 0.034677131801820867 0 3.291997124175659e-05 0.034676833420546074 0 6.1877416169676727e-05 0.034675872383328567 0 2.376594816824483e-05 0.034755601739865749 0 -2.5506507206938826e-06 0.034727231335927547 0 3.291997124175659e-05 0.034676833420546074 0 2.376594816824483e-05 0.034755601739865749 0 3.291997124175659e-05 0.034676833420546074 0 1.2108249446186783e-05 0.034642557480170345 0 4.0893869220187848e-05 0.03462949261700856 0 1.2108249446186783e-05 0.034642557480170345 0 -1.9338285587197405e-05 0.034677131801820867 0 -1.9394528841763893e-05 0.034628132467176401 0 3.291997124175659e-05 0.034676833420546074 0 6.9190744736109246e-06 0.034680262077880476 0 1.2108249446186783e-05 0.034642557480170345 0 6.9190744736109246e-06 0.034680262077880476 0 1.2108249446186783e-05 0.034642557480170345 0 -1.9338285587197405e-05 0.034677131801820867 0 1.2108249446186783e-05 0.034642557480170345 0 -1.9394528841763893e-05 0.034628132467176401 0 1.5475424646390578e-05 0.034601087642187139 0 4.0893869220187848e-05 0.03462949261700856 0 1.5475424646390578e-05 0.034601087642187139 0 5.5006895449580358e-05 0.034590967022264989 0 1.2108249446186783e-05 0.034642557480170345 0 4.0893869220187848e-05 0.03462949261700856 0 1.5475424646390578e-05 0.034601087642187139 0 -3.6436404737599482e-05 0.034977879380042563 0 -6.485634714003502e-07 0.034879052427070123 0 -4.4382858844143037e-05 0.034899527598297182 0 -3.7732976621816103e-05 0.034974453348529874 0 -3.6436404737599482e-05 0.034977879380042563 0 -4.4382858844143037e-05 0.034899527598297182 0 9.4515270649644771e-05 0.034710150773884098 0 0.0001993640210595472 0.034439042664008809 0 -7.7027919644129004e-05 0.03469117162273859 0 -1.9394528841763893e-05 0.034628132467176401 0 -4.7295399215571496e-05 0.034586634671075318 0 -7.7027919644129004e-05 0.03469117162273859 0 -1.9338285587197405e-05 0.034677131801820867 0 -1.9394528841763893e-05 0.034628132467176401 0 -4.7295399215571496e-05 0.034586634671075318 0 1.0694503763659574e-05 0.034558012607506711 0 -2.6459953671853492e-05 0.034513977248176612 0 0.0001993640210595472 0.034439042664008809 0 0.00045204211386823249 0.033621475670700882 0 -6.485634714003502e-07 0.034879052427070123 0 -3.838812413545748e-05 0.034784853186804562 0 -4.4382858844143037e-05 0.034899527598297182 0 -1.9394528841763893e-05 0.034628132467176401 0 -4.7295399215571496e-05 0.034586634671075318 0 -9.6752929828858343e-06 0.034592561303732138 0 -4.7295399215571496e-05 0.034586634671075318 0 -9.6752929828858343e-06 0.034592561303732138 0 1.0694503763659574e-05 0.034558012607506711 0 1.5475424646390578e-05 0.034601087642187139 0 1.0694503763659574e-05 0.034558012607506711 0 5.5006895449580358e-05 0.034590967022264989 0 -1.9394528841763893e-05 0.034628132467176401 0 -9.6752929828858343e-06 0.034592561303732138 0 1.5475424646390578e-05 0.034601087642187139 0 -9.6752929828858343e-06 0.034592561303732138 0 1.5475424646390578e-05 0.034601087642187139 0 1.0694503763659574e-05 0.034558012607506711 0 0.00053860745004606408 0.033459405903560349 0 0.00050735929056213585 0.033079462217782185 0 0.0014031699815942407 0.031508396134099358 0 0.0011790799958717646 0.031674605234757139 0 0.0010526265687990093 0.031485973134373832 0 1.0694503763659574e-05 0.034558012607506711 0 -1.9123952466315646e-05 0.034509103551065214 0 6.5834825894271992e-05 0.034520697616113601 0 -6.485634714003502e-07 0.034879052427070123 0 -3.838812413545748e-05 0.034784853186804562 0 2.6260981755829165e-05 0.034733978053269603 0 0.00010360536017048088 0.034201443960351671 0 0.00045204211386823249 0.033621475670700882 0 0.00010360536017048088 0.034201443960351671 0 0.00018850419252438384 0.033926270911777967 0 1.0694503763659574e-05 0.034558012607506711 0 -2.6459953671853492e-05 0.034513977248176612 0 -1.9123952466315646e-05 0.034509103551065214 0 0.00045204211386823249 0.033621475670700882 0 0.00053860745004606408 0.033459405903560349 0 0.00098543523307456356 0.032820980814813661 0 0.00085423994739802593 0.033681218609409161 0 -0.00011504324801857564 0.033665709137783766 0 0.00045204211386823249 0.033621475670700882 0 0.00049055110274066698 0.033505781978427393 0 0.00049055110274066698 0.033505781978427393 0 0.00053860745004606408 0.033459405903560349 0 0.00038599956976764982 0.03345524048767521 0 -0.00019029131967505039 0.033897180384557496 0 0.00033352416694315426 0.034005298671902613 0 0.00049055110274066698 0.033505781978427393 0 0.00018850419252438384 0.033926270911777967 0 -0.00019029131967505039 0.033897180384557496 0 -0.00020533651041882922 0.033996203753336882 0 0.00033352416694315426 0.034005298671902613 0 4.3035194578576108e-06 0.03499528403963028 0 3.0772530743163537e-06 0.034998200996663641 0 4.1050403329702151e-06 0.034997041784476678 0 0.00018850419252438384 0.033926270911777967 0 6.5201531576485847e-05 0.034516027670458728 0 7.1225211020555665e-07 0.034993825891966333 0 -2.5740259400206512e-07 0.034996843003100075 0 -7.1202105963126941e-08 0.034996517106749059 0 6.5928846191690125e-07 0.034994996771419234 0 7.1225211020555665e-07 0.034993825891966333 0 -7.1202105963126941e-08 0.034996517106749059 0 0.00010360536017048088 0.034201443960351671 0 4.4089739811423824e-05 0.034639070652426628 0 0.00010360536017048088 0.034201443960351671 0 -6.8050489554956876e-05 0.034496310301785411 0 -3.0372373234147402e-05 0.035015734024793292 0 -1.7986268834529945e-05 0.035009202365550385 0 -3.0649742340090702e-05 0.035002480528275197 0 6.5928846191690125e-07 0.034994996771419234 0 -7.1202105963126941e-08 0.034996517106749059 0 -3.1784745253078253e-07 0.034997622015104479 0 -7.1202105963126941e-08 0.034996517106749059 0 -3.1784745253078253e-07 0.034997622015104479 0 -6.406042963193874e-07 0.034999072234923337 0 -1.3511694336638849e-05 0.034999650500932213 0 -1.7986268834529945e-05 0.035009202365550385 0 -2.1151734097291399e-05 0.035000817744096156 0 -1.7986268834529945e-05 0.035009202365550385 0 -2.1151734097291399e-05 0.035000817744096156 0 -3.0649742340090702e-05 0.035002480528275197 0 -2.72540353989353e-09 0.035000006609709235 0 -6.406042963193874e-07 0.034999072234923337 0 -6.4155088033134561e-10 0.034999990514824789 0 -2.72540353989353e-09 0.035000006609709235 0 -1.9424927013544572e-06 0.03499909920874502 0 -6.406042963193874e-07 0.034999072234923337 0 -1.9424927013544572e-06 0.03499909920874502 0 -3.1784745253078253e-07 0.034997622015104479 0 -6.406042963193874e-07 0.034999072234923337 0 -0.00010660814426990962 0.034576890573333983 0 -6.8050489554956876e-05 0.034496310301785411 0 -1.3511694336638849e-05 0.034999650500932213 0 -1.9424927013544572e-06 0.03499909920874502 0 -1.7986268834529945e-05 0.035009202365550385 0 6.5201531576485847e-05 0.034516027670458728 0 9.7821737316489334e-08 0.034998583392518698 0 -2.5740259400206512e-07 0.034996843003100075 0 -6.406042963193874e-07 0.034999072234923337 0 -6.4155088033134561e-10 0.034999990514824789 0 -2.5740259400206512e-07 0.034996843003100075 0 -7.1202105963126941e-08 0.034996517106749059 0 -6.406042963193874e-07 0.034999072234923337 0 3.0772530743163537e-06 0.034998200996663641 0 2.0934413490783733e-09 0.034999999332636464 0 2.471170947296868e-06 0.034998483258361364 0 2.0934413490783733e-09 0.034999999332636464 0 2.471170947296868e-06 0.034998483258361364 0 2.4979130127260892e-09 0.034999997179328918 0 4.3035194578576108e-06 0.03499528403963028 0 4.1050403329702151e-06 0.034997041784476678 0 5.8365970169960916e-06 0.034995590044098558 0 3.0772530743163537e-06 0.034998200996663641 0 2.471170947296868e-06 0.034998483258361364 0 4.1050403329702151e-06 0.034997041784476678 0 2.471170947296868e-06 0.034998483258361364 0 4.1050403329702151e-06 0.034997041784476678 0 4.5611564234383976e-06 0.034997404400305333 0 4.1050403329702151e-06 0.034997041784476678 0 4.5611564234383976e-06 0.034997404400305333 0 5.8365970169960916e-06 0.034995590044098558 0 2.471170947296868e-06 0.034998483258361364 0 4.5611564234383976e-06 0.034997404400305333 0 2.6217406420650514e-06 0.034998513421731554 0 4.5611564234383976e-06 0.034997404400305333 0 6.6243943422403918e-06 0.034997081363518354 0 5.8365970169960916e-06 0.034995590044098558 0 4.5611564234383976e-06 0.034997404400305333 0 6.6243943422403918e-06 0.034997081363518354 0 2.6217406420650514e-06 0.034998513421731554 0 2.4979130127260892e-09 0.034999997179328918 0 2.6217406420650514e-06 0.034998513421731554 0 1.4317013151347435e-09 0.034999996245681488 0 2.471170947296868e-06 0.034998483258361364 0 2.4979130127260892e-09 0.034999997179328918 0 2.6217406420650514e-06 0.034998513421731554 0 2.6217406420650514e-06 0.034998513421731554 0 1.4317013151347435e-09 0.034999996245681488 0 2.8994977458610752e-06 0.034995888478664181 0 6.6243943422403918e-06 0.034997081363518354 0 2.8994977458610752e-06 0.034995888478664181 0 1.2489951404731123e-05 0.034995321716217706 0 6.6243943422403918e-06 0.034997081363518354 0 2.6217406420650514e-06 0.034998513421731554 0 2.8994977458610752e-06 0.034995888478664181 0 2.4572290672050184e-06 0.034994321826690399 0 6.1304639951220498e-06 0.034987433959346156 0 2.8994977458610752e-06 0.034995888478664181 0 6.1304639951220498e-06 0.034987433959346156 0 2.8994977458610752e-06 0.034995888478664181 0 1.2489951404731123e-05 0.034995321716217706 0 1.6288655350204866e-09 0.034999989059835403 0 1.4317013151347435e-09 0.034999996245681488 0 2.8994977458610752e-06 0.034995888478664181 0 1.6288655350204866e-09 0.034999989059835403 0 2.4572290672050184e-06 0.034994321826690399 0 2.8994977458610752e-06 0.034995888478664181 0 0.0011749626636311148 0.032675994651289272 0 0.0012996432640369996 0.032352611331240094 0 0.0010683789646122399 0.032343946190708205 0 0.0012996432640369996 0.032352611331240094 0 0.0011968001537806081 0.032109594890874879 0 0.0010683789646122399 0.032343946190708205 0 0.0007410566006374299 0.033750049340721115 0 0.00064195790773312388 0.033627281593969133 0 0.0014599023063369501 0.032532629150990644 0 0.0012996432640369996 0.032352611331240094 0 0.0014716132235731228 0.032191307554351206 0 2.5210262436922855e-05 0.034981826036722771 0 6.1304639951220498e-06 0.034987433959346156 0 1.2489951404731123e-05 0.034995321716217706 0 0.0012996432640369996 0.032352611331240094 0 0.0014716132235731228 0.032191307554351206 0 0.0011968001537806081 0.032109594890874879 0 0.0014716132235731228 0.032191307554351206 0 0.0011968001537806081 0.032109594890874879 0 0.0013434599279743967 0.031983993686747633 0 0.0011968001537806081 0.032109594890874879 0 0.0012070509595823167 0.031904298907743302 0 0.0013434599279743967 0.031983993686747633 0 0.0012070509595823167 0.031904298907743302 0 0.0013434599279743967 0.031983993686747633 0 0.0013637536652639306 0.031860631237244384 0 0.0014716132235731228 0.032191307554351206 0 0.0013434599279743967 0.031983993686747633 0 0.001459966045628256 0.031888142696357084 0 6.6243943422403918e-06 0.034997081363518354 0 1.2489951404731123e-05 0.034995321716217706 0 5.8365970169960916e-06 0.034995590044098558 0 0.00064195790773312388 0.033627281593969133 0 0.00048891730331057095 0.033588978151245674 0 0.0013434599279743967 0.031983993686747633 0 0.0013637536652639306 0.031860631237244384 0 0.001459966045628256 0.031888142696357084 0 0.0013995533354741721 0.031591897184160965 0 0.0013775147066530308 0.031591151444978462 0 0.0013637536652639306 0.031860631237244384 0 0.00049055110274066698 0.033505781978427393 0 0.0007258406805271836 0.032629925970811609 0 0.0014592545536466269 0.031696758436576634 0 0.0013637536652639306 0.031860631237244384 0 0.001459966045628256 0.031888142696357084 0 0.0013907195153482466 0.03169661251649214 0 0.0014592545536466269 0.031696758436576634 0 0.0013637536652639306 0.031860631237244384 0 0.00018850419252438384 0.033926270911777967 0 0.00048891730331057095 0.033588978151245674 0 0.00053860745004606408 0.033459405903560349 0 0.0011649484228101869 0.032545665606213359 0 0.0013775147066530308 0.031591151444978462 0 0.0013637536652639306 0.031860631237244384 0 0.0011691907265063551 0.031740579589333809 0 0.0012070509595823167 0.031904298907743302 0 0.0013637536652639306 0.031860631237244384 0 0.0011691907265063551 0.031740579589333809 0 0.0011649484228101869 0.032545665606213359 0 0.0012203477409311841 0.032373431379451596 0 0.0011790799958717646 0.031674605234757139 0 0.00090542554193269692 0.031648292352895735 0 0.0010526265687990093 0.031485973134373832 0 0.0011790799958717646 0.031674605234757139 0 0.00090542554193269692 0.031648292352895735 0 0.00094284515466709358 0.031868774331124596 0 0.00090542554193269692 0.031648292352895735 0 0.00094284515466709358 0.031868774331124596 0 0.00066425821834672463 0.031759627691167899 0 0.00090542554193269692 0.031648292352895735 0 0.00066425821834672463 0.031759627691167899 0 0.00067565657156939724 0.031453035909260421 0 0.00094284515466709358 0.031868774331124596 0 0.00067398665873457883 0.032088831787386182 0 0.00066425821834672463 0.031759627691167899 0 0.0012070509595823167 0.031904298907743302 0 0.0011691907265063551 0.031740579589333809 0 0.00094284515466709358 0.031868774331124596 0 0.0011968001537806081 0.032109594890874879 0 0.0012070509595823167 0.031904298907743302 0 0.00094284515466709358 0.031868774331124596 0 0.0011968001537806081 0.032109594890874879 0 0.00094284515466709358 0.031868774331124596 0 0.00095481375955478148 0.032125706556709752 0 0.0011968001537806081 0.032109594890874879 0 0.00095481375955478148 0.032125706556709752 0 0.0010683789646122399 0.032343946190708205 0 0.00094284515466709358 0.031868774331124596 0 0.00095481375955478148 0.032125706556709752 0 0.00067398665873457883 0.032088831787386182 0 0.00095481375955478148 0.032125706556709752 0 0.00067398665873457883 0.032088831787386182 0 0.00084734447840834981 0.032298341240123901 0 0.0009152169349672391 0.032582433086606764 0 0.00084734447840834981 0.032298341240123901 0 0.00068018982077922441 0.032446504861858731 0 0.00067398665873457883 0.032088831787386182 0 0.00084734447840834981 0.032298341240123901 0 0.00068018982077922441 0.032446504861858731 0 0.0009152169349672391 0.032582433086606764 0 0.00084734447840834981 0.032298341240123901 0 0.0010683789646122399 0.032343946190708205 0 0.00095481375955478148 0.032125706556709752 0 0.00084734447840834981 0.032298341240123901 0 0.0010683789646122399 0.032343946190708205 0 0.00022646383817903718 0.032311005763303133 0 0.00047755161219236006 0.032283321077145974 0 0.00035475058927484716 0.032113097561923681 0 0.00039723191292776307 0.03245741019840815 0 0.00022646383817903718 0.032311005763303133 0 0.00047755161219236006 0.032283321077145974 0 0.00014812029663658689 0.032425574476966541 0 0.00039723191292776307 0.03245741019840815 0 0.00022646383817903718 0.032311005763303133 0 0.00039723191292776307 0.03245741019840815 0 0.00068018982077922441 0.032446504861858731 0 0.00047755161219236006 0.032283321077145974 0 0.00067398665873457883 0.032088831787386182 0 0.00068018982077922441 0.032446504861858731 0 0.00047755161219236006 0.032283321077145974 0 0.00067398665873457883 0.032088831787386182 0 0.00035475058927484716 0.032113097561923681 0 0.00040121920258208627 0.031870592291708653 0 0.00067398665873457883 0.032088831787386182 0 0.00047755161219236006 0.032283321077145974 0 0.00035475058927484716 0.032113097561923681 0 0.00035475058927484716 0.032113097561923681 0 0.00021186998504638864 0.031988661598370112 0 9.9639948485585644e-05 0.032221255532888231 0 0.00022646383817903718 0.032311005763303133 0 0.00035475058927484716 0.032113097561923681 0 9.9639948485585644e-05 0.032221255532888231 0 0.00035475058927484716 0.032113097561923681 0 0.00021186998504638864 0.031988661598370112 0 0.00040121920258208627 0.031870592291708653 0 0.00021186998504638864 0.031988661598370112 0 0.00040121920258208627 0.031870592291708653 0 0.00010882284041317516 0.031830968459455218 0 0.00040121920258208627 0.031870592291708653 0 0.00015776080962775132 0.031626990108224944 0 0.00010882284041317516 0.031830968459455218 0 0.00067398665873457883 0.032088831787386182 0 0.00040121920258208627 0.031870592291708653 0 0.00066425821834672463 0.031759627691167899 0 0.00066425821834672463 0.031759627691167899 0 0.00043874956124059094 0.031623821336275948 0 0.00067565657156939724 0.031453035909260421 0 0.00040121920258208627 0.031870592291708653 0 0.00066425821834672463 0.031759627691167899 0 0.00043874956124059094 0.031623821336275948 0 0.00040121920258208627 0.031870592291708653 0 0.00043874956124059094 0.031623821336275948 0 0.00015776080962775132 0.031626990108224944 0 0.00043874956124059094 0.031623821336275948 0 0.00028237261238082387 0.031410542273910366 0 0.00015776080962775132 0.031626990108224944 0 0.00011122982448882456 0.034559587088121319 0 0.00011881663713568345 0.034560418967474402 0 9.7261460578921454e-05 0.034552901557371535 0 0.00011881663713568345 0.034560418967474402 0 0.00010263271744097457 0.034552297439887129 0 0.00012012047657364431 0.034564041244792863 0 0.00011881663713568345 0.034560418967474402 0 0.00010263271744097457 0.034552297439887129 0 9.7261460578921454e-05 0.034552901557371535 0 0.00011881663713568345 0.034560418967474402 0 0.00011269697598880729 0.034562851873362242 0 0.00012133542721491716 0.034572952657648509 0 0.00011881663713568345 0.034560418967474402 0 0.00011703719686991905 0.034543383040155591 0 0.00011269697598880729 0.034562851873362242 0 0.00011881663713568345 0.034560418967474402 0 0.00012012047657364431 0.034564041244792863 0 0.00012133542721491716 0.034572952657648509 0 0.00011122982448882456 0.034559587088121319 0 0.00011881663713568345 0.034560418967474402 0 0.00011703719686991905 0.034543383040155591 0 0.00016395744764542591 0.03225809653002918 0 0.00036321198557192095 0.032740603020610916 0 0.00043874956124059094 0.031623821336275948 0 0.00028237261238082387 0.031410542273910366 0 0.00067565657156939724 0.031453035909260421 0 0.00036321198557192095 0.032740603020610916 0 0.00050735929056213585 0.033079462217782185 0 0.00011703719686991905 0.034543383040155591 0 8.3673982363089973e-05 0.034557561900488129 0 0.00011269697598880729 0.034562851873362242 0 0.00090542554193269692 0.031648292352895735 0 0.00067565657156939724 0.031453035909260421 0 0.0010526265687990093 0.031485973134373832 0 0.00011703719686991905 0.034543383040155591 0 6.5834825894271992e-05 0.034520697616113601 0 8.3673982363089973e-05 0.034557561900488129 0 1.0694503763659574e-05 0.034558012607506711 0 6.5834825894271992e-05 0.034520697616113601 0 8.3673982363089973e-05 0.034557561900488129 0 1.0694503763659574e-05 0.034558012607506711 0 8.3673982363089973e-05 0.034557561900488129 0 5.5006895449580358e-05 0.034590967022264989 0 8.3673982363089973e-05 0.034557561900488129 0 5.5006895449580358e-05 0.034590967022264989 0 9.983976471453733e-05 0.034586071666504507 0 8.3673982363089973e-05 0.034557561900488129 0 0.00011269697598880729 0.034562851873362242 0 9.983976471453733e-05 0.034586071666504507 0 0.00011269697598880729 0.034562851873362242 0 9.983976471453733e-05 0.034586071666504507 0 0.00012133542721491716 0.034572952657648509 0 9.983976471453733e-05 0.034586071666504507 0 0.00011634718636543552 0.034590542110281043 0 0.00012133542721491716 0.034572952657648509 0 9.983976471453733e-05 0.034586071666504507 0 0.00010075143344360564 0.034609043136076642 0 7.2002304179645914e-05 0.034628970000726525 0 9.983976471453733e-05 0.034586071666504507 0 0.00010075143344360564 0.034609043136076642 0 0.00011634718636543552 0.034590542110281043 0 0.00010075143344360564 0.034609043136076642 0 0.00011634718636543552 0.034590542110281043 0 0.00011796012090003173 0.034607709245512035 0 5.5006895449580358e-05 0.034590967022264989 0 9.983976471453733e-05 0.034586071666504507 0 7.2002304179645914e-05 0.034628970000726525 0 4.0893869220187848e-05 0.03462949261700856 0 5.5006895449580358e-05 0.034590967022264989 0 7.2002304179645914e-05 0.034628970000726525 0 0.00010075143344360564 0.034609043136076642 0 7.2002304179645914e-05 0.034628970000726525 0 9.0842780902996884e-05 0.034645968777125592 0 3.291997124175659e-05 0.034676833420546074 0 4.0893869220187848e-05 0.03462949261700856 0 7.2002304179645914e-05 0.034628970000726525 0 6.1877416169676727e-05 0.034675872383328567 0 7.0981124624094088e-05 0.0347074166892372 0 2.376594816824483e-05 0.034755601739865749 0 3.291997124175659e-05 0.034676833420546074 0 7.2002304179645914e-05 0.034628970000726525 0 6.1877416169676727e-05 0.034675872383328567 0 7.2002304179645914e-05 0.034628970000726525 0 6.1877416169676727e-05 0.034675872383328567 0 9.0842780902996884e-05 0.034645968777125592 0 6.1877416169676727e-05 0.034675872383328567 0 9.0842780902996884e-05 0.034645968777125592 0 7.0981124624094088e-05 0.0347074166892372 0 0.00011796012090003173 0.034607709245512035 0 9.0842780902996884e-05 0.034645968777125592 0 0.00011541432358549467 0.034651841636830716 0 0.00010075143344360564 0.034609043136076642 0 0.00011796012090003173 0.034607709245512035 0 9.0842780902996884e-05 0.034645968777125592 0 9.0842780902996884e-05 0.034645968777125592 0 0.00011541432358549467 0.034651841636830716 0 7.0981124624094088e-05 0.0347074166892372 0 0.00011796012090003173 0.034607709245512035 0 0.00011541432358549467 0.034651841636830716 0 0.00013233600234375498 0.034589306658819395 0 0.0001472062403429592 0.034540300398918915 0 0.0001114187899763282 0.034550349127810208 0 0.00013297880089948653 0.034574701113231861 0 0.00011541432358549467 0.034651841636830716 0 0.00013233600234375498 0.034589306658819395 0 0.0001472062403429592 0.034540300398918915 0 0.00013233600234375498 0.034589306658819395 0 0.0001472062403429592 0.034540300398918915 0 0.00013297880089948653 0.034574701113231861 0 0.00011796012090003173 0.034607709245512035 0 0.00013233600234375498 0.034589306658819395 0 0.00013297880089948653 0.034574701113231861 0 0.0001472062403429592 0.034540300398918915 0 0.0001114187899763282 0.034550349127810208 0 8.1087414565878958e-05 0.034511273177876722 0 0.0001472062403429592 0.034540300398918915 0 8.1087414565878958e-05 0.034511273177876722 0 0.00013636949864223369 0.034466960678099665 0 0.0001114187899763282 0.034550349127810208 0 0.00012012047657364431 0.034564041244792863 0 0.00013297880089948653 0.034574701113231861 0 0.0001114187899763282 0.034550349127810208 0 0.00010263271744097457 0.034552297439887129 0 0.00012012047657364431 0.034564041244792863 0 0.00012012047657364431 0.034564041244792863 0 0.00012133542721491716 0.034572952657648509 0 0.00013297880089948653 0.034574701113231861 0 0.00011634718636543552 0.034590542110281043 0 0.00012133542721491716 0.034572952657648509 0 0.00013297880089948653 0.034574701113231861 0 0.00011634718636543552 0.034590542110281043 0 0.00011796012090003173 0.034607709245512035 0 0.00013297880089948653 0.034574701113231861 0 6.1198320805967233e-05 0.034526560705231912 0 7.3869680168971676e-05 0.034539061566689573 0 7.955571162566205e-05 0.034532230003207626 0 6.1198320805967233e-05 0.034526560705231912 0 7.3869680168971676e-05 0.034539061566689573 0 5.8214815023917633e-05 0.03453348996705425 0 0.0001114187899763282 0.034550349127810208 0 0.00010263271744097457 0.034552297439887129 0 7.955571162566205e-05 0.034532230003207626 0 0.00010263271744097457 0.034552297439887129 0 7.3869680168971676e-05 0.034539061566689573 0 7.955571162566205e-05 0.034532230003207626 0 7.955571162566205e-05 0.034532230003207626 0 8.1087414565878958e-05 0.034511273177876722 0 6.4416405772336075e-05 0.03451487307438178 0 9.2765170176537179e-05 0.034142465668416097 0 4.9072393481165714e-06 0.033985177160036281 0 0.0001114187899763282 0.034550349127810208 0 7.955571162566205e-05 0.034532230003207626 0 8.1087414565878958e-05 0.034511273177876722 0 6.1198320805967233e-05 0.034526560705231912 0 7.955571162566205e-05 0.034532230003207626 0 6.4416405772336075e-05 0.03451487307438178 0 4.9072393481165714e-06 0.033985177160036281 0 -0.00022484559301547052 0.033687958132932259 0 6.1198320805967233e-05 0.034526560705231912 0 6.4416405772336075e-05 0.03451487307438178 0 4.3358745582834032e-05 0.03451392420695952 0 0.00014820086492594919 0.034160976041227233 0 -3.3317821923442338e-05 0.034081015585777238 0 0.00013210921415057162 0.034073168603874444 0 -6.3383455869804565e-05 0.033687014253789678 0 -0.00022758027950446185 0.033550809401030668 0 -5.856088053733661e-05 0.033414669804874723 0 -6.3383455869804565e-05 0.033687014253789678 0 -5.856088053733661e-05 0.033414669804874723 0 7.1080680545257169e-05 0.033742533240629188 0 -6.3383455869804565e-05 0.033687014253789678 0 -0.00022758027950446185 0.033550809401030668 0 -8.1083940046617042e-05 0.033912633834015569 0 -0.00022484559301547052 0.033687958132932259 0 -0.00021586115370341748 0.033714878406022671 0 -0.00076336947556492714 0.033534017976971683 0 -5.856088053733661e-05 0.033414669804874723 0 -0.00047044542163677747 0.032991096595720665 0 -0.00022484559301547052 0.033687958132932259 0 -0.00020079599357579811 0.033668680755036748 0 -0.00047044542163677747 0.032991096595720665 0 -0.00056537056397413805 0.03235712785284902 0 0.0003673177186506225 0.033128770718268398 0 -0.00076336947556492714 0.033534017976971683 0 -0.00047044542163677747 0.032991096595720665 0 -0.00085479305175316551 0.032129208926839285 0 -0.00022484559301547052 0.033687958132932259 0 -0.00038024500735462107 0.032629100584382016 0 -0.00047044542163677747 0.032991096595720665 0 -0.00056537056397413805 0.03235712785284902 0 -0.00085479305175316551 0.032129208926839285 0 -0.00056537056397413805 0.03235712785284902 0 -0.00043518312529486629 0.032026949935960267 0 -0.00030467409053378214 0.032047095457311013 0 6.1198320805967233e-05 0.034526560705231912 0 4.3358745582834032e-05 0.03451392420695952 0 5.2098921302114922e-05 0.034526298145076947 0 4.3358745582834032e-05 0.03451392420695952 0 5.2098921302114922e-05 0.034526298145076947 0 4.5736955737781462e-05 0.034531446885750557 0 5.2098921302114922e-05 0.034526298145076947 0 5.8214815023917633e-05 0.03453348996705425 0 4.5736955737781462e-05 0.034531446885750557 0 6.1198320805967233e-05 0.034526560705231912 0 5.2098921302114922e-05 0.034526298145076947 0 5.8214815023917633e-05 0.03453348996705425 0 -0.00038024500735462107 0.032629100584382016 0 -0.00069095718017974945 0.029590727537628279 0 5.8214815023917633e-05 0.03453348996705425 0 4.5736955737781462e-05 0.034531446885750557 0 6.0178016133645444e-05 0.034541449466901561 0 4.5736955737781462e-05 0.034531446885750557 0 6.0178016133645444e-05 0.034541449466901561 0 4.6258049319368125e-05 0.034542663525751298 0 -0.00085479305175316551 0.032129208926839285 0 -0.00063346197790188803 0.031728183565954485 0 -0.00087487353567252096 0.031407858921453362 0 -0.00043518312529486629 0.032026949935960267 0 -0.0004717036118597576 0.031877564967520984 0 -0.00032260103714750967 0.031877590673194865 0 -0.00056537056397413805 0.03235712785284902 0 -0.00043518312529486629 0.032026949935960267 0 -0.00058641765684936385 0.032025657687393037 0 -0.00043518312529486629 0.032026949935960267 0 -0.00058641765684936385 0.032025657687393037 0 -0.0004717036118597576 0.031877564967520984 0 -0.00085479305175316551 0.032129208926839285 0 -0.00058641765684936385 0.032025657687393037 0 -0.00063346197790188803 0.031728183565954485 0 -0.00056537056397413805 0.03235712785284902 0 -0.00085479305175316551 0.032129208926839285 0 -0.00058641765684936385 0.032025657687393037 0 -0.0004717036118597576 0.031877564967520984 0 -0.00033125497177759525 0.031686987664736786 0 -0.00032260103714750967 0.031877590673194865 0 -0.00063346197790188803 0.031728183565954485 0 -0.0004717036118597576 0.031877564967520984 0 -0.00033125497177759525 0.031686987664736786 0 -0.00058641765684936385 0.032025657687393037 0 -0.00063346197790188803 0.031728183565954485 0 -0.0004717036118597576 0.031877564967520984 0 -0.00088353092258951866 0.028249837320856463 0 -0.0006140957543280443 0.028659491832992975 0 -0.00063346197790188803 0.031728183565954485 0 -0.00053807404700331914 0.031434205139278561 0 -0.00033125497177759525 0.031686987664736786 0 -0.00063346197790188803 0.031728183565954485 0 -0.00053807404700331914 0.031434205139278561 0 -0.00087487353567252096 0.031407858921453362 0 -0.00088353092258951866 0.028249837320856463 0 -0.0011406036113673532 0.026245693948156033 0 -0.00088353092258951866 0.028249837320856463 0 -0.00069095718017974945 0.029590727537628279 0 -0.00069898950153744277 0.027730968783131627 0 0.00012018154805415147 0.027741830589320438 0 0.0001935823906911212 0.02862008680838575 0 -0.00069095718017974945 0.029590727537628279 0 -0.00011607532478476572 0.031370009911156314 0 -0.00060087470643156921 0.031328853304783237 0 -0.00014230557788784618 0.031363012512910238 0 -0.0004963762364600168 0.031539975313360502 0 6.0178016133645444e-05 0.034541449466901561 0 4.6258049319368125e-05 0.034542663525751298 0 7.7474986104589881e-05 0.034556234635168513 0 -0.00069095718017974945 0.029590727537628279 0 -0.0011406036113673532 0.026245693948156033 0 7.3869680168971676e-05 0.034539061566689573 0 6.0178016133645444e-05 0.034541449466901561 0 7.7474986104589881e-05 0.034556234635168513 0 7.3869680168971676e-05 0.034539061566689573 0 5.8214815023917633e-05 0.03453348996705425 0 6.0178016133645444e-05 0.034541449466901561 0 0.00010263271744097457 0.034552297439887129 0 7.3869680168971676e-05 0.034539061566689573 0 9.7261460578921454e-05 0.034552901557371535 0 7.3869680168971676e-05 0.034539061566689573 0 7.7474986104589881e-05 0.034556234635168513 0 9.7261460578921454e-05 0.034552901557371535 0 0.00016395744764542591 0.03225809653002918 0 -0.00011607532478476572 0.031370009911156314 0 0.00028237261238082387 0.031410542273910366 0 -0.00014230557788784618 0.031363012512910238 0 0.00015776080962775132 0.031626990108224944 0 0.00011122982448882456 0.034559587088121319 0 7.7474986104589881e-05 0.034556234635168513 0 9.7261460578921454e-05 0.034552901557371535 0 -0.00014230557788784618 0.031363012512910238 0 0.00015776080962775132 0.031626990108224944 0 -9.7253445659990925e-05 0.031685581962552334 0 0.00015776080962775132 0.031626990108224944 0 -9.7253445659990925e-05 0.031685581962552334 0 0.00010882284041317516 0.031830968459455218 0 -0.00014230557788784618 0.031363012512910238 0 -0.00026998885447969168 0.031594972608971705 0 -0.0004963762364600168 0.031539975313360502 0 -0.00014230557788784618 0.031363012512910238 0 -0.00026998885447969168 0.031594972608971705 0 -9.7253445659990925e-05 0.031685581962552334 0 -0.00026998885447969168 0.031594972608971705 0 -9.7253445659990925e-05 0.031685581962552334 0 -0.00034530654499946638 0.031790723750358317 0 -0.00034530654499946638 0.031790723750358317 0 -5.6017803871728016e-05 0.031885623985102717 0 -0.00012453577332290414 0.032001620970363097 0 -9.7253445659990925e-05 0.031685581962552334 0 -0.00034530654499946638 0.031790723750358317 0 -5.6017803871728016e-05 0.031885623985102717 0 -0.0007763115042637691 0.027739411191609151 0 -0.00066038240346498391 0.027377843126176575 0 -0.002018908813973954 0.022969590749786394 0 -0.0026951859870833184 0.022257453540885246 0 -0.002068330248438336 0.022118027456413381 0 -0.00089080511540191333 0.026924941886779397 0 -0.00066038240346498391 0.027377843126176575 0 -9.7253445659990925e-05 0.031685581962552334 0 0.00010882284041317516 0.031830968459455218 0 -5.6017803871728016e-05 0.031885623985102717 0 -5.6017803871728016e-05 0.031885623985102717 0 5.9648235251804218e-05 0.032029282376102586 0 -0.00012620900233462458 0.032009990307552194 0 0.00010882284041317516 0.031830968459455218 0 -5.6017803871728016e-05 0.031885623985102717 0 5.9648235251804218e-05 0.032029282376102586 0 0.00021186998504638864 0.031988661598370112 0 0.00010882284041317516 0.031830968459455218 0 5.9648235251804218e-05 0.032029282376102586 0 0.00021186998504638864 0.031988661598370112 0 9.9639948485585644e-05 0.032221255532888231 0 5.9648235251804218e-05 0.032029282376102586 0 9.9639948485585644e-05 0.032221255532888231 0 1.3254362490673981e-05 0.032161710320519947 0 3.4559026988993823e-05 0.032283207688598325 0 9.9639948485585644e-05 0.032221255532888231 0 5.9648235251804218e-05 0.032029282376102586 0 -0.00012620900233462458 0.032009990307552194 0 2.6712642465302019e-05 0.028459599901473322 0 -0.00066038240346498391 0.027377843126176575 0 -0.0026951859870833184 0.022257453540885246 0 -0.002068330248438336 0.022118027456413381 0 -0.0020771860641381136 0.021168621244698871 0 -0.00066038240346498391 0.027377843126176575 0 -0.0007851890423760734 0.026831396119283379 0 1.3254362490673981e-05 0.032161710320519947 0 3.4559026988993823e-05 0.032283207688598325 0 6.95101784507598e-06 0.032377809397304003 0 3.4559026988993823e-05 0.032283207688598325 0 6.95101784507598e-06 0.032377809397304003 0 3.6881792206635498e-05 0.032363009349189904 0 5.1575159271769588e-05 0.032417501501872587 0 6.95101784507598e-06 0.032377809397304003 0 3.6881792206635498e-05 0.032363009349189904 0 0.00014812029663658689 0.032425574476966541 0 0.00022646383817903718 0.032311005763303133 0 3.6881792206635498e-05 0.032363009349189904 0 0.00022646383817903718 0.032311005763303133 0 9.9639948485585644e-05 0.032221255532888231 0 3.6881792206635498e-05 0.032363009349189904 0 9.9639948485585644e-05 0.032221255532888231 0 3.4559026988993823e-05 0.032283207688598325 0 3.6881792206635498e-05 0.032363009349189904 0 -0.0015520725347085288 0.020840408786899127 0 -0.0014053115966584002 0.020638691531370785 0 -0.0012114961438250739 0.02080820071003334 0 -0.0015520725347085288 0.020840408786899127 0 -0.0014053115966584002 0.020638691531370785 0 -0.0015529928005235509 0.02071632472155616 0 -0.0015049436381428302 0.020548347409712831 0 -0.0014053115966584002 0.020638691531370785 0 -0.0015529928005235509 0.02071632472155616 0 -0.0016234953478949162 0.021474112271051404 0 -0.001534585794284501 0.022338299201488377 0 -0.0015049436381428302 0.020548347409712831 0 -0.0015529928005235509 0.02071632472155616 0 -0.0017287679811899515 0.020766026909703274 0 -0.00078496937817265904 0.026272383918233454 0 -0.0007851890423760734 0.026831396119283379 0 -0.0015520725347085288 0.020840408786899127 0 -0.0015529928005235509 0.02071632472155616 0 -0.0017287679811899515 0.020766026909703274 0 -0.0016467879844814127 0.020418120534242641 0 -0.0020771860641381136 0.021168621244698871 0 -0.0017287679811899515 0.020766026909703274 0 -0.0015520725347085288 0.020840408786899127 0 -0.0017287679811899515 0.020766026909703274 0 -0.0016314878816519607 0.020990342511762617 0 -0.0020771860641381136 0.021168621244698871 0 -0.0017287679811899515 0.020766026909703274 0 -0.0014788143966510208 0.02211515219819133 0 -0.002068330248438336 0.022118027456413381 0 -0.0020771860641381136 0.021168621244698871 0 -0.0014788143966510208 0.02211515219819133 0 -0.0015520725347085288 0.020840408786899127 0 -0.0014399274387231476 0.021005141179451146 0 -0.0012114961438250739 0.02080820071003334 0 -0.0015520725347085288 0.020840408786899127 0 -0.0016314878816519607 0.020990342511762617 0 -0.0014399274387231476 0.021005141179451146 0 -0.0014399274387231476 0.021005141179451146 0 -0.0014910087494892151 0.02120164768453377 0 -0.0012955549427895426 0.02125845943588545 0 -0.0016314878816519607 0.020990342511762617 0 -0.0014399274387231476 0.021005141179451146 0 -0.0014910087494892151 0.02120164768453377 0 -0.0016314878816519607 0.020990342511762617 0 -0.0014910087494892151 0.02120164768453377 0 -0.0016052623653504943 0.02135190803211556 0 -0.001534585794284501 0.022338299201488377 0 -0.0011406036113673532 0.026245693948156033 0 -0.002018908813973954 0.022969590749786394 0 -0.0014788143966510208 0.02211515219819133 0 -0.0012821336054159639 0.023727292106263946 0 -0.002018908813973954 0.022969590749786394 0 -0.002068330248438336 0.022118027456413381 0 -0.0014788143966510208 0.02211515219819133 0 -0.00034530654499946638 0.031790723750358317 0 -0.00057911389220758345 0.03155922668595644 0 -0.0004963762364600168 0.031539975313360502 0 -0.00089080511540191333 0.026924941886779397 0 -0.0011406036113673532 0.026245693948156033 0 -0.00026998885447969168 0.031594972608971705 0 -0.00034530654499946638 0.031790723750358317 0 -0.0004963762364600168 0.031539975313360502 0 -0.00060087470643156921 0.031328853304783237 0 -0.00058272199357382111 0.031560599742179479 0 -0.0004963762364600168 0.031539975313360502 0 -0.0011406036113673532 0.026245693948156033 0 -0.0011561848301489374 0.026299174510939227 0 -0.0016318349732250088 0.02174596340034407 0 -0.0018499056136407135 0.021530279119354505 0 -0.0014466180048242833 0.021386536782642882 0 -0.0014910087494892151 0.02120164768453377 0 -0.0016052623653504943 0.02135190803211556 0 -0.0012955549427895426 0.02125845943588545 0 -0.0011406036113673532 0.026245693948156033 0 -0.0008600047449308885 0.023689141355539352 0 -0.0012955549427895426 0.02125845943588545 0 -0.00094937760086519663 0.021147089633421347 0 -0.0012114961438250739 0.02080820071003334 0 -0.0014399274387231476 0.021005141179451146 0 -0.0012955549427895426 0.02125845943588545 0 -0.0012114961438250739 0.02080820071003334 0 -0.0014466180048242833 0.021386536782642882 0 -0.0010227957462094603 0.021222003847733591 0 -0.001170638397682483 0.021737575075959952 0 -0.0010227957462094603 0.021222003847733591 0 -0.00082486806020020146 0.021467471925972988 0 -0.001170638397682483 0.021737575075959952 0 -0.0008600047449308885 0.023689141355539352 0 -0.00067826517755139736 0.022535966910108104 0 -0.00094937760086519663 0.021147089633421347 0 -0.0012114961438250739 0.02080820071003334 0 -0.00081338035874236984 0.020868590267262958 0 -0.0012114961438250739 0.02080820071003334 0 -0.00094571991355821359 0.020642463588082874 0 -0.00081338035874236984 0.020868590267262958 0 -0.00099111746200874757 0.020272597246455408 0 -0.0012114961438250739 0.02080820071003334 0 -0.00094571991355821359 0.020642463588082874 0 -0.00092730538277507933 0.020352341192833211 0 -0.0010524460561089812 0.02055955765513132 0 -0.0012238269643501472 0.020539979098007061 0 -0.00095854524258389415 0.020522304745316636 0 -0.0012114961438250739 0.02080820071003334 0 -0.0012238269643501472 0.020539979098007061 0 -0.0014053115966584002 0.020638691531370785 0 -0.0012114961438250739 0.02080820071003334 0 -0.00056334774299631515 0.020317516311549322 0 -0.00069047504988277832 0.020587466340706517 0 -0.0003521618999524855 0.02052408141909538 0 -0.00069047504988277832 0.020587466340706517 0 -0.00053281788130379718 0.020760643911602265 0 -0.0003521618999524855 0.02052408141909538 0 -0.00032930305318024236 0.020225252923170046 0 -0.00056334774299631515 0.020317516311549322 0 -0.0003521618999524855 0.02052408141909538 0 -0.00099111746200874757 0.020272597246455408 0 -0.00094571991355821359 0.020642463588082874 0 -0.00069047504988277832 0.020587466340706517 0 -0.00056334774299631515 0.020317516311549322 0 -0.00099111746200874757 0.020272597246455408 0 -0.00069047504988277832 0.020587466340706517 0 -0.00069047504988277832 0.020587466340706517 0 -0.00081338035874236984 0.020868590267262958 0 -0.00053281788130379718 0.020760643911602265 0 -0.00094571991355821359 0.020642463588082874 0 -0.00069047504988277832 0.020587466340706517 0 -0.00081338035874236984 0.020868590267262958 0 -0.00053281788130379718 0.020760643911602265 0 -0.00032647297598297306 0.020821495502917151 0 -0.0003521618999524855 0.02052408141909538 0 -0.00081338035874236984 0.020868590267262958 0 -0.00053281788130379718 0.020760643911602265 0 -0.00056044738003299655 0.021028727377702758 0 -0.00053281788130379718 0.020760643911602265 0 -0.00056044738003299655 0.021028727377702758 0 -0.00032647297598297306 0.020821495502917151 0 -0.00056044738003299655 0.021028727377702758 0 -0.00052845467050202546 0.021336509773840894 0 -0.00023834086430556586 0.021165198574077355 0 -0.00056044738003299655 0.021028727377702758 0 -0.00069158881391043745 0.021300495251736551 0 -0.00052845467050202546 0.021336509773840894 0 -0.00067826517755139736 0.022535966910108104 0 -0.00053876393902964163 0.022182636731788923 0 -0.00094937760086519663 0.021147089633421347 0 -0.00081338035874236984 0.020868590267262958 0 -0.00056044738003299655 0.021028727377702758 0 -0.0010227957462094603 0.021222003847733591 0 -0.00056044738003299655 0.021028727377702758 0 -0.00069158881391043745 0.021300495251736551 0 -0.0010227957462094603 0.021222003847733591 0 -0.00069158881391043745 0.021300495251736551 0 -0.00082486806020020146 0.021467471925972988 0 -0.00069158881391043745 0.021300495251736551 0 -0.00082486806020020146 0.021467471925972988 0 -0.00065776735278671441 0.02150190835832937 0 -0.00082486806020020146 0.021467471925972988 0 -0.00065776735278671441 0.02150190835832937 0 -0.00066715666588560774 0.021736344158686208 0 -0.00052845467050202546 0.021336509773840894 0 -0.0005826122047376198 0.021684179323770539 0 -0.00023834086430556586 0.021165198574077355 0 -0.00032551244499527047 0.023624905649289117 0 -3.3370185355890624e-05 0.022225754106832623 0 -0.00052845467050202546 0.021336509773840894 0 -0.00065776735278671441 0.02150190835832937 0 -0.0005826122047376198 0.021684179323770539 0 -0.00032551244499527047 0.023624905649289117 0 0.00010136165804613251 0.021539695917276551 0 -0.00069158881391043745 0.021300495251736551 0 -0.00052845467050202546 0.021336509773840894 0 -0.00065776735278671441 0.02150190835832937 0 -0.00062721350455154643 0.024619448839795992 0 -0.00027128403327660212 0.02543085258226159 0 3.3651296504570029e-05 0.03163389705245339 0 3.9268545595879271e-05 0.031656593485147461 0 6.0547274533866907e-05 0.031592701114578361 0 -0.00092225235541339005 0.021180685485855038 0 -0.00099156135411234748 0.021230195505749339 0 -0.00056674443606002088 0.021213871087624295 0 -0.00065776735278671441 0.02150190835832937 0 -0.0005826122047376198 0.021684179323770539 0 -0.00066715666588560774 0.021736344158686208 0 -0.00032551244499527047 0.023624905649289117 0 -0.00062721350455154643 0.024619448839795992 0 3.3651296504570029e-05 0.03163389705245339 0 3.9268545595879271e-05 0.031656593485147461 0 3.0214358239104921e-05 0.031641074729014965 0 3.9268545595879271e-05 0.031656593485147461 0 1.9180714692710005e-05 0.031710165420742682 0 4.8002990754480646e-05 0.031683374913189961 0 3.9268545595879271e-05 0.031656593485147461 0 4.8002990754480646e-05 0.031683374913189961 0 6.0547274533866907e-05 0.031592701114578361 0 1.9180714692710005e-05 0.031710165420742682 0 -3.4403333620254445e-05 0.031763945262680796 0 3.394185313160495e-06 0.031770778353291312 0 3.9268545595879271e-05 0.031656593485147461 0 1.9180714692710005e-05 0.031710165420742682 0 2.3273165094935548e-05 0.031675554184648964 0 1.9180714692710005e-05 0.031710165420742682 0 2.3273165094935548e-05 0.031675554184648964 0 -1.5499538240766071e-06 0.031697334991100348 0 1.9180714692710005e-05 0.031710165420742682 0 -1.5499538240766071e-06 0.031697334991100348 0 -3.4403333620254445e-05 0.031763945262680796 0 -1.5499538240766071e-06 0.031697334991100348 0 -4.8325273892521628e-05 0.031697097472657032 0 -3.4403333620254445e-05 0.031763945262680796 0 -0.00062721350455154643 0.024619448839795992 0 -0.00068694100151693441 0.026493596644168015 0 5.5035098270648838e-05 0.031622501677429096 0 3.0214358239104921e-05 0.031641074729014965 0 -0.00010016442545704134 0.031613127043141981 0 -1.5499538240766071e-06 0.031697334991100348 0 3.0214358239104921e-05 0.031641074729014965 0 -4.8325273892521628e-05 0.031697097472657032 0 -0.00082486806020020146 0.021467471925972988 0 -0.00066715666588560774 0.021736344158686208 0 -0.001170638397682483 0.021737575075959952 0 3.9268545595879271e-05 0.031656593485147461 0 2.3273165094935548e-05 0.031675554184648964 0 3.0214358239104921e-05 0.031641074729014965 0 2.3273165094935548e-05 0.031675554184648964 0 -1.5499538240766071e-06 0.031697334991100348 0 3.0214358239104921e-05 0.031641074729014965 0 -0.00062721350455154643 0.024619448839795992 0 -0.00070256562573739597 0.024744925213877438 0 3.0214358239104921e-05 0.031641074729014965 0 -0.00010016442545704134 0.031613127043141981 0 -4.8325273892521628e-05 0.031697097472657032 0 -0.00010016442545704134 0.031613127043141981 0 -0.00015518658731878207 0.031798743367445682 0 -4.8325273892521628e-05 0.031697097472657032 0 -0.00088353092258951866 0.028249837320856463 0 -0.00068694100151693441 0.026493596644168015 0 -0.00042873049404198115 0.031579646563412854 0 -0.00010016442545704134 0.031613127043141981 0 -0.00033125497177759525 0.031686987664736786 0 -0.00010016442545704134 0.031613127043141981 0 -0.00033125497177759525 0.031686987664736786 0 -0.00015518658731878207 0.031798743367445682 0 -0.0016318349732250088 0.02174596340034407 0 -0.0014466180048242833 0.021386536782642882 0 -0.001170638397682483 0.021737575075959952 0 -0.00015518658731878207 0.031798743367445682 0 -7.3195606962638183e-05 0.031865303500271711 0 -0.00030467409053378214 0.032047095457311013 0 -0.00033125497177759525 0.031686987664736786 0 -0.00015518658731878207 0.031798743367445682 0 -0.00032260103714750967 0.031877590673194865 0 -0.00015518658731878207 0.031798743367445682 0 -0.00032260103714750967 0.031877590673194865 0 -0.00030467409053378214 0.032047095457311013 0 -0.00043518312529486629 0.032026949935960267 0 -0.00032260103714750967 0.031877590673194865 0 -0.00030467409053378214 0.032047095457311013 0 -0.00015518658731878207 0.031798743367445682 0 -4.8325273892521628e-05 0.031697097472657032 0 -3.4403333620254445e-05 0.031763945262680796 0 -0.00015518658731878207 0.031798743367445682 0 -3.4403333620254445e-05 0.031763945262680796 0 -7.3195606962638183e-05 0.031865303500271711 0 -4.07795191277335e-05 0.032161381562304067 0 0.0003074084934384179 0.031991673943122495 0 -3.4403333620254445e-05 0.031763945262680796 0 -7.3195606962638183e-05 0.031865303500271711 0 3.394185313160495e-06 0.031770778353291312 0 -7.3195606962638183e-05 0.031865303500271711 0 -0.00013974059774664687 0.031972737459051562 0 1.0884412411674053e-05 0.031791736162690362 0 -7.3195606962638183e-05 0.031865303500271711 0 -0.00013974059774664687 0.031972737459051562 0 -0.00030467409053378214 0.032047095457311013 0 -0.00032844729722201517 0.032155758038266147 0 -4.07795191277335e-05 0.032161381562304067 0 -5.856088053733661e-05 0.033414669804874723 0 -0.00047044542163677747 0.032991096595720665 0 0.0003673177186506225 0.033128770718268398 0 -0.00056537056397413805 0.03235712785284902 0 -0.00013974059774664687 0.031972737459051562 0 -0.00030467409053378214 0.032047095457311013 0 -5.856088053733661e-05 0.033414669804874723 0 0.00033534748499617132 0.033587142606708406 0 7.1080680545257169e-05 0.033742533240629188 0 -5.856088053733661e-05 0.033414669804874723 0 0.0003673177186506225 0.033128770718268398 0 0.00033534748499617132 0.033587142606708406 0 0.0003673177186506225 0.033128770718268398 0 0.00033534748499617132 0.033587142606708406 0 0.00059671489531476388 0.033403795122977621 0 0.00033534748499617132 0.033587142606708406 0 0.00059671489531476388 0.033403795122977621 0 0.00050415379082858146 0.033660997856312637 0 0.0003074084934384179 0.031991673943122495 0 0.0005342752255044818 0.031450902277380802 0 0.00059671489531476388 0.033403795122977621 0 0.00070343074094842046 0.03366044829284498 0 0.00076834692093700986 0.033522512398323684 0 1.0884412411674053e-05 0.031791736162690362 0 4.8002990754480646e-05 0.031683374913189961 0 5.3178505527806632e-05 0.031679607485944693 0 1.9180714692710005e-05 0.031710165420742682 0 4.8002990754480646e-05 0.031683374913189961 0 3.394185313160495e-06 0.031770778353291312 0 1.0884412411674053e-05 0.031791736162690362 0 4.8002990754480646e-05 0.031683374913189961 0 3.394185313160495e-06 0.031770778353291312 0 -7.3195606962638183e-05 0.031865303500271711 0 1.0884412411674053e-05 0.031791736162690362 0 3.394185313160495e-06 0.031770778353291312 0 0.00059394960621749577 0.033775282732215424 0 0.00045061802428857746 0.03386669338895832 0 0.00050415379082858146 0.033660997856312637 0 0.00059394960621749577 0.033775282732215424 0 0.00045061802428857746 0.03386669338895832 0 0.00057868489164251686 0.033913009650937437 0 0.00059394960621749577 0.033775282732215424 0 0.00069616478404665929 0.033810538165743621 0 0.00070343074094842046 0.03366044829284498 0 0.00059394960621749577 0.033775282732215424 0 0.00069616478404665929 0.033810538165743621 0 0.00057868489164251686 0.033913009650937437 0 0.00069616478404665929 0.033810538165743621 0 0.00070343074094842046 0.03366044829284498 0 0.00079178571711148199 0.033747964249428088 0 0.00059671489531476388 0.033403795122977621 0 0.00070343074094842046 0.03366044829284498 0 0.00050415379082858146 0.033660997856312637 0 0.00059394960621749577 0.033775282732215424 0 0.00070343074094842046 0.03366044829284498 0 0.00050415379082858146 0.033660997856312637 0 0.00033534748499617132 0.033587142606708406 0 0.00018747198360131976 0.033806660054772786 0 0.00032853694203781851 0.033805968542965047 0 0.00033534748499617132 0.033587142606708406 0 0.00050415379082858146 0.033660997856312637 0 0.00032853694203781851 0.033805968542965047 0 0.00033534748499617132 0.033587142606708406 0 7.1080680545257169e-05 0.033742533240629188 0 0.00018747198360131976 0.033806660054772786 0 7.1080680545257169e-05 0.033742533240629188 0 0.00018747198360131976 0.033806660054772786 0 5.1247700667821085e-05 0.033911770591762459 0 0.00018747198360131976 0.033806660054772786 0 5.1247700667821085e-05 0.033911770591762459 0 0.00018115127417998362 0.033924933427069273 0 0.00018747198360131976 0.033806660054772786 0 0.00018115127417998362 0.033924933427069273 0 0.00032853694203781851 0.033805968542965047 0 0.00018115127417998362 0.033924933427069273 0 0.00029486987896713032 0.033955791044676116 0 0.00017677836887297337 0.034023600948741586 0 5.1247700667821085e-05 0.033911770591762459 0 0.00018115127417998362 0.033924933427069273 0 8.0576671949044226e-05 0.034011753592327991 0 0.00045061802428857746 0.03386669338895832 0 0.00050415379082858146 0.033660997856312637 0 0.00032853694203781851 0.033805968542965047 0 0.00018115127417998362 0.033924933427069273 0 0.00032853694203781851 0.033805968542965047 0 0.00029486987896713032 0.033955791044676116 0 0.00045061802428857746 0.03386669338895832 0 0.00032853694203781851 0.033805968542965047 0 0.00029486987896713032 0.033955791044676116 0 0.00045061802428857746 0.03386669338895832 0 0.00029486987896713032 0.033955791044676116 0 0.0004093738708064141 0.034018039889685908 0 0.00029486987896713032 0.033955791044676116 0 0.0004093738708064141 0.034018039889685908 0 0.00023229433793661562 0.034094261980403266 0 0.00029486987896713032 0.033955791044676116 0 0.00023229433793661562 0.034094261980403266 0 0.00017677836887297337 0.034023600948741586 0 0.0004093738708064141 0.034018039889685908 0 0.00023229433793661562 0.034094261980403266 0 0.00026860444581447521 0.034225059216009213 0 8.0576671949044226e-05 0.034011753592327991 0 0.00011175877559768636 0.03413422209871133 0 3.5943387036399679e-05 0.034184515807907732 0 8.0576671949044226e-05 0.034011753592327991 0 0.00017677836887297337 0.034023600948741586 0 0.00011175877559768636 0.03413422209871133 0 0.00018115127417998362 0.033924933427069273 0 8.0576671949044226e-05 0.034011753592327991 0 0.00017677836887297337 0.034023600948741586 0 0.00023229433793661562 0.034094261980403266 0 0.00017677836887297337 0.034023600948741586 0 0.00011175877559768636 0.03413422209871133 0 8.4767309133228574e-05 0.034178375673785816 0 0.00011984013757865842 0.034214877156481437 0 0.00011175877559768636 0.03413422209871133 0 0.00010963482417631765 0.034255660962708739 0 3.5943387036399679e-05 0.034184515807907732 0 0.00010963482417631765 0.034255660962708739 0 0.00010210406261079903 0.034228443927201799 0 3.5943387036399679e-05 0.034184515807907732 0 0.00023229433793661562 0.034094261980403266 0 0.00011175877559768636 0.03413422209871133 0 0.00010963482417631765 0.034255660962708739 0 -1.1168249845786372e-05 0.034353978132344025 0 -0.00029807751260873579 0.034387784003210506 0 -0.00011193501213379992 0.034191347250427669 0 0.00023229433793661562 0.034094261980403266 0 0.00010963482417631765 0.034255660962708739 0 0.00026860444581447521 0.034225059216009213 0 -0.00027650843021494924 0.031370192578986177 0 -0.00025230689978468339 0.03126834865465794 0 0.00010963482417631765 0.034255660962708739 0 -1.1168249845786372e-05 0.034353978132344025 0 6.229157336864413e-06 0.034243423932849744 0 0.0004093738708064141 0.034018039889685908 0 0.00026860444581447521 0.034225059216009213 0 0.00058416785451706054 0.034084383216936555 0 -0.00025230689978468339 0.03126834865465794 0 -0.00042909742897446037 0.031057422661339963 0 -0.00025230689978468339 0.03126834865465794 0 -0.0002459599892067036 0.0309635454393981 0 -0.00019483208098974069 0.029779040251870538 0 -0.00052397093473795057 0.029716546887412466 0 -0.00057808550584377962 0.029863219912289705 0 0.0004093738708064141 0.034018039889685908 0 0.00058416785451706054 0.034084383216936555 0 0.00057868489164251686 0.033913009650937437 0 0.00045061802428857746 0.03386669338895832 0 0.0004093738708064141 0.034018039889685908 0 0.00057868489164251686 0.033913009650937437 0 0.00058416785451706054 0.034084383216936555 0 0.00071054313844190822 0.033939928099078559 0 0.00085054676596727375 0.033940095030293951 0 -0.0002459599892067036 0.0309635454393981 0 -0.00031281718622397115 0.030034660319671828 0 0.00069616478404665929 0.033810538165743621 0 0.00071054313844190822 0.033939928099078559 0 0.0007753217450678395 0.0338338157149594 0 0.00069616478404665929 0.033810538165743621 0 0.00057868489164251686 0.033913009650937437 0 0.00071054313844190822 0.033939928099078559 0 0.00058416785451706054 0.034084383216936555 0 0.00057868489164251686 0.033913009650937437 0 0.00071054313844190822 0.033939928099078559 0 -0.00057808550584377962 0.029863219912289705 0 -0.00085659560814410358 0.029653993175711688 0 -0.00096511929356497036 0.029948581972903985 0 -0.00052397093473795057 0.029716546887412466 0 -0.00057808550584377962 0.029863219912289705 0 -0.00085659560814410358 0.029653993175711688 0 -0.00042909742897446037 0.031057422661339963 0 -0.00084481309907663245 0.030400345913169386 0 -0.00029807751260873579 0.034387784003210506 0 -0.00035626846567548073 0.03413454351041656 0 -0.00061123386190861369 0.034392280718926561 0 -0.00035626846567548073 0.03413454351041656 0 -0.00061123386190861369 0.034392280718926561 0 -0.00068313488746865473 0.03416475867459557 0 -0.00029807751260873579 0.034387784003210506 0 -0.00035626846567548073 0.03413454351041656 0 -0.00011193501213379992 0.034191347250427669 0 -0.00035626846567548073 0.03413454351041656 0 -4.4827754304543099e-05 0.033990757957355712 0 -0.00011193501213379992 0.034191347250427669 0 -0.00035626846567548073 0.03413454351041656 0 -0.00029856021320622813 0.033845636057737299 0 -4.4827754304543099e-05 0.033990757957355712 0 -0.00035626846567548073 0.03413454351041656 0 -0.00054638315312751512 0.033942239835597222 0 -0.00029856021320622813 0.033845636057737299 0 -0.00035626846567548073 0.03413454351041656 0 -0.00054638315312751512 0.033942239835597222 0 -0.00068313488746865473 0.03416475867459557 0 -0.00054638315312751512 0.033942239835597222 0 -0.00029856021320622813 0.033845636057737299 0 -0.00052135049743276508 0.033681311548669476 0 -0.00029856021320622813 0.033845636057737299 0 -5.1723400351229849e-05 0.033762142496675487 0 -0.00028968762393859725 0.033573549972363732 0 -0.00029856021320622813 0.033845636057737299 0 -0.00052135049743276508 0.033681311548669476 0 -0.00028968762393859725 0.033573549972363732 0 -0.00052135049743276508 0.033681311548669476 0 -0.00050965186152252158 0.033485732054290236 0 -0.00028968762393859725 0.033573549972363732 0 0.00016545214078754036 0.033690769310383235 0 -5.1723400351229849e-05 0.033762142496675487 0 -3.4656826080179225e-05 0.03347970417842859 0 -5.1723400351229849e-05 0.033762142496675487 0 -3.4656826080179225e-05 0.03347970417842859 0 -0.00028968762393859725 0.033573549972363732 0 -0.00029856021320622813 0.033845636057737299 0 -5.1723400351229849e-05 0.033762142496675487 0 -4.4827754304543099e-05 0.033990757957355712 0 0.00016545214078754036 0.033690769310383235 0 -5.1723400351229849e-05 0.033762142496675487 0 0.00017952718493389338 0.034008823907849171 0 -5.1723400351229849e-05 0.033762142496675487 0 -4.4827754304543099e-05 0.033990757957355712 0 0.00017952718493389338 0.034008823907849171 0 4.4226885698602974e-05 0.034116820706391555 0 8.4767309133228574e-05 0.034178375673785816 0 -4.4827754304543099e-05 0.033990757957355712 0 8.8664913266974351e-05 0.034232593585568884 0 0.00017952718493389338 0.034008823907849171 0 -4.4827754304543099e-05 0.033990757957355712 0 -0.00011193501213379992 0.034191347250427669 0 0.00010210406261079903 0.034228443927201799 0 -0.00011193501213379992 0.034191347250427669 0 6.229157336864413e-06 0.034243423932849744 0 0.00010210406261079903 0.034228443927201799 0 -1.1168249845786372e-05 0.034353978132344025 0 -0.00011193501213379992 0.034191347250427669 0 6.229157336864413e-06 0.034243423932849744 0 0.00010963482417631765 0.034255660962708739 0 6.229157336864413e-06 0.034243423932849744 0 0.00010210406261079903 0.034228443927201799 0 0.00024809901757109611 0.034280128448899098 0 0.00037618078743655806 0.034142460577750416 0 0.00027759192217670657 0.034420750517922448 0 8.8664913266974351e-05 0.034232593585568884 0 0.00024809901757109611 0.034280128448899098 0 0.00017952718493389338 0.034008823907849171 0 0.0001778481933732834 0.034494824002278428 0 0.00022337475000804423 0.034465916496179458 0 0.00027759192217670657 0.034420750517922448 0 0.00024450133860377934 0.034221439907064277 0 0.00025326477818678775 0.034300499588162239 0 0.00024450133860377934 0.034221439907064277 0 0.00021788946106697602 0.034011944199109981 0 0.00037618078743655806 0.034142460577750416 0 0.00017952718493389338 0.034008823907849171 0 0.00039620272376306257 0.033811167199289921 0 0.00024809901757109611 0.034280128448899098 0 0.00037618078743655806 0.034142460577750416 0 0.00017952718493389338 0.034008823907849171 0 0.00016545214078754036 0.033690769310383235 0 0.00017952718493389338 0.034008823907849171 0 0.00039620272376306257 0.033811167199289921 0 6.6832610324401925e-05 0.03430935857709938 0 0.00020221928092742321 0.034121477238217901 0 0.00023813665673169912 0.034426361618666156 0 0.0001778481933732834 0.034494824002278428 0 6.6832610324401925e-05 0.03430935857709938 0 0.00023813665673169912 0.034426361618666156 0 6.6832610324401925e-05 0.03430935857709938 0 0.00020221928092742321 0.034121477238217901 0 0.00011218431636550472 0.03395440951864083 0 0.00021788946106697602 0.034011944199109981 0 0.00017744310201537475 0.033743225816008665 0 6.6832610324401925e-05 0.03430935857709938 0 0.00011218431636550472 0.03395440951864083 0 5.14755169740818e-05 0.033922376007446332 0 0.00039620272376306257 0.033811167199289921 0 0.00029070861920542308 0.033625414501622979 0 0.00039706460149768302 0.033481919891349701 0 0.00016545214078754036 0.033690769310383235 0 0.00039620272376306257 0.033811167199289921 0 0.00029070861920542308 0.033625414501622979 0 0.00016545214078754036 0.033690769310383235 0 0.00029070861920542308 0.033625414501622979 0 0.00020443401232153678 0.033517425806210324 0 0.0003388316064681539 0.0344354045442943 0 0.00031315638267861209 0.034524701737365472 0 0.00031070870583845602 0.034128168190029132 0 0.00036312854597676846 0.034488682109830873 0 0.00062298970038016609 0.034159604157979785 0 0.00031070870583845602 0.034128168190029132 0 0.00047387478455844436 0.03399602557999603 0 0.00040723736664102626 0.033925944634523073 0 0.00031070870583845602 0.034128168190029132 0 0.00020221928092742321 0.034121477238217901 0 0.0002829254574121005 0.03396308149969212 0 0.00031070870583845602 0.034128168190029132 0 0.00020221928092742321 0.034121477238217901 0 0.00023813665673169912 0.034426361618666156 0 0.00023813665673169912 0.034426361618666156 0 0.00036312854597676846 0.034488682109830873 0 0.00028034703721263539 0.034517443187866613 0 0.00031070870583845602 0.034128168190029132 0 0.00023813665673169912 0.034426361618666156 0 0.00036312854597676846 0.034488682109830873 0 0.00023813665673169912 0.034426361618666156 0 0.00028034703721263539 0.034517443187866613 0 0.00023417768407203875 0.034502931987255424 0 0.0001778481933732834 0.034494824002278428 0 0.00023813665673169912 0.034426361618666156 0 0.00023417768407203875 0.034502931987255424 0 0.0001778481933732834 0.034494824002278428 0 0.00023417768407203875 0.034502931987255424 0 0.00022337475000804423 0.034465916496179458 0 0.00028034703721263539 0.034517443187866613 0 0.00023417768407203875 0.034502931987255424 0 0.000228795479557264 0.034516682400247446 0 0.00023417768407203875 0.034502931987255424 0 0.00020528279737519199 0.034474148921511204 0 0.000228795479557264 0.034516682400247446 0 0.00020528279737519199 0.034474148921511204 0 0.00017225454979600079 0.034429430527625628 0 0.00019215780954196735 0.0344896535392707 0 0.00020528279737519199 0.034474148921511204 0 0.00019215780954196735 0.0344896535392707 0 0.000228795479557264 0.034516682400247446 0 0.00020528279737519199 0.034474148921511204 0 0.00017225454979600079 0.034429430527625628 0 0.00018986933020930367 0.034406271296634004 0 0.00017225454979600079 0.034429430527625628 0 0.00018986933020930367 0.034406271296634004 0 0.00015340957845070714 0.034328551307837116 0 0.00018986933020930367 0.034406271296634004 0 0.00022337475000804423 0.034465916496179458 0 0.00023574745362303913 0.034387532379584099 0 0.00018986933020930367 0.034406271296634004 0 0.00023574745362303913 0.034387532379584099 0 0.00016763977188326499 0.034292206337962469 0 0.00020528279737519199 0.034474148921511204 0 0.00018986933020930367 0.034406271296634004 0 0.00022337475000804423 0.034465916496179458 0 0.00023417768407203875 0.034502931987255424 0 0.00020528279737519199 0.034474148921511204 0 0.00022337475000804423 0.034465916496179458 0 0.00022337475000804423 0.034465916496179458 0 0.00027759192217670657 0.034420750517922448 0 0.00023574745362303913 0.034387532379584099 0 0.00024809901757109611 0.034280128448899098 0 0.00027759192217670657 0.034420750517922448 0 0.00023817006004861832 0.034410613614680292 0 8.8664913266974351e-05 0.034232593585568884 0 0.00024809901757109611 0.034280128448899098 0 0.00023817006004861832 0.034410613614680292 0 0.00027759192217670657 0.034420750517922448 0 0.00023817006004861832 0.034410613614680292 0 0.00029960926931038432 0.034349903935674518 0 8.0576671949044226e-05 0.034011753592327991 0 3.5943387036399679e-05 0.034184515807907732 0 -4.151328466542427e-05 0.033943093582067117 0 0.00011984013757865842 0.034214877156481437 0 0.00012011299683199908 0.03417829350742891 0 0.00027759192217670657 0.034420750517922448 0 0.00023574745362303913 0.034387532379584099 0 0.00029960926931038432 0.034349903935674518 0 0.00023574745362303913 0.034387532379584099 0 0.00029960926931038432 0.034349903935674518 0 0.00016763977188326499 0.034292206337962469 0 0.00012011299683199908 0.03417829350742891 0 0.00011659209466739699 0.034153177632546584 0 -4.151328466542427e-05 0.033943093582067117 0 -2.8173103133448714e-05 0.0339381857493435 0 0.00013210921415057162 0.034073168603874444 0 0.00029960926931038432 0.034349903935674518 0 0.00013210921415057162 0.034073168603874444 0 0.00016763977188326499 0.034292206337962469 0 5.1247700667821085e-05 0.033911770591762459 0 8.0576671949044226e-05 0.034011753592327991 0 -4.151328466542427e-05 0.033943093582067117 0 5.1247700667821085e-05 0.033911770591762459 0 -4.151328466542427e-05 0.033943093582067117 0 -2.8173103133448714e-05 0.0339381857493435 0 5.1247700667821085e-05 0.033911770591762459 0 -8.9228677514425537e-06 0.033873483311073475 0 -2.8173103133448714e-05 0.0339381857493435 0 7.1080680545257169e-05 0.033742533240629188 0 5.1247700667821085e-05 0.033911770591762459 0 -8.9228677514425537e-06 0.033873483311073475 0 -8.9228677514425537e-06 0.033873483311073475 0 -2.8173103133448714e-05 0.0339381857493435 0 -8.1083940046617042e-05 0.033912633834015569 0 -6.3383455869804565e-05 0.033687014253789678 0 -8.9228677514425537e-06 0.033873483311073475 0 -8.1083940046617042e-05 0.033912633834015569 0 -6.3383455869804565e-05 0.033687014253789678 0 7.1080680545257169e-05 0.033742533240629188 0 -8.9228677514425537e-06 0.033873483311073475 0 -2.8173103133448714e-05 0.0339381857493435 0 -8.1083940046617042e-05 0.033912633834015569 0 0.00013210921415057162 0.034073168603874444 0 -3.3317821923442338e-05 0.034081015585777238 0 -8.1083940046617042e-05 0.033912633834015569 0 0.00013210921415057162 0.034073168603874444 0 0.00013376155291145147 0.034289833951789195 0 0.00014820086492594919 0.034160976041227233 0 0.00014386228370473467 0.034210294850263084 0 0.00013210921415057162 0.034073168603874444 0 0.00014386228370473467 0.034210294850263084 0 0.00016763977188326499 0.034292206337962469 0 0.00014820086492594919 0.034160976041227233 0 0.00013210921415057162 0.034073168603874444 0 0.00014386228370473467 0.034210294850263084 0 0.00013376155291145147 0.034289833951789195 0 0.00014386228370473467 0.034210294850263084 0 0.00013704335635896924 0.034313762745472848 0 0.00013376155291145147 0.034289833951789195 0 0.00013704335635896924 0.034313762745472848 0 0.00013136708454365907 0.03437867903895437 0 0.00013704335635896924 0.034313762745472848 0 0.00015340957845070714 0.034328551307837116 0 0.00014693788530525481 0.0343888717891545 0 0.00014386228370473467 0.034210294850263084 0 0.00013704335635896924 0.034313762745472848 0 0.00015340957845070714 0.034328551307837116 0 0.00017225454979600079 0.034429430527625628 0 0.00015340957845070714 0.034328551307837116 0 0.00014693788530525481 0.0343888717891545 0 0.00018986933020930367 0.034406271296634004 0 0.00015340957845070714 0.034328551307837116 0 0.00016763977188326499 0.034292206337962469 0 0.00014386228370473467 0.034210294850263084 0 0.00015340957845070714 0.034328551307837116 0 0.00016763977188326499 0.034292206337962469 0 0.00014782346427249008 0.034424525030254893 0 0.00014744852433133784 0.034428641525035761 0 0.00014141458178468537 0.034483516545962059 0 0.00014782346427249008 0.034424525030254893 0 0.00014693788530525481 0.0343888717891545 0 0.00013136708454365907 0.03437867903895437 0 0.00014782346427249008 0.034424525030254893 0 0.00014693788530525481 0.0343888717891545 0 0.00016542072880583388 0.034473530402882487 0 0.00013704335635896924 0.034313762745472848 0 0.00014693788530525481 0.0343888717891545 0 0.00013136708454365907 0.03437867903895437 0 0.00013376155291145147 0.034289833951789195 0 0.00013136708454365907 0.03437867903895437 0 0.00013636949864223369 0.034466960678099665 0 0.00014782346427249008 0.034424525030254893 0 0.00013136708454365907 0.03437867903895437 0 0.00013636949864223369 0.034466960678099665 0 9.2765170176537179e-05 0.034142465668416097 0 0.00012121642227809834 0.034193555763744068 0 0.00014782346427249008 0.034424525030254893 0 0.00013636949864223369 0.034466960678099665 0 0.00014744852433133784 0.034428641525035761 0 0.00011062110726620405 0.034611293351532346 0 9.978700854751709e-05 0.034629020848910015 0 0.0001472062403429592 0.034540300398918915 0 0.00013636949864223369 0.034466960678099665 0 0.00014744852433133784 0.034428641525035761 0 0.00011541432358549467 0.034651841636830716 0 0.0001151700170223455 0.034769233190722046 0 7.0981124624094088e-05 0.0347074166892372 0 0.00011541432358549467 0.034651841636830716 0 0.0001472062403429592 0.034540300398918915 0 0.0001151700170223455 0.034769233190722046 0 0.0001151700170223455 0.034769233190722046 0 3.7034208962252827e-05 0.034794467433522422 0 7.0981124624094088e-05 0.0347074166892372 0 3.7034208962252827e-05 0.034794467433522422 0 7.0981124624094088e-05 0.0347074166892372 0 2.376594816824483e-05 0.034755601739865749 0 9.978700854751709e-05 0.034629020848910015 0 6.5015359378624394e-05 0.034674720390342792 0 0.0001151700170223455 0.034769233190722046 0 3.7034208962252827e-05 0.034794467433522422 0 1.2870690666766306e-05 0.034850691992829537 0 0.00014744852433133784 0.034428641525035761 0 0.00014141458178468537 0.034483516545962059 0 5.9504206215773927e-05 0.034537162173784962 0 0.00014141458178468537 0.034483516545962059 0 5.9504206215773927e-05 0.034537162173784962 0 0.00013521925192937318 0.034572435324306899 0 5.9504206215773927e-05 0.034537162173784962 0 7.6694004306130439e-05 0.034677872783801786 0 0.00013521925192937318 0.034572435324306899 0 7.6694004306130439e-05 0.034677872783801786 0 0.00013521925192937318 0.034572435324306899 0 0.00013806657656867144 0.034645346917963817 0 0.00013521925192937318 0.034572435324306899 0 0.00018261205657663126 0.034548077978421077 0 0.00016542072880583388 0.034473530402882487 0 0.00014141458178468537 0.034483516545962059 0 0.00013521925192937318 0.034572435324306899 0 0.00016542072880583388 0.034473530402882487 0 0.00014782346427249008 0.034424525030254893 0 0.00014141458178468537 0.034483516545962059 0 0.00016542072880583388 0.034473530402882487 0 0.00017225454979600079 0.034429430527625628 0 0.00014693788530525481 0.0343888717891545 0 0.00016542072880583388 0.034473530402882487 0 0.00017225454979600079 0.034429430527625628 0 0.00016542072880583388 0.034473530402882487 0 0.00019215780954196735 0.0344896535392707 0 0.00018261205657663126 0.034548077978421077 0 0.00016542072880583388 0.034473530402882487 0 0.00019215780954196735 0.0344896535392707 0 0.00018261205657663126 0.034548077978421077 0 0.00019215780954196735 0.0344896535392707 0 0.000228795479557264 0.034516682400247446 0 0.00028034703721263539 0.034517443187866613 0 0.000228795479557264 0.034516682400247446 0 0.00023313148353248432 0.034562389408373501 0 0.00018261205657663126 0.034548077978421077 0 0.000228795479557264 0.034516682400247446 0 0.00023313148353248432 0.034562389408373501 0 0.00018261205657663126 0.034548077978421077 0 0.00023313148353248432 0.034562389408373501 0 0.00013806657656867144 0.034645346917963817 0 0.00023313148353248432 0.034562389408373501 0 0.00018939679870344018 0.034656826998771394 0 0.00013806657656867144 0.034645346917963817 0 0.00036312854597676846 0.034488682109830873 0 0.00028034703721263539 0.034517443187866613 0 0.00023313148353248432 0.034562389408373501 0 0.00036312854597676846 0.034488682109830873 0 0.00023313148353248432 0.034562389408373501 0 0.00018939679870344018 0.034656826998771394 0 0.00036312854597676846 0.034488682109830873 0 0.00018939679870344018 0.034656826998771394 0 0.00027118764109368009 0.034749214973815876 0 0.00018939679870344018 0.034656826998771394 0 0.00027118764109368009 0.034749214973815876 0 0.00013617069619284577 0.034797495371326814 0 0.00031315638267861209 0.034524701737365472 0 0.00014973800891621071 0.03471673325457441 0 0.00034220161585583067 0.034495905384219407 0 0.00031315638267861209 0.034524701737365472 0 6.1346309988477763e-05 0.034856679781246673 0 0.00013617069619284577 0.034797495371326814 0 8.2711729287406277e-05 0.034766080247182689 0 7.2029258911004613e-05 0.034820219005255303 0 0.00014973800891621071 0.03471673325457441 0 0.00018939679870344018 0.034656826998771394 0 0.00013617069619284577 0.034797495371326814 0 8.2711729287406277e-05 0.034766080247182689 0 8.2711729287406277e-05 0.034766080247182689 0 0.00013806657656867144 0.034645346917963817 0 6.0680185514481579e-05 0.034741708456499092 0 0.00018939679870344018 0.034656826998771394 0 8.2711729287406277e-05 0.034766080247182689 0 0.00013806657656867144 0.034645346917963817 0 0.00013521925192937318 0.034572435324306899 0 0.00018261205657663126 0.034548077978421077 0 0.00013806657656867144 0.034645346917963817 0 7.6694004306130439e-05 0.034677872783801786 0 0.00013806657656867144 0.034645346917963817 0 6.0680185514481579e-05 0.034741708456499092 0 7.6694004306130439e-05 0.034677872783801786 0 6.0680185514481579e-05 0.034741708456499092 0 -5.4371341092826121e-07 0.034800595545248711 0 2.6383084624501489e-05 0.034822797592288159 0 1.4176313525128278e-06 0.034900192007663207 0 -5.4371341092826121e-07 0.034800595545248711 0 6.0680185514481579e-05 0.034741708456499092 0 2.6383084624501489e-05 0.034822797592288159 0 -5.4371341092826121e-07 0.034800595545248711 0 2.6383084624501489e-05 0.034822797592288159 0 5.4266793525314612e-06 0.034909808111635722 0 1.4176313525128278e-06 0.034900192007663207 0 8.2711729287406277e-05 0.034766080247182689 0 6.0680185514481579e-05 0.034741708456499092 0 2.6383084624501489e-05 0.034822797592288159 0 6.1346309988477763e-05 0.034856679781246673 0 8.2711729287406277e-05 0.034766080247182689 0 2.6776791789159024e-05 0.034865469480298353 0 8.2711729287406277e-05 0.034766080247182689 0 2.6383084624501489e-05 0.034822797592288159 0 2.6776791789159024e-05 0.034865469480298353 0 2.6383084624501489e-05 0.034822797592288159 0 2.6776791789159024e-05 0.034865469480298353 0 5.4266793525314612e-06 0.034909808111635722 0 2.6776791789159024e-05 0.034865469480298353 0 8.8225054985316081e-06 0.034924949557006368 0 5.4266793525314612e-06 0.034909808111635722 0 2.6776791789159024e-05 0.034865469480298353 0 1.6914045841396388e-05 0.034914008875223813 0 8.8225054985316081e-06 0.034924949557006368 0 6.1346309988477763e-05 0.034856679781246673 0 2.6776791789159024e-05 0.034865469480298353 0 1.6914045841396388e-05 0.034914008875223813 0 7.2029258911004613e-05 0.034820219005255303 0 2.7123043703934485e-05 0.034875813164117052 0 -3.1113686674808713e-09 0.034999933613965195 0 9.4993591926062734e-07 0.034979473052673522 0 2.3109325254026618e-07 0.034962430470348957 0 9.4993591926062734e-07 0.034979473052673522 0 8.8225054985316081e-06 0.034924949557006368 0 2.3109325254026618e-07 0.034962430470348957 0 1.6914045841396388e-05 0.034914008875223813 0 9.4993591926062734e-07 0.034979473052673522 0 8.8225054985316081e-06 0.034924949557006368 0 2.7123043703934485e-05 0.034875813164117052 0 8.6841733168171344e-06 0.034895537411289652 0 4.2621149282591304e-05 0.0349632979197649 0 9.4993591926062734e-07 0.034979473052673522 0 2.1067668929248924e-05 0.034979395687602513 0 8.8225054985316081e-06 0.034924949557006368 0 5.4266793525314612e-06 0.034909808111635722 0 2.3109325254026618e-07 0.034962430470348957 0 5.4266793525314612e-06 0.034909808111635722 0 2.3109325254026618e-07 0.034962430470348957 0 -7.4237664464780602e-09 0.03499989644579983 0 -3.1113686674808713e-09 0.034999933613965195 0 2.3109325254026618e-07 0.034962430470348957 0 -7.4237664464780602e-09 0.03499989644579983 0 5.4266793525314612e-06 0.034909808111635722 0 -7.4237664464780602e-09 0.03499989644579983 0 1.4176313525128278e-06 0.034900192007663207 0 -7.4237664464780602e-09 0.03499989644579983 0 1.4176313525128278e-06 0.034900192007663207 0 3.0311501393386551e-09 0.03499988024608424 0 1.4176313525128278e-06 0.034900192007663207 0 3.0311501393386551e-09 0.03499988024608424 0 2.8178601920873725e-08 0.0349177264934201 0 3.0311501393386551e-09 0.03499988024608424 0 2.8178601920873725e-08 0.0349177264934201 0 -6.1569612986360406e-09 0.034999894017333791 0 2.8178601920873725e-08 0.0349177264934201 0 -6.1569612986360406e-09 0.034999894017333791 0 -6.3772182523482375e-06 0.034906661789470279 0 1.4176313525128278e-06 0.034900192007663207 0 2.8178601920873725e-08 0.0349177264934201 0 -5.4371341092826121e-07 0.034800595545248711 0 -5.4371341092826121e-07 0.034800595545248711 0 -1.0532427431429669e-05 0.034867637242567993 0 -6.3772182523482375e-06 0.034906661789470279 0 1.2870690666766306e-05 0.034850691992829537 0 -5.4371341092826121e-07 0.034800595545248711 0 -1.0532427431429669e-05 0.034867637242567993 0 5.9504206215773927e-05 0.034537162173784962 0 7.6694004306130439e-05 0.034677872783801786 0 -5.4371341092826121e-07 0.034800595545248711 0 6.5015359378624394e-05 0.034674720390342792 0 4.1430122049785908e-05 0.034707848996501978 0 2.8178601920873725e-08 0.0349177264934201 0 -5.4371341092826121e-07 0.034800595545248711 0 -6.3772182523482375e-06 0.034906661789470279 0 -1.0532427431429669e-05 0.034867637242567993 0 -4.6423437445326638e-05 0.034883845640545794 0 -6.3772182523482375e-06 0.034906661789470279 0 3.7034208962252827e-05 0.034794467433522422 0 1.2870690666766306e-05 0.034850691992829537 0 -1.0532427431429669e-05 0.034867637242567993 0 -2.106450791844389e-05 0.034808248865970441 0 -1.0532427431429669e-05 0.034867637242567993 0 2.376594816824483e-05 0.034755601739865749 0 3.7034208962252827e-05 0.034794467433522422 0 -1.0532427431429669e-05 0.034867637242567993 0 2.376594816824483e-05 0.034755601739865749 0 -2.106450791844389e-05 0.034808248865970441 0 -1.0532427431429669e-05 0.034867637242567993 0 -4.6423437445326638e-05 0.034883845640545794 0 -2.184250026107075e-05 0.034952097271487188 0 -4.6423437445326638e-05 0.034883845640545794 0 -1.0676639913372788e-05 0.034943817319568825 0 -4.6423437445326638e-05 0.034883845640545794 0 -1.0676639913372788e-05 0.034943817319568825 0 -6.3772182523482375e-06 0.034906661789470279 0 2.286373672176635e-09 0.034999916774358618 0 -1.0676639913372788e-05 0.034943817319568825 0 -6.1569612986360406e-09 0.034999894017333791 0 2.286373672176635e-09 0.034999916774358618 0 -7.8091243771833006e-06 0.034974293599316107 0 -1.0676639913372788e-05 0.034943817319568825 0 -1.0676639913372788e-05 0.034943817319568825 0 -6.1569612986360406e-09 0.034999894017333791 0 -6.3772182523482375e-06 0.034906661789470279 0 -0.0025373644571017777 0.019045763775465793 0 -0.0025837529497456141 0.019041178857978208 0 -0.0025376849567643818 0.019089829539535457 0 -0.0025837529497456141 0.019041178857978208 0 -0.0025376849567643818 0.019089829539535457 0 -0.0026105859579309389 0.019091247973027387 0 -0.0025376849567643818 0.019089829539535457 0 -0.0026105859579309389 0.019091247973027387 0 -0.0025540532989074896 0.019182211167504331 0 -0.0025376849567643818 0.019089829539535457 0 -0.0025070517630751787 0.019061224384299802 0 -0.0025035987137038557 0.019120513494725832 0 -0.0025070517630751787 0.019061224384299802 0 -0.0025035987137038557 0.019120513494725832 0 -0.0024741969919028182 0.019065999164953419 0 -0.0025070517630751787 0.019061224384299802 0 -0.0024776484730511606 0.019022795547024521 0 -0.0024741969919028182 0.019065999164953419 0 -0.0025166316319428978 0.019034159311616585 0 -0.0025070517630751787 0.019061224384299802 0 -0.0024776484730511606 0.019022795547024521 0 -0.0025373644571017777 0.019045763775465793 0 -0.0025166316319428978 0.019034159311616585 0 -0.0025070517630751787 0.019061224384299802 0 -0.0025373644571017777 0.019045763775465793 0 -0.0025376849567643818 0.019089829539535457 0 -0.0025070517630751787 0.019061224384299802 0 -0.0024776484730511606 0.019022795547024521 0 -0.0025440622507207364 0.019006939692589479 0 -0.0024345336441964774 0.019006116687350191 0 -0.0017828224489145038 0.012789864038852589 0 -0.0034059538497661175 0.013235794630438287 0 -0.00015670369652376172 0.01341556694805876 0 -0.0024282589112411619 0.016984605152831751 0 -0.0017024917997625361 0.013913780936546919 0 -0.0025166316319428978 0.019034159311616585 0 -0.0024776484730511606 0.019022795547024521 0 -0.0025440622507207364 0.019006939692589479 0 -0.0017828224489145038 0.012789864038852589 0 -0.00083247825997294063 0.012400339699215633 0 -0.0014892476277940344 0.011985216388996538 0 -0.0017828224489145038 0.012789864038852589 0 -0.002372517231959245 0.011821718758633054 0 -0.0014892476277940344 0.011985216388996538 0 -0.0017828224489145038 0.012789864038852589 0 -0.0026676641612533919 0.012836222819723294 0 -0.0034059538497661175 0.013235794630438287 0 -0.0017828224489145038 0.012789864038852589 0 -0.0026676641612533919 0.012836222819723294 0 -0.002372517231959245 0.011821718758633054 0 -0.0026676641612533919 0.012836222819723294 0 -0.0029500619407833188 0.012285720289662365 0 -0.002372517231959245 0.011821718758633054 0 -0.0026676641612533919 0.012836222819723294 0 -0.0029500619407833188 0.012285720289662365 0 -0.0031253677206318589 0.012826870332146615 0 -0.0034547140223180981 0.012847716366700597 0 -0.0034059538497661175 0.013235794630438287 0 -0.004972861491248772 0.013187452196955211 0 -0.0029500619407833188 0.012285720289662365 0 -0.0034547140223180981 0.012847716366700597 0 -0.0031253677206318589 0.012826870332146615 0 -0.0026676641612533919 0.012836222819723294 0 -0.0031253677206318589 0.012826870332146615 0 -0.0034059538497661175 0.013235794630438287 0 -0.0034547140223180981 0.012847716366700597 0 -0.0031253677206318589 0.012826870332146615 0 -0.0034059538497661175 0.013235794630438287 0 -0.0025373644571017777 0.019045763775465793 0 -0.0025837529497456141 0.019041178857978208 0 -0.0025440622507207364 0.019006939692589479 0 -0.0025373644571017777 0.019045763775465793 0 -0.0025166316319428978 0.019034159311616585 0 -0.0025440622507207364 0.019006939692589479 0 -0.0024282589112411619 0.016984605152831751 0 -0.0010621618915752397 0.020748037963986141 0 -0.0025837529497456141 0.019041178857978208 0 -0.0025440622507207364 0.019006939692589479 0 -0.0027203546432041951 0.018945768119893385 0 -0.0010621618915752397 0.020748037963986141 0 -0.00049855514875515807 0.017600395189403872 0 -0.0034547140223180981 0.012847716366700597 0 -0.004972861491248772 0.013187452196955211 0 -0.0040161577098395494 0.012230990147219727 0 0.0013919457448988669 0.021128389520241007 0 0.0012004254840875151 0.02092238579744778 0 0.0010157428851882962 0.02113788632326058 0 -0.0010621618915752397 0.020748037963986141 0 0.00028110585438085548 0.023612751193919937 0 -0.0010621618915752397 0.020748037963986141 0 -0.0019346151741567999 0.023618625520737069 0 -0.0027203546432041951 0.018945768119893385 0 -0.0026899060299776351 0.019174911065307203 0 -0.0029139312805518116 0.019034982437781955 0 -0.0027203546432041951 0.018945768119893385 0 -0.0026105859579309389 0.019091247973027387 0 -0.0026899060299776351 0.019174911065307203 0 -0.0025837529497456141 0.019041178857978208 0 -0.0027203546432041951 0.018945768119893385 0 -0.0026105859579309389 0.019091247973027387 0 -0.0026105859579309389 0.019091247973027387 0 -0.0026899060299776351 0.019174911065307203 0 -0.0025540532989074896 0.019182211167504331 0 -0.0026899060299776351 0.019174911065307203 0 -0.0025968446429783395 0.019292225979118057 0 -0.0025540532989074896 0.019182211167504331 0 -0.0026899060299776351 0.019174911065307203 0 -0.0026310439242714892 0.019417572770082513 0 -0.0028972844616877921 0.019282701090693726 0 -0.0026899060299776351 0.019174911065307203 0 -0.0029139312805518116 0.019034982437781955 0 -0.0028972844616877921 0.019282701090693726 0 -0.0026310439242714892 0.019417572770082513 0 -0.0028972844616877921 0.019282701090693726 0 -0.0030678273494744814 0.019702086243864627 0 -0.0026310439242714892 0.019417572770082513 0 -0.0025968446429783395 0.019292225979118057 0 -0.0025984264831321125 0.01930154497886305 0 -0.0026899060299776351 0.019174911065307203 0 -0.0026310439242714892 0.019417572770082513 0 -0.0025968446429783395 0.019292225979118057 0 -0.0025968446429783395 0.019292225979118057 0 -0.002551690563960856 0.019250976417334361 0 -0.0025984264831321125 0.01930154497886305 0 -0.0025968446429783395 0.019292225979118057 0 -0.002551690563960856 0.019250976417334361 0 -0.0025540532989074896 0.019182211167504331 0 -0.0025376849567643818 0.019089829539535457 0 -0.0025540532989074896 0.019182211167504331 0 -0.0025035987137038557 0.019120513494725832 0 -0.0025540532989074896 0.019182211167504331 0 -0.0025035987137038557 0.019120513494725832 0 -0.0025049177867747098 0.019182521931315977 0 -0.002551690563960856 0.019250976417334361 0 -0.0025540532989074896 0.019182211167504331 0 -0.0025049177867747098 0.019182521931315977 0 -0.002551690563960856 0.019250976417334361 0 -0.0025049177867747098 0.019182521931315977 0 -0.0025115096263956379 0.019220515101043445 0 -0.0025049177867747098 0.019182521931315977 0 -0.002447381624879728 0.01918557813053786 0 -0.0025115096263956379 0.019220515101043445 0 -0.0022915658908475435 0.017261114264464038 0 -0.0015621095621265683 0.01732881813885578 0 -0.0018465501722092284 0.017954366050929742 0 -0.0022915658908475435 0.017261114264464038 0 -0.0015621095621265683 0.01732881813885578 0 -0.0020990705803164505 0.01642072354368004 0 -0.002447381624879728 0.01918557813053786 0 -0.0024618722353685583 0.019117876216893228 0 -0.0023959701527662865 0.019082351052169984 0 -0.0020361186381868119 0.017684333908157053 0 -0.0013373589707018595 0.015403496790768073 0 -0.0025049177867747098 0.019182521931315977 0 -0.002447381624879728 0.01918557813053786 0 -0.0024618722353685583 0.019117876216893228 0 -0.0025035987137038557 0.019120513494725832 0 -0.0025049177867747098 0.019182521931315977 0 -0.0024618722353685583 0.019117876216893228 0 -0.00058703323369122928 0.010061981598062113 0 -0.00053002086446257441 0.010138675178877371 0 -0.00085911634469274228 0.017596404153159235 0 -0.0015621095621265683 0.01732881813885578 0 -0.0012964665433030098 0.016489997110910943 0 -0.00085911634469274228 0.017596404153159235 0 -0.0015621095621265683 0.01732881813885578 0 -0.0013541841585648596 0.0179349811682902 0 -0.0015621095621265683 0.01732881813885578 0 -0.0012964665433030098 0.016489997110910943 0 -0.0022954064234605338 0.016093494852049278 0 -0.0012089223785241431 0.016286966369148767 0 -0.0013373589707018595 0.015403496790768073 0 -0.00021094693356670446 0.0024751481712539918 0 0.00037619007304128801 0.0035391901369274605 0 -0.0002196095653924244 0.0033636137391196063 0 0.00037619007304128801 0.0035391901369274605 0 -0.0002196095653924244 0.0033636137391196063 0 -5.6176842062162232e-05 0.0039755092032855571 0 -0.00049727089932385406 0.0037802787685246595 0 -0.0002196095653924244 0.0033636137391196063 0 -5.6176842062162232e-05 0.0039755092032855571 0 0.00037619007304128801 0.0035391901369274605 0 -5.6176842062162232e-05 0.0039755092032855571 0 0.00034423367749416244 0.0042321629404609316 0 -0.00047170529209347451 0.0041950357089448956 0 -5.6176842062162232e-05 0.0039755092032855571 0 -3.4413577370512339e-05 0.0045806619805763725 0 -5.6176842062162232e-05 0.0039755092032855571 0 0.00034423367749416244 0.0042321629404609316 0 -3.4413577370512339e-05 0.0045806619805763725 0 -0.00053002086446257441 0.010138675178877371 0 -0.00033933381200682732 0.010634071704928258 0 -0.0012964665433030098 0.016489997110910943 0 -0.0018812983792020367 0.015270120778593473 0 -0.0022954064234605338 0.016093494852049278 0 0.00037619007304128801 0.0035391901369274605 0 0.00034423367749416244 0.0042321629404609316 0 0.00092596959060232747 0.0046232480798509782 0 0.00097658671955561105 0.0047109629318643348 0 0.00041425826943962483 0.005061886447224842 0 8.8045739049433266e-05 0.0046610180040937499 0 -0.00033933381200682732 0.010634071704928258 0 -0.00021612508440583357 0.0084021635992538504 0 0.00034423367749416244 0.0042321629404609316 0 0.00092596959060232747 0.0046232480798509782 0 -3.4413577370512339e-05 0.0045806619805763725 0 0.00097658671955561105 0.0047109629318643348 0 0.0013825428314791805 0.0055063794252407823 0 0.0007687906297779172 0.0052768171299887078 0 0.00097658671955561105 0.0047109629318643348 0 0.00041425826943962483 0.005061886447224842 0 0.0007687906297779172 0.0052768171299887078 0 0.00041425826943962483 0.005061886447224842 0 3.8273759834083176e-05 0.0051401789198165246 0 8.8045739049433266e-05 0.0046610180040937499 0 -0.00040125910203848725 0.0048890672423537876 0 3.8273759834083176e-05 0.0051401789198165246 0 8.8045739049433266e-05 0.0046610180040937499 0 -0.0024618722353685583 0.019117876216893228 0 -0.0024417757749451894 0.019056863898721247 0 -0.0023959701527662865 0.019082351052169984 0 -0.0024417757749451894 0.019056863898721247 0 -0.0024741969919028182 0.019065999164953419 0 -0.0024492081212444325 0.019007412975748941 0 -0.0024776484730511606 0.019022795547024521 0 -0.0024741969919028182 0.019065999164953419 0 -0.0024345336441964774 0.019006116687350191 0 -0.0022945732327169757 0.015091058644408541 0 -0.0017024917997625361 0.013913780936546919 0 -0.0024618722353685583 0.019117876216893228 0 -0.0024417757749451894 0.019056863898721247 0 -0.0024741969919028182 0.019065999164953419 0 -0.0025035987137038557 0.019120513494725832 0 -0.0024618722353685583 0.019117876216893228 0 -0.0024741969919028182 0.019065999164953419 0 -0.0013373589707018595 0.015403496790768073 0 -0.00081792001873373622 0.011790904559483929 0 -0.0024417757749451894 0.019056863898721247 0 -0.0023959701527662865 0.019082351052169984 0 -0.0024287283014483843 0.019006848523970648 0 -0.0018812983792020367 0.015270120778593473 0 -0.0022954064234605338 0.016093494852049278 0 -0.0021092228515396097 0.015266048185686049 0 -0.0013373589707018595 0.015403496790768073 0 -0.0013078255228064237 0.013429760153833278 0 -0.001934417335580622 0.012879636270849747 0 -0.0021336510997498189 0.013765284236100808 0 -0.0013964684294093348 0.013777592835991977 0 -0.00033933381200682732 0.010634071704928258 0 -0.00023206458084936343 0.0095695902282431512 0 -7.3638253418458353e-05 0.011331678741085554 0 0.00044390862568569013 0.011290609022710448 0 0.00030708645122830616 0.011060319582200183 0 -0.00073660308353593431 0.011040680306013606 0 -0.00047187775900715682 0.011045414107549131 0 -0.00016053714678359359 0.012151382132604201 0 -0.00047187775900715682 0.011045414107549131 0 -7.3638253418458353e-05 0.011331678741085554 0 -0.00016053714678359359 0.012151382132604201 0 -0.00047187775900715682 0.011045414107549131 0 -7.3638253418458353e-05 0.011331678741085554 0 0.00030708645122830616 0.011060319582200183 0 -0.00081792001873373622 0.011790904559483929 0 -0.0013078255228064237 0.013429760153833278 0 -0.00033933381200682732 0.010634071704928258 0 -0.00081792001873373622 0.011790904559483929 0 -7.3638253418458353e-05 0.011331678741085554 0 0.00044390862568569013 0.011290609022710448 0 -0.00016053714678359359 0.012151382132604201 0 0.00017074765185793141 0.012963057506567847 0 -0.00015670369652376172 0.01341556694805876 0 -0.00083247825997294063 0.012400339699215633 0 -0.0013920161877854832 0.012901704233971925 0 -0.0013078255228064237 0.013429760153833278 0 -0.0013078255228064237 0.013429760153833278 0 -0.0017024917997625361 0.013913780936546919 0 -0.0024417757749451894 0.019056863898721247 0 -0.0024287283014483843 0.019006848523970648 0 -0.0024492081212444325 0.019007412975748941 0 -0.0011439589359350266 0.015674687582346379 0 -0.0026764332292320905 0.013090061958626246 0 0.00062733778548170014 0.01314288374498282 0 -0.0013920161877854832 0.012901704233971925 0 -0.0017024917997625361 0.013913780936546919 0 -0.0017828224489145038 0.012789864038852589 0 -0.00015670369652376172 0.01341556694805876 0 -0.00083247825997294063 0.012400339699215633 0 -0.00083247825997294063 0.012400339699215633 0 -0.00096086587299607233 0.010903971825661676 0 -0.0014892476277940344 0.011985216388996538 0 -0.00058609296688362891 0.011515135663882497 0 -0.0014105880523022556 0.010117658028214321 0 -0.00059562937830585482 0.010136380391098638 0 0.00017074765185793141 0.012963057506567847 0 -0.00083247825997294063 0.012400339699215633 0 -0.00096086587299607233 0.010903971825661676 0 -0.0013920161877854832 0.012901704233971925 0 -0.0017874801821491321 0.011337920625039037 0 -0.0014105880523022556 0.010117658028214321 0 -0.00059562937830585482 0.010136380391098638 0 -0.00097857899458821443 0.0094347196418303522 0 -0.00058609296688362891 0.011515135663882497 0 -0.00059562937830585482 0.010136380391098638 0 0.0002683885895341808 0.010299145374465576 0 -0.0013920161877854832 0.012901704233971925 0 -0.00023206458084936343 0.0095695902282431512 0 -0.00023206458084936343 0.0095695902282431512 0 0.00028529182724114106 0.008146222191010655 0 -0.00059562937830585482 0.010136380391098638 0 0.0002683885895341808 0.010299145374465576 0 -0.000201582564109056 0.0093625199934754579 0 -0.00023206458084936343 0.0095695902282431512 0 -0.00020611201070504831 0.0096028198849968348 0 -0.000201582564109056 0.0093625199934754579 0 0.00033871884770760187 0.0085457404873311351 0 0.0011223365425227995 0.0091487698955625349 0 0.0002957086277221915 0.010325863282277884 0 -0.000201582564109056 0.0093625199934754579 0 0.0011223365425227995 0.0091487698955625349 0 0.00033871884770760187 0.0085457404873311351 0 0.0011223365425227995 0.0091487698955625349 0 0.00064907707849072886 0.0075820835728312008 0 -0.000201582564109056 0.0093625199934754579 0 0.00033871884770760187 0.0085457404873311351 0 -0.00021374194186053402 0.0080835570118250339 0 -0.000201582564109056 0.0093625199934754579 0 -0.0010522433809227467 0.0085058466291351147 0 -0.00021374194186053402 0.0080835570118250339 0 -0.0010522433809227467 0.0085058466291351147 0 -0.0014364347599296827 0.0092193325282628226 0 -0.00097857899458821443 0.0094347196418303522 0 -0.0010522433809227467 0.0085058466291351147 0 -0.0014364347599296827 0.0092193325282628226 0 -0.0022889243583664007 0.0087840107676740251 0 -0.0014105880523022556 0.010117658028214321 0 -0.0014364347599296827 0.0092193325282628226 0 -0.00097857899458821443 0.0094347196418303522 0 -0.00059562937830585482 0.010136380391098638 0 -0.000201582564109056 0.0093625199934754579 0 -0.00097857899458821443 0.0094347196418303522 0 -0.000201582564109056 0.0093625199934754579 0 -0.0010522433809227467 0.0085058466291351147 0 -0.00097857899458821443 0.0094347196418303522 0 -0.00053940308773588403 0.0056223857783428222 0 0.00018534099790646629 0.0055272364407665331 0 -0.00021212637627792731 0.0059537739053199205 0 -0.00039790920260066747 0.0052829652329378831 0 3.8273759834083176e-05 0.0051401789198165246 0 0.00018534099790646629 0.0055272364407665331 0 0.00041425826943962483 0.005061886447224842 0 3.8273759834083176e-05 0.0051401789198165246 0 0.00018534099790646629 0.0055272364407665331 0 0.00018534099790646629 0.0055272364407665331 0 0.00069186732700962455 0.0057181618512559028 0 0.00024720029674502487 0.0061044747615324364 0 0.0013825428314791805 0.0055063794252407823 0 0.00069186732700962455 0.0057181618512559028 0 0.0009802167772652538 0.0060731963324488049 0 0.0013825428314791805 0.0055063794252407823 0 0.00069186732700962455 0.0057181618512559028 0 0.0007687906297779172 0.0052768171299887078 0 0.00018534099790646629 0.0055272364407665331 0 0.00069186732700962455 0.0057181618512559028 0 0.0007687906297779172 0.0052768171299887078 0 0.00041425826943962483 0.005061886447224842 0 0.00018534099790646629 0.0055272364407665331 0 0.0007687906297779172 0.0052768171299887078 0 0.0009802167772652538 0.0060731963324488049 0 0.00024720029674502487 0.0061044747615324364 0 0.00057735100995869265 0.0066407190132376486 0 0.00069186732700962455 0.0057181618512559028 0 0.0009802167772652538 0.0060731963324488049 0 0.00024720029674502487 0.0061044747615324364 0 0.00028529182724114106 0.008146222191010655 0 0.0001708962269368225 0.0074882105438162615 0 -0.00039221618056749772 0.0063431602100645496 0 0.00024720029674502487 0.0061044747615324364 0 -0.00021212637627792731 0.0059537739053199205 0 -0.00039221618056749772 0.0063431602100645496 0 0.00024720029674502487 0.0061044747615324364 0 0.00057735100995869265 0.0066407190132376486 0 0.00018534099790646629 0.0055272364407665331 0 0.00024720029674502487 0.0061044747615324364 0 -0.00021212637627792731 0.0059537739053199205 0 -0.00043616829032821868 0.0067410268456840903 0 -0.00023015146790922569 0.0067024006522650101 0 -0.00037271311830229775 0.0068612117308553214 0 -0.00052450559688098136 0.00689197916865056 0 0.0001708962269368225 0.0074882105438162615 0 -0.00051478339480875578 0.0064719142485106483 0 -0.00043616829032821868 0.0067410268456840903 0 -0.00023015146790922569 0.0067024006522650101 0 -0.00041040298538830592 0.0070315881919242396 0 -0.00044816222829233263 0.0069091702681484193 0 -0.00037271311830229775 0.0068612117308553214 0 0.0011223365425227995 0.0091487698955625349 0 0.0019496692851890167 0.0079610174812852711 0 0.00064907707849072886 0.0075820835728312008 0 -0.00041040298538830592 0.0070315881919242396 0 -0.00044816222829233263 0.0069091702681484193 0 -0.0005405194531255637 0.0071003350926226831 0 0.0001708962269368225 0.0074882105438162615 0 0.00015448336538118973 0.007424349224071064 0 0.0001708962269368225 0.0074882105438162615 0 -1.511665582353897e-05 0.0074135324020942689 0 -0.00050043388632422256 0.0068330644995449946 0 -0.00043693165984678972 0.0068495606613384894 0 -0.00044816222829233263 0.0069091702681484193 0 -0.00043693165984678972 0.0068495606613384894 0 -0.00044816222829233263 0.0069091702681484193 0 -0.00037271311830229775 0.0068612117308553214 0 -0.00049017819425421771 0.0068290483537306445 0 -0.00043693165984678972 0.0068495606613384894 0 -0.00046993092121200693 0.0068296391602575999 0 -0.00043693165984678972 0.0068495606613384894 0 -0.00037271311830229775 0.0068612117308553214 0 -0.00046993092121200693 0.0068296391602575999 0 -0.00043616829032821868 0.0067410268456840903 0 -0.00037271311830229775 0.0068612117308553214 0 -0.00046993092121200693 0.0068296391602575999 0 -0.0010522433809227467 0.0085058466291351147 0 -0.00099972511255800971 0.0072010166861003781 0 -0.0022889243583664007 0.0087840107676740251 0 -0.00076944840872056406 0.0072015011681349486 0 -0.00076724799535593839 0.0077280544253539559 0 -0.00021374194186053402 0.0080835570118250339 0 -0.00076944840872056406 0.0072015011681349486 0 -0.00099972511255800971 0.0072010166861003781 0 -0.00076724799535593839 0.0077280544253539559 0 -0.0010522433809227467 0.0085058466291351147 0 -0.00099972511255800971 0.0072010166861003781 0 -0.00076724799535593839 0.0077280544253539559 0 -0.0010522433809227467 0.0085058466291351147 0 -0.00076724799535593839 0.0077280544253539559 0 -0.00021374194186053402 0.0080835570118250339 0 0.00033871884770760187 0.0085457404873311351 0 -0.00021374194186053402 0.0080835570118250339 0 0.00064907707849072886 0.0075820835728312008 0 -0.00076944840872056406 0.0072015011681349486 0 -0.00021374194186053402 0.0080835570118250339 0 0.00064907707849072886 0.0075820835728312008 0 -0.00019074311342979675 0.0073602799223648971 0 -1.511665582353897e-05 0.0074135324020942689 0 -0.00050043388632422256 0.0068330644995449946 0 -0.00044816222829233263 0.0069091702681484193 0 -0.0005405194531255637 0.0071003350926226831 0 -0.00050043388632422256 0.0068330644995449946 0 -0.00076944840872056406 0.0072015011681349486 0 -0.0005405194531255637 0.0071003350926226831 0 -0.00050043388632422256 0.0068330644995449946 0 -0.00076944840872056406 0.0072015011681349486 0 -0.00099972511255800971 0.0072010166861003781 0 0.00067721517212512459 0.012896940264158647 0 0.00063740732357354946 0.013565625181992233 0 0.0017559042651282817 0.01872229754413457 0 0.002012053809581743 0.018355979159814021 0 0.0020526158069924124 0.018631459831756538 0 0.002012053809581743 0.018355979159814021 0 0.0020526158069924124 0.018631459831756538 0 0.0022463847095594539 0.018444694197662041 0 0.0021630194602792457 0.018820570736351173 0 0.0020526158069924124 0.018631459831756538 0 0.0022463847095594539 0.018444694197662041 0 0.0018546981761635405 0.019928296634886714 0 0.0020129760835873958 0.020171798327922808 0 0.0017886490304818638 0.020275481468236409 0 0.0018546981761635405 0.019928296634886714 0 0.0017886490304818638 0.020275481468236409 0 0.001617999856331976 0.020088414558400065 0 0.0017886490304818638 0.020275481468236409 0 0.0019296729871722462 0.020563257470599543 0 0.0015994924183298737 0.0204436789629369 0 0.0017886490304818638 0.020275481468236409 0 0.0015994924183298737 0.0204436789629369 0 0.001617999856331976 0.020088414558400065 0 0.00063740732357354946 0.013565625181992233 0 6.3821242942986313e-06 0.015451702631298567 0 0.0020129760835873958 0.020171798327922808 0 0.0017886490304818638 0.020275481468236409 0 0.0019296729871722462 0.020563257470599543 0 0.002012053809581743 0.018355979159814021 0 0.0022463847095594539 0.018444694197662041 0 0.0023201166640238855 0.017990479536651258 0 -0.00099972511255800971 0.0072010166861003781 0 -0.0028288394701699291 0.0090574348098629558 0 -0.0022889243583664007 0.0087840107676740251 0 0.00085844298911314919 0.018347023690686661 0 6.3821242942986313e-06 0.015451702631298567 0 -0.0014105880523022556 0.010117658028214321 0 -0.0014364347599296827 0.0092193325282628226 0 -0.0022889243583664007 0.0087840107676740251 0 -0.00096086587299607233 0.010903971825661676 0 -0.0022010663467060617 0.010240999605153204 0 -0.0022889243583664007 0.0087840107676740251 0 -0.0017874801821491321 0.011337920625039037 0 -0.0020889288360298034 0.010567505733797035 0 6.3821242942986313e-06 0.015451702631298567 0 -0.00053393156774511218 0.013685477096879367 0 -0.0022010663467060617 0.010240999605153204 0 -0.0028288394701699291 0.0090574348098629558 0 -0.0032399007405902146 0.01094805965536773 0 -0.0022010663467060617 0.010240999605153204 0 -0.0028288394701699291 0.0090574348098629558 0 -0.0022889243583664007 0.0087840107676740251 0 0.0019296729871722462 0.020563257470599543 0 0.0016573845047646281 0.020847374765261651 0 0.0015994924183298737 0.0204436789629369 0 6.3821242942986313e-06 0.015451702631298567 0 -0.00049855514875515807 0.017600395189403872 0 -0.0031296198844373412 0.011409076718861433 0 -0.0033054555560782231 0.012121288966011886 0 -0.0040161577098395494 0.012230990147219727 0 -0.0034547140223180981 0.012847716366700597 0 -0.0033054555560782231 0.012121288966011886 0 -0.0040161577098395494 0.012230990147219727 0 -0.0029500619407833188 0.012285720289662365 0 -0.0034547140223180981 0.012847716366700597 0 -0.0032399007405902146 0.01094805965536773 0 -0.00075876403255121789 0.013410255807748794 0 -0.00053393156774511218 0.013685477096879367 0 -0.0029500619407833188 0.012285720289662365 0 -0.0032399007405902146 0.01094805965536773 0 -0.002372517231959245 0.011821718758633054 0 -0.00096086587299607233 0.010903971825661676 0 -0.002372517231959245 0.011821718758633054 0 -0.0014892476277940344 0.011985216388996538 0 -0.00096086587299607233 0.010903971825661676 0 -0.0022010663467060617 0.010240999605153204 0 -0.002372517231959245 0.011821718758633054 0 -0.0022010663467060617 0.010240999605153204 0 -0.0032399007405902146 0.01094805965536773 0 -0.002372517231959245 0.011821718758633054 0 0.0013919457448988669 0.021128389520241007 0 0.0012004254840875151 0.02092238579744778 0 0.0016573845047646281 0.020847374765261651 0 0.0012004254840875151 0.02092238579744778 0 0.0016573845047646281 0.020847374765261651 0 0.0012929536731488217 0.020634418143946634 0 0.0016573845047646281 0.020847374765261651 0 0.0012929536731488217 0.020634418143946634 0 0.0015994924183298737 0.0204436789629369 0 0.0012929536731488217 0.020634418143946634 0 0.0013183142269561257 0.020247415656980215 0 0.0011252737637749122 0.020433146167208368 0 0.0012929536731488217 0.020634418143946634 0 0.0015994924183298737 0.0204436789629369 0 0.0013183142269561257 0.020247415656980215 0 0.0015994924183298737 0.0204436789629369 0 0.001617999856331976 0.020088414558400065 0 0.0013183142269561257 0.020247415656980215 0 0.0014102185346270965 0.019984805138692399 0 0.001617999856331976 0.020088414558400065 0 0.0013183142269561257 0.020247415656980215 0 0.0011778619671913603 0.019887163455291929 0 0.0014102185346270965 0.019984805138692399 0 0.0013183142269561257 0.020247415656980215 0 0.0011778619671913603 0.019887163455291929 0 0.0013183142269561257 0.020247415656980215 0 0.00096873714070510805 0.020238469301692399 0 0.00096873714070510805 0.020238469301692399 0 0.0011252737637749122 0.020433146167208368 0 0.000923598221510156 0.020613291289992591 0 0.0013183142269561257 0.020247415656980215 0 0.00096873714070510805 0.020238469301692399 0 0.0011252737637749122 0.020433146167208368 0 0.00096873714070510805 0.020238469301692399 0 0.00067437238198699945 0.020404684994707108 0 0.000923598221510156 0.020613291289992591 0 0.00096873714070510805 0.020238469301692399 0 0.00069770273889932142 0.020111015096546041 0 0.00067437238198699945 0.020404684994707108 0 0.00087946138986142689 0.019933389218245785 0 0.00096873714070510805 0.020238469301692399 0 0.00069770273889932142 0.020111015096546041 0 0.00058544715758399892 0.020388344311831882 0 0.00047029792724332964 0.0205156751397782 0 0.00069770273889932142 0.020111015096546041 0 0.00036535628101139319 0.020306053840724581 0 0.00067437238198699945 0.020404684994707108 0 0.00043702420798594021 0.019933720292238659 0 0.00069770273889932142 0.020111015096546041 0 0.00046321358768407266 0.020320997745959166 0 0.00036535628101139319 0.020306053840724581 0 0.00047168131210335336 0.020746616390866158 0 3.5369113002611927e-05 0.020522433456742484 0 0.00036535628101139319 0.020306053840724581 0 0.00067437238198699945 0.020404684994707108 0 0.00047168131210335336 0.020746616390866158 0 0.00067437238198699945 0.020404684994707108 0 0.00047168131210335336 0.020746616390866158 0 0.000923598221510156 0.020613291289992591 0 0.00047168131210335336 0.020746616390866158 0 0.00085279074581474294 0.020920592671368136 0 0.00063923064116853056 0.021156106236193607 0 0.0012004254840875151 0.02092238579744778 0 0.00085279074581474294 0.020920592671368136 0 0.000923598221510156 0.020613291289992591 0 0.0012929536731488217 0.020634418143946634 0 0.0011252737637749122 0.020433146167208368 0 0.000923598221510156 0.020613291289992591 0 0.0012004254840875151 0.02092238579744778 0 0.0012929536731488217 0.020634418143946634 0 0.000923598221510156 0.020613291289992591 0 0.00047168131210335336 0.020746616390866158 0 0.00085279074581474294 0.020920592671368136 0 0.000923598221510156 0.020613291289992591 0 -0.00032647297598297306 0.020821495502917151 0 3.734438358421089e-05 0.020647979177198631 0 -0.00023834086430556586 0.021165198574077355 0 -0.00032647297598297306 0.020821495502917151 0 -0.0003521618999524855 0.02052408141909538 0 3.734438358421089e-05 0.020647979177198631 0 -9.0674187228432973e-05 0.020241136126766663 0 -0.00032930305318024236 0.020225252923170046 0 -0.0003521618999524855 0.02052408141909538 0 0.00021172753116502536 0.020130965231431899 0 -9.0674187228432973e-05 0.020241136126766663 0 3.734438358421089e-05 0.020647979177198631 0 -9.0674187228432973e-05 0.020241136126766663 0 -0.0003521618999524855 0.02052408141909538 0 3.734438358421089e-05 0.020647979177198631 0 0.00021172753116502536 0.020130965231431899 0 0.00046321358768407266 0.020320997745959166 0 0.00024742755681267744 0.020500942152497419 0 0.00021172753116502536 0.020130965231431899 0 -1.759775557092968e-05 0.020388739219769025 0 0.00024742755681267744 0.020500942152497419 0 -1.759775557092968e-05 0.020388739219769025 0 0.00024742755681267744 0.020500942152497419 0 -9.6456624407188141e-06 0.020714696521837207 0 0.00027057142493991517 0.020535235589077449 0 0.00019421288622736155 0.020809183987307831 0 0.00047029792724332964 0.0205156751397782 0 0.00028469184176945557 0.020816606796711386 0 0.00047168131210335336 0.020746616390866158 0 3.5369113002611927e-05 0.020522433456742484 0 -4.3849799634626831e-06 0.020898753528616636 0 0.00047168131210335336 0.020746616390866158 0 -4.3849799634626831e-06 0.020898753528616636 0 0.00025087118469821815 0.021176487069333002 0 -4.3849799634626831e-06 0.020898753528616636 0 -0.0003007520781990868 0.020746777898834109 0 -0.00035144362590347413 0.021006476608916424 0 -4.3849799634626831e-06 0.020898753528616636 0 -0.00035144362590347413 0.021006476608916424 0 -0.00015171172626714859 0.021196507261661033 0 3.5369113002611927e-05 0.020522433456742484 0 -4.3849799634626831e-06 0.020898753528616636 0 -0.0003007520781990868 0.020746777898834109 0 0.00028469184176945557 0.020816606796711386 0 0.00012057712342335973 0.021317837243189079 0 0.00019421288622736155 0.020809183987307831 0 0.00010136165804613251 0.021539695917276551 0 -1.759775557092968e-05 0.020388739219769025 0 -9.6456624407188141e-06 0.020714696521837207 0 -0.00030255838864850137 0.020728006987497632 0 0.00012057712342335973 0.021317837243189079 0 -3.3370185355890624e-05 0.022225754106832623 0 -0.0003007520781990868 0.020746777898834109 0 -0.00035144362590347413 0.021006476608916424 0 -0.00064365393845874778 0.020982867175652356 0 -0.00035144362590347413 0.021006476608916424 0 -0.00064365393845874778 0.020982867175652356 0 -0.00056674443606002088 0.021213871087624295 0 -9.6456624407188141e-06 0.020714696521837207 0 -0.00032587308281623652 0.020956377280119811 0 -0.00030255838864850137 0.020728006987497632 0 -0.00061070014440951553 0.021151859615744568 0 -0.00032587308281623652 0.020956377280119811 0 -0.00030255838864850137 0.020728006987497632 0 -0.00056044738003299655 0.021028727377702758 0 -0.00032647297598297306 0.020821495502917151 0 -0.00023834086430556586 0.021165198574077355 0 4.8002990754480646e-05 0.031683374913189961 0 6.0547274533866907e-05 0.031592701114578361 0 6.2877744599004905e-05 0.031612026774124467 0 -0.00092225235541339005 0.021180685485855038 0 -0.00064365393845874778 0.020982867175652356 0 -0.00056674443606002088 0.021213871087624295 0 6.0547274533866907e-05 0.031592701114578361 0 6.9342189879613593e-05 0.031565627145543784 0 7.2495125350144181e-05 0.031531505193748449 0 -0.00035144362590347413 0.021006476608916424 0 -0.00056674443606002088 0.021213871087624295 0 -0.00015171172626714859 0.021196507261661033 0 -0.00027128403327660212 0.02543085258226159 0 -3.0054021594832517e-05 0.025682910011337774 0 6.0547274533866907e-05 0.031592701114578361 0 6.9342189879613593e-05 0.031565627145543784 0 6.2877744599004905e-05 0.031612026774124467 0 6.9342189879613593e-05 0.031565627145543784 0 7.2495125350144181e-05 0.031531505193748449 0 9.6770878816461887e-05 0.031462988266049444 0 -4.3849799634626831e-06 0.020898753528616636 0 -0.00015171172626714859 0.021196507261661033 0 0.00025087118469821815 0.021176487069333002 0 -3.0054021594832517e-05 0.025682910011337774 0 0.00018203866203903122 0.025543591518392743 0 6.9342189879613593e-05 0.031565627145543784 0 9.6770878816461887e-05 0.031462988266049444 0 9.5898161450054737e-05 0.031507792850389973 0 7.5520352522170386e-05 0.03156257976725519 0 9.5898161450054737e-05 0.031507792850389973 0 0.00010088635546936515 0.031535867279440133 0 6.9342189879613593e-05 0.031565627145543784 0 7.5520352522170386e-05 0.03156257976725519 0 9.5898161450054737e-05 0.031507792850389973 0 0.00010088635546936515 0.031535867279440133 0 0.00010519426173632766 0.031554876688019567 0 7.5260713913871536e-05 0.031577973040112631 0 7.5520352522170386e-05 0.03156257976725519 0 0.00010088635546936515 0.031535867279440133 0 7.5260713913871536e-05 0.031577973040112631 0 7.5520352522170386e-05 0.03156257976725519 0 6.5554695746129535e-05 0.031598211773005057 0 7.5260713913871536e-05 0.031577973040112631 0 6.5554695746129535e-05 0.031598211773005057 0 6.3603178719892557e-05 0.031607275900003416 0 7.5260713913871536e-05 0.031577973040112631 0 6.9342189879613593e-05 0.031565627145543784 0 7.5520352522170386e-05 0.03156257976725519 0 6.2877744599004905e-05 0.031612026774124467 0 7.5520352522170386e-05 0.03156257976725519 0 6.2877744599004905e-05 0.031612026774124467 0 6.5554695746129535e-05 0.031598211773005057 0 6.2877744599004905e-05 0.031612026774124467 0 6.5554695746129535e-05 0.031598211773005057 0 6.2458374902322908e-05 0.031617504261685254 0 6.2877744599004905e-05 0.031612026774124467 0 6.2458374902322908e-05 0.031617504261685254 0 5.904937293017653e-05 0.031639992856707523 0 6.5554695746129535e-05 0.031598211773005057 0 6.3603178719892557e-05 0.031607275900003416 0 6.2458374902322908e-05 0.031617504261685254 0 6.3603178719892557e-05 0.031607275900003416 0 6.2458374902322908e-05 0.031617504261685254 0 5.904937293017653e-05 0.031639992856707523 0 6.3603178719892557e-05 0.031607275900003416 0 5.904937293017653e-05 0.031639992856707523 0 5.3178505527806632e-05 0.031679607485944693 0 0.00048895567122360947 0.030171047605613302 0 0.0005342752255044818 0.031450902277380802 0 4.8002990754480646e-05 0.031683374913189961 0 6.2877744599004905e-05 0.031612026774124467 0 5.904937293017653e-05 0.031639992856707523 0 4.8002990754480646e-05 0.031683374913189961 0 5.904937293017653e-05 0.031639992856707523 0 5.3178505527806632e-05 0.031679607485944693 0 0.00018926218137212724 0.031413480069734781 0 0.00028432278962449214 0.031388394538023459 0 0.00020717284792635512 0.031479356027043458 0 0.00018926218137212724 0.031413480069734781 0 0.00028432278962449214 0.031388394538023459 0 0.00023756019125660498 0.031314331110901844 0 0.00037131713768043576 0.031255399977924869 0 0.00028432278962449214 0.031388394538023459 0 0.00023756019125660498 0.031314331110901844 0 0.0012004254840875151 0.02092238579744778 0 0.00085279074581474294 0.020920592671368136 0 0.0010157428851882962 0.02113788632326058 0 0.00018926218137212724 0.031413480069734781 0 0.00023756019125660498 0.031314331110901844 0 0.00014547540509022796 0.031391161118460617 0 0.00028110585438085548 0.023612751193919937 0 0.00035051543549173304 0.024957777704482997 0 0.00085279074581474294 0.020920592671368136 0 0.0010157428851882962 0.02113788632326058 0 0.00063923064116853056 0.021156106236193607 0 0.00047168131210335336 0.020746616390866158 0 0.00025087118469821815 0.021176487069333002 0 0.00063923064116853056 0.021156106236193607 0 0.00018203866203903122 0.025543591518392743 0 0.00035051543549173304 0.024957777704482997 0 9.6770878816461887e-05 0.031462988266049444 0 0.00014547540509022796 0.031391161118460617 0 9.5898161450054737e-05 0.031507792850389973 0 0.00014547540509022796 0.031391161118460617 0 9.5898161450054737e-05 0.031507792850389973 0 0.00014029345384900481 0.031478701485078982 0 0.00018926218137212724 0.031413480069734781 0 0.00014547540509022796 0.031391161118460617 0 0.00014029345384900481 0.031478701485078982 0 9.5898161450054737e-05 0.031507792850389973 0 0.00014029345384900481 0.031478701485078982 0 0.00010088635546936515 0.031535867279440133 0 0.00010088635546936515 0.031535867279440133 0 0.00014873786817264166 0.031536962143711461 0 0.00010519426173632766 0.031554876688019567 0 0.00014029345384900481 0.031478701485078982 0 0.00010088635546936515 0.031535867279440133 0 0.00014873786817264166 0.031536962143711461 0 -0.0021762308439534895 0.025315378214036049 0 -0.0020598881553111994 0.024729547166329826 0 -0.0039364433896223469 0.019737039709892344 0 -0.0033529555996281162 0.019240105280989638 0 -0.0035105465194940648 0.019972684146838181 0 0.00018926218137212724 0.031413480069734781 0 0.00014029345384900481 0.031478701485078982 0 0.00020717284792635512 0.031479356027043458 0 0.00014029345384900481 0.031478701485078982 0 0.00014873786817264166 0.031536962143711461 0 0.00020717284792635512 0.031479356027043458 0 -0.0029139312805518116 0.019034982437781955 0 -0.0033529555996281162 0.019240105280989638 0 -0.0028972844616877921 0.019282701090693726 0 -0.0019346151741567999 0.023618625520737069 0 -0.0020598881553111994 0.024729547166329826 0 -0.0033529555996281162 0.019240105280989638 0 -0.0030678273494744814 0.019702086243864627 0 -0.0035105465194940648 0.019972684146838181 0 -0.0033529555996281162 0.019240105280989638 0 -0.0028972844616877921 0.019282701090693726 0 -0.0030678273494744814 0.019702086243864627 0 -0.0030678273494744814 0.019702086243864627 0 -0.0032238032034632548 0.020213968861136529 0 -0.002809801698324454 0.020426402246007575 0 -0.0030678273494744814 0.019702086243864627 0 -0.0032238032034632548 0.020213968861136529 0 -0.0035105465194940648 0.019972684146838181 0 -0.0025749237224667624 0.01928639076883058 0 -0.0026993262794043063 0.019409324350708086 0 -0.0025840605757582536 0.019316147077026308 0 -0.002809801698324454 0.020426402246007575 0 -0.0032702429395666424 0.02070295588474777 0 -0.0032478272844492697 0.021529119581521813 0 -0.0029354636047476661 0.01992076223197977 0 -0.0033074223676802725 0.020351908993950046 0 -0.0032238032034632548 0.020213968861136529 0 -0.002809801698324454 0.020426402246007575 0 -0.0032702429395666424 0.02070295588474777 0 -0.0032238032034632548 0.020213968861136529 0 -0.0032702429395666424 0.02070295588474777 0 -0.0035323679965219455 0.020419841530752547 0 -0.0039568582504601185 0.021009010549933899 0 -0.0035223964553827776 0.020982563853016369 0 -0.0035323679965219455 0.020419841530752547 0 -0.0032702429395666424 0.02070295588474777 0 -0.0035223964553827776 0.020982563853016369 0 -0.0035323679965219455 0.020419841530752547 0 -0.0039364433896223469 0.019737039709892344 0 -0.0035105465194940648 0.019972684146838181 0 -0.0039185458990385344 0.020464891021785336 0 -0.0035323679965219455 0.020419841530752547 0 -0.0035105465194940648 0.019972684146838181 0 -0.0039185458990385344 0.020464891021785336 0 -0.0032238032034632548 0.020213968861136529 0 -0.0035323679965219455 0.020419841530752547 0 -0.0035105465194940648 0.019972684146838181 0 0.00014873786817264166 0.031536962143711461 0 0.00010519426173632766 0.031554876688019567 0 0.00010755432778381762 0.031566864508132293 0 -0.0023717673773322365 0.025701076897018386 0 -0.0033335868773694652 0.024880252692625535 0 -0.0021762308439534895 0.025315378214036049 0 -0.0023717673773322365 0.025701076897018386 0 -0.0039364433896223469 0.019737039709892344 0 -0.004493055801387996 0.02031657196960188 0 -0.0039185458990385344 0.020464891021785336 0 0.00010519426173632766 0.031554876688019567 0 0.00010755432778381762 0.031566864508132293 0 7.5260713913871536e-05 0.031577973040112631 0 -0.0043968603729047599 0.020384357781255715 0 -0.0041996836394409265 0.020650073382805962 0 -0.004845338605861239 0.020882653310688611 0 -0.0033153571455527462 0.023922777057232156 0 -0.0025182402829279655 0.026300796710647858 0 -0.0023717673773322365 0.025701076897018386 0 -0.0025182402829279655 0.026300796710647858 0 -0.0045013830583369831 0.020703582457390148 0 -0.0049614075464909507 0.021081958131029466 0 -0.0054815034059515879 0.021019140935990246 0 -0.0045013830583369831 0.020703582457390148 0 -0.0044724594947153501 0.021209144931373745 0 -0.0049614075464909507 0.021081958131029466 0 -0.0039568582504601185 0.021009010549933899 0 -0.0035323679965219455 0.020419841530752547 0 -0.0045013830583369831 0.020703582457390148 0 -0.0035323679965219455 0.020419841530752547 0 -0.0039185458990385344 0.020464891021785336 0 -0.0041996836394409265 0.020650073382805962 0 -0.0043968603729047599 0.020384357781255715 0 -0.0039185458990385344 0.020464891021785336 0 -0.0041996836394409265 0.020650073382805962 0 -0.0032843501323671334 0.023229219425339787 0 -0.0033153571455527462 0.023922777057232156 0 -0.0039568582504601185 0.021009010549933899 0 -0.0045013830583369831 0.020703582457390148 0 -0.0044724594947153501 0.021209144931373745 0 -0.0039568582504601185 0.021009010549933899 0 -0.0044724594947153501 0.021209144931373745 0 -0.0041005425712658831 0.021424212427964922 0 -0.0044724594947153501 0.021209144931373745 0 -0.0043647519023952376 0.021628306278310382 0 -0.0041005425712658831 0.021424212427964922 0 -0.0044724594947153501 0.021209144931373745 0 -0.0043647519023952376 0.021628306278310382 0 -0.0048876526675796263 0.021576380406351525 0 -0.0043647519023952376 0.021628306278310382 0 -0.0041005425712658831 0.021424212427964922 0 -0.0040939819527690624 0.021841216171023928 0 -0.0042316963188739655 0.022393300397850424 0 -0.0040105589439455459 0.022634593519797828 0 -0.0040477646075523848 0.022299449823102623 0 -0.0042705399580934764 0.023849930413219811 0 -0.0025182402829279655 0.026300796710647858 0 -0.0049614075464909507 0.021081958131029466 0 -0.0048876526675796263 0.021576380406351525 0 -0.0054815034059515879 0.021019140935990246 0 -0.0044724594947153501 0.021209144931373745 0 -0.0049614075464909507 0.021081958131029466 0 -0.0048876526675796263 0.021576380406351525 0 -0.004393507554785717 0.022314051622383407 0 -0.0042725720534101674 0.022247069664594912 0 -0.0044557843542162466 0.022338166193361909 0 -0.0042316963188739655 0.022393300397850424 0 -0.0042725720534101674 0.022247069664594912 0 -0.0040477646075523848 0.022299449823102623 0 -0.0041799532068404989 0.024894899927075182 0 -0.0038208666033088647 0.025401851211560942 0 -0.004393507554785717 0.022314051622383407 0 -0.0042725720534101674 0.022247069664594912 0 -0.0043090566442958089 0.022330844760037282 0 -0.0041005425712658831 0.021424212427964922 0 -0.0040939819527690624 0.021841216171023928 0 -0.0037662982169389858 0.021838792786810959 0 -0.0043647519023952376 0.021628306278310382 0 -0.0040939819527690624 0.021841216171023928 0 -0.0042435758506074546 0.022181625736793997 0 -0.0042316963188739655 0.022393300397850424 0 -0.0042725720534101674 0.022247069664594912 0 -0.0042435758506074546 0.022181625736793997 0 -0.0043647519023952376 0.021628306278310382 0 -0.0048876526675796263 0.021576380406351525 0 -0.0042435758506074546 0.022181625736793997 0 -0.0042705399580934764 0.023849930413219811 0 -0.0045463360747725282 0.023345581417370254 0 -0.0042725720534101674 0.022247069664594912 0 -0.0042276917224383943 0.022298939503639596 0 -0.0043090566442958089 0.022330844760037282 0 -0.0042725720534101674 0.022247069664594912 0 -0.0042435758506074546 0.022181625736793997 0 -0.0042276917224383943 0.022298939503639596 0 -0.0042435758506074546 0.022181625736793997 0 -0.0040429583937146478 0.022148507901264811 0 -0.0042276917224383943 0.022298939503639596 0 -0.0040939819527690624 0.021841216171023928 0 -0.0042435758506074546 0.022181625736793997 0 -0.0040429583937146478 0.022148507901264811 0 -0.0033074223676802725 0.020351908993950046 0 -0.0039453206093421084 0.020798844071453458 0 -0.0040429583937146478 0.022148507901264811 0 -0.0037662982169389858 0.021838792786810959 0 -0.0038267877949051932 0.022485377412211231 0 -0.0037662982169389858 0.021838792786810959 0 -0.0032478272844492697 0.021529119581521813 0 -0.0038267877949051932 0.022485377412211231 0 -0.0026993262794043063 0.019409324350708086 0 -0.0026751536217217756 0.019607357066616548 0 -0.002833435014283322 0.019643894877544994 0 -0.0040939819527690624 0.021841216171023928 0 -0.0040429583937146478 0.022148507901264811 0 -0.0037662982169389858 0.021838792786810959 0 -0.0026167692392029952 0.019504168294528078 0 -0.0026993262794043063 0.019409324350708086 0 -0.0025614035818760719 0.019431353238303424 0 -0.0026167692392029952 0.019504168294528078 0 -0.0026993262794043063 0.019409324350708086 0 -0.0026751536217217756 0.019607357066616548 0 -0.0026167692392029952 0.019504168294528078 0 -0.0026751536217217756 0.019607357066616548 0 -0.0025327106630988238 0.019571976108100915 0 -0.0026993262794043063 0.019409324350708086 0 -0.0025614035818760719 0.019431353238303424 0 -0.0025840605757582536 0.019316147077026308 0 -0.0032702429395666424 0.02070295588474777 0 -0.0035223964553827776 0.020982563853016369 0 -0.0032478272844492697 0.021529119581521813 0 -0.0035223964553827776 0.020982563853016369 0 -0.0032478272844492697 0.021529119581521813 0 -0.0036846149285597461 0.021381737881489282 0 -0.0039568582504601185 0.021009010549933899 0 -0.0041005425712658831 0.021424212427964922 0 -0.0036846149285597461 0.021381737881489282 0 -0.0039568582504601185 0.021009010549933899 0 -0.0035223964553827776 0.020982563853016369 0 -0.0036846149285597461 0.021381737881489282 0 -0.0041005425712658831 0.021424212427964922 0 -0.0037662982169389858 0.021838792786810959 0 -0.0036846149285597461 0.021381737881489282 0 -0.0037662982169389858 0.021838792786810959 0 -0.0032478272844492697 0.021529119581521813 0 -0.0036846149285597461 0.021381737881489282 0 0.00079178571711148199 0.033747964249428088 0 0.00085106839802564583 0.033663371290527815 0 0.00085311518863001915 0.033764141940505706 0 0.00069616478404665929 0.033810538165743621 0 0.0007753217450678395 0.0338338157149594 0 0.00079178571711148199 0.033747964249428088 0 0.0007753217450678395 0.0338338157149594 0 0.00079178571711148199 0.033747964249428088 0 0.00085311518863001915 0.033764141940505706 0 0.00070343074094842046 0.03366044829284498 0 0.00079178571711148199 0.033747964249428088 0 0.00085106839802564583 0.033663371290527815 0 0.00070343074094842046 0.03366044829284498 0 0.00076834692093700986 0.033522512398323684 0 0.00085106839802564583 0.033663371290527815 0 0.00091142924462887082 0.033612169825680709 0 0.00076834692093700986 0.033522512398323684 0 0.00085106839802564583 0.033663371290527815 0 0.00085106839802564583 0.033663371290527815 0 0.00090358832546575828 0.033649045156018069 0 0.00092468384396279736 0.033661477469458065 0 0.00091142924462887082 0.033612169825680709 0 0.00090358832546575828 0.033649045156018069 0 0.00084234702611216735 0.033665561828558128 0 0.00091142924462887082 0.033612169825680709 0 0.00085106839802564583 0.033663371290527815 0 0.00090358832546575828 0.033649045156018069 0 0.00085106839802564583 0.033663371290527815 0 0.00092468384396279736 0.033661477469458065 0 0.00085311518863001915 0.033764141940505706 0 0.00092468384396279736 0.033661477469458065 0 0.00085311518863001915 0.033764141940505706 0 0.00098208310354909478 0.03381328644166956 0 -0.0003747576760501896 0.030847228547482952 0 -0.00095420617055364074 0.02921303384636988 0 0.00084096258465439597 0.033564469498666122 0 0.00060799457266867511 0.033476673554257999 0 0.00089870651822676259 0.033432530362005872 0 0.00092468384396279736 0.033661477469458065 0 0.00084096258465439597 0.033564469498666122 0 0.00089870651822676259 0.033432530362005872 0 0.00084096258465439597 0.033564469498666122 0 0.00084234702611216735 0.033665561828558128 0 0.00060799457266867511 0.033476673554257999 0 0.00092468384396279736 0.033661477469458065 0 0.00084096258465439597 0.033564469498666122 0 0.00084234702611216735 0.033665561828558128 0 0.00048895567122360947 0.030171047605613302 0 -0.00048980701458457398 0.02848796462716504 0 0.00039534503621012243 0.028759653763820715 0 -0.00059254612901221248 0.027823666770498707 0 -0.0011287623248929523 0.028319553711663659 0 0.00048895567122360947 0.030171047605613302 0 -0.00016056844116010401 0.029305438055657346 0 0.00090358832546575828 0.033649045156018069 0 0.00092468384396279736 0.033661477469458065 0 0.00084234702611216735 0.033665561828558128 0 -0.0023717673773322365 0.025701076897018386 0 -0.00048980701458457398 0.02848796462716504 0 -0.00059254612901221248 0.027823666770498707 0 -0.0011287623248929523 0.028319553711663659 0 -0.0015242493770546671 0.027571432261054504 0 -0.0026351519157037421 0.027883800422305451 0 -0.0011287623248929523 0.028319553711663659 0 -0.0015242493770546671 0.027571432261054504 0 -0.00016056844116010401 0.029305438055657346 0 -0.0025182402829279655 0.026300796710647858 0 -0.00059254612901221248 0.027823666770498707 0 -0.0015242493770546671 0.027571432261054504 0 -0.0016179984173938394 0.026859887947107364 0 -0.0026351519157037421 0.027883800422305451 0 -0.0015242493770546671 0.027571432261054504 0 -0.0016179984173938394 0.026859887947107364 0 -0.0025182402829279655 0.026300796710647858 0 -0.0021657868733438558 0.027169248635440586 0 -0.0040105589439455459 0.022634593519797828 0 -0.0040477646075523848 0.022299449823102623 0 -0.0037386211053915142 0.022377021984938759 0 -0.0016854883026733 0.027011074286374167 0 -0.0026938105488489082 0.028036719897890035 0 -0.0023990087840867116 0.027469056724855126 0 -0.0038208666033088647 0.025401851211560942 0 -0.0021657868733438558 0.027169248635440586 0 -0.0044557843542162466 0.022338166193361909 0 -0.0041496654224313333 0.022511319602939447 0 -0.0042642047951494018 0.022351950465422956 0 -0.004393507554785717 0.022314051622383407 0 -0.0044557843542162466 0.022338166193361909 0 -0.0044598565520112309 0.022276692105450649 0 -0.0044557843542162466 0.022338166193361909 0 -0.0044598565520112309 0.022276692105450649 0 -0.0042642047951494018 0.022351950465422956 0 -0.0044598565520112309 0.022276692105450649 0 -0.0042642047951494018 0.022351950465422956 0 -0.0041604376141883611 0.022122424877954343 0 -0.0042642047951494018 0.022351950465422956 0 -0.0041168420353292949 0.022484085731559182 0 -0.0041604376141883611 0.022122424877954343 0 -0.0019770258389187065 0.028172604640614274 0 -0.0020264835815368286 0.028226074166988125 0 -0.0019590654008437435 0.028233358950029954 0 -0.0020268302315611664 0.027300750280583413 0 -0.0026441102748191855 0.027207092368965322 0 -0.0041496654224313333 0.022511319602939447 0 -0.0042642047951494018 0.022351950465422956 0 -0.0041168420353292949 0.022484085731559182 0 -0.0014170867553733443 0.029813811810447115 0 -0.0014062126564739251 0.029847347297709305 0 -0.0011907822653921562 0.029593189895075651 0 -0.0020268302315611664 0.027300750280583413 0 -0.0018707088703104322 0.027499648747982053 0 -0.0011366983184097714 0.026339279215603278 0 -0.0026805775647300184 0.02790007834511523 0 -0.0033301253152260178 0.025897620536249683 0 -0.0021657868733438558 0.027169248635440586 0 -0.0018707088703104322 0.027499648747982053 0 -0.0021657868733438558 0.027169248635440586 0 -0.0020268302315611664 0.027300750280583413 0 -0.0018707088703104322 0.027499648747982053 0 -0.00095420617055364074 0.02921303384636988 0 -0.0028328909072521465 0.028008980699726998 0 -0.0023990087840867116 0.027469056724855126 0 -0.0030567925467063555 0.027316014975407667 0 -0.0016854883026733 0.027011074286374167 0 -0.0023990087840867116 0.027469056724855126 0 -0.0030567925467063555 0.027316014975407667 0 -0.0025182402829279655 0.026300796710647858 0 -0.00095420617055364074 0.02921303384636988 0 -0.0026938105488489082 0.028036719897890035 0 -0.0028328909072521465 0.028008980699726998 0 -0.0023990087840867116 0.027469056724855126 0 -0.0018707088703104322 0.027499648747982053 0 -0.00031281718622397115 0.030034660319671828 0 -0.00095420617055364074 0.02921303384636988 0 -0.00031281718622397115 0.030034660319671828 0 -0.00055885805896360231 0.029234260549439648 0 -0.00060948106493737084 0.029076763743250428 0 -0.00093554090719370558 0.029166806939541885 0 0.00085311518863001915 0.033764141940505706 0 0.00098208310354909478 0.03381328644166956 0 0.00080278829913449552 0.033905980745852611 0 -0.0014062126564739251 0.029847347297709305 0 -0.00096511929356497036 0.029948581972903985 0 -0.0011907822653921562 0.029593189895075651 0 -0.0020268302315611664 0.027300750280583413 0 -0.0018627251038412622 0.028986629791166556 0 -0.00085659560814410358 0.029653993175711688 0 -0.00096511929356497036 0.029948581972903985 0 -0.0011907822653921562 0.029593189895075651 0 6.1282364131484893e-05 0.030360739535489487 0 -0.00031281718622397115 0.030034660319671828 0 0.0007753217450678395 0.0338338157149594 0 0.00085311518863001915 0.033764141940505706 0 0.00080278829913449552 0.033905980745852611 0 0.00071054313844190822 0.033939928099078559 0 0.0007753217450678395 0.0338338157149594 0 0.00080278829913449552 0.033905980745852611 0 -0.00054638315312751512 0.033942239835597222 0 -0.00081530156723456991 0.033995463313518957 0 -0.00068313488746865473 0.03416475867459557 0 -0.00081530156723456991 0.033995463313518957 0 -0.00068313488746865473 0.03416475867459557 0 -0.0009175813739794443 0.034168118639302081 0 -0.00061123386190861369 0.034392280718926561 0 -0.00068313488746865473 0.03416475867459557 0 -0.00086923137915449495 0.034315638095164899 0 -0.00061123386190861369 0.034392280718926561 0 -0.00086923137915449495 0.034315638095164899 0 -0.00093918419539271581 0.034381521159929151 0 -0.00084481309907663245 0.030400345913169386 0 -0.0018627251038412622 0.028986629791166556 0 -0.00068313488746865473 0.03416475867459557 0 -0.00086923137915449495 0.034315638095164899 0 -0.0009175813739794443 0.034168118639302081 0 -0.00086923137915449495 0.034315638095164899 0 -0.0010483447770742568 0.034301858255303727 0 -0.0009175813739794443 0.034168118639302081 0 -0.00086923137915449495 0.034315638095164899 0 -0.0009633420305724485 0.034423142827270332 0 -0.0010483447770742568 0.034301858255303727 0 -0.0019630300739743377 0.02920682638729119 0 -0.0018627251038412622 0.028986629791166556 0 -0.0010483447770742568 0.034301858255303727 0 -0.0009175813739794443 0.034168118639302081 0 -0.0011342261584761767 0.034209028457231193 0 -0.0009175813739794443 0.034168118639302081 0 -0.0010335979199314559 0.034033846082705724 0 -0.0011342261584761767 0.034209028457231193 0 -0.00081530156723456991 0.033995463313518957 0 -0.0009175813739794443 0.034168118639302081 0 -0.0010335979199314559 0.034033846082705724 0 -0.00081530156723456991 0.033995463313518957 0 -0.0010335979199314559 0.034033846082705724 0 -0.0010400272569522687 0.033838649627775136 0 -0.0010335979199314559 0.034033846082705724 0 -0.0011342261584761767 0.034209028457231193 0 -0.0015918966485856504 0.033975466185179534 0 -0.0011342261584761767 0.034209028457231193 0 -0.0013531733140971559 0.034389944366071998 0 -0.0015918966485856504 0.033975466185179534 0 -0.0009633420305724485 0.034423142827270332 0 -0.0010483447770742568 0.034301858255303727 0 -0.0013531733140971559 0.034389944366071998 0 -0.0018627251038412622 0.028986629791166556 0 -0.0026441102748191855 0.027207092368965322 0 -0.0010483447770742568 0.034301858255303727 0 -0.0011342261584761767 0.034209028457231193 0 -0.0013531733140971559 0.034389944366071998 0 -0.0044598565520112309 0.022276692105450649 0 -0.0041604376141883611 0.022122424877954343 0 -0.0046785076143880701 0.021933654795467307 0 -0.0058905675512416532 0.021773466515552932 0 -0.0057317076730004947 0.021782297765438167 0 -0.0058385933144000047 0.022036325252945164 0 -0.0026441102748191855 0.027207092368965322 0 -0.0044023422879211228 0.025716761407314187 0 -0.0057317076730004947 0.021782297765438167 0 -0.0058385933144000047 0.022036325252945164 0 -0.0056756868970271514 0.021939765698831885 0 -0.0026441102748191855 0.027207092368965322 0 -0.003315664080477235 0.027716165896040659 0 -0.003315664080477235 0.027716165896040659 0 -0.0038224324383142028 0.027698048493980085 0 -0.0058385933144000047 0.022036325252945164 0 -0.0058437015672618674 0.022356570604836493 0 -0.0056193142206409762 0.022090658412832719 0 -0.0015918966485856504 0.033975466185179534 0 -0.0020280946812533218 0.033429842573944241 0 -0.0013776682425169406 0.033473063746352422 0 -0.0020280946812533218 0.033429842573944241 0 -0.0013776682425169406 0.033473063746352422 0 -0.0012748372517023146 0.032885027089124094 0 -0.0013776682425169406 0.033473063746352422 0 -0.00061077343565263615 0.033076800946704614 0 -0.0012748372517023146 0.032885027089124094 0 -0.0010335979199314559 0.034033846082705724 0 -0.0015918966485856504 0.033975466185179534 0 -0.0010400272569522687 0.033838649627775136 0 -0.0015918966485856504 0.033975466185179534 0 -0.0013776682425169406 0.033473063746352422 0 -0.0010400272569522687 0.033838649627775136 0 -0.00081530156723456991 0.033995463313518957 0 -0.0010400272569522687 0.033838649627775136 0 -0.00073693111901380903 0.033795401889344892 0 -0.00087186201309421673 0.033568896206287155 0 -0.00074512479621297565 0.033329265587207543 0 -0.0010400272569522687 0.033838649627775136 0 -0.00073693111901380903 0.033795401889344892 0 -0.0007873841404341357 0.033549173894852395 0 -0.0013776682425169406 0.033473063746352422 0 -0.0010400272569522687 0.033838649627775136 0 -0.00061077343565263615 0.033076800946704614 0 -0.00052135049743276508 0.033681311548669476 0 -0.0007873841404341357 0.033549173894852395 0 -0.00050965186152252158 0.033485732054290236 0 -0.00052135049743276508 0.033681311548669476 0 -0.00073693111901380903 0.033795401889344892 0 -0.0007873841404341357 0.033549173894852395 0 -0.00054638315312751512 0.033942239835597222 0 -0.00081530156723456991 0.033995463313518957 0 -0.00073693111901380903 0.033795401889344892 0 -0.00054638315312751512 0.033942239835597222 0 -0.00052135049743276508 0.033681311548669476 0 -0.00073693111901380903 0.033795401889344892 0 -0.0052806360175904595 0.021832838070177014 0 -0.0053951074313067547 0.021897315263820823 0 -0.005243908486426631 0.021978787092677463 0 -0.0052806360175904595 0.021832838070177014 0 -0.0050843622129145786 0.021895791063834148 0 -0.005243908486426631 0.021978787092677463 0 -0.0045140230171943768 0.021325415070217658 0 -0.0048513317227419335 0.021538087091975331 0 -0.0046003793714666187 0.021273417916671478 0 -0.0045140230171943768 0.021325415070217658 0 -0.004190119406417025 0.020911635649529074 0 -0.0041369784211675847 0.020928874107443738 0 -0.0041584159653228576 0.020899347141221387 0 -0.0041369784211675847 0.020928874107443738 0 -0.0041584159653228576 0.020899347141221387 0 -0.0041336546834160742 0.020894750189034313 0 -0.0041584159653228576 0.020899347141221387 0 -0.004154204360926666 0.020871065813501281 0 -0.0041836244214999525 0.020893964783471022 0 -0.0041336546834160742 0.020894750189034313 0 -0.004154204360926666 0.020871065813501281 0 -0.0041130905280117314 0.020861316273124771 0 -0.0035885072551922171 0.020402224906520869 0 -0.0034318308029206678 0.02007684288258085 0 -0.0041584159653228576 0.020899347141221387 0 -0.0041336546834160742 0.020894750189034313 0 -0.004154204360926666 0.020871065813501281 0 -0.004154204360926666 0.020871065813501281 0 -0.0041836244214999525 0.020893964783471022 0 -0.0041968802763106203 0.020881291685400739 0 -0.0035885072551922171 0.020402224906520869 0 -0.0039453206093421084 0.020798844071453458 0 -0.004190119406417025 0.020911635649529074 0 -0.0041584159653228576 0.020899347141221387 0 -0.0041836244214999525 0.020893964783471022 0 -0.004190119406417025 0.020911635649529074 0 -0.0041836244214999525 0.020893964783471022 0 -0.0042023548935388073 0.020891916022751755 0 -0.0041836244214999525 0.020893964783471022 0 -0.0042023548935388073 0.020891916022751755 0 -0.0041968802763106203 0.020881291685400739 0 -0.0039490945153388343 0.020803269278325678 0 -0.0039453206093421084 0.020798844071453458 0 -0.0038267877949051932 0.022485377412211231 0 -0.0042276917224383943 0.022298939503639596 0 -0.0043131739448681577 0.022450091134562061 0 -0.0042023548935388073 0.020891916022751755 0 -0.0041970377122008597 0.020881716885112155 0 -0.004246546190832718 0.020894684076590581 0 -0.004190119406417025 0.020911635649529074 0 -0.0042023548935388073 0.020891916022751755 0 -0.004246546190832718 0.020894684076590581 0 -0.0046003793714666187 0.021273417916671478 0 -0.0044859375383977176 0.021229833727721383 0 -0.0039453206093421084 0.020798844071453458 0 -0.0044859375383977176 0.021229833727721383 0 -0.0040429583937146478 0.022148507901264811 0 -0.0038267877949051932 0.022485377412211231 0 -0.0042276917224383943 0.022298939503639596 0 -0.0042276917224383943 0.022298939503639596 0 -0.0043131739448681577 0.022450091134562061 0 -0.0043090566442958089 0.022330844760037282 0 -0.0055273599766510889 0.021804847391382946 0 -0.0055261916234220073 0.021843912779637958 0 -0.0053951074313067547 0.021897315263820823 0 -0.0055729288689699572 0.021823520858268549 0 -0.0055273599766510889 0.021804847391382946 0 -0.0055261916234220073 0.021843912779637958 0 -0.0044945490731685958 0.021232337519148579 0 -0.0044859375383977176 0.021229833727721383 0 -0.0057317076730004947 0.021782297765438167 0 -0.0054853050225549503 0.021805301136770497 0 -0.0055829342668742505 0.021865185534698954 0 -0.0044598565520112309 0.022276692105450649 0 -0.0046785076143880701 0.021933654795467307 0 -0.0054853050225549503 0.021805301136770497 0 -0.0044598565520112309 0.022276692105450649 0 -0.0055729288689699572 0.021823520858268549 0 -0.0054853050225549503 0.021805301136770497 0 -0.004393507554785717 0.022314051622383407 0 -0.0044598565520112309 0.022276692105450649 0 -0.0043131739448681577 0.022450091134562061 0 -0.0044598565520112309 0.022276692105450649 0 -0.0055729288689699572 0.021823520858268549 0 -0.0056759025582290897 0.02184635369440471 0 -0.0044023422879211228 0.025716761407314187 0 -0.0048675100677969393 0.025266056404551603 0 -0.0044295521033142953 0.021510370280029535 0 -0.0044859375383977176 0.021229833727721383 0 -0.004393507554785717 0.022314051622383407 0 -0.0043131739448681577 0.022450091134562061 0 -0.0043090566442958089 0.022330844760037282 0 -0.0055729288689699572 0.021823520858268549 0 -0.0055261916234220073 0.021843912779637958 0 -0.0054853050225549503 0.021805301136770497 0 -0.0055261916234220073 0.021843912779637958 0 -0.0054853050225549503 0.021805301136770497 0 -0.0055829342668742505 0.021865185534698954 0 -0.0057317076730004947 0.021782297765438167 0 -0.0055829342668742505 0.021865185534698954 0 -0.0056756868970271514 0.021939765698831885 0 -0.0058385933144000047 0.022036325252945164 0 -0.0056756868970271514 0.021939765698831885 0 -0.0056193142206409762 0.022090658412832719 0 -0.0055829342668742505 0.021865185534698954 0 -0.0056756868970271514 0.021939765698831885 0 -0.0055568585264757098 0.021926607202216404 0 -0.0055261916234220073 0.021843912779637958 0 -0.0055829342668742505 0.021865185534698954 0 -0.0055568585264757098 0.021926607202216404 0 -0.0055568585264757098 0.021926607202216404 0 -0.005497023101956525 0.021993681621758087 0 -0.0056193142206409762 0.022090658412832719 0 -0.0056756868970271514 0.021939765698831885 0 -0.0055568585264757098 0.021926607202216404 0 -0.0056193142206409762 0.022090658412832719 0 -0.0052806360175904595 0.021832838070177014 0 -0.0055273599766510889 0.021804847391382946 0 -0.0053951074313067547 0.021897315263820823 0 -0.0053951074313067547 0.021897315263820823 0 -0.005497023101956525 0.021993681621758087 0 -0.005403508371156448 0.022077839615418211 0 -0.0055261916234220073 0.021843912779637958 0 -0.0055568585264757098 0.021926607202216404 0 -0.0053951074313067547 0.021897315263820823 0 -0.0055568585264757098 0.021926607202216404 0 -0.0053951074313067547 0.021897315263820823 0 -0.005497023101956525 0.021993681621758087 0 -0.005497023101956525 0.021993681621758087 0 -0.005403508371156448 0.022077839615418211 0 -0.0056193142206409762 0.022090658412832719 0 -0.005403508371156448 0.022077839615418211 0 -0.0056193142206409762 0.022090658412832719 0 -0.0054508226141588611 0.022359998285992409 0 -0.0058437015672618674 0.022356570604836493 0 -0.0056193142206409762 0.022090658412832719 0 -0.0054508226141588611 0.022359998285992409 0 -0.0054508226141588611 0.022359998285992409 0 -0.005183207163513631 0.022239003920008396 0 -0.0050172363979290547 0.022614958554150189 0 -0.005403508371156448 0.022077839615418211 0 -0.0054508226141588611 0.022359998285992409 0 -0.005183207163513631 0.022239003920008396 0 -0.0053951074313067547 0.021897315263820823 0 -0.005403508371156448 0.022077839615418211 0 -0.005243908486426631 0.021978787092677463 0 -0.005403508371156448 0.022077839615418211 0 -0.005183207163513631 0.022239003920008396 0 -0.005243908486426631 0.021978787092677463 0 -0.0049072557152248482 0.021697915451681371 0 -0.0049761628388417037 0.022064731449949183 0 -0.0047819822751152489 0.021886095318798267 0 -0.005183207163513631 0.022239003920008396 0 -0.005243908486426631 0.021978787092677463 0 -0.0049761628388417037 0.022064731449949183 0 -0.0049072557152248482 0.021697915451681371 0 -0.005243908486426631 0.021978787092677463 0 -0.0049761628388417037 0.022064731449949183 0 -0.0049767749703211999 0.022303819806424666 0 -0.0047292826260961511 0.022283213049398141 0 -0.0050172363979290547 0.022614958554150189 0 -0.005183207163513631 0.022239003920008396 0 -0.0049767749703211999 0.022303819806424666 0 -0.0050172363979290547 0.022614958554150189 0 -0.0049761628388417037 0.022064731449949183 0 -0.0049767749703211999 0.022303819806424666 0 -0.0047292826260961511 0.022283213049398141 0 -0.005183207163513631 0.022239003920008396 0 -0.0049761628388417037 0.022064731449949183 0 -0.0049767749703211999 0.022303819806424666 0 -0.0043186641568920391 0.022115819385856845 0 -0.0038776444400710941 0.022192633397687317 0 -0.003810840500429609 0.02196480135661262 0 -0.0043186641568920391 0.022115819385856845 0 -0.0038776444400710941 0.022192633397687317 0 -0.0041014009760891659 0.022349664262130274 0 -0.0043186641568920391 0.022115819385856845 0 -0.003810840500429609 0.02196480135661262 0 -0.0038610774204694432 0.021687810638544691 0 -0.0042511601363410621 0.021424164242527455 0 -0.0046152910701023099 0.021862015222403153 0 -0.0042996281837093097 0.0209839173746811 0 -0.0044696368332684411 0.022127736117183164 0 -0.0039033376415098923 0.021553533187265172 0 -0.0047292826260961511 0.022283213049398141 0 -0.0041209840099296633 0.021681225630326696 0 -0.0043048877169029236 0.021725306356327721 0 -0.0040093048149446057 0.021616510825205323 0 -0.0042511601363410621 0.021424164242527455 0 -0.0039908948994015914 0.021094518932554235 0 -0.0040093048149446057 0.021616510825205323 0 -0.0042511601363410621 0.021424164242527455 0 -0.0043048877169029236 0.021725306356327721 0 -0.0039033376415098923 0.021553533187265172 0 -0.0039234695724884982 0.021559072190039962 0 -0.0042511601363410621 0.021424164242527455 0 -0.0043048877169029236 0.021725306356327721 0 -0.0046152910701023099 0.021862015222403153 0 -0.0047819822751152489 0.021886095318798267 0 -0.0046152910701023099 0.021862015222403153 0 -0.0046711813132478668 0.021753042202989452 0 -0.0047292826260961511 0.022283213049398141 0 -0.0043048877169029236 0.021725306356327721 0 -0.0046152910701023099 0.021862015222403153 0 -0.0049761628388417037 0.022064731449949183 0 -0.0047292826260961511 0.022283213049398141 0 -0.0047819822751152489 0.021886095318798267 0 -0.0047292826260961511 0.022283213049398141 0 -0.0047819822751152489 0.021886095318798267 0 -0.0046152910701023099 0.021862015222403153 0 -0.0039977286794323757 0.021714131230156735 0 -0.0032312208739637711 0.021317600572887931 0 -0.0034382477172888474 0.021772987513852433 0 -0.0036477185910442295 0.022009554960494823 0 -0.0039977286794323757 0.021714131230156735 0 -0.003842992232388345 0.022386464800952143 0 -0.0036477185910442295 0.022009554960494823 0 -0.0034382477172888474 0.021772987513852433 0 -0.0033019070800474597 0.022165845370748175 0 -0.0036477185910442295 0.022009554960494823 0 -0.0039977286794323757 0.021714131230156735 0 -0.0034382477172888474 0.021772987513852433 0 -0.0038776444400710941 0.022192633397687317 0 -0.0033832981540799162 0.022023367163383427 0 -0.003779435464936962 0.022564409770276093 0 -0.0038776444400710941 0.022192633397687317 0 -0.003810840500429609 0.02196480135661262 0 -0.0033832981540799162 0.022023367163383427 0 -0.003810840500429609 0.02196480135661262 0 -0.0033832981540799162 0.022023367163383427 0 -0.0036195188165419373 0.021802839952094168 0 -0.0038610774204694432 0.021687810638544691 0 -0.0036195188165419373 0.021802839952094168 0 -0.0034232333669000706 0.021590577090044756 0 -0.0038513048696924707 0.021233968219069792 0 -0.0033139010242026075 0.021101030171923687 0 -0.003519935541749385 0.020919816274824372 0 -0.0033832981540799162 0.022023367163383427 0 -0.0036195188165419373 0.021802839952094168 0 -0.0034232333669000706 0.021590577090044756 0 -0.0039033376415098923 0.021553533187265172 0 -0.0034157876083709244 0.021377104069626868 0 -0.003810840500429609 0.02196480135661262 0 -0.0038610774204694432 0.021687810638544691 0 -0.0036195188165419373 0.021802839952094168 0 -0.0039033376415098923 0.021553533187265172 0 -0.0038103587244890272 0.021442336668334706 0 -0.0035731888244017592 0.021892082150996223 0 -0.0029944519410496713 0.021223755975526604 0 -0.0033832981540799162 0.022023367163383427 0 -0.0034232333669000706 0.021590577090044756 0 -0.0029883284087760345 0.021491661694727989 0 -0.0039977286794323757 0.021714131230156735 0 -0.0032851466898237681 0.020700076978411839 0 -0.0032312208739637711 0.021317600572887931 0 -0.0034157876083709244 0.021377104069626868 0 -0.0029944519410496713 0.021223755975526604 0 -0.0033139010242026075 0.021101030171923687 0 -0.0029443667728620473 0.020804938625315007 0 -0.0026776297858394052 0.02087712358523218 0 -0.0028394972128022965 0.020567073565674162 0 -0.0029443667728620473 0.020804938625315007 0 -0.003144127552419241 0.020779176443751827 0 -0.0028394972128022965 0.020567073565674162 0 -0.003144127552419241 0.020779176443751827 0 -0.0030599319138543035 0.020483634297275354 0 -0.0028394972128022965 0.020567073565674162 0 -0.0029443667728620473 0.020804938625315007 0 -0.0027441546585471248 0.020696232806677328 0 -0.0033139010242026075 0.021101030171923687 0 -0.0029443667728620473 0.020804938625315007 0 -0.003144127552419241 0.020779176443751827 0 -0.003144127552419241 0.020779176443751827 0 -0.0030599319138543035 0.020483634297275354 0 -0.0032975513472497057 0.02060983576335141 0 -0.003144127552419241 0.020779176443751827 0 -0.0032975513472497057 0.02060983576335141 0 -0.003519935541749385 0.020919816274824372 0 -0.0032975513472497057 0.02060983576335141 0 -0.003519935541749385 0.020919816274824372 0 -0.0035319686929769596 0.02050189163017941 0 -0.0033139010242026075 0.021101030171923687 0 -0.003144127552419241 0.020779176443751827 0 -0.003519935541749385 0.020919816274824372 0 -0.0040093048149446057 0.021616510825205323 0 -0.003519935541749385 0.020919816274824372 0 -0.0039908948994015914 0.021094518932554235 0 -0.003519935541749385 0.020919816274824372 0 -0.0039174442950432294 0.020663328821810233 0 -0.0039908948994015914 0.021094518932554235 0 -0.003519935541749385 0.020919816274824372 0 -0.0039174442950432294 0.020663328821810233 0 -0.0035319686929769596 0.02050189163017941 0 -0.0039174442950432294 0.020663328821810233 0 -0.0036781218415846556 0.020090281572836263 0 -0.0035319686929769596 0.02050189163017941 0 -0.0036781218415846556 0.020090281572836263 0 -0.0035319686929769596 0.02050189163017941 0 -0.0032835800139035883 0.020229472649591865 0 -0.0032975513472497057 0.02060983576335141 0 -0.0035319686929769596 0.02050189163017941 0 -0.0032835800139035883 0.020229472649591865 0 -0.0032835800139035883 0.020229472649591865 0 -0.0027780714311236004 0.019624531498160548 0 -0.0027803314503994287 0.019982217967564816 0 -0.0036781218415846556 0.020090281572836263 0 -0.0032835800139035883 0.020229472649591865 0 -0.0027780714311236004 0.019624531498160548 0 -0.0030599319138543035 0.020483634297275354 0 -0.0032975513472497057 0.02060983576335141 0 -0.0032835800139035883 0.020229472649591865 0 -0.0030599319138543035 0.020483634297275354 0 -0.0032835800139035883 0.020229472649591865 0 -0.0030149567207229419 0.020245574577681589 0 -0.0032835800139035883 0.020229472649591865 0 -0.0030149567207229419 0.020245574577681589 0 -0.0027803314503994287 0.019982217967564816 0 -0.0030149567207229419 0.020245574577681589 0 -0.0027960554932982638 0.020242613825415288 0 -0.0027803314503994287 0.019982217967564816 0 -0.0030599319138543035 0.020483634297275354 0 -0.0030149567207229419 0.020245574577681589 0 -0.0027960554932982638 0.020242613825415288 0 -0.0028394972128022965 0.020567073565674162 0 -0.0030599319138543035 0.020483634297275354 0 -0.0027960554932982638 0.020242613825415288 0 -0.004053129914152161 0.021208789104814333 0 -0.0039643051171040508 0.020849055948611046 0 -0.0046152910701023099 0.021862015222403153 0 -0.0046929116884845481 0.021639490539506784 0 -0.0046711813132478668 0.021753042202989452 0 -0.0041369784211675847 0.020928874107443738 0 -0.0041336546834160742 0.020894750189034313 0 -0.0041057686466774374 0.020912465332020552 0 -0.0045140230171943768 0.021325415070217658 0 -0.0039643051171040508 0.020849055948611046 0 -0.0045140230171943768 0.021325415070217658 0 -0.0045383386055806397 0.02135397149785475 0 -0.0048091018787498295 0.021702726512980205 0 -0.0046929116884845481 0.021639490539506784 0 -0.0046711813132478668 0.021753042202989452 0 -0.0049072557152248482 0.021697915451681371 0 -0.0047819822751152489 0.021886095318798267 0 -0.0046711813132478668 0.021753042202989452 0 -0.0046152910701023099 0.021862015222403153 0 -0.004884047534881906 0.02069009490032301 0 -0.0042996281837093097 0.0209839173746811 0 -0.0039174442950432294 0.020663328821810233 0 -0.004884047534881906 0.02069009490032301 0 -0.0042996281837093097 0.0209839173746811 0 -0.0039174442950432294 0.020663328821810233 0 -0.0042996281837093097 0.0209839173746811 0 -0.0039908948994015914 0.021094518932554235 0 -0.0042511601363410621 0.021424164242527455 0 -0.0042996281837093097 0.0209839173746811 0 -0.0039908948994015914 0.021094518932554235 0 -0.0039174442950432294 0.020663328821810233 0 -0.0036781218415846556 0.020090281572836263 0 -0.004884047534881906 0.02069009490032301 0 -0.0034684847446259394 0.020275548527112115 0 -0.0039643051171040508 0.020849055948611046 0 -0.0033782580036302995 0.019917382992975977 0 -0.0039283542859115794 0.020193643209930313 0 -0.0037130754114942611 0.019936524792085859 0 -0.0037130754114942611 0.019936524792085859 0 -0.0036372229946873319 0.019817985808816833 0 -0.0040033612857295576 0.019772495690248724 0 -0.0033782580036302995 0.019917382992975977 0 -0.0037130754114942611 0.019936524792085859 0 -0.0036372229946873319 0.019817985808816833 0 -0.0039643051171040508 0.020849055948611046 0 -0.0034318308029206678 0.02007684288258085 0 -0.0041336546834160742 0.020894750189034313 0 -0.0041057686466774374 0.020912465332020552 0 -0.0041130905280117314 0.020861316273124771 0 -0.0039283542859115794 0.020193643209930313 0 -0.0037130754114942611 0.019936524792085859 0 -0.0040033612857295576 0.019772495690248724 0 -0.0026167692392029952 0.019504168294528078 0 -0.0025327106630988238 0.019571976108100915 0 -0.0025614035818760719 0.019431353238303424 0 -0.0025930329457026797 0.019265190031760731 0 -0.0025869077442883552 0.019274933555701566 0 -0.0025986827213587646 0.019269526244156468 0 -0.0034318308029206678 0.02007684288258085 0 -0.0032534943563253642 0.019715614113519644 0 -0.0032534943563253642 0.019715614113519644 0 -0.0031962544404305964 0.019615140644391769 0 -0.0025869077442883552 0.019274933555701566 0 -0.0025958097924769557 0.019290565664810515 0 -0.0025840605757582536 0.019316147077026308 0 -0.0025869077442883552 0.019274933555701566 0 -0.0025963660853960419 0.019277347165261419 0 -0.0025958097924769557 0.019290565664810515 0 -0.0025869077442883552 0.019274933555701566 0 -0.0025963660853960419 0.019277347165261419 0 -0.0025986827213587646 0.019269526244156468 0 -0.0025997304000540578 0.019274932485257763 0 -0.0026008892084922962 0.019266692262776986 0 -0.0025961178794188917 0.019267189523723936 0 -0.0025963660853960419 0.019277347165261419 0 -0.0025958097924769557 0.019290565664810515 0 -0.0025997304000540578 0.019274932485257763 0 -0.0025963660853960419 0.019277347165261419 0 -0.0025997304000540578 0.019274932485257763 0 -0.0025986827213587646 0.019269526244156468 0 -0.0025997304000540578 0.019274932485257763 0 -0.0026008892084922962 0.019266692262776986 0 -0.0025986827213587646 0.019269526244156468 0 -0.0034318308029206678 0.02007684288258085 0 -0.003000181427363015 0.019705191783322008 0 -0.0026008892084922962 0.019266692262776986 0 -0.0025986827213587646 0.019269526244156468 0 -0.0026045771501320538 0.019265602278652014 0 -0.0025930329457026797 0.019265190031760731 0 -0.0025986827213587646 0.019269526244156468 0 -0.0026045771501320538 0.019265602278652014 0 -0.0036372229946873319 0.019817985808816833 0 -0.0040033612857295576 0.019772495690248724 0 -0.003452662250599019 0.019648056634906878 0 -0.0033782580036302995 0.019917382992975977 0 -0.0036372229946873319 0.019817985808816833 0 -0.003452662250599019 0.019648056634906878 0 -0.003000181427363015 0.019705191783322008 0 -0.0026591260844771431 0.01951577872754813 0 -0.0033782580036302995 0.019917382992975977 0 -0.003452662250599019 0.019648056634906878 0 -0.0031209949451866622 0.019672804225000701 0 -0.003452662250599019 0.019648056634906878 0 -0.0031209949451866622 0.019672804225000701 0 -0.0028684088502829819 0.019503027641500657 0 -0.0033782580036302995 0.019917382992975977 0 -0.0031209949451866622 0.019672804225000701 0 -0.0027780714311236004 0.019624531498160548 0 -0.0026045771501320538 0.019265602278652014 0 -0.0026007198211973857 0.019288844654498989 0 -0.002598630881733701 0.019260221712112773 0 -0.0034684847446259394 0.020275548527112115 0 -0.0030943520355233615 0.020001663847474583 0 -0.0031209949451866622 0.019672804225000701 0 -0.0028684088502829819 0.019503027641500657 0 -0.0027780714311236004 0.019624531498160548 0 -0.0025599402102069293 0.019204993036899057 0 -0.002598455053740842 0.019255506004461284 0 -0.0025800987657093747 0.019255945297867259 0 -0.002598630881733701 0.019260221712112773 0 -0.0025599402102069293 0.019204993036899057 0 -0.0025379484451110235 0.019199382459280073 0 -0.0026007198211973857 0.019288844654498989 0 -0.002598630881733701 0.019260221712112773 0 -0.0025379484451110235 0.019199382459280073 0 -0.002598630881733701 0.019260221712112773 0 -0.0025599402102069293 0.019204993036899057 0 -0.002598455053740842 0.019255506004461284 0 -0.0026045771501320538 0.019265602278652014 0 -0.002598630881733701 0.019260221712112773 0 -0.002598455053740842 0.019255506004461284 0 -0.0026008892084922962 0.019266692262776986 0 -0.0026045771501320538 0.019265602278652014 0 -0.002598455053740842 0.019255506004461284 0 -0.0026008892084922962 0.019266692262776986 0 -0.002598455053740842 0.019255506004461284 0 -0.0025961178794188917 0.019267189523723936 0 -0.0025961178794188917 0.019267189523723936 0 -0.0025800987657093747 0.019255945297867259 0 -0.0026020514389515866 0.019280429539896241 0 -0.002598455053740842 0.019255506004461284 0 -0.0025961178794188917 0.019267189523723936 0 -0.0025800987657093747 0.019255945297867259 0 -0.0025800987657093747 0.019255945297867259 0 -0.0025984264831321125 0.01930154497886305 0 -0.0026020514389515866 0.019280429539896241 0 -0.0025599402102069293 0.019204993036899057 0 -0.0025800987657093747 0.019255945297867259 0 -0.0025276054741015484 0.019217770521383841 0 -0.002551690563960856 0.019250976417334361 0 -0.0025800987657093747 0.019255945297867259 0 -0.0025276054741015484 0.019217770521383841 0 -0.002551690563960856 0.019250976417334361 0 -0.0025276054741015484 0.019217770521383841 0 -0.0025115096263956379 0.019220515101043445 0 -0.002551690563960856 0.019250976417334361 0 -0.0025800987657093747 0.019255945297867259 0 -0.0025984264831321125 0.01930154497886305 0 -0.0026310439242714892 0.019417572770082513 0 -0.0025984264831321125 0.01930154497886305 0 -0.0026020514389515866 0.019280429539896241 0 -0.0026310439242714892 0.019417572770082513 0 -0.0030678273494744814 0.019702086243864627 0 -0.002809801698324454 0.020426402246007575 0 -0.0026310439242714892 0.019417572770082513 0 -0.0025749237224667624 0.01928639076883058 0 -0.0025923754871710171 0.019296904485556172 0 -0.0026310439242714892 0.019417572770082513 0 -0.0025923754871710171 0.019296904485556172 0 -0.0026020514389515866 0.019280429539896241 0 -0.0027998095435973949 0.019703889463271191 0 -0.0029354636047476661 0.01992076223197977 0 -0.0025749237224667624 0.01928639076883058 0 -0.0025923754871710171 0.019296904485556172 0 -0.0025840605757582536 0.019316147077026308 0 -0.0025958097924769557 0.019290565664810515 0 -0.0025923754871710171 0.019296904485556172 0 -0.0025840605757582536 0.019316147077026308 0 -0.0025958097924769557 0.019290565664810515 0 -0.0025923754871710171 0.019296904485556172 0 -0.0026020514389515866 0.019280429539896241 0 -0.0025958097924769557 0.019290565664810515 0 -0.0025997304000540578 0.019274932485257763 0 -0.0026020514389515866 0.019280429539896241 0 -0.0025997304000540578 0.019274932485257763 0 -0.0025961178794188917 0.019267189523723936 0 -0.0026020514389515866 0.019280429539896241 0 -0.0014659824218543982 0.018471982910483777 0 -0.0019972415650486752 0.01869589172058693 0 -0.0015888208821518875 0.019056313154595841 0 -0.0014659824218543982 0.018471982910483777 0 -0.0015888208821518875 0.019056313154595841 0 -0.0010262124971083552 0.018853372084850408 0 -0.0014659824218543982 0.018471982910483777 0 -0.0018465501722092284 0.017954366050929742 0 -0.0019972415650486752 0.01869589172058693 0 -0.0014659824218543982 0.018471982910483777 0 -0.001038443405020647 0.018275548419192225 0 -0.0010262124971083552 0.018853372084850408 0 -0.00052699540995436867 0.018467136847558314 0 -0.001038443405020647 0.018275548419192225 0 -0.0010262124971083552 0.018853372084850408 0 -0.0014659824218543982 0.018471982910483777 0 -0.001038443405020647 0.018275548419192225 0 -0.0013541841585648596 0.0179349811682902 0 -0.00052699540995436867 0.018467136847558314 0 -0.00085911634469274228 0.017596404153159235 0 -0.001038443405020647 0.018275548419192225 0 -0.00085911634469274228 0.017596404153159235 0 -0.001038443405020647 0.018275548419192225 0 -0.0013541841585648596 0.0179349811682902 0 -0.0015621095621265683 0.01732881813885578 0 -0.0013541841585648596 0.0179349811682902 0 -0.0018465501722092284 0.017954366050929742 0 -0.0014659824218543982 0.018471982910483777 0 -0.0013541841585648596 0.0179349811682902 0 -0.0018465501722092284 0.017954366050929742 0 -0.0018465501722092284 0.017954366050929742 0 -0.0024544281602501398 0.018168084631554771 0 -0.0019972415650486752 0.01869589172058693 0 -0.0020361186381868119 0.017684333908157053 0 -0.0022945179833590399 0.018475150112849881 0 -0.0022915658908475435 0.017261114264464038 0 -0.0018465501722092284 0.017954366050929742 0 -0.0024544281602501398 0.018168084631554771 0 -0.002447381624879728 0.01918557813053786 0 -0.0025188208313848908 0.019221424728463776 0 -0.0025115096263956379 0.019220515101043445 0 -0.0025276054741015484 0.019217770521383841 0 -0.0025188208313848908 0.019221424728463776 0 -0.0025115096263956379 0.019220515101043445 0 -0.0022945179833590399 0.018475150112849881 0 -0.002371387440406744 0.018740062266345153 0 -0.0025599402102069293 0.019204993036899057 0 -0.0025276054741015484 0.019217770521383841 0 -0.0024954068706942766 0.019107187728782563 0 -0.0025276054741015484 0.019217770521383841 0 -0.0025188208313848908 0.019221424728463776 0 -0.0024954068706942766 0.019107187728782563 0 -0.0024544281602501398 0.018168084631554771 0 -0.0019972415650486752 0.01869589172058693 0 -0.0024954068706942766 0.019107187728782563 0 -0.0019972415650486752 0.01869589172058693 0 -0.0021196066583674946 0.01927653092660116 0 -0.0015888208821518875 0.019056313154595841 0 -0.0019972415650486752 0.01869589172058693 0 -0.0021196066583674946 0.01927653092660116 0 -0.0024954068706942766 0.019107187728782563 0 -0.0021196066583674946 0.01927653092660116 0 -0.0024954068706942766 0.019107187728782563 0 -0.0025379484451110235 0.019199382459280073 0 -0.0026007198211973857 0.019288844654498989 0 -0.0021196066583674946 0.01927653092660116 0 -0.0025379484451110235 0.019199382459280073 0 -0.0025599402102069293 0.019204993036899057 0 -0.0024954068706942766 0.019107187728782563 0 -0.0025379484451110235 0.019199382459280073 0 -0.0028684088502829819 0.019503027641500657 0 -0.0021196066583674946 0.01927653092660116 0 -0.0025271889308919639 0.019591488024295712 0 -0.0026591260844771431 0.01951577872754813 0 -0.0024061352565316954 0.019431298834788995 0 -0.0028684088502829819 0.019503027641500657 0 -0.0027780714311236004 0.019624531498160548 0 -0.0025271889308919639 0.019591488024295712 0 -0.0025271889308919639 0.019591488024295712 0 -0.0025752295798566788 0.019801108912988315 0 -0.0022853385452583849 0.019767883123709522 0 -0.0027780714311236004 0.019624531498160548 0 -0.0025271889308919639 0.019591488024295712 0 -0.0025752295798566788 0.019801108912988315 0 -0.0027780714311236004 0.019624531498160548 0 -0.0025752295798566788 0.019801108912988315 0 -0.0027803314503994287 0.019982217967564816 0 -0.0021196066583674946 0.01927653092660116 0 -0.0022853385452583849 0.019767883123709522 0 -0.0018481908513776825 0.019812957234807343 0 -0.0021196066583674946 0.01927653092660116 0 -0.0018481908513776825 0.019812957234807343 0 -0.0016401693065542591 0.019476999903492224 0 -0.0021196066583674946 0.01927653092660116 0 -0.0025271889308919639 0.019591488024295712 0 -0.0022853385452583849 0.019767883123709522 0 -0.0018481908513776825 0.019812957234807343 0 -0.0016401693065542591 0.019476999903492224 0 -0.0014249986145472161 0.019829665370861657 0 -0.0016401693065542591 0.019476999903492224 0 -0.0012062703857648467 0.019343288412608441 0 -0.0014249986145472161 0.019829665370861657 0 -0.0021196066583674946 0.01927653092660116 0 -0.0016401693065542591 0.019476999903492224 0 -0.0015888208821518875 0.019056313154595841 0 -0.0016401693065542591 0.019476999903492224 0 -0.0015888208821518875 0.019056313154595841 0 -0.0012062703857648467 0.019343288412608441 0 -0.0015888208821518875 0.019056313154595841 0 -0.0010262124971083552 0.018853372084850408 0 -0.0012062703857648467 0.019343288412608441 0 -0.0010262124971083552 0.018853372084850408 0 -0.00086028411531744971 0.019254772634558725 0 -0.0012062703857648467 0.019343288412608441 0 -0.00064131181060167052 0.019016732892794395 0 -0.0010262124971083552 0.018853372084850408 0 -0.00086028411531744971 0.019254772634558725 0 -0.00086028411531744971 0.019254772634558725 0 -0.0012062703857648467 0.019343288412608441 0 -0.00092892752637097954 0.019584275573718175 0 -0.00092892752637097954 0.019584275573718175 0 -0.0010546508880320763 0.01991229393251067 0 -0.0014249986145472161 0.019829665370861657 0 -0.0012062703857648467 0.019343288412608441 0 -0.00092892752637097954 0.019584275573718175 0 -0.0014249986145472161 0.019829665370861657 0 -0.0010546508880320763 0.01991229393251067 0 -0.0014249986145472161 0.019829665370861657 0 -0.0015234459703239978 0.020391136319530708 0 -0.0010546508880320763 0.01991229393251067 0 -0.0015234459703239978 0.020391136319530708 0 -0.0010130616425025152 0.020310564885349807 0 -0.0018481908513776825 0.019812957234807343 0 -0.0015234459703239978 0.020391136319530708 0 -0.0020974767516544228 0.020184439403705939 0 -0.0018481908513776825 0.019812957234807343 0 -0.0014249986145472161 0.019829665370861657 0 -0.0015234459703239978 0.020391136319530708 0 -0.0021158739311360822 0.020814315294326095 0 -0.0024086611243797746 0.020929687670794034 0 -0.0015234459703239978 0.020391136319530708 0 -0.0024111107529232925 0.02051425679016005 0 -0.0020147754969149531 0.020970889762833383 0 -0.0015234459703239978 0.020391136319530708 0 -0.0015223422539578462 0.020939044901667533 0 -0.0020147754969149531 0.020970889762833383 0 -0.0015234459703239978 0.020391136319530708 0 -0.0011566931898543929 0.020740244378023034 0 -0.0015223422539578462 0.020939044901667533 0 -0.0011566931898543929 0.020740244378023034 0 -0.00089996813941860937 0.020582936132980345 0 -0.0010130616425025152 0.020310564885349807 0 -0.00081882922603384374 0.020857971330258154 0 -0.0011566931898543929 0.020740244378023034 0 -0.00089996813941860937 0.020582936132980345 0 -0.0015234459703239978 0.020391136319530708 0 -0.0011566931898543929 0.020740244378023034 0 -0.0010130616425025152 0.020310564885349807 0 -0.0028394972128022965 0.020567073565674162 0 -0.002613479259987546 0.020367027221071532 0 -0.0027960554932982638 0.020242613825415288 0 -0.002613479259987546 0.020367027221071532 0 -0.0027960554932982638 0.020242613825415288 0 -0.0024746311386265804 0.020092556861621046 0 -0.0025752295798566788 0.019801108912988315 0 -0.0027803314503994287 0.019982217967564816 0 -0.0024746311386265804 0.020092556861621046 0 -0.0027960554932982638 0.020242613825415288 0 -0.0027803314503994287 0.019982217967564816 0 -0.0024746311386265804 0.020092556861621046 0 -0.0025752295798566788 0.019801108912988315 0 -0.0022853385452583849 0.019767883123709522 0 -0.0024746311386265804 0.020092556861621046 0 -0.002613479259987546 0.020367027221071532 0 -0.0024746311386265804 0.020092556861621046 0 -0.0024174644051882192 0.020399467597965924 0 -0.0024746311386265804 0.020092556861621046 0 -0.0020974767516544228 0.020184439403705939 0 -0.0024174644051882192 0.020399467597965924 0 -0.0022853385452583849 0.019767883123709522 0 -0.0024746311386265804 0.020092556861621046 0 -0.0020974767516544228 0.020184439403705939 0 -0.0022853385452583849 0.019767883123709522 0 -0.0018481908513776825 0.019812957234807343 0 -0.0020974767516544228 0.020184439403705939 0 -0.0015234459703239978 0.020391136319530708 0 -0.0020974767516544228 0.020184439403705939 0 -0.0020862868786125101 0.02060985162037865 0 -0.0020974767516544228 0.020184439403705939 0 -0.0020862868786125101 0.02060985162037865 0 -0.0024174644051882192 0.020399467597965924 0 -0.0024086611243797746 0.020929687670794034 0 -0.0029944519410496713 0.021223755975526604 0 -0.0020862868786125101 0.02060985162037865 0 -0.0025693623107880766 0.020675701222661907 0 -0.002673973566400735 0.020830077703730396 0 -0.0020862868786125101 0.02060985162037865 0 -0.0024174644051882192 0.020399467597965924 0 -0.0025693623107880766 0.020675701222661907 0 -0.0024111107529232925 0.02051425679016005 0 -0.0032851466898237681 0.020700076978411839 0 -0.0028990202142051003 0.0209186464782532 0 -0.0024174644051882192 0.020399467597965924 0 -0.0025693623107880766 0.020675701222661907 0 -0.0026482016798516179 0.020542926114322211 0 -0.0029443667728620473 0.020804938625315007 0 -0.0026776297858394052 0.02087712358523218 0 -0.0027441546585471248 0.020696232806677328 0 -0.0029753635632283281 0.021198683698802418 0 -0.0029944519410496713 0.021223755975526604 0 -0.0025693623107880766 0.020675701222661907 0 -0.0026776297858394052 0.02087712358523218 0 -0.0027441546585471248 0.020696232806677328 0 -0.0028394972128022965 0.020567073565674162 0 -0.0027441546585471248 0.020696232806677328 0 -0.0026482016798516179 0.020542926114322211 0 -0.0025693623107880766 0.020675701222661907 0 -0.0027441546585471248 0.020696232806677328 0 -0.0026482016798516179 0.020542926114322211 0 -0.002613479259987546 0.020367027221071532 0 -0.0024174644051882192 0.020399467597965924 0 -0.0026482016798516179 0.020542926114322211 0 -0.0028394972128022965 0.020567073565674162 0 -0.002613479259987546 0.020367027221071532 0 -0.0026482016798516179 0.020542926114322211 0 -0.0032851466898237681 0.020700076978411839 0 -0.0032312208739637711 0.021317600572887931 0 -0.0028990202142051003 0.0209186464782532 0 -0.0032312208739637711 0.021317600572887931 0 -0.0028990202142051003 0.0209186464782532 0 -0.002669277771148627 0.021145215487416165 0 -0.0032312208739637711 0.021317600572887931 0 -0.002669277771148627 0.021145215487416165 0 -0.0029256400838792258 0.021625264568642097 0 -0.002669277771148627 0.021145215487416165 0 -0.0022915809196873316 0.021506505825704188 0 -0.0029256400838792258 0.021625264568642097 0 -0.0024111107529232925 0.02051425679016005 0 -0.0028990202142051003 0.0209186464782532 0 -0.002669277771148627 0.021145215487416165 0 -0.0024111107529232925 0.02051425679016005 0 -0.002669277771148627 0.021145215487416165 0 -0.0020147754969149531 0.020970889762833383 0 -0.002669277771148627 0.021145215487416165 0 -0.0022915809196873316 0.021506505825704188 0 -0.0020147754969149531 0.020970889762833383 0 -0.0022915809196873316 0.021506505825704188 0 -0.0027164891513035759 0.02203369753615959 0 -0.0019914571278430784 0.022166780537453874 0 -0.0022915809196873316 0.021506505825704188 0 -0.0027164891513035759 0.02203369753615959 0 -0.0029256400838792258 0.021625264568642097 0 -0.0027164891513035759 0.02203369753615959 0 -0.0029256400838792258 0.021625264568642097 0 -0.0033019070800474597 0.022165845370748175 0 -0.0029256400838792258 0.021625264568642097 0 -0.0034382477172888474 0.021772987513852433 0 -0.0033019070800474597 0.022165845370748175 0 -0.0032312208739637711 0.021317600572887931 0 -0.0029256400838792258 0.021625264568642097 0 -0.0034382477172888474 0.021772987513852433 0 -0.0012609449650093736 0.021187532915257344 0 -0.00096321304395449833 0.021229850285941595 0 -0.0013138913244023227 0.021700653516087361 0 -0.0012609449650093736 0.021187532915257344 0 -0.0016421076705427878 0.021406371103743452 0 -0.0013138913244023227 0.021700653516087361 0 -0.0012609449650093736 0.021187532915257344 0 -0.00096321304395449833 0.021229850285941595 0 -0.0010444760826523751 0.021005134810993968 0 -0.00081882922603384374 0.020857971330258154 0 -0.00096321304395449833 0.021229850285941595 0 -0.0010444760826523751 0.021005134810993968 0 -0.00081882922603384374 0.020857971330258154 0 -0.0011566931898543929 0.020740244378023034 0 -0.0010444760826523751 0.021005134810993968 0 -0.0011566931898543929 0.020740244378023034 0 -0.0012609449650093736 0.021187532915257344 0 -0.0010444760826523751 0.021005134810993968 0 -0.0011566931898543929 0.020740244378023034 0 -0.0012609449650093736 0.021187532915257344 0 -0.0015223422539578462 0.020939044901667533 0 -0.0015223422539578462 0.020939044901667533 0 -0.0020147754969149531 0.020970889762833383 0 -0.0016421076705427878 0.021406371103743452 0 -0.0022915809196873316 0.021506505825704188 0 -0.0020147754969149531 0.020970889762833383 0 -0.0016421076705427878 0.021406371103743452 0 -0.0012609449650093736 0.021187532915257344 0 -0.0015223422539578462 0.020939044901667533 0 -0.0016421076705427878 0.021406371103743452 0 -0.0022489246633590966 0.02025910454802957 0 -0.0020848929024593703 0.019511695205982289 0 -0.00028249700566954425 0.012813872718030939 0 -0.00032830998507586728 0.013426278580207356 0 -0.0010737107406171098 0.013184374703411449 0 -0.0022915809196873316 0.021506505825704188 0 -0.0016421076705427878 0.021406371103743452 0 -0.0019914571278430784 0.022166780537453874 0 -0.0011870949727859185 0.017658712549421994 0 -0.0020848929024593703 0.019511695205982289 0 -0.0016421076705427878 0.021406371103743452 0 -0.0013138913244023227 0.021700653516087361 0 -0.0019112559804145141 0.022002711422906905 0 0.00038708952066984992 0.012881584506493373 0 -0.00028249700566954425 0.012813872718030939 0 0.00026738512050907855 0.013210852052983068 0 0.00038708952066984992 0.012881584506493373 0 0.00031137317051406434 0.012637585370900161 0 -0.00028249700566954425 0.012813872718030939 0 -0.00092104870390056538 0.016204626942123705 0 -0.0011870949727859185 0.017658712549421994 0 0.00043363469281412439 0.012496604827243607 0 0.00031137317051406434 0.012637585370900161 0 -0.00028249700566954425 0.012813872718030939 0 -0.00028249700566954425 0.012813872718030939 0 -0.00032830998507586728 0.013426278580207356 0 0.00026738512050907855 0.013210852052983068 0 -0.00066808356496719356 0.021408756636071034 0 -0.00096321304395449833 0.021229850285941595 0 -0.0013138913244023227 0.021700653516087361 0 -0.00032830998507586728 0.013426278580207356 0 0.00026738512050907855 0.013210852052983068 0 0.00068770858426659353 0.013651814967324405 0 -0.00032830998507586728 0.013426278580207356 0 -0.00039632649580546874 0.014076066798241539 0 0.00068770858426659353 0.013651814967324405 0 -0.0010737107406171098 0.013184374703411449 0 -0.00086622636433828079 0.013872873151335305 0 -0.0016082125252314197 0.014198766054269715 0 -0.00032830998507586728 0.013426278580207356 0 -0.0010737107406171098 0.013184374703411449 0 -0.00086622636433828079 0.013872873151335305 0 -0.00032830998507586728 0.013426278580207356 0 -0.00086622636433828079 0.013872873151335305 0 -0.00039632649580546874 0.014076066798241539 0 -0.00086622636433828079 0.013872873151335305 0 -0.00095385244837613683 0.01452143582160852 0 -0.00039632649580546874 0.014076066798241539 0 -0.00086622636433828079 0.013872873151335305 0 -0.00095385244837613683 0.01452143582160852 0 -0.0016082125252314197 0.014198766054269715 0 -0.00039632649580546874 0.014076066798241539 0 6.6962643652553059e-06 0.014768568974931572 0 0.00068770858426659353 0.013651814967324405 0 -0.00095385244837613683 0.01452143582160852 0 -0.00039632649580546874 0.014076066798241539 0 6.6962643652553059e-06 0.014768568974931572 0 -0.0033019070800474597 0.022165845370748175 0 -0.003057868899711139 0.022694858305037362 0 -0.003842992232388345 0.022386464800952143 0 -0.0027164891513035759 0.02203369753615959 0 -0.0033019070800474597 0.022165845370748175 0 -0.003057868899711139 0.022694858305037362 0 -0.0046202777130212366 0.023587865268549568 0 -0.0041925177945227026 0.023340314535170388 0 -0.0045023745370780495 0.023272729268822664 0 -0.0020848929024593703 0.019511695205982289 0 -0.0025831623688183925 0.018960874515221351 0 -0.0027164891513035759 0.02203369753615959 0 -0.0019914571278430784 0.022166780537453874 0 -0.003057868899711139 0.022694858305037362 0 -0.0020848929024593703 0.019511695205982289 0 -0.0037923065215266331 0.021671467395590074 0 -0.00095385244837613683 0.01452143582160852 0 -0.0016082125252314197 0.014198766054269715 0 -0.0013772789454621016 0.01498333539800195 0 -0.0041925177945227026 0.023340314535170388 0 -0.0045023745370780495 0.023272729268822664 0 -0.0041507946733398138 0.023132639827092242 0 -0.0045023745370780495 0.023272729268822664 0 -0.0041507946733398138 0.023132639827092242 0 -0.0041585906787049562 0.022883197010931378 0 -0.0041507946733398138 0.023132639827092242 0 -0.0041269149391050183 0.023055196579347181 0 -0.0041038298450610453 0.02309945725074606 0 -0.0041925177945227026 0.023340314535170388 0 -0.0041507946733398138 0.023132639827092242 0 -0.0041038298450610453 0.02309945725074606 0 -0.0041585906787049562 0.022883197010931378 0 -0.0044507714516030927 0.022142905288779748 0 -0.003497405234615837 0.020630895460970428 0 -0.0041585906787049562 0.022883197010931378 0 -0.0040882524440169939 0.023476001924806346 0 -0.0041548650033062353 0.023179617277506549 0 -0.0041269149391050183 0.023055196579347181 0 -0.0041585906787049562 0.022883197010931378 0 -0.0041548650033062353 0.023179617277506549 0 -0.0041507946733398138 0.023132639827092242 0 -0.0041269149391050183 0.023055196579347181 0 -0.0041585906787049562 0.022883197010931378 0 -0.0025831623688183925 0.018960874515221351 0 -0.0029314221473166397 0.018753141349997161 0 -0.0045023745370780495 0.023272729268822664 0 -0.0041585906787049562 0.022883197010931378 0 -0.0044507714516030927 0.022142905288779748 0 -0.0016082125252314197 0.014198766054269715 0 -0.0022177963775559047 0.01535962766656343 0 -0.0013772789454621016 0.01498333539800195 0 -0.0022177963775559047 0.01535962766656343 0 -0.0013772789454621016 0.01498333539800195 0 -0.0014074412565856936 0.015587402901689902 0 -0.0014074412565856936 0.015587402901689902 0 -0.0016214941672750727 0.016344700226932865 0 -0.0019000564601332395 0.015803917941651598 0 -0.0014074412565856936 0.015587402901689902 0 -0.0016214941672750727 0.016344700226932865 0 -0.00080677012821254578 0.016096990310058273 0 -0.0016214941672750727 0.016344700226932865 0 -0.0019000564601332395 0.015803917941651598 0 -0.0021962754900586323 0.016295627578414233 0 -0.0022177963775559047 0.01535962766656343 0 -0.0019000564601332395 0.015803917941651598 0 -0.0021962754900586323 0.016295627578414233 0 -0.0022177963775559047 0.01535962766656343 0 -0.0014074412565856936 0.015587402901689902 0 -0.0019000564601332395 0.015803917941651598 0 -0.0044507714516030927 0.022142905288779748 0 -0.0039174496268414424 0.020102499151523609 0 -0.003497405234615837 0.020630895460970428 0 -0.0041731812611543583 0.02250351027252721 0 -0.0040610253368354114 0.022118853681525146 0 -0.0029314221473166397 0.018753141349997161 0 -0.0030974491863356123 0.018578471716039966 0 -0.0022177963775559047 0.01535962766656343 0 -0.0021962754900586323 0.016295627578414233 0 -0.0029052212164370145 0.01673511307662167 0 6.6962643652553059e-06 0.014768568974931572 0 -7.9931717629814166e-05 0.015756221812685104 0 0.00084493321766690866 0.015060654123387232 0 6.6962643652553059e-06 0.014768568974931572 0 -0.00073297535967851686 0.01528178826917472 0 -7.9931717629814166e-05 0.015756221812685104 0 -0.00095385244837613683 0.01452143582160852 0 6.6962643652553059e-06 0.014768568974931572 0 -0.00073297535967851686 0.01528178826917472 0 -0.00095385244837613683 0.01452143582160852 0 -0.0013772789454621016 0.01498333539800195 0 -0.00073297535967851686 0.01528178826917472 0 -0.0013772789454621016 0.01498333539800195 0 -0.0014074412565856936 0.015587402901689902 0 -0.00073297535967851686 0.01528178826917472 0 -0.00080677012821254578 0.016096990310058273 0 -7.9931717629814166e-05 0.015756221812685104 0 -0.00040188638558565174 0.016914729972523045 0 -0.00073297535967851686 0.01528178826917472 0 -0.00080677012821254578 0.016096990310058273 0 -7.9931717629814166e-05 0.015756221812685104 0 -0.0014074412565856936 0.015587402901689902 0 -0.00073297535967851686 0.01528178826917472 0 -0.00080677012821254578 0.016096990310058273 0 -7.9931717629814166e-05 0.015756221812685104 0 -0.00040188638558565174 0.016914729972523045 0 0.0005143907914367899 0.016523853667891716 0 0.00021901806655809521 0.017586470898202554 0 -0.00040188638558565174 0.016914729972523045 0 0.0005143907914367899 0.016523853667891716 0 0.00021901806655809521 0.017586470898202554 0 0.0004832994355299897 0.018445264812381797 0 -0.00056327737666974265 0.018418928140735098 0 0.00021901806655809521 0.017586470898202554 0 -0.00040188638558565174 0.016914729972523045 0 -0.00056327737666974265 0.018418928140735098 0 -0.00040188638558565174 0.016914729972523045 0 -0.0012666858656096602 0.017209265589575876 0 -0.00056327737666974265 0.018418928140735098 0 -0.0012666858656096602 0.017209265589575876 0 -0.0015585923318453077 0.018106262169581135 0 -0.00056327737666974265 0.018418928140735098 0 -0.00080677012821254578 0.016096990310058273 0 -0.00040188638558565174 0.016914729972523045 0 -0.0012666858656096602 0.017209265589575876 0 -0.0016214941672750727 0.016344700226932865 0 -0.00080677012821254578 0.016096990310058273 0 -0.0012666858656096602 0.017209265589575876 0 -0.0016214941672750727 0.016344700226932865 0 -0.0020242818012477697 0.016928996393690471 0 -0.0012666858656096602 0.017209265589575876 0 -0.0016214941672750727 0.016344700226932865 0 -0.0021962754900586323 0.016295627578414233 0 -0.0020242818012477697 0.016928996393690471 0 -0.0020242818012477697 0.016928996393690471 0 -0.0012666858656096602 0.017209265589575876 0 -0.0020016525301198179 0.017665236726341571 0 -0.0021962754900586323 0.016295627578414233 0 -0.0020242818012477697 0.016928996393690471 0 -0.0023876159548519818 0.016815155613155209 0 -0.0021962754900586323 0.016295627578414233 0 -0.0029052212164370145 0.01673511307662167 0 -0.0023876159548519818 0.016815155613155209 0 -0.0029052212164370145 0.01673511307662167 0 -0.0023876159548519818 0.016815155613155209 0 -0.0024438289177191957 0.017330386412141366 0 -0.0020242818012477697 0.016928996393690471 0 -0.0023876159548519818 0.016815155613155209 0 -0.0024438289177191957 0.017330386412141366 0 -0.0020242818012477697 0.016928996393690471 0 -0.0024438289177191957 0.017330386412141366 0 -0.0020016525301198179 0.017665236726341571 0 -0.0029052212164370145 0.01673511307662167 0 -0.0024438289177191957 0.017330386412141366 0 -0.0028622030294786919 0.017861585058289595 0 -0.0029052212164370145 0.01673511307662167 0 -0.0028622030294786919 0.017861585058289595 0 -0.0034700708460654859 0.018609414081700117 0 -0.0028622030294786919 0.017861585058289595 0 -0.0025427335575939269 0.018017505958430647 0 -0.002837694272708819 0.01858567733891647 0 -0.0024438289177191957 0.017330386412141366 0 -0.0025427335575939269 0.018017505958430647 0 -0.0020016525301198179 0.017665236726341571 0 -0.0025427335575939269 0.018017505958430647 0 -0.0022360336476584261 0.018413645394865365 0 -0.0020016525301198179 0.017665236726341571 0 -0.0024438289177191957 0.017330386412141366 0 -0.0028622030294786919 0.017861585058289595 0 -0.0025427335575939269 0.018017505958430647 0 -0.0025427335575939269 0.018017505958430647 0 -0.0022360336476584261 0.018413645394865365 0 -0.002837694272708819 0.01858567733891647 0 -0.0022360336476584261 0.018413645394865365 0 -0.002837694272708819 0.01858567733891647 0 -0.0026489055011069437 0.019154224477201675 0 -0.0028622030294786919 0.017861585058289595 0 -0.002837694272708819 0.01858567733891647 0 -0.0034700708460654859 0.018609414081700117 0 -0.0015585923318453077 0.018106262169581135 0 -0.0018043808402343322 0.01895600341846054 0 -0.00056327737666974265 0.018418928140735098 0 -0.0012666858656096602 0.017209265589575876 0 -0.0020016525301198179 0.017665236726341571 0 -0.0015585923318453077 0.018106262169581135 0 -0.0022360336476584261 0.018413645394865365 0 -0.0020016525301198179 0.017665236726341571 0 -0.0015585923318453077 0.018106262169581135 0 -0.0022360336476584261 0.018413645394865365 0 -0.0015585923318453077 0.018106262169581135 0 -0.0018043808402343322 0.01895600341846054 0 -0.0012462928367928292 0.019523781592388611 0 -0.0018043808402343322 0.01895600341846054 0 -0.0025255552542477267 0.020280795381575008 0 -0.0012462928367928292 0.019523781592388611 0 -0.0018043808402343322 0.01895600341846054 0 -0.00056327737666974265 0.018418928140735098 0 -0.0018043808402343322 0.01895600341846054 0 -0.0026489055011069437 0.019154224477201675 0 -0.0025255552542477267 0.020280795381575008 0 -0.0026489055011069437 0.019154224477201675 0 -0.0025255552542477267 0.020280795381575008 0 -0.0034397198054495794 0.019688372638307167 0 -0.002837694272708819 0.01858567733891647 0 -0.0026489055011069437 0.019154224477201675 0 -0.0032475470029767269 0.018998278920646941 0 -0.0022360336476584261 0.018413645394865365 0 -0.0018043808402343322 0.01895600341846054 0 -0.0026489055011069437 0.019154224477201675 0 -0.0012462928367928292 0.019523781592388611 0 -0.00055344349790295328 0.020104191717465719 0 -0.0016048175887175987 0.021117918942560373 0 -0.0012462928367928292 0.019523781592388611 0 -0.0025255552542477267 0.020280795381575008 0 -0.0016048175887175987 0.021117918942560373 0 -0.00055344349790295328 0.020104191717465719 0 0.00053055627773806611 0.019487195804087972 0 -0.00056327737666974265 0.018418928140735098 0 -0.00055344349790295328 0.020104191717465719 0 0.00053055627773806611 0.019487195804087972 0 -0.00036442205610171674 0.021726117857235404 0 0.00053055627773806611 0.019487195804087972 0 0.0004832994355299897 0.018445264812381797 0 -0.00056327737666974265 0.018418928140735098 0 -0.0012462928367928292 0.019523781592388611 0 -0.00055344349790295328 0.020104191717465719 0 -0.00056327737666974265 0.018418928140735098 0 -0.0044995504891136365 0.023767770204793735 0 -0.0045081619145478681 0.023718110818746519 0 -0.0046433525760802867 0.02377372215224471 0 -0.0044680628897983505 0.023761717882462521 0 -0.0044568840764879943 0.023719034054265137 0 -0.0045081619145478681 0.023718110818746519 0 -0.0044995504891136365 0.023767770204793735 0 -0.0044680628897983505 0.023761717882462521 0 -0.0045081619145478681 0.023718110818746519 0 -0.0044995504891136365 0.023767770204793735 0 -0.0044680628897983505 0.023761717882462521 0 -0.0044761922978012268 0.02374120475530031 0 -0.0044680628897983505 0.023761717882462521 0 -0.0044493475390169519 0.023768198815773543 0 -0.0044761922978012268 0.02374120475530031 0 -0.0044680628897983505 0.023761717882462521 0 -0.0044493475390169519 0.023768198815773543 0 -0.0044338248677206647 0.023769062540098834 0 -0.0044493475390169519 0.023768198815773543 0 -0.0044338248677206647 0.023769062540098834 0 -0.0044276348783040716 0.023806435782595593 0 -0.0044680628897983505 0.023761717882462521 0 -0.0044338248677206647 0.023769062540098834 0 -0.0044568840764879943 0.023719034054265137 0 -0.0044338248677206647 0.023769062540098834 0 -0.0044568840764879943 0.023719034054265137 0 -0.0044304853085147117 0.023706363413897424 0 -0.0044568840764879943 0.023719034054265137 0 -0.0044304853085147117 0.023706363413897424 0 -0.0044669000303277744 0.023617536595591015 0 -0.0044338248677206647 0.023769062540098834 0 -0.0044304853085147117 0.023706363413897424 0 -0.0044197541142359008 0.023789287157960158 0 -0.0044304853085147117 0.023706363413897424 0 -0.004442896332099296 0.023670717845838483 0 -0.0044501688763689757 0.023581417688868851 0 -0.0044304853085147117 0.023706363413897424 0 -0.0044256081588106176 0.023762078228289792 0 -0.004442896332099296 0.023670717845838483 0 -0.0044304853085147117 0.023706363413897424 0 -0.0044256081588106176 0.023762078228289792 0 -0.0044197541142359008 0.023789287157960158 0 -0.0044304853085147117 0.023706363413897424 0 -0.0044669000303277744 0.023617536595591015 0 -0.0044501688763689757 0.023581417688868851 0 -0.004528131057488699 0.023527778731761716 0 -0.0045081619145478681 0.023718110818746519 0 -0.0046433525760802867 0.02377372215224471 0 -0.0044669000303277744 0.023617536595591015 0 -0.004528131057488699 0.023527778731761716 0 -0.0044946111933331055 0.023387598556190776 0 -0.004528131057488699 0.023527778731761716 0 -0.0046433525760802867 0.02377372215224471 0 -0.0047371831252585057 0.02293443749058896 0 -0.0044669000303277744 0.023617536595591015 0 -0.004528131057488699 0.023527778731761716 0 -0.0045081619145478681 0.023718110818746519 0 -0.0044568840764879943 0.023719034054265137 0 -0.0044669000303277744 0.023617536595591015 0 -0.0045081619145478681 0.023718110818746519 0 -0.0045006491364455248 0.020174380416009004 0 -0.0036319361292650562 0.02092955146015877 0 -0.0041375726036590888 0.021899518638064216 0 -0.0042864924996076836 0.021927762851781319 0 -0.0044420755650666326 0.022220681182411214 0 -0.0045006491364455248 0.020174380416009004 0 -0.0036319361292650562 0.02092955146015877 0 -0.0034397198054495794 0.019688372638307167 0 -0.0025255552542477267 0.020280795381575008 0 -0.0036319361292650562 0.02092955146015877 0 -0.0033150079763738121 0.021725506523748737 0 -0.0025255552542477267 0.020280795381575008 0 -0.0036319361292650562 0.02092955146015877 0 -0.0034397198054495794 0.019688372638307167 0 -0.0045006491364455248 0.020174380416009004 0 -0.0034397198054495794 0.019688372638307167 0 -0.0034341568965537755 0.018578185985607246 0 -0.0034397198054495794 0.019688372638307167 0 -0.0032475470029767269 0.018998278920646941 0 -0.0034341568965537755 0.018578185985607246 0 -0.0026489055011069437 0.019154224477201675 0 -0.0034397198054495794 0.019688372638307167 0 -0.0032475470029767269 0.018998278920646941 0 -0.0042864924996076836 0.021927762851781319 0 -0.0040394045614886784 0.021689435248243717 0 -0.0046433525760802867 0.02377372215224471 0 -0.0044650474453108427 0.023752060402712834 0 -0.004329511530408627 0.023745474576880747 0 -0.0044995504891136365 0.023767770204793735 0 -0.0046433525760802867 0.02377372215224471 0 -0.0044650474453108427 0.023752060402712834 0 -0.0044995504891136365 0.023767770204793735 0 -0.0044650474453108427 0.023752060402712834 0 -0.0044474597246955284 0.023705013795897522 0 -0.0044650474453108427 0.023752060402712834 0 -0.0043885905179050135 0.023683051272189476 0 -0.004329511530408627 0.023745474576880747 0 -0.0044650474453108427 0.023752060402712834 0 -0.0043885905179050135 0.023683051272189476 0 -0.0044474597246955284 0.023705013795897522 0 -0.0039174496268414424 0.020102499151523609 0 -0.0034700708460654859 0.018609414081700117 0 -0.0034341568965537755 0.018578185985607246 0 -0.0032475470029767269 0.018998278920646941 0 -0.0034700708460654859 0.018609414081700117 0 -0.0034341568965537755 0.018578185985607246 0 -0.002837694272708819 0.01858567733891647 0 -0.0032475470029767269 0.018998278920646941 0 -0.0034700708460654859 0.018609414081700117 0 -0.0039174496268414424 0.020102499151523609 0 -0.0034341568965537755 0.018578185985607246 0 -0.003497405234615837 0.020630895460970428 0 -0.0030974491863356123 0.018578471716039966 0 -0.0031578870879086954 0.018549810884836291 0 -0.004329511530408627 0.023745474576880747 0 -0.0043041958571988269 0.023582526737753483 0 -0.0040882524440169939 0.023476001924806346 0 -0.0040394045614886784 0.021689435248243717 0 -0.0040610253368354114 0.022118853681525146 0 -0.0043885905179050135 0.023683051272189476 0 -0.004329511530408627 0.023745474576880747 0 -0.0043041958571988269 0.023582526737753483 0 -0.0044474597246955284 0.023705013795897522 0 -0.0043868216661856014 0.023613235079968008 0 -0.0044250371011244558 0.023625030819728728 0 -0.0043885905179050135 0.023683051272189476 0 -0.0044474597246955284 0.023705013795897522 0 -0.0043868216661856014 0.023613235079968008 0 -0.0043885905179050135 0.023683051272189476 0 -0.0043041958571988269 0.023582526737753483 0 -0.0043868216661856014 0.023613235079968008 0 -0.0043041958571988269 0.023582526737753483 0 -0.0043868216661856014 0.023613235079968008 0 -0.0043364489631539859 0.023507294193989507 0 -0.0043868216661856014 0.023613235079968008 0 -0.0044061530900892376 0.023557986400440246 0 -0.0043364489631539859 0.023507294193989507 0 -0.0043868216661856014 0.023613235079968008 0 -0.0044250371011244558 0.023625030819728728 0 -0.0044061530900892376 0.023557986400440246 0 -0.0044250371011244558 0.023625030819728728 0 -0.0044559469715536168 0.023666602108561221 0 -0.0044453498314786398 0.023599785161874477 0 -0.0044250371011244558 0.023625030819728728 0 -0.0044453498314786398 0.023599785161874477 0 -0.0044061530900892376 0.023557986400440246 0 -0.0044559469715536168 0.023666602108561221 0 -0.0044741175416583897 0.023693805788211179 0 -0.004474063300545411 0.023647176033248941 0 -0.0044559469715536168 0.023666602108561221 0 -0.004474063300545411 0.023647176033248941 0 -0.0044453498314786398 0.023599785161874477 0 -0.0044559469715536168 0.023666602108561221 0 -0.0044761922978012268 0.02374120475530031 0 -0.0044741175416583897 0.023693805788211179 0 -0.0044474597246955284 0.023705013795897522 0 -0.0044250371011244558 0.023625030819728728 0 -0.0044559469715536168 0.023666602108561221 0 -0.0044995504891136365 0.023767770204793735 0 -0.0044474597246955284 0.023705013795897522 0 -0.0044761922978012268 0.02374120475530031 0 -0.0044474597246955284 0.023705013795897522 0 -0.0044559469715536168 0.023666602108561221 0 -0.0044761922978012268 0.02374120475530031 0 -0.0044761922978012268 0.02374120475530031 0 -0.0044884358614904673 0.023726537360646907 0 -0.0044628053285485506 0.02374962539534296 0 -0.0044493475390169519 0.023768198815773543 0 -0.0044761922978012268 0.02374120475530031 0 -0.0044628053285485506 0.02374962539534296 0 -0.0044761922978012268 0.02374120475530031 0 -0.0044884358614904673 0.023726537360646907 0 -0.0044741175416583897 0.023693805788211179 0 -0.0044884358614904673 0.023726537360646907 0 -0.0044741175416583897 0.023693805788211179 0 -0.004474063300545411 0.023647176033248941 0 -0.0044884358614904673 0.023726537360646907 0 -0.004474063300545411 0.023647176033248941 0 -0.0044850022917855446 0.023677094363074715 0 -0.0044884358614904673 0.023726537360646907 0 -0.0044850022917855446 0.023677094363074715 0 -0.0044910636738127174 0.023766488773563424 0 -0.0044850022917855446 0.023677094363074715 0 -0.0045031182709118732 0.023602743252724715 0 -0.0044750496516520267 0.023583323702745553 0 -0.0044850022917855446 0.023677094363074715 0 -0.0045031182709118732 0.023602743252724715 0 -0.0044910636738127174 0.023766488773563424 0 -0.0045031182709118732 0.023602743252724715 0 -0.0044750496516520267 0.023583323702745553 0 -0.0044736643958864074 0.023480448674391394 0 -0.004474063300545411 0.023647176033248941 0 -0.0044850022917855446 0.023677094363074715 0 -0.0044750496516520267 0.023583323702745553 0 -0.004474063300545411 0.023647176033248941 0 -0.0044453498314786398 0.023599785161874477 0 -0.0044448785776499689 0.023524748787796368 0 -0.004474063300545411 0.023647176033248941 0 -0.0044750496516520267 0.023583323702745553 0 -0.0044448785776499689 0.023524748787796368 0 -0.0044061530900892376 0.023557986400440246 0 -0.0044448785776499689 0.023524748787796368 0 -0.0043701502145907893 0.023442255074155396 0 -0.0044453498314786398 0.023599785161874477 0 -0.0044061530900892376 0.023557986400440246 0 -0.0044448785776499689 0.023524748787796368 0 -0.0044448785776499689 0.023524748787796368 0 -0.004407831945771057 0.023385622463164772 0 -0.0043701502145907893 0.023442255074155396 0 -0.0044448785776499689 0.023524748787796368 0 -0.0044736643958864074 0.023480448674391394 0 -0.004407831945771057 0.023385622463164772 0 -0.0044750496516520267 0.023583323702745553 0 -0.0044448785776499689 0.023524748787796368 0 -0.0044736643958864074 0.023480448674391394 0 -0.0044736643958864074 0.023480448674391394 0 -0.004407831945771057 0.023385622463164772 0 -0.0045027230768728728 0.023350914308044601 0 -0.004407831945771057 0.023385622463164772 0 -0.0045027230768728728 0.023350914308044601 0 -0.0043415516961277413 0.023210879069074711 0 -0.0044053692462585146 0.023097188867372345 0 -0.0043197850269779577 0.023109961394373765 0 -0.0045031182709118732 0.023602743252724715 0 -0.0044736643958864074 0.023480448674391394 0 -0.0045027230768728728 0.023350914308044601 0 -0.0041826079500466495 0.023120156830127431 0 -0.0045040758584932216 0.022898946812490956 0 -0.0046003167150950215 0.02320198303794542 0 -0.0045031182709118732 0.023602743252724715 0 -0.0041708850236601433 0.02317693869856775 0 -0.0045664768619253383 0.023245526722624803 0 -0.0044053692462585146 0.023097188867372345 0 -0.004571181075026228 0.023151070720855545 0 -0.0044704600568803475 0.023245290807076418 0 -0.0044053692462585146 0.023097188867372345 0 -0.0040882524440169939 0.023476001924806346 0 -0.0042021809232058146 0.023339961098661828 0 -0.0041548650033062353 0.023179617277506549 0 -0.0042021809232058146 0.023339961098661828 0 -0.0042054553999338476 0.023258142888480295 0 -0.0041548650033062353 0.023179617277506549 0 -0.0040882524440169939 0.023476001924806346 0 -0.0042452490892012015 0.023452328502213769 0 -0.0042021809232058146 0.023339961098661828 0 -0.0043041958571988269 0.023582526737753483 0 -0.0040882524440169939 0.023476001924806346 0 -0.0042452490892012015 0.023452328502213769 0 -0.0042021809232058146 0.023339961098661828 0 -0.0042763567940053105 0.023359137114081586 0 -0.0042054553999338476 0.023258142888480295 0 -0.0042452490892012015 0.023452328502213769 0 -0.0042021809232058146 0.023339961098661828 0 -0.0042763567940053105 0.023359137114081586 0 -0.0042763567940053105 0.023359137114081586 0 -0.0043701502145907893 0.023442255074155396 0 -0.0043184328957003382 0.023311183646691474 0 -0.0042763567940053105 0.023359137114081586 0 -0.0043364489631539859 0.023507294193989507 0 -0.0043701502145907893 0.023442255074155396 0 -0.0043041958571988269 0.023582526737753483 0 -0.0042452490892012015 0.023452328502213769 0 -0.0043364489631539859 0.023507294193989507 0 -0.0042452490892012015 0.023452328502213769 0 -0.0042763567940053105 0.023359137114081586 0 -0.0043364489631539859 0.023507294193989507 0 -0.0044061530900892376 0.023557986400440246 0 -0.0043364489631539859 0.023507294193989507 0 -0.0043701502145907893 0.023442255074155396 0 -0.004407831945771057 0.023385622463164772 0 -0.0043701502145907893 0.023442255074155396 0 -0.0043184328957003382 0.023311183646691474 0 -0.004407831945771057 0.023385622463164772 0 -0.0043184328957003382 0.023311183646691474 0 -0.0043415516961277413 0.023210879069074711 0 -0.0043184328957003382 0.023311183646691474 0 -0.0042075061391287161 0.023203343732923345 0 -0.0043415516961277413 0.023210879069074711 0 -0.0042763567940053105 0.023359137114081586 0 -0.0043184328957003382 0.023311183646691474 0 -0.0042075061391287161 0.023203343732923345 0 -0.0042075061391287161 0.023203343732923345 0 -0.0041038298450610453 0.02309945725074606 0 -0.0043415516961277413 0.023210879069074711 0 -0.0042763567940053105 0.023359137114081586 0 -0.0042054553999338476 0.023258142888480295 0 -0.0042075061391287161 0.023203343732923345 0 -0.0042054553999338476 0.023258142888480295 0 -0.0042075061391287161 0.023203343732923345 0 -0.004160552408368462 0.023147308560063674 0 -0.0041269149391050183 0.023055196579347181 0 -0.004160552408368462 0.023147308560063674 0 -0.0041038298450610453 0.02309945725074606 0 -0.0042075061391287161 0.023203343732923345 0 -0.004160552408368462 0.023147308560063674 0 -0.0041038298450610453 0.02309945725074606 0 -0.0041269149391050183 0.023055196579347181 0 -0.004160552408368462 0.023147308560063674 0 -0.0041548650033062353 0.023179617277506549 0 -0.0042054553999338476 0.023258142888480295 0 -0.004160552408368462 0.023147308560063674 0 -0.0041548650033062353 0.023179617277506549 0 -0.0042355483560043115 0.023101110884193803 0 -0.0043197850269779577 0.023109961394373765 0 -0.0037923065215266331 0.021671467395590074 0 -0.0041309469374845587 0.022172094065469734 0 -0.0041925177945227026 0.023340314535170388 0 -0.0041038298450610453 0.02309945725074606 0 -0.0041300624466865284 0.023068892687521641 0 -0.0041038298450610453 0.02309945725074606 0 -0.0041300624466865284 0.023068892687521641 0 -0.0042861777926730621 0.023105597099456351 0 -0.003057868899711139 0.022694858305037362 0 -0.0041300624466865284 0.023068892687521641 0 -0.0038153911028881095 0.022735285510777175 0 -0.0041300624466865284 0.023068892687521641 0 -0.0038153911028881095 0.022735285510777175 0 -0.0041550108954237558 0.022794276719074563 0 -0.0041550108954237558 0.022794276719074563 0 -0.0042861777926730621 0.023105597099456351 0 -0.0044949275969526931 0.022601949121359811 0 -0.0041300624466865284 0.023068892687521641 0 -0.0041550108954237558 0.022794276719074563 0 -0.0042861777926730621 0.023105597099456351 0 -0.0041550108954237558 0.022794276719074563 0 -0.0044949275969526931 0.022601949121359811 0 -0.003842992232388345 0.022386464800952143 0 -0.0039977286794323757 0.021714131230156735 0 -0.0044949275969526931 0.022601949121359811 0 -0.003842992232388345 0.022386464800952143 0 -0.0035731888244017592 0.021892082150996223 0 -0.0040526823142914932 0.022547848888586651 0 -0.003057868899711139 0.022694858305037362 0 -0.0038153911028881095 0.022735285510777175 0 -0.003842992232388345 0.022386464800952143 0 -0.0038153911028881095 0.022735285510777175 0 -0.0041550108954237558 0.022794276719074563 0 -0.003842992232388345 0.022386464800952143 0 -0.0036477185910442295 0.022009554960494823 0 -0.0033019070800474597 0.022165845370748175 0 -0.003842992232388345 0.022386464800952143 0 -0.0041826079500466495 0.023120156830127431 0 -0.0045040758584932216 0.022898946812490956 0 -0.0042745026486087851 0.022612730552968412 0 -0.0045040758584932216 0.022898946812490956 0 -0.0042745026486087851 0.022612730552968412 0 -0.0047879609070222472 0.022546410440677959 0 -0.0041826079500466495 0.023120156830127431 0 -0.003779435464936962 0.022564409770276093 0 -0.0042745026486087851 0.022612730552968412 0 -0.0044053692462585146 0.023097188867372345 0 -0.0040526823142914932 0.022547848888586651 0 -0.0048697858531411885 0.02320658938221299 0 -0.0042861777926730621 0.023105597099456351 0 -0.0044949275969526931 0.022601949121359811 0 -0.0038776444400710941 0.022192633397687317 0 -0.003779435464936962 0.022564409770276093 0 -0.0041014009760891659 0.022349664262130274 0 -0.003779435464936962 0.022564409770276093 0 -0.0041014009760891659 0.022349664262130274 0 -0.0042745026486087851 0.022612730552968412 0 -0.0043186641568920391 0.022115819385856845 0 -0.0041014009760891659 0.022349664262130274 0 -0.0042745026486087851 0.022612730552968412 0 -0.0043186641568920391 0.022115819385856845 0 -0.0042745026486087851 0.022612730552968412 0 -0.0047879609070222472 0.022546410440677959 0 -0.0044696368332684411 0.022127736117183164 0 -0.0048758830559200153 0.022536164160581202 0 -0.0045040758584932216 0.022898946812490956 0 -0.0047879609070222472 0.022546410440677959 0 -0.0048240990687051172 0.022990919557125289 0 -0.0045040758584932216 0.022898946812490956 0 -0.0048240990687051172 0.022990919557125289 0 -0.0046003167150950215 0.02320198303794542 0 -0.0050172363979290547 0.022614958554150189 0 -0.0053089278673182074 0.022999499325386624 0 -0.0054958042190667872 0.02268008663919634 0 -0.0047879609070222472 0.022546410440677959 0 -0.0048240990687051172 0.022990919557125289 0 -0.0053089278673182074 0.022999499325386624 0 -0.0048758830559200153 0.022536164160581202 0 -0.0050877167122782658 0.022746993415869041 0 -0.0054508226141588611 0.022359998285992409 0 -0.0050172363979290547 0.022614958554150189 0 -0.0054958042190667872 0.02268008663919634 0 -0.0058437015672618674 0.022356570604836493 0 -0.0054508226141588611 0.022359998285992409 0 -0.0054958042190667872 0.02268008663919634 0 -0.0058437015672618674 0.022356570604836493 0 -0.0054958042190667872 0.02268008663919634 0 -0.0058294961129833622 0.02281501910811538 0 -0.0038224324383142028 0.027698048493980085 0 -0.0042894017874177065 0.027397332574015075 0 -0.0053089278673182074 0.022999499325386624 0 -0.0054958042190667872 0.02268008663919634 0 -0.0058294961129833622 0.02281501910811538 0 -0.0053089278673182074 0.022999499325386624 0 -0.005789942585704767 0.023431238493001074 0 -0.0053045330373224075 0.023515906823519839 0 -0.0053089278673182074 0.022999499325386624 0 -0.0058294961129833622 0.02281501910811538 0 -0.005789942585704767 0.023431238493001074 0 -0.0042894017874177065 0.027397332574015075 0 -0.0047520843716642161 0.026813747559112991 0 -0.0028403604554900989 0.032533892000482102 0 -0.0041223680068175946 0.030526560877890886 0 -0.0022785037097610042 0.030983389923085736 0 -0.0041223680068175946 0.030526560877890886 0 -0.0036039309934773511 0.028886890110603865 0 -0.0022785037097610042 0.030983389923085736 0 -0.0047520843716642161 0.026813747559112991 0 -0.0051021611315433847 0.026146646957128237 0 -0.0041223680068175946 0.030526560877890886 0 -0.0036039309934773511 0.028886890110603865 0 -0.005151234305018266 0.027491569141473583 0 -0.005789942585704767 0.023431238493001074 0 -0.0054478417038240929 0.02389689386531858 0 -0.0053045330373224075 0.023515906823519839 0 -0.005789942585704767 0.023431238493001074 0 -0.0054478417038240929 0.02389689386531858 0 -0.0057068042210505036 0.024349640844297221 0 -0.0054478417038240929 0.02389689386531858 0 -0.0053045330373224075 0.023515906823519839 0 -0.0050978388185393669 0.023899852464397502 0 -0.0053045330373224075 0.023515906823519839 0 -0.0050581337650517583 0.02357407924022123 0 -0.0050978388185393669 0.023899852464397502 0 -0.0050581337650517583 0.02357407924022123 0 -0.0050978388185393669 0.023899852464397502 0 -0.0048115495243494493 0.023610405668425843 0 -0.0050581337650517583 0.02357407924022123 0 -0.0048115495243494493 0.023610405668425843 0 -0.0050251902208864659 0.023296108353714439 0 -0.0050978388185393669 0.023899852464397502 0 -0.0047890367063862099 0.023904314215895613 0 -0.0048115495243494493 0.023610405668425843 0 -0.0047890367063862099 0.023904314215895613 0 -0.0046195588486932478 0.023654101843620517 0 -0.0048115495243494493 0.023610405668425843 0 -0.0045031182709118732 0.023602743252724715 0 -0.0046195588486932478 0.023654101843620517 0 -0.0044910636738127174 0.023766488773563424 0 -0.0047890367063862099 0.023904314215895613 0 -0.0046195588486932478 0.023654101843620517 0 -0.0044910636738127174 0.023766488773563424 0 -0.0045031182709118732 0.023602743252724715 0 -0.0046195588486932478 0.023654101843620517 0 -0.0046593529312914011 0.023462629169692394 0 -0.0046195588486932478 0.023654101843620517 0 -0.0048115495243494493 0.023610405668425843 0 -0.0046593529312914011 0.023462629169692394 0 -0.004571181075026228 0.023151070720855545 0 -0.0046934271444143442 0.02317984588116126 0 -0.0046593529312914011 0.023462629169692394 0 -0.0045664768619253383 0.023245526722624803 0 -0.0050251902208864659 0.023296108353714439 0 -0.0048240990687051172 0.022990919557125289 0 -0.0046003167150950215 0.02320198303794542 0 -0.0050251902208864659 0.023296108353714439 0 -0.0048115495243494493 0.023610405668425843 0 -0.0046593529312914011 0.023462629169692394 0 -0.0050251902208864659 0.023296108353714439 0 -0.0045031182709118732 0.023602743252724715 0 -0.0046593529312914011 0.023462629169692394 0 -0.0045664768619253383 0.023245526722624803 0 -0.0048240990687051172 0.022990919557125289 0 -0.0053089278673182074 0.022999499325386624 0 -0.0050251902208864659 0.023296108353714439 0 -0.0053089278673182074 0.022999499325386624 0 -0.0053045330373224075 0.023515906823519839 0 -0.0050251902208864659 0.023296108353714439 0 -0.0053045330373224075 0.023515906823519839 0 -0.0050581337650517583 0.02357407924022123 0 -0.0050251902208864659 0.023296108353714439 0 -0.00050956645197326343 0.032470971050643567 0 -0.00061077343565263615 0.033076800946704614 0 -0.00077812023660710683 0.032474418658259327 0 -0.00057129112228340739 0.032982880125850801 0 -0.00074512479621297565 0.033329265587207543 0 -0.00061475052270275961 0.033297802617449149 0 -0.0007873841404341357 0.033549173894852395 0 -0.00050965186152252158 0.033485732054290236 0 -0.00061077343565263615 0.033076800946704614 0 -0.00077812023660710683 0.032474418658259327 0 -0.0012748372517023146 0.032885027089124094 0 -0.00050956645197326343 0.032470971050643567 0 -0.00077812023660710683 0.032474418658259327 0 -0.00075671807956060764 0.032273081880821161 0 -0.00077812023660710683 0.032474418658259327 0 -0.0012748372517023146 0.032885027089124094 0 -0.00094852526898883043 0.031937661061524437 0 -0.0012748372517023146 0.032885027089124094 0 -0.0017538834053666961 0.032454722316294655 0 -0.00094852526898883043 0.031937661061524437 0 -0.0020280946812533218 0.033429842573944241 0 -0.0012748372517023146 0.032885027089124094 0 -0.0017538834053666961 0.032454722316294655 0 -0.0020280946812533218 0.033429842573944241 0 -0.0028403604554900989 0.032533892000482102 0 -0.0017538834053666961 0.032454722316294655 0 -0.0028403604554900989 0.032533892000482102 0 -0.0017538834053666961 0.032454722316294655 0 -0.0022785037097610042 0.030983389923085736 0 -0.0017538834053666961 0.032454722316294655 0 -0.0022785037097610042 0.030983389923085736 0 -0.00094852526898883043 0.031937661061524437 0 -0.0022785037097610042 0.030983389923085736 0 -0.0018344152435820747 0.029238354428487393 0 -0.00066614705798546069 0.030117007338124602 0 -0.0036039309934773511 0.028886890110603865 0 -0.0022785037097610042 0.030983389923085736 0 -0.0018344152435820747 0.029238354428487393 0 -0.0017596053197265868 0.030822338099126694 0 -0.0020665494159683661 0.030314999246703569 0 -0.0018344152435820747 0.029238354428487393 0 -0.00066614705798546069 0.030117007338124602 0 -0.0006008548383957858 0.028383540463888249 0 -0.00085352835530375668 0.032166197847999851 0 -0.00073701504076360055 0.032225136250983041 0 -0.00084562137248259909 0.032134408405331626 0 -0.00085352835530375668 0.032166197847999851 0 -0.00094852526898883043 0.031937661061524437 0 -0.00075671807956060764 0.032273081880821161 0 -0.0017596053197265868 0.030822338099126694 0 -0.0016696347260041491 0.031076571105623136 0 -0.0022785037097610042 0.030983389923085736 0 -0.00066614705798546069 0.030117007338124602 0 -0.00094852526898883043 0.031937661061524437 0 -0.00077812023660710683 0.032474418658259327 0 -0.00094852526898883043 0.031937661061524437 0 -0.00075671807956060764 0.032273081880821161 0 -0.00075671807956060764 0.032273081880821161 0 -0.00073701504076360055 0.032225136250983041 0 -0.00059066948273925248 0.032477743861556968 0 -0.00085352835530375668 0.032166197847999851 0 -0.00075671807956060764 0.032273081880821161 0 -0.00073701504076360055 0.032225136250983041 0 -0.0013558365508949393 0.031592739940316798 0 -0.00090184797273999522 0.032207373716043104 0 -0.0020601121895574221 0.03368599818725948 0 -0.0008095807173906038 0.03364194855775305 0 -0.00080096323440306263 0.033194264239062896 0 -0.00073701504076360055 0.032225136250983041 0 -0.00059066948273925248 0.032477743861556968 0 -0.00053974448179133132 0.032490493849032215 0 -0.00050956645197326343 0.032470971050643567 0 -0.00075671807956060764 0.032273081880821161 0 -0.00059066948273925248 0.032477743861556968 0 -0.0014885711734211771 0.032077054047722937 0 -0.001163644559978365 0.032791700808335426 0 -0.00055985888828742581 0.03219919153382287 0 -0.0014885711734211771 0.032077054047722937 0 -0.001163644559978365 0.032791700808335426 0 -0.002446000425110683 0.032627637046699666 0 -0.0020601121895574221 0.03368599818725948 0 -0.001163644559978365 0.032791700808335426 0 -0.00080096323440306263 0.033194264239062896 0 -0.0020601121895574221 0.03368599818725948 0 -0.001163644559978365 0.032791700808335426 0 -0.002446000425110683 0.032627637046699666 0 -0.0020601121895574221 0.03368599818725948 0 -0.002446000425110683 0.032627637046699666 0 -0.0034222892078912231 0.033473343262748131 0 -0.0013558365508949393 0.031592739940316798 0 -0.0020665494159683661 0.030314999246703569 0 -0.002446000425110683 0.032627637046699666 0 -0.0036174660682228173 0.03200614087407954 0 -0.0034222892078912231 0.033473343262748131 0 -0.0028267594097041416 0.029023869131343843 0 -0.0020665494159683661 0.030314999246703569 0 -0.0030612457031461322 0.026095405270013396 0 -0.0029666049348975212 0.02720284736637903 0 -0.0036811846642972332 0.027030174165340908 0 -0.0036039309934773511 0.028886890110603865 0 -0.0018344152435820747 0.029238354428487393 0 -0.0023715464283626947 0.027812832068138459 0 -0.0020665494159683661 0.030314999246703569 0 -0.0030919772566105662 0.02929089603519151 0 -0.0018344152435820747 0.029238354428487393 0 -0.0006008548383957858 0.028383540463888249 0 -0.0023715464283626947 0.027812832068138459 0 -0.0030612457031461322 0.026095405270013396 0 -0.0036811846642972332 0.027030174165340908 0 -0.0038646712773913587 0.026378822966364388 0 -0.0030612457031461322 0.026095405270013396 0 -0.0038646712773913587 0.026378822966364388 0 -0.0038882813846424021 0.025636137927527853 0 -0.0030612457031461322 0.026095405270013396 0 -0.0033625447378781855 0.025067265013876017 0 -0.0038882813846424021 0.025636137927527853 0 -0.0033625447378781855 0.025067265013876017 0 -0.0038882813846424021 0.025636137927527853 0 -0.0039481991039685546 0.024784682443343527 0 -0.0028267594097041416 0.029023869131343843 0 -0.0032815809851544165 0.027762383579670868 0 -0.0036174660682228173 0.03200614087407954 0 -0.0039301158284693926 0.030276887518679026 0 -0.0022911094848631257 0.031000296213663004 0 -0.0014885711734211771 0.032077054047722937 0 -0.002446000425110683 0.032627637046699666 0 -0.0022911094848631257 0.031000296213663004 0 -0.002446000425110683 0.032627637046699666 0 -0.0036174660682228173 0.03200614087407954 0 -0.0022911094848631257 0.031000296213663004 0 -0.0039301158284693926 0.030276887518679026 0 -0.0022911094848631257 0.031000296213663004 0 -0.0025117383611364908 0.028604344396792668 0 -0.0022911094848631257 0.031000296213663004 0 -0.0013231436881963852 0.029596343610053026 0 -0.00079832288735377788 0.031197901034993022 0 -0.0014885711734211771 0.032077054047722937 0 -0.0022911094848631257 0.031000296213663004 0 -0.00079832288735377788 0.031197901034993022 0 -0.0052564774476851657 0.024783395452608898 0 -0.0048077142628948242 0.024933733372413846 0 -0.0052720104377399803 0.0254941006698629 0 -0.0052564774476851657 0.024783395452608898 0 -0.0048077142628948242 0.024933733372413846 0 -0.0052506858894788002 0.024344334659563073 0 -0.0044884358614904673 0.023726537360646907 0 -0.0044628053285485506 0.02374962539534296 0 -0.0044659216626454215 0.023738484118624809 0 -0.0044628053285485506 0.02374962539534296 0 -0.0044659216626454215 0.023738484118624809 0 -0.0044443519127284363 0.023790442171328058 0 -0.0047890367063862099 0.023904314215895613 0 -0.0044910636738127174 0.023766488773563424 0 -0.0048077142628948242 0.024933733372413846 0 -0.0044884358614904673 0.023726537360646907 0 -0.0044910636738127174 0.023766488773563424 0 -0.0044659216626454215 0.023738484118624809 0 -0.0045719602155854314 0.024149058906793731 0 -0.0046521186969864254 0.024328760834443582 0 -0.0047890367063862099 0.023904314215895613 0 -0.0048077142628948242 0.024933733372413846 0 -0.0049937619793957054 0.02425603459844923 0 -0.0050978388185393669 0.023899852464397502 0 -0.0047890367063862099 0.023904314215895613 0 -0.0049937619793957054 0.02425603459844923 0 -0.0050978388185393669 0.023899852464397502 0 -0.0049937619793957054 0.02425603459844923 0 -0.0052506858894788002 0.024344334659563073 0 -0.0048077142628948242 0.024933733372413846 0 -0.0049937619793957054 0.02425603459844923 0 -0.0052506858894788002 0.024344334659563073 0 -0.0054478417038240929 0.02389689386531858 0 -0.0050978388185393669 0.023899852464397502 0 -0.0052506858894788002 0.024344334659563073 0 -0.0054478417038240929 0.02389689386531858 0 -0.0052506858894788002 0.024344334659563073 0 -0.0057068042210505036 0.024349640844297221 0 -0.0052564774476851657 0.024783395452608898 0 -0.0052506858894788002 0.024344334659563073 0 -0.0057068042210505036 0.024349640844297221 0 -0.0036811846642972332 0.027030174165340908 0 -0.0043592599115458135 0.027099863652522482 0 -0.0038646712773913587 0.026378822966364388 0 -0.0036039309934773511 0.028886890110603865 0 -0.0023715464283626947 0.027812832068138459 0 -0.0043592599115458135 0.027099863652522482 0 -0.0030919772566105662 0.02929089603519151 0 -0.0035998226164430541 0.028929911930326704 0 -0.0036039309934773511 0.028886890110603865 0 -0.005151234305018266 0.027491569141473583 0 -0.0043592599115458135 0.027099863652522482 0 -0.0038646712773913587 0.026378822966364388 0 -0.0044882165266574266 0.026113825135697495 0 -0.0038882813846424021 0.025636137927527853 0 -0.0043592599115458135 0.027099863652522482 0 -0.0038646712773913587 0.026378822966364388 0 -0.0044882165266574266 0.026113825135697495 0 -0.0052564774476851657 0.024783395452608898 0 -0.0057068042210505036 0.024349640844297221 0 -0.0052720104377399803 0.0254941006698629 0 -0.005151234305018266 0.027491569141473583 0 -0.0044882165266574266 0.026113825135697495 0 -0.0052720104377399803 0.0254941006698629 0 -0.005151234305018266 0.027491569141473583 0 -0.0043592599115458135 0.027099863652522482 0 -0.0044882165266574266 0.026113825135697495 0 -0.0051021611315433847 0.026146646957128237 0 -0.005207071351997699 0.025866346422683349 0 -0.0044882165266574266 0.026113825135697495 0 -0.0046073156037473766 0.025423285255840294 0 -0.0052720104377399803 0.0254941006698629 0 -0.0046073156037473766 0.025423285255840294 0 -0.0052463062800005887 0.025524855626035178 0 -0.0052720104377399803 0.0254941006698629 0 -0.0044882165266574266 0.026113825135697495 0 -0.0046073156037473766 0.025423285255840294 0 -0.0038882813846424021 0.025636137927527853 0 -0.0046073156037473766 0.025423285255840294 0 -0.004457005666589387 0.024490241152305248 0 -0.0039481991039685546 0.024784682443343527 0 -0.0046073156037473766 0.025423285255840294 0 -0.0038882813846424021 0.025636137927527853 0 -0.0039481991039685546 0.024784682443343527 0 -0.0046073156037473766 0.025423285255840294 0 -0.0052463062800005887 0.025524855626035178 0 -0.004457005666589387 0.024490241152305248 0 -0.0045221635982919013 0.023854510673936746 0 -0.0044425487785134821 0.024211217907908783 0 -0.004457005666589387 0.024490241152305248 0 -0.004721002392125629 0.024508480805549026 0 -0.0046719727504253026 0.024484771530100251 0 -0.0044529970634202528 0.02396296633023683 0 -0.0045221635982919013 0.023854510673936746 0 -0.0044425487785134821 0.024211217907908783 0 -0.0044303222093310919 0.023952154595168626 0 -0.0044529970634202528 0.02396296633023683 0 -0.0044425487785134821 0.024211217907908783 0 -0.0044303222093310919 0.023952154595168626 0 -0.004437510206994684 0.023968455360757725 0 -0.0044425487785134821 0.024211217907908783 0 -0.0044529970634202528 0.02396296633023683 0 -0.0045221635982919013 0.023854510673936746 0 -0.0044497693872242528 0.023860569337243377 0 -0.0044303222093310919 0.023952154595168626 0 -0.0044529970634202528 0.02396296633023683 0 -0.0044497693872242528 0.023860569337243377 0 -0.0046521186969864254 0.024328760834443582 0 -0.004721002392125629 0.024508480805549026 0 -0.0045221635982919013 0.023854510673936746 0 -0.0044497693872242528 0.023860569337243377 0 -0.0044443519127284363 0.023790442171328058 0 -0.0044659216626454215 0.023738484118624809 0 -0.0045221635982919013 0.023854510673936746 0 -0.0044443519127284363 0.023790442171328058 0 -0.0048077142628948242 0.024933733372413846 0 -0.0052463062800005887 0.025524855626035178 0 -0.0052720104377399803 0.0254941006698629 0 -0.0044493475390169519 0.023768198815773543 0 -0.0044443519127284363 0.023790442171328058 0 -0.0044276348783040716 0.023806435782595593 0 -0.0044493475390169519 0.023768198815773543 0 -0.0044628053285485506 0.02374962539534296 0 -0.0044443519127284363 0.023790442171328058 0 -0.0044497693872242528 0.023860569337243377 0 -0.0044443519127284363 0.023790442171328058 0 -0.0044276348783040716 0.023806435782595593 0 -0.0044497693872242528 0.023860569337243377 0 -0.0044276348783040716 0.023806435782595593 0 -0.0044240499259957993 0.023857714507553553 0 -0.0044338248677206647 0.023769062540098834 0 -0.0044276348783040716 0.023806435782595593 0 -0.0044197541142359008 0.023789287157960158 0 -0.0044276348783040716 0.023806435782595593 0 -0.0044197541142359008 0.023789287157960158 0 -0.0044240499259957993 0.023857714507553553 0 -0.0044197541142359008 0.023789287157960158 0 -0.0044240499259957993 0.023857714507553553 0 -0.004422639842434831 0.023860580207493324 0 -0.0044303222093310919 0.023952154595168626 0 -0.0044497693872242528 0.023860569337243377 0 -0.0044240499259957993 0.023857714507553553 0 -0.0044303222093310919 0.023952154595168626 0 -0.004422639842434831 0.023860580207493324 0 -0.004437510206994684 0.023968455360757725 0 -0.0044303222093310919 0.023952154595168626 0 -0.0044240499259957993 0.023857714507553553 0 -0.004422639842434831 0.023860580207493324 0 -0.0044256081588106176 0.023762078228289792 0 -0.0044197541142359008 0.023789287157960158 0 -0.004422639842434831 0.023860580207493324 0 -0.0044256081588106176 0.023762078228289792 0 -0.004422639842434831 0.023860580207493324 0 -0.0044379149427175553 0.023815450947010184 0 -0.0044379149427175553 0.023815450947010184 0 -0.0044617432079162873 0.023756596831443183 0 -0.004442896332099296 0.023670717845838483 0 -0.0044379149427175553 0.023815450947010184 0 -0.0044584230927677566 0.02388871620047231 0 -0.0044617432079162873 0.023756596831443183 0 -0.0044379149427175553 0.023815450947010184 0 -0.004437510206994684 0.023968455360757725 0 -0.0044584230927677566 0.02388871620047231 0 -0.004422639842434831 0.023860580207493324 0 -0.0044379149427175553 0.023815450947010184 0 -0.004437510206994684 0.023968455360757725 0 -0.0044584230927677566 0.02388871620047231 0 -0.0045038212258847517 0.023830295239383213 0 -0.0044556658838752327 0.024061943885017416 0 -0.004437510206994684 0.023968455360757725 0 -0.0044584230927677566 0.02388871620047231 0 -0.0044556658838752327 0.024061943885017416 0 -0.0044584230927677566 0.02388871620047231 0 -0.0044617432079162873 0.023756596831443183 0 -0.0045038212258847517 0.023830295239383213 0 -0.0045038212258847517 0.023830295239383213 0 -0.0044998493023778556 0.024096340301887131 0 -0.0045566428583680768 0.023841733211344522 0 -0.0045038212258847517 0.023830295239383213 0 -0.0044556658838752327 0.024061943885017416 0 -0.0044998493023778556 0.024096340301887131 0 -0.0044556658838752327 0.024061943885017416 0 -0.0044080986697662677 0.024324615611274168 0 -0.0044998493023778556 0.024096340301887131 0 -0.0044080986697662677 0.024324615611274168 0 -0.0043134477654099782 0.024305271315264807 0 -0.0044998493023778556 0.024096340301887131 0 -0.0044556658838752327 0.024061943885017416 0 -0.0044425487785134821 0.024211217907908783 0 -0.0044080986697662677 0.024324615611274168 0 -0.004437510206994684 0.023968455360757725 0 -0.0044556658838752327 0.024061943885017416 0 -0.0044425487785134821 0.024211217907908783 0 -0.0044425487785134821 0.024211217907908783 0 -0.004457005666589387 0.024490241152305248 0 -0.0044080986697662677 0.024324615611274168 0 -0.004457005666589387 0.024490241152305248 0 -0.0039481991039685546 0.024784682443343527 0 -0.0039870115586619626 0.024586185067982068 0 -0.004457005666589387 0.024490241152305248 0 -0.0039870115586619626 0.024586185067982068 0 -0.0044080986697662677 0.024324615611274168 0 -0.0039870115586619626 0.024586185067982068 0 -0.0044080986697662677 0.024324615611274168 0 -0.0043134477654099782 0.024305271315264807 0 -0.0043134477654099782 0.024305271315264807 0 -0.0041105276567672969 0.024351051216777081 0 -0.0044464152594461881 0.024140236268861102 0 -0.0039870115586619626 0.024586185067982068 0 -0.0043134477654099782 0.024305271315264807 0 -0.0041105276567672969 0.024351051216777081 0 -0.0039870115586619626 0.024586185067982068 0 -0.0041105276567672969 0.024351051216777081 0 -0.0038370351033667417 0.024471738072093317 0 -0.0041105276567672969 0.024351051216777081 0 -0.0038370351033667417 0.024471738072093317 0 -0.0041736769740526487 0.024083465897498744 0 -0.0041105276567672969 0.024351051216777081 0 -0.0044464152594461881 0.024140236268861102 0 -0.0041736769740526487 0.024083465897498744 0 -0.0044464152594461881 0.024140236268861102 0 -0.0045058620458804212 0.023954447200992844 0 -0.0041736769740526487 0.024083465897498744 0 -0.0044464152594461881 0.024140236268861102 0 -0.0046194301842148689 0.024007982309363868 0 -0.0045058620458804212 0.023954447200992844 0 -0.0044464152594461881 0.024140236268861102 0 -0.0046194301842148689 0.024007982309363868 0 -0.0045840617102482798 0.024003018349029299 0 -0.0044998493023778556 0.024096340301887131 0 -0.0045840617102482798 0.024003018349029299 0 -0.0045566428583680768 0.023841733211344522 0 -0.0044464152594461881 0.024140236268861102 0 -0.0044998493023778556 0.024096340301887131 0 -0.0045840617102482798 0.024003018349029299 0 -0.0043134477654099782 0.024305271315264807 0 -0.0044464152594461881 0.024140236268861102 0 -0.0044998493023778556 0.024096340301887131 0 -0.0010751380299217751 0.027961377307609354 0 -0.0025117383611364908 0.028604344396792668 0 -0.0022409967939304057 0.026753791740890761 0 -0.0010751380299217751 0.027961377307609354 0 -0.0013231436881963852 0.029596343610053026 0 -0.0025117383611364908 0.028604344396792668 0 -0.0022911094848631257 0.031000296213663004 0 -0.0013231436881963852 0.029596343610053026 0 -0.0025117383611364908 0.028604344396792668 0 -0.0025117383611364908 0.028604344396792668 0 -0.0040897707889172618 0.028068667520555899 0 -0.0022409967939304057 0.026753791740890761 0 -0.0035315113518208574 0.02665588498152386 0 -0.003597827747093457 0.026083238541758171 0 -0.0039301158284693926 0.030276887518679026 0 -0.0025117383611364908 0.028604344396792668 0 -0.0040897707889172618 0.028068667520555899 0 -0.0032815809851544165 0.027762383579670868 0 -0.0035315113518208574 0.02665588498152386 0 -0.0033625447378781855 0.025067265013876017 0 -0.0039481991039685546 0.024784682443343527 0 -0.0037401432501700449 0.024699776035032088 0 -0.0039870115586619626 0.024586185067982068 0 -0.0037401432501700449 0.024699776035032088 0 -0.0037366669543292081 0.025233676725811217 0 -0.0039481991039685546 0.024784682443343527 0 -0.0039870115586619626 0.024586185067982068 0 -0.0037401432501700449 0.024699776035032088 0 -0.0039870115586619626 0.024586185067982068 0 -0.0038370351033667417 0.024471738072093317 0 -0.0037366669543292081 0.025233676725811217 0 -0.0038370351033667417 0.024471738072093317 0 -0.0037366669543292081 0.025233676725811217 0 -0.0033715409394372902 0.024513805867280917 0 -0.0037366669543292081 0.025233676725811217 0 -0.0022472792619914186 0.025302807910472666 0 -0.0033715409394372902 0.024513805867280917 0 -0.0040897707889172618 0.028068667520555899 0 -0.0037366669543292081 0.025233676725811217 0 -0.0022409967939304057 0.026753791740890761 0 -0.0037366669543292081 0.025233676725811217 0 -0.0022409967939304057 0.026753791740890761 0 -0.0022472792619914186 0.025302807910472666 0 -0.0022472792619914186 0.025302807910472666 0 -0.0025873626318155753 0.024396056975804437 0 -0.0033715409394372902 0.024513805867280917 0 -0.0022472792619914186 0.025302807910472666 0 -0.0012860387087466813 0.024922876556720531 0 -0.001982554047231788 0.024448723168463343 0 -0.0022472792619914186 0.025302807910472666 0 -0.0012860387087466813 0.024922876556720531 0 -0.0011811969536183033 0.026255800785301275 0 -0.0022409967939304057 0.026753791740890761 0 -0.0022472792619914186 0.025302807910472666 0 -0.0011811969536183033 0.026255800785301275 0 -0.0010751380299217751 0.027961377307609354 0 -0.0022409967939304057 0.026753791740890761 0 -0.0011811969536183033 0.026255800785301275 0 -0.0014252143972792858 0.023290543513499823 0 -0.0015535307976094156 0.023998473593551346 0 -0.0020695102917569013 0.022486266183475864 0 -0.0013655209992857534 0.023567358592022521 0 -0.0011993697881817452 0.023640931386806268 0 -0.0014252143972792858 0.023290543513499823 0 -0.0015535307976094156 0.023998473593551346 0 -0.00073312505611946275 0.024106282060042169 0 -0.0012860387087466813 0.024922876556720531 0 -0.0015535307976094156 0.023998473593551346 0 -0.00073312505611946275 0.024106282060042169 0 -0.0012860387087466813 0.024922876556720531 0 -0.001982554047231788 0.024448723168463343 0 -0.0015535307976094156 0.023998473593551346 0 -0.0022472792619914186 0.025302807910472666 0 -0.001982554047231788 0.024448723168463343 0 -0.0025873626318155753 0.024396056975804437 0 -0.001982554047231788 0.024448723168463343 0 -0.0015535307976094156 0.023998473593551346 0 -0.0024121222863999377 0.023752133529957069 0 -0.001982554047231788 0.024448723168463343 0 -0.0025873626318155753 0.024396056975804437 0 -0.0024121222863999377 0.023752133529957069 0 -0.0015535307976094156 0.023998473593551346 0 -0.0024121222863999377 0.023752133529957069 0 -0.0021355421421922721 0.023033797259922939 0 -0.0025873626318155753 0.024396056975804437 0 -0.0024121222863999377 0.023752133529957069 0 -0.0031292605323118964 0.023809984048794749 0 -0.0024121222863999377 0.023752133529957069 0 -0.0031292605323118964 0.023809984048794749 0 -0.0028889947541328414 0.02313869688709768 0 -0.0025873626318155753 0.024396056975804437 0 -0.0031292605323118964 0.023809984048794749 0 -0.0033715409394372902 0.024513805867280917 0 -0.0038370351033667417 0.024471738072093317 0 -0.0033715409394372902 0.024513805867280917 0 -0.0036665287914034047 0.023911789828631923 0 -0.0031292605323118964 0.023809984048794749 0 -0.0033715409394372902 0.024513805867280917 0 -0.0036665287914034047 0.023911789828631923 0 -0.0031292605323118964 0.023809984048794749 0 -0.0036665287914034047 0.023911789828631923 0 -0.0035261121047446631 0.023358599576403211 0 -0.0031292605323118964 0.023809984048794749 0 -0.0028889947541328414 0.02313869688709768 0 -0.0035261121047446631 0.023358599576403211 0 -0.0032075791181600775 0.022690268639114212 0 -0.0028889947541328414 0.02313869688709768 0 -0.0035261121047446631 0.023358599576403211 0 -0.0024979709917939195 0.023051848771203833 0 -0.0019959371856659771 0.023071247051400318 0 -0.0032075791181600775 0.022690268639114212 0 -0.0028889947541328414 0.02313869688709768 0 -0.0027008542643464665 0.022492714247066919 0 -0.0024121222863999377 0.023752133529957069 0 -0.0028889947541328414 0.02313869688709768 0 -0.0021355421421922721 0.023033797259922939 0 -0.0011993697881817452 0.023640931386806268 0 -0.0019959371856659771 0.023071247051400318 0 -0.0013661154193768089 0.023402892212525894 0 -0.0013881812035794856 0.023345288190871318 0 -0.0014096819142809176 0.02335116660294537 0 -0.0011993697881817452 0.023640931386806268 0 -0.0014320835368787626 0.023267893466512053 0 0.00080714070489199539 0.024798354235789768 0 0.00084655192501963475 0.024713060389198207 0 0.00075371385596391253 0.024657969790166184 0 -0.0028889947541328414 0.02313869688709768 0 -0.0021355421421922721 0.023033797259922939 0 -0.0027008542643464665 0.022492714247066919 0 0.00084655192501963475 0.024713060389198207 0 0.00093776703116865495 0.02476784038427372 0 0.00089354926930275923 0.024623350186741593 0 0.00080714070489199539 0.024798354235789768 0 0.00084655192501963475 0.024713060389198207 0 0.00093776703116865495 0.02476784038427372 0 0.0008749486844634414 0.024878169464972118 0 0.00080714070489199539 0.024798354235789768 0 0.00093776703116865495 0.02476784038427372 0 -0.00044763997886353526 0.024106158826003851 0 -0.0011993697881817452 0.023640931386806268 0 -0.0044121683460557068 0.02364307843495058 0 -0.0048321645632365354 0.023301824720698056 0 -0.0048113807215544539 0.023800746264918623 0 -0.0046194301842148689 0.024007982309363868 0 -0.0045058620458804212 0.023954447200992844 0 -0.0048113807215544539 0.023800746264918623 0 -0.0044121683460557068 0.02364307843495058 0 -0.0045058620458804212 0.023954447200992844 0 -0.0048113807215544539 0.023800746264918623 0 -0.0044121683460557068 0.02364307843495058 0 -0.0045058620458804212 0.023954447200992844 0 -0.0041736769740526487 0.024083465897498744 0 -0.0038370351033667417 0.024471738072093317 0 -0.0036665287914034047 0.023911789828631923 0 -0.0041736769740526487 0.024083465897498744 0 -0.0036665287914034047 0.023911789828631923 0 -0.0041736769740526487 0.024083465897498744 0 -0.0039674428408717584 0.023692083156109468 0 -0.0036665287914034047 0.023911789828631923 0 -0.0039674428408717584 0.023692083156109468 0 -0.0035261121047446631 0.023358599576403211 0 -0.0044121683460557068 0.02364307843495058 0 -0.0039674428408717584 0.023692083156109468 0 -0.0040212858429639993 0.023281127307487784 0 -0.0044121683460557068 0.02364307843495058 0 -0.0041736769740526487 0.024083465897498744 0 -0.0039674428408717584 0.023692083156109468 0 -0.0039674428408717584 0.023692083156109468 0 -0.0040212858429639993 0.023281127307487784 0 -0.0035261121047446631 0.023358599576403211 0 -0.0040212858429639993 0.023281127307487784 0 -0.0035261121047446631 0.023358599576403211 0 -0.0036632959665521118 0.022940941772559037 0 -0.0032075791181600775 0.022690268639114212 0 -0.0035261121047446631 0.023358599576403211 0 -0.0036632959665521118 0.022940941772559037 0 -0.0032075791181600775 0.022690268639114212 0 -0.0036632959665521118 0.022940941772559037 0 -0.0035265617323788517 0.022437530876500959 0 -0.0040212858429639993 0.023281127307487784 0 -0.0039583642137149787 0.022678601770861961 0 -0.004420142219954115 0.022985152710616203 0 -0.0036632959665521118 0.022940941772559037 0 -0.0039583642137149787 0.022678601770861961 0 -0.0035265617323788517 0.022437530876500959 0 -0.0040212858429639993 0.023281127307487784 0 -0.0036632959665521118 0.022940941772559037 0 -0.0039583642137149787 0.022678601770861961 0 -0.0039583642137149787 0.022678601770861961 0 -0.004276459460072591 0.022598814306983968 0 -0.004420142219954115 0.022985152710616203 0 -0.004276459460072591 0.022598814306983968 0 -0.004420142219954115 0.022985152710616203 0 -0.0045795842814634171 0.022608389848932962 0 -0.0044121683460557068 0.02364307843495058 0 -0.0040212858429639993 0.023281127307487784 0 -0.004420142219954115 0.022985152710616203 0 -0.0044121683460557068 0.02364307843495058 0 -0.004420142219954115 0.022985152710616203 0 -0.0048321645632365354 0.023301824720698056 0 -0.0043556844056997224 0.02089081339409278 0 -0.0051574465711511303 0.020814026538146468 0 -0.004420142219954115 0.022985152710616203 0 -0.0048321645632365354 0.023301824720698056 0 -0.0047528026387326601 0.022616355306747177 0 -0.004420142219954115 0.022985152710616203 0 -0.0045795842814634171 0.022608389848932962 0 -0.0047528026387326601 0.022616355306747177 0 -0.0031488707365605112 0.018557528762409969 0 -0.0031056009223353045 0.018601069609836093 0 -0.0031934464031609434 0.018664622748667668 0 -0.0031056009223353045 0.018601069609836093 0 -0.0031163081184198819 0.018659912599874134 0 -0.0031934464031609434 0.018664622748667668 0 -0.0031056009223353045 0.018601069609836093 0 -0.0030463816349387864 0.018651058758417341 0 -0.0031163081184198819 0.018659912599874134 0 -0.0031056009223353045 0.018601069609836093 0 -0.0030431692075366052 0.018570403257437137 0 -0.0030463816349387864 0.018651058758417341 0 -0.0030431692075366052 0.018570403257437137 0 -0.0030744024188389734 0.018525142140143516 0 -0.0030139681176326585 0.018518970678621696 0 -0.0031056009223353045 0.018601069609836093 0 -0.0030431692075366052 0.018570403257437137 0 -0.0030744024188389734 0.018525142140143516 0 -0.0031488707365605112 0.018557528762409969 0 -0.0031056009223353045 0.018601069609836093 0 -0.0030744024188389734 0.018525142140143516 0 -0.0030744024188389734 0.018525142140143516 0 -0.003039528428731582 0.018450861574008739 0 -0.0030972537134011735 0.018466310195537419 0 -0.0031488707365605112 0.018557528762409969 0 -0.0030744024188389734 0.018525142140143516 0 -0.0030972537134011735 0.018466310195537419 0 -0.0043556844056997224 0.02089081339409278 0 -0.0038788323284138157 0.021281635137071059 0 -0.003039528428731582 0.018450861574008739 0 -0.0030197169403224891 0.018435489276221136 0 -0.003009865101167998 0.018417061649895435 0 -0.0020342957373464549 0.01757300046626253 0 -0.0019552005280131872 0.017103489071298029 0 -0.0030744024188389734 0.018525142140143516 0 -0.003039528428731582 0.018450861574008739 0 -0.0030139681176326585 0.018518970678621696 0 -0.003039528428731582 0.018450861574008739 0 -0.0030170803512446563 0.018441146047347919 0 -0.0030612962990381938 0.018419032141730261 0 -0.0038788323284138157 0.021281635137071059 0 -0.0035066745606398397 0.022264879176701335 0 -0.003039528428731582 0.018450861574008739 0 -0.0030972537134011735 0.018466310195537419 0 -0.0030612962990381938 0.018419032141730261 0 -0.0029331842766455282 0.020733619963702998 0 -0.0019075883179252653 0.018607439716528559 0 -0.0031146302393701732 0.024753979363370631 0 -0.0041849504332974255 0.024757772071553705 0 -0.0031409947905883238 0.025556143397602191 0 -0.0030170803512446563 0.018441146047347919 0 -0.0030125640476522985 0.01842504290312804 0 -0.0030197169403224891 0.018435489276221136 0 -0.003039528428731582 0.018450861574008739 0 -0.0030170803512446563 0.018441146047347919 0 -0.0030197169403224891 0.018435489276221136 0 -0.0030170803512446563 0.018441146047347919 0 -0.0030125640476522985 0.01842504290312804 0 -0.003019550399343646 0.01842713205572382 0 -0.0030125640476522985 0.01842504290312804 0 -0.0030197169403224891 0.018435489276221136 0 -0.003009865101167998 0.018417061649895435 0 -0.0030125640476522985 0.01842504290312804 0 -0.003009865101167998 0.018417061649895435 0 -0.0029991357121021615 0.018406393987689416 0 -0.0030125640476522985 0.01842504290312804 0 -0.003019550399343646 0.01842713205572382 0 -0.0029991357121021615 0.018406393987689416 0 -0.0019075883179252653 0.018607439716528559 0 -0.0021512762817189729 0.018677850551593617 0 -0.002891672788922316 0.018222217523273684 0 -0.0029419939076590533 0.018403640517574166 0 -0.0027989180748361751 0.018284750793429904 0 -0.0009048729534822088 0.014885116903917908 0 -0.0012661482240934332 0.016383152260146406 0 -0.002891672788922316 0.018222217523273684 0 -0.0029419939076590533 0.018403640517574166 0 -0.0029991357121021615 0.018406393987689416 0 0.003406365607289919 0.0083000410071565004 0 0.0020997442291182202 0.0084843912640166254 0 0.0014955944772343606 0.010108525717458117 0 -0.0029419939076590533 0.018403640517574166 0 -0.0029991357121021615 0.018406393987689416 0 -0.0030172365021308625 0.018425448489280089 0 0.003406365607289919 0.0083000410071565004 0 0.0052074708523080267 0.0066042134329690689 0 0.0033609994348063176 0.0065078960898770329 0 -0.0009048729534822088 0.014885116903917908 0 -0.0020019706221313313 0.014827881075569494 0 0.003406365607289919 0.0083000410071565004 0 0.0025398191160941634 0.0072309081915658321 0 0.0020997442291182202 0.0084843912640166254 0 0.003406365607289919 0.0083000410071565004 0 0.0025398191160941634 0.0072309081915658321 0 0.0033609994348063176 0.0065078960898770329 0 -0.0030431692075366052 0.018570403257437137 0 -0.0030139681176326585 0.018518970678621696 0 -0.0029813343908416117 0.01858603947809459 0 -0.003009865101167998 0.018417061649895435 0 -0.0029991357121021615 0.018406393987689416 0 -0.0030172365021308625 0.018425448489280089 0 -0.0019552005280131872 0.017103489071298029 0 -0.0020019706221313313 0.014827881075569494 0 -0.0020019706221313313 0.014827881075569494 0 -0.0049083744034382811 0.017799044015773223 0 -0.0022817339468154075 0.015426472855792215 0 -0.0022136322680598149 0.01556871069488228 0 -0.0024417890251378664 0.015570365867478377 0 -0.0030431692075366052 0.018570403257437137 0 -0.0029813343908416117 0.01858603947809459 0 -0.0030463816349387864 0.018651058758417341 0 -0.0020019706221313313 0.014827881075569494 0 -0.0018152551446549985 0.013752320576986036 0 0.0025718517745856192 0.0062872951740998075 0 0.0033609994348063176 0.0065078960898770329 0 0.0027737835153093231 0.0054691242612467088 0 0.0025398191160941634 0.0072309081915658321 0 0.0025718517745856192 0.0062872951740998075 0 0.0018966001699722971 0.0065398819272613337 0 0.0025398191160941634 0.0072309081915658321 0 0.0025718517745856192 0.0062872951740998075 0 0.0033609994348063176 0.0065078960898770329 0 0.0052074708523080267 0.0066042134329690689 0 0.0033609994348063176 0.0065078960898770329 0 0.0037081418772068591 0.005598201413875281 0 0.0037081418772068591 0.005598201413875281 0 0.0031813967411069306 0.0050062058104354372 0 0.0041604715117760874 0.0044421082314424461 0 0.0052074708523080267 0.0066042134329690689 0 0.0037081418772068591 0.005598201413875281 0 0.0041604715117760874 0.0044421082314424461 0 0.0031813967411069306 0.0050062058104354372 0 0.0024582034272310521 0.004968905469025813 0 0.0029393499709478819 0.0044232246515328076 0 0.0033609994348063176 0.0065078960898770329 0 0.0037081418772068591 0.005598201413875281 0 0.0027737835153093231 0.0054691242612467088 0 0.0037081418772068591 0.005598201413875281 0 0.0031813967411069306 0.0050062058104354372 0 0.0027737835153093231 0.0054691242612467088 0 0.0025718517745856192 0.0062872951740998075 0 0.0027737835153093231 0.0054691242612467088 0 0.0022690040081465861 0.0057155585901798485 0 0.0027737835153093231 0.0054691242612467088 0 0.0023547009636248751 0.0052904389084530183 0 0.0022690040081465861 0.0057155585901798485 0 0.0027737835153093231 0.0054691242612467088 0 0.0023547009636248751 0.0052904389084530183 0 0.0024582034272310521 0.004968905469025813 0 0.0031813967411069306 0.0050062058104354372 0 0.0027737835153093231 0.0054691242612467088 0 0.0024582034272310521 0.004968905469025813 0 0.0019226809982551139 0.0050208474528833699 0 0.0022690040081465861 0.0057155585901798485 0 0.0018966001699722971 0.0065398819272613337 0 0.0019226809982551139 0.0050208474528833699 0 0.0013252848844995191 0.0051408514365781114 0 0.0015059449168613971 0.0059303459025914539 0 0.0019226809982551139 0.0050208474528833699 0 0.0018966001699722971 0.0065398819272613337 0 0.00081414732225896006 0.0075489574750171708 0 0.0012107930567653838 0.0068618037165905938 0 0.00092071125000631757 0.0076102185827127168 0 0.0024582034272310521 0.004968905469025813 0 0.0019226809982551139 0.0050208474528833699 0 0.0019949181997938195 0.0045134320327036206 0 0.0023547009636248751 0.0052904389084530183 0 0.0024582034272310521 0.004968905469025813 0 0.0019226809982551139 0.0050208474528833699 0 0.0023547009636248751 0.0052904389084530183 0 0.0019226809982551139 0.0050208474528833699 0 0.0022690040081465861 0.0057155585901798485 0 0.0025718517745856192 0.0062872951740998075 0 0.0022690040081465861 0.0057155585901798485 0 0.0018966001699722971 0.0065398819272613337 0 0.0013252848844995191 0.0051408514365781114 0 0.0007108739615990455 0.0054185814942463023 0 0.0015059449168613971 0.0059303459025914539 0 0.0019226809982551139 0.0050208474528833699 0 0.0013252848844995191 0.0051408514365781114 0 0.0015272172047473883 0.0046955668234983598 0 0.0013252848844995191 0.0051408514365781114 0 0.00098211255988473216 0.0046271292487802653 0 0.0015272172047473883 0.0046955668234983598 0 0.0007108739615990455 0.0054185814942463023 0 -0.0004826816369571899 0.0058575899784135748 0 0.00025774675121983422 0.0046927993605152696 0 0.0007108739615990455 0.0054185814942463023 0 0.00025774675121983422 0.0046927993605152696 0 0.00098211255988473216 0.0046271292487802653 0 0.0013252848844995191 0.0051408514365781114 0 0.0007108739615990455 0.0054185814942463023 0 0.00098211255988473216 0.0046271292487802653 0 0.00063542954383036634 0.0062272577554552139 0 -0.0004826816369571899 0.0058575899784135748 0 0.00066164565933116799 0.0072524913834625809 0 0.0007108739615990455 0.0054185814942463023 0 0.00063542954383036634 0.0062272577554552139 0 -0.0004826816369571899 0.0058575899784135748 0 0.00063542954383036634 0.0062272577554552139 0 0.0015059449168613971 0.0059303459025914539 0 0.0011022611857385662 0.0069484282805701248 0 0.0007108739615990455 0.0054185814942463023 0 0.00063542954383036634 0.0062272577554552139 0 0.0015059449168613971 0.0059303459025914539 0 0.00092071125000631757 0.0076102185827127168 0 0.00025688797247039883 0.0093643716569669199 0 0.0020997442291182202 0.0084843912640166254 0 0.00081414732225896006 0.0075489574750171708 0 -0.00016487333775399012 0.010038479970074059 0 0.00063491707219373648 0.0091526542994468038 0 0.00025688797247039883 0.0093643716569669199 0 0.0025398191160941634 0.0072309081915658321 0 0.0020997442291182202 0.0084843912640166254 0 0.0017958400005542924 0.0074733009807212468 0 0.0020997442291182202 0.0084843912640166254 0 0.0017958400005542924 0.0074733009807212468 0 0.00081414732225896006 0.0075489574750171708 0 0.0025398191160941634 0.0072309081915658321 0 0.0018966001699722971 0.0065398819272613337 0 0.0017958400005542924 0.0074733009807212468 0 0.0018966001699722971 0.0065398819272613337 0 0.0017958400005542924 0.0074733009807212468 0 0.00081414732225896006 0.0075489574750171708 0 -0.0088757690837505676 -0.0034237450149298349 0 -0.0071550971406121175 -0.0036404033329167111 0 -0.0070499478235821313 -0.0011810954280986161 0 -0.0004826816369571899 0.0058575899784135748 0 -0.00057644255113041825 0.0040568058458630143 0 -0.0016560937842572221 0.004412591685111363 0 -0.0071550971406121175 -0.0036404033329167111 0 -0.0070499478235821313 -0.0011810954280986161 0 -0.0061519322142365206 -0.0024981083706039743 0 -0.0037647971013764032 0.0023126048085144913 0 -0.002451937993680306 0.0011590592954173287 0 -0.0004826816369571899 0.0058575899784135748 0 -0.00057644255113041825 0.0040568058458630143 0 0.00025774675121983422 0.0046927993605152696 0 -0.0037647971013764032 0.0023126048085144913 0 -0.00072355766065940858 0.0087947013854461058 0 -0.0071550971406121175 -0.0036404033329167111 0 -0.0077463917947162234 -0.0053014112865505704 0 -0.0065798779905663447 -0.005309660254013907 0 -0.0088757690837505676 -0.0034237450149298349 0 -0.0071550971406121175 -0.0036404033329167111 0 -0.0077463917947162234 -0.0053014112865505704 0 -0.0077463917947162234 -0.0053014112865505704 0 -0.0071338879875834345 -0.0066860855822631956 0 -0.0065798779905663447 -0.005309660254013907 0 -0.0077463917947162234 -0.0053014112865505704 0 -0.0080616193853003063 -0.006267566331110511 0 -0.0090050886411462017 -0.0057909609770736958 0 -0.0077463917947162234 -0.0053014112865505704 0 -0.0080616193853003063 -0.006267566331110511 0 -0.0071338879875834345 -0.0066860855822631956 0 -0.0088757690837505676 -0.0034237450149298349 0 -0.0090050886411462017 -0.0057909609770736958 0 -0.010659679192498812 -0.005616802796825934 0 -0.0088757690837505676 -0.0034237450149298349 0 -0.0077463917947162234 -0.0053014112865505704 0 -0.0090050886411462017 -0.0057909609770736958 0 -0.0090050886411462017 -0.0057909609770736958 0 -0.0083565040243920499 -0.0072885023440798632 0 -0.010659679192498812 -0.005616802796825934 0 0.00061789376954694396 0.020736263167116797 0 0.00045254902629191603 0.020701073529660236 0 0.00057071205160444817 0.020632579173330279 0 -0.00034757996734344985 0.015029854316135075 0 -0.0011058669990396555 0.017334907752270985 0 -0.0024850549337563578 0.0077837487760743559 0 -0.00072355766065940858 0.0087947013854461058 0 -0.0080616193853003063 -0.006267566331110511 0 -0.0090050886411462017 -0.0057909609770736958 0 -0.0083565040243920499 -0.0072885023440798632 0 -0.0083565040243920499 -0.0072885023440798632 0 -0.0071338879875834345 -0.0066860855822631956 0 -0.0060369470880139451 -0.0090205632864934302 0 -0.0080616193853003063 -0.006267566331110511 0 -0.0083565040243920499 -0.0072885023440798632 0 -0.0071338879875834345 -0.0066860855822631956 0 -0.0012661482240934332 0.016383152260146406 0 0.00031732318797812623 0.013865086066611547 0 0.00055286366092709887 0.019739721903872659 0 0.00040347962051605216 0.019889913139240083 0 0.00050807101169719835 0.019903526842952261 0 0.0014955944772343606 0.010108525717458117 0 -0.00020868858504891123 0.010108775216983687 0 -0.00047066091155383141 0.011918373160329622 0 0.00065693243793945243 0.019822390680050386 0 0.00055286366092709887 0.019739721903872659 0 0.00050807101169719835 0.019903526842952261 0 0.0020997442291182202 0.0084843912640166254 0 0.0014955944772343606 0.010108525717458117 0 -0.00020868858504891123 0.010108775216983687 0 -0.0019075883179252653 0.018607439716528559 0 -0.0012661482240934332 0.016383152260146406 0 0.00063542954383036634 0.0062272577554552139 0 0.0011022611857385662 0.0069484282805701248 0 0.00066164565933116799 0.0072524913834625809 0 0.00025688797247039883 0.0093643716569669199 0 -0.00072355766065940858 0.0087947013854461058 0 -0.00020868858504891123 0.010108775216983687 0 -0.00076792352831839337 0.01155218814605506 0 -0.00047066091155383141 0.011918373160329622 0 0.00045251953066820704 0.020733369413184904 0 0.00043813021229158232 0.020717625191849363 0 0.00045254902629191603 0.020701073529660236 0 0.00025688797247039883 0.0093643716569669199 0 7.8889943885563401e-05 0.012475917850292282 0 -0.0022998088410272686 0.011556373020585271 0 0.0027967685164146058 0.0080629957896549038 0 0.00029763623363541662 0.0049953888420030956 0 -0.00072355766065940858 0.0087947013854461058 0 7.8889943885563401e-05 0.012475917850292282 0 7.8889943885563401e-05 0.012475917850292282 0 0.00031732318797812623 0.013865086066611547 0 -0.00034757996734344985 0.015029854316135075 0 -0.00065067380379437757 0.018627648984673315 0 0.00041538344443211927 0.019905293508199043 0 0.00037146390682058866 0.019956568169130034 0 0.00044095713806265681 0.019938313507281574 0 0.00037146390682058866 0.019956568169130034 0 0.00042420119915281671 0.020042663374930412 0 0.00044095713806265681 0.019938313507281574 0 0.00031732318797812623 0.013865086066611547 0 0.00037975703862807957 0.013982913023767822 0 0.00061789376954694396 0.020736263167116797 0 0.00045251953066820704 0.020733369413184904 0 0.00045254902629191603 0.020701073529660236 0 0.00037146390682058866 0.019956568169130034 0 0.00042420119915281671 0.020042663374930412 0 0.000403461400921443 0.020135179110638418 0 8.1437817512598496e-05 0.017555443036928776 0 -0.001568990884495891 0.015529646262786488 0 0.0022429716687186372 0.012089427888096976 0 7.8889943885563401e-05 0.012475917850292282 0 -0.00034757996734344985 0.015029854316135075 0 0.00031732318797812623 0.013865086066611547 0 -0.00034757996734344985 0.015029854316135075 0 -0.0019075883179252653 0.018607439716528559 0 -0.001688665837379408 0.021113721382983321 0 0.00050807101169719835 0.019903526842952261 0 0.00044095713806265681 0.019938313507281574 0 0.0004795105162669645 0.02011731509347766 0 0.00065693243793945243 0.019822390680050386 0 0.00050807101169719835 0.019903526842952261 0 0.0004795105162669645 0.02011731509347766 0 -0.0031146302393701732 0.024753979363370631 0 -0.0031409947905883238 0.025556143397602191 0 -0.0024014985689949581 0.024526731604697923 0 0.00042420119915281671 0.020042663374930412 0 0.00044095713806265681 0.019938313507281574 0 0.0004795105162669645 0.02011731509347766 0 0.00040347962051605216 0.019889913139240083 0 0.00050807101169719835 0.019903526842952261 0 0.00044095713806265681 0.019938313507281574 0 -0.0028804224246327089 0.024135154430301203 0 -0.0024014985689949581 0.024526731604697923 0 -0.0024502401841533807 0.023624136173149075 0 -0.0031146302393701732 0.024753979363370631 0 -0.0028804224246327089 0.024135154430301203 0 -0.0024014985689949581 0.024526731604697923 0 0.000403461400921443 0.020135179110638418 0 0.00034578777079540002 0.020196257791971397 0 0.00037272015951914718 0.020264247628285798 0 0.00042420119915281671 0.020042663374930412 0 0.0004795105162669645 0.02011731509347766 0 0.000403461400921443 0.020135179110638418 0 0.0004795105162669645 0.02011731509347766 0 0.000403461400921443 0.020135179110638418 0 0.00037272015951914718 0.020264247628285798 0 0.00037146390682058866 0.019956568169130034 0 0.000403461400921443 0.020135179110638418 0 0.00034578777079540002 0.020196257791971397 0 -0.001688665837379408 0.021113721382983321 0 -0.00095699635415009727 0.021246439153425813 0 -0.0014469264168636199 0.02336150297464985 0 -0.0024502401841533807 0.023624136173149075 0 -0.0020839110503174658 0.02294744237790727 0 -0.0024014985689949581 0.024526731604697923 0 -0.0014469264168636199 0.02336150297464985 0 -0.0024502401841533807 0.023624136173149075 0 -0.0024502401841533807 0.023624136173149075 0 -0.0027307369194963832 0.022979282937220655 0 -0.0020839110503174658 0.02294744237790727 0 -0.0024502401841533807 0.023624136173149075 0 -0.0027307369194963832 0.022979282937220655 0 -0.0032468554726625557 0.023556520745232748 0 -0.0028804224246327089 0.024135154430301203 0 -0.0024502401841533807 0.023624136173149075 0 -0.0032468554726625557 0.023556520745232748 0 0.00057071205160444817 0.020632579173330279 0 0.00075841413045994927 0.020453724455115528 0 0.0010750590082780108 0.02072267397132321 0 -0.0024850549337563578 0.0077837487760743559 0 -0.0017751677693147823 0.0065576176614415005 0 0.00061789376954694396 0.020736263167116797 0 0.00057071205160444817 0.020632579173330279 0 0.0010750590082780108 0.02072267397132321 0 0.00030643395078810905 0.020790273130958239 0 0.00041055925390454204 0.020588975606303607 0 0.00057071205160444817 0.020632579173330279 0 0.00041055925390454204 0.020588975606303607 0 0.00057071205160444817 0.020632579173330279 0 0.000552853249431672 0.020473819897444526 0 -0.00065067380379437757 0.018627648984673315 0 -0.00058598869840006571 0.019289039119409612 0 0.00034578777079540002 0.020196257791971397 0 0.00037272015951914718 0.020264247628285798 0 0.00046747426616440649 0.020231308620085073 0 0.00041055925390454204 0.020588975606303607 0 0.000552853249431672 0.020473819897444526 0 0.00046747426616440649 0.020231308620085073 0 0.000552853249431672 0.020473819897444526 0 0.00075841413045994927 0.020453724455115528 0 0.00046747426616440649 0.020231308620085073 0 0.00057071205160444817 0.020632579173330279 0 0.000552853249431672 0.020473819897444526 0 0.00075841413045994927 0.020453724455115528 0 0.00075841413045994927 0.020453724455115528 0 0.00066227636443707692 0.020138924833525498 0 0.00094739536338973201 0.020279502466280318 0 0.00075841413045994927 0.020453724455115528 0 0.00066227636443707692 0.020138924833525498 0 0.00046747426616440649 0.020231308620085073 0 0.00066227636443707692 0.020138924833525498 0 0.00080623247270444215 0.019856161285523793 0 0.00094739536338973201 0.020279502466280318 0 0.00066227636443707692 0.020138924833525498 0 0.00045632616005858673 0.019983063105683031 0 0.00080623247270444215 0.019856161285523793 0 -0.00095699635415009727 0.021246439153425813 0 -0.0002835845448115749 0.020674287536711706 0 0.00066227636443707692 0.020138924833525498 0 0.00046747426616440649 0.020231308620085073 0 0.00045632616005858673 0.019983063105683031 0 0.00037272015951914718 0.020264247628285798 0 0.00046747426616440649 0.020231308620085073 0 0.00045632616005858673 0.019983063105683031 0 -0.00055344349790295328 0.020104191717465719 0 -0.00036442205610171674 0.021726117857235404 0 -0.0016048175887175987 0.021117918942560373 0 7.8707232007616939e-05 0.020183083898397715 0 -0.0002835845448115749 0.020674287536711706 0 0.00053055627773806611 0.019487195804087972 0 0.00045632616005858673 0.019983063105683031 0 0.00080623247270444215 0.019856161285523793 0 -0.0021723681784001059 0.022144084635528603 0 -0.0029579452143719343 0.022290674027966032 0 -0.0027307369194963832 0.022979282937220655 0 -0.0021723681784001059 0.022144084635528603 0 -0.0027307369194963832 0.022979282937220655 0 -0.0020839110503174658 0.02294744237790727 0 -0.0014469264168636199 0.02336150297464985 0 -0.00036442205610171674 0.021726117857235404 0 -0.0015435762106441023 0.022278013781166089 0 -0.0014469264168636199 0.02336150297464985 0 -0.0020839110503174658 0.02294744237790727 0 -0.0015435762106441023 0.022278013781166089 0 -0.0021723681784001059 0.022144084635528603 0 -0.0020839110503174658 0.02294744237790727 0 -0.0015435762106441023 0.022278013781166089 0 -0.0021723681784001059 0.022144084635528603 0 -0.0015435762106441023 0.022278013781166089 0 -0.0016048175887175987 0.021117918942560373 0 -0.00036442205610171674 0.021726117857235404 0 -0.0015435762106441023 0.022278013781166089 0 -0.0016048175887175987 0.021117918942560373 0 -0.0025255552542477267 0.020280795381575008 0 -0.0016048175887175987 0.021117918942560373 0 -0.0025259047478032376 0.021521966540662244 0 -0.0025255552542477267 0.020280795381575008 0 -0.0025259047478032376 0.021521966540662244 0 -0.0033150079763738121 0.021725506523748737 0 -0.0021723681784001059 0.022144084635528603 0 -0.0016048175887175987 0.021117918942560373 0 -0.0025259047478032376 0.021521966540662244 0 -0.0021723681784001059 0.022144084635528603 0 -0.0029579452143719343 0.022290674027966032 0 -0.0025259047478032376 0.021521966540662244 0 -0.0029579452143719343 0.022290674027966032 0 -0.0025259047478032376 0.021521966540662244 0 -0.0033150079763738121 0.021725506523748737 0 -0.0036319361292650562 0.02092955146015877 0 -0.0033150079763738121 0.021725506523748737 0 -0.0037949559221193293 0.02213255502987227 0 -0.0033150079763738121 0.021725506523748737 0 -0.0037949559221193293 0.02213255502987227 0 -0.0035576799567538946 0.022463248090335154 0 -0.0029579452143719343 0.022290674027966032 0 -0.0033150079763738121 0.021725506523748737 0 -0.0035576799567538946 0.022463248090335154 0 -0.0029579452143719343 0.022290674027966032 0 -0.0035576799567538946 0.022463248090335154 0 -0.0033496497476880739 0.02292897007585333 0 -0.0035576799567538946 0.022463248090335154 0 -0.0037339353215095159 0.022861822661391862 0 -0.0040670255673555967 0.022780082630810636 0 -0.0037949559221193293 0.02213255502987227 0 -0.0035576799567538946 0.022463248090335154 0 -0.0040670255673555967 0.022780082630810636 0 -0.0035576799567538946 0.022463248090335154 0 -0.0037339353215095159 0.022861822661391862 0 -0.0033496497476880739 0.02292897007585333 0 -0.0037339353215095159 0.022861822661391862 0 -0.0033496497476880739 0.02292897007585333 0 -0.0038956542896460135 0.023206961883418857 0 -0.0029579452143719343 0.022290674027966032 0 -0.0027307369194963832 0.022979282937220655 0 -0.0033496497476880739 0.02292897007585333 0 -0.0042777543573227876 0.023043068323237121 0 -0.0045425665556626665 0.023073235257552935 0 -0.0044070476165825427 0.023295836952351701 0 -0.0042777543573227876 0.023043068323237121 0 -0.0038956542896460135 0.023206961883418857 0 -0.0044070476165825427 0.023295836952351701 0 -0.0037339353215095159 0.022861822661391862 0 -0.0040670255673555967 0.022780082630810636 0 -0.0038956542896460135 0.023206961883418857 0 -0.0042777543573227876 0.023043068323237121 0 -0.0040670255673555967 0.022780082630810636 0 -0.0038956542896460135 0.023206961883418857 0 -0.0040670255673555967 0.022780082630810636 0 -0.0043810542585264014 0.022880453081665069 0 -0.0043128200323829255 0.022600394881593707 0 -0.0042777543573227876 0.023043068323237121 0 -0.0040670255673555967 0.022780082630810636 0 -0.0043810542585264014 0.022880453081665069 0 -0.0043810542585264014 0.022880453081665069 0 -0.0045425695657172532 0.022934557495455799 0 -0.0045425665556626665 0.023073235257552935 0 -0.0042777543573227876 0.023043068323237121 0 -0.0043810542585264014 0.022880453081665069 0 -0.0045425665556626665 0.023073235257552935 0 -0.0043810542585264014 0.022880453081665069 0 -0.0043128200323829255 0.022600394881593707 0 -0.0045425695657172532 0.022934557495455799 0 -0.0043128200323829255 0.022600394881593707 0 -0.0047371831252585057 0.02293443749058896 0 -0.0045425695657172532 0.022934557495455799 0 -0.0043128200323829255 0.022600394881593707 0 -0.0041375726036590888 0.021899518638064216 0 -0.0047371831252585057 0.02293443749058896 0 -0.0045006491364455248 0.020174380416009004 0 -0.0041375726036590888 0.021899518638064216 0 -0.0047371831252585057 0.02293443749058896 0 -0.0037949559221193293 0.02213255502987227 0 -0.0043128200323829255 0.022600394881593707 0 -0.0041375726036590888 0.021899518638064216 0 -0.0037949559221193293 0.02213255502987227 0 -0.0040670255673555967 0.022780082630810636 0 -0.0043128200323829255 0.022600394881593707 0 -0.0036319361292650562 0.02092955146015877 0 -0.0037949559221193293 0.02213255502987227 0 -0.0041375726036590888 0.021899518638064216 0 -0.004528131057488699 0.023527778731761716 0 -0.0044946111933331055 0.023387598556190776 0 -0.0047371831252585057 0.02293443749058896 0 -0.0044946111933331055 0.023387598556190776 0 -0.004569819010003323 0.023181063482682052 0 -0.0047371831252585057 0.02293443749058896 0 -0.0044946111933331055 0.023387598556190776 0 -0.0045106747251467847 0.023337548124967907 0 -0.004569819010003323 0.023181063482682052 0 -0.0045106747251467847 0.023337548124967907 0 -0.004569819010003323 0.023181063482682052 0 -0.0045263745219758155 0.023340152403003449 0 -0.004569819010003323 0.023181063482682052 0 -0.0047371831252585057 0.02293443749058896 0 -0.0045718371041177357 0.023090575423192806 0 -0.0047371831252585057 0.02293443749058896 0 -0.0045425695657172532 0.022934557495455799 0 -0.0045718371041177357 0.023090575423192806 0 -0.004442896332099296 0.023670717845838483 0 -0.0044720857108381043 0.023496439107393807 0 -0.0044842681725020175 0.023611571715815453 0 -0.0044256081588106176 0.023762078228289792 0 -0.0044379149427175553 0.023815450947010184 0 -0.004442896332099296 0.023670717845838483 0 -0.0044669000303277744 0.023617536595591015 0 -0.0044946111933331055 0.023387598556190776 0 -0.0044501688763689757 0.023581417688868851 0 -0.004442896332099296 0.023670717845838483 0 -0.0044501688763689757 0.023581417688868851 0 -0.0044720857108381043 0.023496439107393807 0 -0.0044946111933331055 0.023387598556190776 0 -0.0044501688763689757 0.023581417688868851 0 -0.0044720857108381043 0.023496439107393807 0 -0.0045041026720308228 0.02345312779332541 0 -0.0044842681725020175 0.023611571715815453 0 -0.0045282234472702092 0.023582312089661064 0 -0.0045106747251467847 0.023337548124967907 0 -0.0044720857108381043 0.023496439107393807 0 -0.0045041026720308228 0.02345312779332541 0 -0.0044946111933331055 0.023387598556190776 0 -0.0045106747251467847 0.023337548124967907 0 -0.0044720857108381043 0.023496439107393807 0 -0.0045106747251467847 0.023337548124967907 0 -0.0045041026720308228 0.02345312779332541 0 -0.0045263745219758155 0.023340152403003449 0 -0.0044720857108381043 0.023496439107393807 0 -0.0045041026720308228 0.02345312779332541 0 -0.0044842681725020175 0.023611571715815453 0 -0.0044617432079162873 0.023756596831443183 0 -0.0045038212258847517 0.023830295239383213 0 -0.0044842681725020175 0.023611571715815453 0 -0.0044617432079162873 0.023756596831443183 0 -0.004442896332099296 0.023670717845838483 0 -0.0044842681725020175 0.023611571715815453 0 -0.0045282234472702092 0.023582312089661064 0 -0.0045566428583680768 0.023841733211344522 0 -0.0043809047628413323 0.023802541345246397 0 -0.0045038212258847517 0.023830295239383213 0 -0.0044842681725020175 0.023611571715815453 0 -0.0045282234472702092 0.023582312089661064 0 -0.0045038212258847517 0.023830295239383213 0 -0.0045282234472702092 0.023582312089661064 0 -0.0045566428583680768 0.023841733211344522 0 -0.0045041026720308228 0.02345312779332541 0 -0.0045282234472702092 0.023582312089661064 0 -0.0045263745219758155 0.023340152403003449 0 -0.0045282234472702092 0.023582312089661064 0 -0.0045263745219758155 0.023340152403003449 0 -0.0043809047628413323 0.023802541345246397 0 -0.0040807777203671555 0.023294830271781541 0 -0.0039709853686589695 0.023146218575985016 0 -0.0045718371041177357 0.023090575423192806 0 -0.0045263745219758155 0.023340152403003449 0 -0.0043809047628413323 0.023802541345246397 0 -0.0045718371041177357 0.023090575423192806 0 -0.0045425665556626665 0.023073235257552935 0 -0.0048296994848290161 0.023291903003868866 0 -0.0045425695657172532 0.022934557495455799 0 -0.0045718371041177357 0.023090575423192806 0 -0.0045425665556626665 0.023073235257552935 0 -0.004569819010003323 0.023181063482682052 0 -0.0045718371041177357 0.023090575423192806 0 -0.0045263745219758155 0.023340152403003449 0 -0.0045425665556626665 0.023073235257552935 0 -0.0048296994848290161 0.023291903003868866 0 -0.0044070476165825427 0.023295836952351701 0 -0.0039709853686589695 0.023146218575985016 0 -0.0035066745606398397 0.022264879176701335 0 -0.0048296994848290161 0.023291903003868866 0 -0.0045063517741483535 0.023799560844818175 0 -0.0044070476165825427 0.023295836952351701 0 -0.0048296994848290161 0.023291903003868866 0 -0.0045063517741483535 0.023799560844818175 0 -0.0051099623412507638 0.023982449533301392 0 -0.0045840617102482798 0.024003018349029299 0 -0.0043809047628413323 0.023802541345246397 0 -0.0044228899299150939 0.024062031723891864 0 -0.0045840617102482798 0.024003018349029299 0 -0.0045566428583680768 0.023841733211344522 0 -0.0043809047628413323 0.023802541345246397 0 -0.003611865109693422 0.02249558627499677 0 -0.0035066745606398397 0.022264879176701335 0 -0.0046194301842148689 0.024007982309363868 0 -0.0045840617102482798 0.024003018349029299 0 -0.0047194227026282638 0.024022061650940996 0 -0.0046194301842148689 0.024007982309363868 0 -0.0048113807215544539 0.023800746264918623 0 -0.0047194227026282638 0.024022061650940996 0 -0.0041849504332974255 0.024757772071553705 0 -0.0045063517741483535 0.023799560844818175 0 -0.0051099623412507638 0.023982449533301392 0 -0.0029331842766455282 0.020733619963702998 0 -0.0035066745606398397 0.022264879176701335 0 -0.0041849504332974255 0.024757772071553705 0 -0.0034068028911662532 0.024220314815101611 0 -0.003964320809779793 0.023778183576715316 0 -0.0041849504332974255 0.024757772071553705 0 -0.0045063517741483535 0.023799560844818175 0 -0.003964320809779793 0.023778183576715316 0 -0.0031146302393701732 0.024753979363370631 0 -0.0041849504332974255 0.024757772071553705 0 -0.0034068028911662532 0.024220314815101611 0 -0.0031146302393701732 0.024753979363370631 0 -0.0028804224246327089 0.024135154430301203 0 -0.0034068028911662532 0.024220314815101611 0 -0.0028804224246327089 0.024135154430301203 0 -0.0034068028911662532 0.024220314815101611 0 -0.0032468554726625557 0.023556520745232748 0 -0.0034068028911662532 0.024220314815101611 0 -0.0032468554726625557 0.023556520745232748 0 -0.003964320809779793 0.023778183576715316 0 -0.0027307369194963832 0.022979282937220655 0 -0.0033496497476880739 0.02292897007585333 0 -0.0032468554726625557 0.023556520745232748 0 -0.0033496497476880739 0.02292897007585333 0 -0.0032468554726625557 0.023556520745232748 0 -0.0038956542896460135 0.023206961883418857 0 -0.0032468554726625557 0.023556520745232748 0 -0.0038956542896460135 0.023206961883418857 0 -0.003964320809779793 0.023778183576715316 0 -0.0038956542896460135 0.023206961883418857 0 -0.0044070476165825427 0.023295836952351701 0 -0.003964320809779793 0.023778183576715316 0 -0.0045063517741483535 0.023799560844818175 0 -0.0044070476165825427 0.023295836952351701 0 -0.003964320809779793 0.023778183576715316 0 4.4341511429217587e-05 0.034772554667738216 0 5.4260921100270268e-05 0.034785829277324869 0 6.0063904313776874e-05 0.034586874891251555 0 4.4341511429217587e-05 0.034772554667738216 0 6.0063904313776874e-05 0.034586874891251555 0 7.713656395010542e-05 0.034584614136827972 0 4.4341511429217587e-05 0.034772554667738216 0 1.9787755084789422e-07 0.034999663338945365 0 -2.862239310515977e-07 0.03499901324755661 0 4.4341511429217587e-05 0.034772554667738216 0 1.9787755084789422e-07 0.034999663338945365 0 5.4260921100270268e-05 0.034785829277324869 0 1.9787755084789422e-07 0.034999663338945365 0 7.5341006311620249e-05 0.034894054956988926 0 5.4260921100270268e-05 0.034785829277324869 0 7.5341006311620249e-05 0.034894054956988926 0 5.4260921100270268e-05 0.034785829277324869 0 5.2269272212355552e-05 0.034629812233211175 0 1.9787755084789422e-07 0.034999663338945365 0 7.5341006311620249e-05 0.034894054956988926 0 4.1772456120931494e-08 0.034999798862061574 0 5.4260921100270268e-05 0.034785829277324869 0 6.0063904313776874e-05 0.034586874891251555 0 5.2269272212355552e-05 0.034629812233211175 0 6.0063904313776874e-05 0.034586874891251555 0 4.6681049692759628e-05 0.034485387773055695 0 5.2269272212355552e-05 0.034629812233211175 0 6.0063904313776874e-05 0.034586874891251555 0 5.5279289757137518e-05 0.034376523950953732 0 9.4838872374284467e-05 0.034406467768866834 0 6.0063904313776874e-05 0.034586874891251555 0 5.5279289757137518e-05 0.034376523950953732 0 4.6681049692759628e-05 0.034485387773055695 0 5.5279289757137518e-05 0.034376523950953732 0 9.4838872374284467e-05 0.034406467768866834 0 6.0160210653098582e-05 0.034170737554318716 0 9.4838872374284467e-05 0.034406467768866834 0 7.713656395010542e-05 0.034584614136827972 0 0.00011761133697782274 0.034469202242194408 0 6.0063904313776874e-05 0.034586874891251555 0 9.4838872374284467e-05 0.034406467768866834 0 7.713656395010542e-05 0.034584614136827972 0 0.00011761133697782274 0.034469202242194408 0 9.7247455705004601e-05 0.034463687594701475 0 5.7255150784265316e-05 0.03466518503232624 0 7.713656395010542e-05 0.034584614136827972 0 0.00011761133697782274 0.034469202242194408 0 5.7255150784265316e-05 0.03466518503232624 0 0.00011761133697782274 0.034469202242194408 0 0.00018246599134710251 0.034289460173539038 0 0.00016652152030119025 0.034325666232579946 0 9.4838872374284467e-05 0.034406467768866834 0 0.00011761133697782274 0.034469202242194408 0 0.00018246599134710251 0.034289460173539038 0 9.4838872374284467e-05 0.034406467768866834 0 0.00018246599134710251 0.034289460173539038 0 0.00026213151882123275 0.034243602006204146 0 0.00016652152030119025 0.034325666232579946 0 0.00020992272213917937 0.034203574064739256 0 0.00022423805345551793 0.034187214234632834 0 0.00018246599134710251 0.034289460173539038 0 0.00016652152030119025 0.034325666232579946 0 0.00022423805345551793 0.034187214234632834 0 0.00016652152030119025 0.034325666232579946 0 9.7247455705004601e-05 0.034463687594701475 0 0.00014643935248895041 0.034298281638549727 0 0.00011761133697782274 0.034469202242194408 0 0.00016652152030119025 0.034325666232579946 0 9.7247455705004601e-05 0.034463687594701475 0 9.7247455705004601e-05 0.034463687594701475 0 5.7255150784265316e-05 0.03466518503232624 0 1.4559309450412567e-06 0.034470317861195962 0 9.7247455705004601e-05 0.034463687594701475 0 1.4559309450412567e-06 0.034470317861195962 0 0.00014643935248895041 0.034298281638549727 0 4.4341511429217587e-05 0.034772554667738216 0 7.713656395010542e-05 0.034584614136827972 0 5.7255150784265316e-05 0.03466518503232624 0 4.4341511429217587e-05 0.034772554667738216 0 5.7255150784265316e-05 0.03466518503232624 0 -2.862239310515977e-07 0.03499901324755661 0 -8.3284589401662162e-10 0.035000002484524055 0 4.2224838864802574e-09 0.034999999936072036 0 2.625380464140326e-06 0.035001008217795698 0 5.7255150784265316e-05 0.03466518503232624 0 -2.862239310515977e-07 0.03499901324755661 0 1.4559309450412567e-06 0.034470317861195962 0 9.7953617048834313e-08 0.034999670149139087 0 9.3695502181109105e-05 0.034808762677340087 0 4.2224838864802574e-09 0.034999999936072036 0 2.625380464140326e-06 0.035001008217795698 0 3.8796077225195013e-06 0.034998934610251144 0 1.4559309450412567e-06 0.034470317861195962 0 0.00010019779607226345 0.034192246485308414 0 0.00014643935248895041 0.034298281638549727 0 9.3695502181109105e-05 0.034808762677340087 0 0.00013821107417759872 0.034732227417629435 0 2.625380464140326e-06 0.035001008217795698 0 3.8796077225195013e-06 0.034998934610251144 0 8.8983545110074014e-06 0.034999862544128971 0 3.8796077225195013e-06 0.034998934610251144 0 8.9876354136325233e-06 0.034996348886737909 0 8.8983545110074014e-06 0.034999862544128971 0 4.2224838864802574e-09 0.034999999936072036 0 3.8796077225195013e-06 0.034998934610251144 0 -2.4179181430664179e-09 0.034999998844129403 0 3.8796077225195013e-06 0.034998934610251144 0 -2.4179181430664179e-09 0.034999998844129403 0 5.73827057175731e-06 0.034995263021250042 0 3.8796077225195013e-06 0.034998934610251144 0 8.9876354136325233e-06 0.034996348886737909 0 5.73827057175731e-06 0.034995263021250042 0 8.9876354136325233e-06 0.034996348886737909 0 5.73827057175731e-06 0.034995263021250042 0 1.118966298601667e-05 0.034992007987439087 0 5.73827057175731e-06 0.034995263021250042 0 5.9779002415254326e-06 0.034983593414401631 0 1.118966298601667e-05 0.034992007987439087 0 9.1523367356618091e-05 0.034878797441396533 0 0.00010891478887221552 0.0348609080090828 0 2.1067668929248924e-05 0.034979395687602513 0 5.9779002415254326e-06 0.034983593414401631 0 3.5488597478572561e-05 0.034992207264141956 0 9.4993591926062734e-07 0.034979473052673522 0 2.1067668929248924e-05 0.034979395687602513 0 5.9779002415254326e-06 0.034983593414401631 0 -2.4179181430664179e-09 0.034999998844129403 0 5.73827057175731e-06 0.034995263021250042 0 5.9779002415254326e-06 0.034983593414401631 0 -3.1113686674808713e-09 0.034999933613965195 0 9.4993591926062734e-07 0.034979473052673522 0 -2.4179181430664179e-09 0.034999998844129403 0 9.4993591926062734e-07 0.034979473052673522 0 -2.4179181430664179e-09 0.034999998844129403 0 5.9779002415254326e-06 0.034983593414401631 0 8.5852346204756395e-05 0.0349556071706549 0 4.2621149282591304e-05 0.0349632979197649 0 6.0776817364548686e-05 0.034980848615909242 0 8.5852346204756395e-05 0.0349556071706549 0 6.0776817364548686e-05 0.034980848615909242 0 8.2580337147457344e-05 0.034989920873633076 0 4.2621149282591304e-05 0.0349632979197649 0 6.0776817364548686e-05 0.034980848615909242 0 3.5488597478572561e-05 0.034992207264141956 0 4.2621149282591304e-05 0.0349632979197649 0 2.1067668929248924e-05 0.034979395687602513 0 3.5488597478572561e-05 0.034992207264141956 0 6.0776817364548686e-05 0.034980848615909242 0 3.5488597478572561e-05 0.034992207264141956 0 6.4344036709127795e-05 0.03500935024271664 0 8.9876354136325233e-06 0.034996348886737909 0 1.118966298601667e-05 0.034992007987439087 0 1.5464433914896462e-05 0.034995300815222959 0 0.00010891478887221552 0.0348609080090828 0 0.00014991918683017173 0.034788393656711582 0 6.0776817364548686e-05 0.034980848615909242 0 6.4344036709127795e-05 0.03500935024271664 0 8.2580337147457344e-05 0.034989920873633076 0 7.0224958587598551e-05 0.035002491864254068 0 8.2580337147457344e-05 0.034989920873633076 0 8.8000139490657453e-05 0.035015245233543775 0 0.00014991918683017173 0.034788393656711582 0 0.00011651360778769853 0.034832289630600977 0 0.00019689445763577915 0.034084111164031879 0 0.00020256681216634486 0.034169194824329369 0 0.00024750615237169858 0.034128177024921394 0 0.00014991918683017173 0.034788393656711582 0 0.00015256994837456182 0.034566473289774323 0 0.00020256681216634486 0.034169194824329369 0 0.00024527728715378324 0.034135414764914586 0 0.00024750615237169858 0.034128177024921394 0 8.9876354136325233e-06 0.034996348886737909 0 1.5464433914896462e-05 0.034995300815222959 0 8.8983545110074014e-06 0.034999862544128971 0 0.00019689445763577915 0.034084111164031879 0 0.00020256681216634486 0.034169194824329369 0 0.00010019779607226345 0.034192246485308414 0 0.00014991918683017173 0.034788393656711582 0 0.00013821107417759872 0.034732227417629435 0 0.00020256681216634486 0.034169194824329369 0 0.00010019779607226345 0.034192246485308414 0 0.00014643935248895041 0.034298281638549727 0 0.00020256681216634486 0.034169194824329369 0 0.00020992272213917937 0.034203574064739256 0 0.00024527728715378324 0.034135414764914586 0 0.00020256681216634486 0.034169194824329369 0 0.00014643935248895041 0.034298281638549727 0 0.00020992272213917937 0.034203574064739256 0 0.00016652152030119025 0.034325666232579946 0 0.00014643935248895041 0.034298281638549727 0 0.00020992272213917937 0.034203574064739256 0 0.00020992272213917937 0.034203574064739256 0 0.00023671153989765137 0.034141148925250157 0 0.00022423805345551793 0.034187214234632834 0 0.00020992272213917937 0.034203574064739256 0 0.00023671153989765137 0.034141148925250157 0 0.00024527728715378324 0.034135414764914586 0 0.00023671153989765137 0.034141148925250157 0 0.00025358034724240757 0.034076937195514377 0 0.00027562331420537245 0.03407112389717408 0 0.00025358034724240757 0.034076937195514377 0 0.0002444797468598831 0.034111351090182769 0 0.00024527728715378324 0.034135414764914586 0 0.00016071838049303049 0.034316768794554774 0 0.00014644770719442933 0.034339742345458613 0 0.00023671153989765137 0.034141148925250157 0 0.00025358034724240757 0.034076937195514377 0 0.00024527728715378324 0.034135414764914586 0 0.00028604406040179381 0.033873611057579231 0 0.00033397324840959817 0.033942873072884058 0 0.00038972395364686533 0.033839050175617773 0 0.00033397324840959817 0.033942873072884058 0 0.00038389845961951565 0.033868071362408672 0 0.00035005730764039528 0.033958821828310407 0 0.00025358034724240757 0.034076937195514377 0 0.00033397324840959817 0.033942873072884058 0 0.00027562331420537245 0.03407112389717408 0 0.00014644770719442933 0.034339742345458613 0 0.00015390315028010655 0.034313693852443532 0 0.00025358034724240757 0.034076937195514377 0 0.00027737461090534339 0.034010961226041268 0 0.00033397324840959817 0.033942873072884058 0 0.00033397324840959817 0.033942873072884058 0 0.00038972395364686533 0.033839050175617773 0 0.00038389845961951565 0.033868071362408672 0 0.00028604406040179381 0.033873611057579231 0 0.00039651017901369252 0.033803888036890446 0 0.00038972395364686533 0.033839050175617773 0 0.00010705983889773801 0.035028472545644708 0 0.0001054619380100661 0.035012162368781255 0 0.00012651266690131942 0.035004807660692153 0 0.00014644770719442933 0.034339742345458613 0 0.00021473373454106612 0.034404319767132145 0 0.0002444797468598831 0.034111351090182769 0 0.00024527728715378324 0.034135414764914586 0 0.00024750615237169858 0.034128177024921394 0 0.00014644770719442933 0.034339742345458613 0 0.00015256994837456182 0.034566473289774323 0 0.00010705983889773801 0.035028472545644708 0 0.0001054619380100661 0.035012162368781255 0 8.8000139490657453e-05 0.035015245233543775 0 0.0001054619380100661 0.035012162368781255 0 8.8000139490657453e-05 0.035015245233543775 0 0.00010111997052993035 0.0349999400593273 0 8.2580337147457344e-05 0.034989920873633076 0 0.00010111997052993035 0.0349999400593273 0 0.00011198707781073157 0.034979974065255874 0 8.2580337147457344e-05 0.034989920873633076 0 8.8000139490657453e-05 0.035015245233543775 0 0.00010111997052993035 0.0349999400593273 0 0.00012651266690131942 0.035004807660692153 0 0.00011198707781073157 0.034979974065255874 0 0.00014840158692470181 0.034977452083626417 0 0.00010111997052993035 0.0349999400593273 0 0.00012651266690131942 0.035004807660692153 0 0.00011198707781073157 0.034979974065255874 0 0.0001054619380100661 0.035012162368781255 0 0.00010111997052993035 0.0349999400593273 0 0.00012651266690131942 0.035004807660692153 0 0.00012676939892349557 0.034950329178992864 0 0.00011198707781073157 0.034979974065255874 0 0.00014840158692470181 0.034977452083626417 0 8.5852346204756395e-05 0.0349556071706549 0 8.2580337147457344e-05 0.034989920873633076 0 0.00011198707781073157 0.034979974065255874 0 8.5852346204756395e-05 0.0349556071706549 0 0.00012676939892349557 0.034950329178992864 0 0.00011198707781073157 0.034979974065255874 0 0.00047387478455844436 0.03399602557999603 0 0.00047492968709176453 0.033860833283905795 0 0.00040723736664102626 0.033925944634523073 0 0.00047492968709176453 0.033860833283905795 0 0.00042076502359648894 0.033807970800539426 0 0.00040723736664102626 0.033925944634523073 0 0.00031315638267861209 0.034524701737365472 0 0.00027402144050179086 0.034453282290775086 0 0.00017054637302867391 0.034946440945370069 0 0.00012676939892349557 0.034950329178992864 0 0.00014840158692470181 0.034977452083626417 0 0.00021473373454106612 0.034404319767132145 0 0.00027402144050179086 0.034453282290775086 0 0.00039651017901369252 0.033803888036890446 0 0.00047492968709176453 0.033860833283905795 0 0.0004301254020120711 0.033811360054531267 0 0.00047492968709176453 0.033860833283905795 0 0.0004301254020120711 0.033811360054531267 0 0.00042076502359648894 0.033807970800539426 0 0.00042076502359648894 0.033807970800539426 0 0.00041177168287650254 0.033802357221959609 0 0.00039444624748607543 0.033714689953680044 0 0.0004301254020120711 0.033811360054531267 0 0.00042076502359648894 0.033807970800539426 0 0.00041177168287650254 0.033802357221959609 0 0.00039651017901369252 0.033803888036890446 0 0.0004301254020120711 0.033811360054531267 0 0.00038972395364686533 0.033839050175617773 0 0.0004301254020120711 0.033811360054531267 0 0.00041177168287650254 0.033802357221959609 0 0.00038972395364686533 0.033839050175617773 0 0.00041177168287650254 0.033802357221959609 0 0.00038389845961951565 0.033868071362408672 0 0.00038662209894370852 0.033809819067077827 0 0.00041177168287650254 0.033802357221959609 0 0.00038972395364686533 0.033839050175617773 0 0.00038389845961951565 0.033868071362408672 0 0.00041177168287650254 0.033802357221959609 0 0.00038662209894370852 0.033809819067077827 0 0.00039444624748607543 0.033714689953680044 0 0.00038662209894370852 0.033809819067077827 0 0.00034665453643043372 0.033593680285887211 0 0.00039444624748607543 0.033714689953680044 0 0.00038662209894370852 0.033809819067077827 0 0.0003117645071323748 0.033657518425444698 0 0.00034665453643043372 0.033593680285887211 0 0.0001541913628441536 0.033815303649792496 0 0.00022081469167539828 0.033760799479479679 0 0.0003117645071323748 0.033657518425444698 0 0.00038662209894370852 0.033809819067077827 0 0.00036877686699121322 0.033966041906289893 0 0.0003117645071323748 0.033657518425444698 0 0.00023491445462643163 0.033976848094680344 0 0.00025998010307305984 0.033921541279393022 0 0.00038662209894370852 0.033809819067077827 0 0.00036877686699121322 0.033966041906289893 0 0.00035005730764039528 0.033958821828310407 0 0.00038389845961951565 0.033868071362408672 0 0.00038662209894370852 0.033809819067077827 0 0.00035005730764039528 0.033958821828310407 0 0.00033397324840959817 0.033942873072884058 0 0.00035005730764039528 0.033958821828310407 0 0.00027562331420537245 0.03407112389717408 0 0.00035005730764039528 0.033958821828310407 0 0.00028447491030563068 0.03411268134099936 0 0.00027562331420537245 0.03407112389717408 0 0.00018246599134710251 0.034289460173539038 0 0.00028447491030563068 0.03411268134099936 0 0.00022423805345551793 0.034187214234632834 0 0.00023671153989765137 0.034141148925250157 0 0.00022423805345551793 0.034187214234632834 0 0.00027562331420537245 0.03407112389717408 0 0.00028447491030563068 0.03411268134099936 0 0.00022423805345551793 0.034187214234632834 0 0.00027562331420537245 0.03407112389717408 0 0.00018246599134710251 0.034289460173539038 0 0.00028447491030563068 0.03411268134099936 0 0.00026213151882123275 0.034243602006204146 0 0.00036877686699121322 0.033966041906289893 0 0.00035005730764039528 0.033958821828310407 0 0.00028447491030563068 0.03411268134099936 0 0.00023491445462643163 0.033976848094680344 0 0.00018827417505289405 0.034079114310796889 0 0.00036877686699121322 0.033966041906289893 0 0.00028447491030563068 0.03411268134099936 0 0.00026213151882123275 0.034243602006204146 0 0.0001541913628441536 0.033815303649792496 0 7.3281289892217726e-05 0.03408036351905331 0 0.00013142496954604034 0.033942261404986608 0 9.4838872374284467e-05 0.034406467768866834 0 7.3281289892217726e-05 0.03408036351905331 0 6.0160210653098582e-05 0.034170737554318716 0 0.00015862705562376503 0.03413583118530384 0 0.00018827417505289405 0.034079114310796889 0 7.3281289892217726e-05 0.03408036351905331 0 6.0160210653098582e-05 0.034170737554318716 0 0.00013142496954604034 0.033942261404986608 0 0.00013142496954604034 0.033942261404986608 0 0.00018922639510415596 0.033791336073804301 0 0.00015406121854055578 0.033890136702362565 0 0.00018922639510415596 0.033791336073804301 0 0.00022081469167539828 0.033760799479479679 0 0.0002495034808798915 0.033606744260684704 0 0.00013142496954604034 0.033942261404986608 0 0.00018922639510415596 0.033791336073804301 0 0.00022081469167539828 0.033760799479479679 0 0.00022081469167539828 0.033760799479479679 0 0.0002495034808798915 0.033606744260684704 0 0.0003117645071323748 0.033657518425444698 0 0.0001541913628441536 0.033815303649792496 0 0.00013142496954604034 0.033942261404986608 0 0.00022081469167539828 0.033760799479479679 0 0.0002495034808798915 0.033606744260684704 0 0.00025077379400207257 0.033402566190656853 0 0.00030556822584180808 0.033398554640055728 0 0.0002495034808798915 0.033606744260684704 0 0.00030556822584180808 0.033398554640055728 0 0.0003117645071323748 0.033657518425444698 0 0.00018922639510415596 0.033791336073804301 0 0.0002495034808798915 0.033606744260684704 0 0.0001951317767205224 0.03369301246464175 0 0.0002495034808798915 0.033606744260684704 0 0.00025077379400207257 0.033402566190656853 0 0.0001951317767205224 0.03369301246464175 0 0.00025077379400207257 0.033402566190656853 0 0.00035524476712466322 0.032943926896235168 0 0.00029972257159299417 0.033461717891946213 0 0.00025077379400207257 0.033402566190656853 0 0.00032062439512163201 0.033208979011483709 0 0.00035524476712466322 0.032943926896235168 0 0.00032062439512163201 0.033208979011483709 0 0.00033344614451476056 0.033157910340843477 0 0.00035524476712466322 0.032943926896235168 0 0.00025077379400207257 0.033402566190656853 0 0.00032062439512163201 0.033208979011483709 0 0.00030556822584180808 0.033398554640055728 0 0.00033344614451476056 0.033157910340843477 0 0.00032370619847552946 0.033384372463817785 0 0.00030556822584180808 0.033398554640055728 0 0.00032062439512163201 0.033208979011483709 0 0.00033344614451476056 0.033157910340843477 0 0.00030556822584180808 0.033398554640055728 0 0.00033344614451476056 0.033157910340843477 0 0.00029696366882494163 0.033316708506133205 0 0.00029014221044756792 0.033109942174682938 0 0.00033344614451476056 0.033157910340843477 0 0.00029696366882494163 0.033316708506133205 0 0.00032370619847552946 0.033384372463817785 0 0.00029696366882494163 0.033316708506133205 0 0.00032370619847552946 0.033384372463817785 0 0.00031729544268171923 0.033505120969551619 0 0.00032370619847552946 0.033384372463817785 0 0.00034665453643043372 0.033593680285887211 0 0.00031729544268171923 0.033505120969551619 0 0.00032370619847552946 0.033384372463817785 0 0.00030556822584180808 0.033398554640055728 0 0.00034665453643043372 0.033593680285887211 0 0.00030556822584180808 0.033398554640055728 0 0.0003117645071323748 0.033657518425444698 0 0.00034665453643043372 0.033593680285887211 0 0.00034665453643043372 0.033593680285887211 0 0.00033767109418708082 0.033631416451830994 0 0.00039444624748607543 0.033714689953680044 0 0.00034665453643043372 0.033593680285887211 0 0.00033767109418708082 0.033631416451830994 0 0.00031729544268171923 0.033505120969551619 0 0.00033767109418708082 0.033631416451830994 0 0.00033308456546340742 0.033788280878922779 0 0.00027491228309773258 0.033626894513922707 0 0.00033767109418708082 0.033631416451830994 0 0.00027491228309773258 0.033626894513922707 0 0.00031729544268171923 0.033505120969551619 0 0.00033767109418708082 0.033631416451830994 0 0.00039444624748607543 0.033714689953680044 0 0.00033308456546340742 0.033788280878922779 0 0.00042076502359648894 0.033807970800539426 0 0.00033308456546340742 0.033788280878922779 0 0.00040723736664102626 0.033925944634523073 0 0.00042076502359648894 0.033807970800539426 0 0.00039444624748607543 0.033714689953680044 0 0.00033308456546340742 0.033788280878922779 0 0.00033308456546340742 0.033788280878922779 0 0.0001994873024319121 0.033790653389339807 0 0.00027491228309773258 0.033626894513922707 0 0.00033308456546340742 0.033788280878922779 0 0.00022729972296898295 0.033909472766632004 0 0.0001994873024319121 0.033790653389339807 0 0.00033308456546340742 0.033788280878922779 0 0.00022729972296898295 0.033909472766632004 0 0.0002829254574121005 0.03396308149969212 0 0.00020221928092742321 0.034121477238217901 0 0.00022729972296898295 0.033909472766632004 0 0.0002829254574121005 0.03396308149969212 0 0.00033308456546340742 0.033788280878922779 0 0.0002829254574121005 0.03396308149969212 0 0.00040723736664102626 0.033925944634523073 0 0.00031070870583845602 0.034128168190029132 0 0.0002829254574121005 0.03396308149969212 0 0.00040723736664102626 0.033925944634523073 0 0.00017744310201537475 0.033743225816008665 0 9.1871545082754773e-05 0.033556097547079257 0 0.00020443401232153678 0.033517425806210324 0 0.00039706460149768302 0.033481919891349701 0 0.00013823197787707567 0.033340802333347838 0 0.00029070861920542308 0.033625414501622979 0 0.00020443401232153678 0.033517425806210324 0 0.00039706460149768302 0.033481919891349701 0 0.00017786245295524554 0.033745699716902527 0 0.00017744310201537475 0.033743225816008665 0 0.00020221928092742321 0.034121477238217901 0 0.00022729972296898295 0.033909472766632004 0 0.00011218431636550472 0.03395440951864083 0 0.00022729972296898295 0.033909472766632004 0 0.00011218431636550472 0.03395440951864083 0 0.0001994873024319121 0.033790653389339807 0 0.00011218431636550472 0.03395440951864083 0 7.0662429232817132e-05 0.033913418874659006 0 0.0001994873024319121 0.033790653389339807 0 7.0662429232817132e-05 0.033913418874659006 0 0.00020305260341122654 0.033659819358043276 0 0.0001994873024319121 0.033790653389339807 0 0.00017744310201537475 0.033743225816008665 0 0.00017790347993703519 0.033746906450474179 0 0.00020305260341122654 0.033659819358043276 0 0.0001994873024319121 0.033790653389339807 0 0.00027491228309773258 0.033626894513922707 0 0.00020170062529928048 0.033667136355305868 0 0.00020305260341122654 0.033659819358043276 0 0.00017390567360474788 0.033618395422509939 0 0.00020305260341122654 0.033659819358043276 0 0.00018070617391502267 0.033478694159688537 0 0.00017390567360474788 0.033618395422509939 0 0.00020305260341122654 0.033659819358043276 0 0.00025228271419650786 0.033476446235639189 0 0.00018070617391502267 0.033478694159688537 0 0.00020305260341122654 0.033659819358043276 0 0.00025228271419650786 0.033476446235639189 0 0.00027491228309773258 0.033626894513922707 0 0.00025228271419650786 0.033476446235639189 0 0.00027491228309773258 0.033626894513922707 0 0.00031729544268171923 0.033505120969551619 0 0.00029696366882494163 0.033316708506133205 0 0.00025228271419650786 0.033476446235639189 0 0.00031729544268171923 0.033505120969551619 0 0.00029696366882494163 0.033316708506133205 0 0.00025228271419650786 0.033476446235639189 0 0.00021861745626344347 0.033307690370144596 0 0.00021861745626344347 0.033307690370144596 0 5.6897433095658682e-05 0.03331578398841499 0 0.00018070617391502267 0.033478694159688537 0 0.00021861745626344347 0.033307690370144596 0 5.6897433095658682e-05 0.03331578398841499 0 7.8221045242108449e-05 0.033113437063469815 0 5.6897433095658682e-05 0.03331578398841499 0 -0.00015908562412309129 0.03319795946278406 0 7.8221045242108449e-05 0.033113437063469815 0 5.6897433095658682e-05 0.03331578398841499 0 -3.8063686684143574e-06 0.033483677764952244 0 0.00018070617391502267 0.033478694159688537 0 5.6897433095658682e-05 0.03331578398841499 0 -3.8063686684143574e-06 0.033483677764952244 0 -0.00015908562412309129 0.03319795946278406 0 0.00025228271419650786 0.033476446235639189 0 0.00021861745626344347 0.033307690370144596 0 0.00018070617391502267 0.033478694159688537 0 -3.8063686684143574e-06 0.033483677764952244 0 0.00018070617391502267 0.033478694159688537 0 0.00017390567360474788 0.033618395422509939 0 -5.5434836548040995e-05 0.033397692685964736 0 9.1871545082754773e-05 0.033556097547079257 0 -0.00010982194370344973 0.033196183694465191 0 0.00013823197787707567 0.033340802333347838 0 -3.4656826080179225e-05 0.03347970417842859 0 -0.00010982194370344973 0.033196183694465191 0 -3.4656826080179225e-05 0.03347970417842859 0 -0.00031767941879683604 0.033322603255034937 0 0.00016545214078754036 0.033690769310383235 0 0.00020443401232153678 0.033517425806210324 0 -3.4656826080179225e-05 0.03347970417842859 0 0.00020443401232153678 0.033517425806210324 0 0.00013823197787707567 0.033340802333347838 0 -3.4656826080179225e-05 0.03347970417842859 0 -0.00050965186152252158 0.033485732054290236 0 -0.00028968762393859725 0.033573549972363732 0 -0.00031767941879683604 0.033322603255034937 0 -3.4656826080179225e-05 0.03347970417842859 0 -0.00028968762393859725 0.033573549972363732 0 -0.00031767941879683604 0.033322603255034937 0 -0.00061475052270275961 0.033297802617449149 0 -0.00050965186152252158 0.033485732054290236 0 -0.00031767941879683604 0.033322603255034937 0 -0.00061475052270275961 0.033297802617449149 0 -0.00031767941879683604 0.033322603255034937 0 -0.00032612633719643027 0.033028797733306019 0 -0.00050956645197326343 0.032470971050643567 0 -0.00059066948273925248 0.032477743861556968 0 -0.00043082543050000221 0.032790455676599106 0 -0.00057129112228340739 0.032982880125850801 0 -0.00048863338812808494 0.032830666181620116 0 -0.00061475052270275961 0.033297802617449149 0 -0.00032612633719643027 0.033028797733306019 0 -0.00043082543050000221 0.032790455676599106 0 -5.5434836548040995e-05 0.033397692685964736 0 -0.0001641885543749345 0.033303838178110404 0 -0.00010982194370344973 0.033196183694465191 0 -0.00031767941879683604 0.033322603255034937 0 -0.00032612633719643027 0.033028797733306019 0 -3.8063686684143574e-06 0.033483677764952244 0 -0.00032612633719643027 0.033028797733306019 0 -0.00015908562412309129 0.03319795946278406 0 -0.00015908562412309129 0.03319795946278406 0 -0.0002712762871785684 0.033197667321547823 0 7.8221045242108449e-05 0.033113437063469815 0 -0.00032612633719643027 0.033028797733306019 0 -0.00015908562412309129 0.03319795946278406 0 -0.00043082543050000221 0.032790455676599106 0 -0.00015908562412309129 0.03319795946278406 0 -0.0008095807173906038 0.03364194855775305 0 -0.0002712762871785684 0.033197667321547823 0 -0.00015908562412309129 0.03319795946278406 0 -0.00043082543050000221 0.032790455676599106 0 -0.00053974448179133132 0.032490493849032215 0 -0.00059066948273925248 0.032477743861556968 0 -0.00043082543050000221 0.032790455676599106 0 -0.00053974448179133132 0.032490493849032215 0 -0.00070186223807269593 0.03240180181624458 0 -0.00090184797273999522 0.032207373716043104 0 -0.001163644559978365 0.032791700808335426 0 -0.00080096323440306263 0.033194264239062896 0 -9.9373173836878972e-05 0.032810084678946999 0 -0.00080096323440306263 0.033194264239062896 0 -9.9373173836878972e-05 0.032810084678946999 0 -0.0002712762871785684 0.033197667321547823 0 -0.0008095807173906038 0.03364194855775305 0 -0.00080096323440306263 0.033194264239062896 0 -0.0002712762871785684 0.033197667321547823 0 -0.001163644559978365 0.032791700808335426 0 -9.9373173836878972e-05 0.032810084678946999 0 -0.00055985888828742581 0.03219919153382287 0 -9.9373173836878972e-05 0.032810084678946999 0 -0.0002712762871785684 0.033197667321547823 0 7.8221045242108449e-05 0.033113437063469815 0 -9.9373173836878972e-05 0.032810084678946999 0 7.8221045242108449e-05 0.033113437063469815 0 0.00039608296730340677 0.032811348288529565 0 7.8221045242108449e-05 0.033113437063469815 0 0.00029014221044756792 0.033109942174682938 0 0.00039608296730340677 0.032811348288529565 0 0.00021861745626344347 0.033307690370144596 0 7.8221045242108449e-05 0.033113437063469815 0 0.00029014221044756792 0.033109942174682938 0 0.00029696366882494163 0.033316708506133205 0 0.00021861745626344347 0.033307690370144596 0 0.00029014221044756792 0.033109942174682938 0 0.00033344614451476056 0.033157910340843477 0 0.00039608296730340677 0.032811348288529565 0 0.00035524476712466322 0.032943926896235168 0 0.00033344614451476056 0.033157910340843477 0 0.00029014221044756792 0.033109942174682938 0 0.00039608296730340677 0.032811348288529565 0 -9.9373173836878972e-05 0.032810084678946999 0 0.00039608296730340677 0.032811348288529565 0 0.00059932973448980232 0.031995908822098656 0 0.00039608296730340677 0.032811348288529565 0 0.00035524476712466322 0.032943926896235168 0 0.00059932973448980232 0.031995908822098656 0 0.00035524476712466322 0.032943926896235168 0 0.00059932973448980232 0.031995908822098656 0 0.00059433778243775522 0.03315289435803298 0 0.00093467804909060515 0.03165215145902843 0 0.001217431365114047 0.031171556189584365 0 -0.00079832288735377788 0.031197901034993022 0 0.00059932973448980232 0.031995908822098656 0 0.00012182804813908559 0.029236395610678985 0 -0.0013231436881963852 0.029596343610053026 0 -0.00079832288735377788 0.031197901034993022 0 0.00012182804813908559 0.029236395610678985 0 -0.0014885711734211771 0.032077054047722937 0 -0.00079832288735377788 0.031197901034993022 0 -0.00055985888828742581 0.03219919153382287 0 -0.00079832288735377788 0.031197901034993022 0 -0.00055985888828742581 0.03219919153382287 0 0.00059932973448980232 0.031995908822098656 0 -9.9373173836878972e-05 0.032810084678946999 0 -0.00055985888828742581 0.03219919153382287 0 0.00059932973448980232 0.031995908822098656 0 0.00012182804813908559 0.029236395610678985 0 0.0016598353669459893 0.027357419059081928 0 2.826482479312546e-05 0.02703239844075702 0 -0.0010751380299217751 0.027961377307609354 0 0.00012182804813908559 0.029236395610678985 0 2.826482479312546e-05 0.02703239844075702 0 -0.0010751380299217751 0.027961377307609354 0 -0.0013231436881963852 0.029596343610053026 0 0.00012182804813908559 0.029236395610678985 0 0.00059932973448980232 0.031995908822098656 0 0.00012182804813908559 0.029236395610678985 0 0.0022293159955242186 0.029193165883621613 0 0.00035524476712466322 0.032943926896235168 0 0.00059433778243775522 0.03315289435803298 0 0.00029972257159299417 0.033461717891946213 0 0.00059433778243775522 0.03315289435803298 0 0.00045688594192966412 0.033644023820615925 0 0.00029972257159299417 0.033461717891946213 0 0.001217431365114047 0.031171556189584365 0 0.0015410732907601133 0.03045355211642289 0 0.0022293159955242186 0.029193165883621613 0 0.0016598353669459893 0.027357419059081928 0 0.0030847998578818364 0.026961549066921015 0 0.00012182804813908559 0.029236395610678985 0 0.0022293159955242186 0.029193165883621613 0 0.0016598353669459893 0.027357419059081928 0 0.0016598353669459893 0.027357419059081928 0 0.0017640703747084741 0.026366743451879372 0 0.0030847998578818364 0.026961549066921015 0 0.0016598353669459893 0.027357419059081928 0 0.0017640703747084741 0.026366743451879372 0 0.00086254104262064658 0.026058569264938391 0 0.0017640703747084741 0.026366743451879372 0 0.0030847998578818364 0.026961549066921015 0 0.0024672207992351529 0.026011050948580736 0 0.0030847998578818364 0.026961549066921015 0 0.0024672207992351529 0.026011050948580736 0 0.003281815326823226 0.02555411855615055 0 0.0024672207992351529 0.026011050948580736 0 0.0025993968218966119 0.025421044382340718 0 0.0018765933232272728 0.025058624524069196 0 0.0024672207992351529 0.026011050948580736 0 0.0025993968218966119 0.025421044382340718 0 0.003281815326823226 0.02555411855615055 0 0.0017640703747084741 0.026366743451879372 0 0.0015807769601111005 0.025697971898669694 0 0.00086254104262064658 0.026058569264938391 0 0.0017640703747084741 0.026366743451879372 0 0.0024672207992351529 0.026011050948580736 0 0.0015807769601111005 0.025697971898669694 0 0.0024672207992351529 0.026011050948580736 0 0.0015807769601111005 0.025697971898669694 0 0.0018765933232272728 0.025058624524069196 0 0.0015807769601111005 0.025697971898669694 0 0.00090762791926060887 0.02501878475252544 0 0.0018765933232272728 0.025058624524069196 0 0.0003990292515913689 0.025427552574843325 0 0.00086254104262064658 0.026058569264938391 0 0.00090762791926060887 0.02501878475252544 0 0.0015807769601111005 0.025697971898669694 0 0.00086254104262064658 0.026058569264938391 0 0.00090762791926060887 0.02501878475252544 0 0.0003990292515913689 0.025427552574843325 0 0.00086254104262064658 0.026058569264938391 0 -0.00023541144342837032 0.025739453747437323 0 0.00086254104262064658 0.026058569264938391 0 2.826482479312546e-05 0.02703239844075702 0 -0.00023541144342837032 0.025739453747437323 0 0.0016598353669459893 0.027357419059081928 0 0.00086254104262064658 0.026058569264938391 0 2.826482479312546e-05 0.02703239844075702 0 -0.0011811969536183033 0.026255800785301275 0 2.826482479312546e-05 0.02703239844075702 0 -0.00023541144342837032 0.025739453747437323 0 -0.0010751380299217751 0.027961377307609354 0 -0.0011811969536183033 0.026255800785301275 0 2.826482479312546e-05 0.02703239844075702 0 -0.0012860387087466813 0.024922876556720531 0 -0.0011811969536183033 0.026255800785301275 0 -0.00023541144342837032 0.025739453747437323 0 -0.0012860387087466813 0.024922876556720531 0 -0.00023541144342837032 0.025739453747437323 0 0.00011643285908022278 0.024736896181740332 0 0.0003990292515913689 0.025427552574843325 0 -0.00023541144342837032 0.025739453747437323 0 0.00011643285908022278 0.024736896181740332 0 -0.0012860387087466813 0.024922876556720531 0 0.00011643285908022278 0.024736896181740332 0 -0.00040618151229077732 0.024059187897115773 0 -0.0001303625087744574 0.024722715177004074 0 0.00018654094201160976 0.024495472219306293 0 0.00011643285908022278 0.024736896181740332 0 -0.00023627310859788281 0.024297179689644018 0 0.0004993464260430986 0.024317136296709237 0 0.00016776132639808805 0.024487642740170779 0 0.00018654094201160976 0.024495472219306293 0 0.00011643285908022278 0.024736896181740332 0 0.00090762791926060887 0.02501878475252544 0 0.0004993464260430986 0.024317136296709237 0 0.0003990292515913689 0.025427552574843325 0 0.00011643285908022278 0.024736896181740332 0 0.00090762791926060887 0.02501878475252544 0 0.00090762791926060887 0.02501878475252544 0 0.0004993464260430986 0.024317136296709237 0 0.0012262970746736773 0.024207013454388988 0 0.0004993464260430986 0.024317136296709237 0 0.00056179838859619284 0.023342898127668155 0 0.0012262970746736773 0.024207013454388988 0 0.00056179838859619284 0.023342898127668155 0 0.0012262970746736773 0.024207013454388988 0 0.0017439657732285601 0.023426166651818087 0 0.0008749486844634414 0.024878169464972118 0 0.0009390978544732148 0.024956142046417329 0 0.0010161738338383399 0.024868447950139223 0 0.00018654094201160976 0.024495472219306293 0 0.0010108954523604407 0.024460744338171816 0 -0.00023627310859788281 0.024297179689644018 0 0.0004993464260430986 0.024317136296709237 0 0.00056179838859619284 0.023342898127668155 0 -0.00044763997886353526 0.024106158826003851 0 0.00018654094201160976 0.024495472219306293 0 0.0008749486844634414 0.024878169464972118 0 0.0010161738338383399 0.024868447950139223 0 0.00093776703116865495 0.02476784038427372 0 0.0010161738338383399 0.024868447950139223 0 0.00093776703116865495 0.02476784038427372 0 0.0010961808616109959 0.024781280678462206 0 0.00056179838859619284 0.023342898127668155 0 0.0014072219834671935 0.022335089473771146 0 0.0017439657732285601 0.023426166651818087 0 0.0010108954523604407 0.024460744338171816 0 0.0017877783327903778 0.024731969108348566 0 0.00093776703116865495 0.02476784038427372 0 0.0010961808616109959 0.024781280678462206 0 0.0010119221597841156 0.024689629411928357 0 0.0010961808616109959 0.024781280678462206 0 0.0010956880272149302 0.024646947498888318 0 0.0010119221597841156 0.024689629411928357 0 0.00093776703116865495 0.02476784038427372 0 0.0010119221597841156 0.024689629411928357 0 0.00089354926930275923 0.024623350186741593 0 0.0026350547733042422 0.02561111622034588 0 0.0022198110001446394 0.026154551710588284 0 0.0033847489869372411 0.028823959424893335 0 0.0038772075357719599 0.02808544358990275 0 0.0031269500275117224 0.028500165667973199 0 0.0033847489869372411 0.028823959424893335 0 0.0038772075357719599 0.02808544358990275 0 0.0038185282952219279 0.028897235935921233 0 0.0014072219834671935 0.022335089473771146 0 0.0025762905145498231 0.022621704006849964 0 0.0022254690619208191 0.021343294034632952 0 0.0017877783327903778 0.024731969108348566 0 0.0022198110001446394 0.026154551710588284 0 0.0010961808616109959 0.024781280678462206 0 0.0010956880272149302 0.024646947498888318 0 0.0011749173539589556 0.024694753922063269 0 0.0014072219834671935 0.022335089473771146 0 0.0025762905145498231 0.022621704006849964 0 0.0017439657732285601 0.023426166651818087 0 0.0026350547733042422 0.02561111622034588 0 0.0028954296645215104 0.025540036408548843 0 0.0038772075357719599 0.02808544358990275 0 0.0038111251735875218 0.026825692276155416 0 0.0031847590881191306 0.027526699825265309 0 0.002974552530510809 0.023964621977417506 0 0.0017439657732285601 0.023426166651818087 0 0.0020683369539534402 0.024306983104178243 0 0.0025762905145498231 0.022621704006849964 0 0.002974552530510809 0.023964621977417506 0 0.0017439657732285601 0.023426166651818087 0 0.0012262970746736773 0.024207013454388988 0 0.0017439657732285601 0.023426166651818087 0 0.0020683369539534402 0.024306983104178243 0 0.0012262970746736773 0.024207013454388988 0 0.0020683369539534402 0.024306983104178243 0 0.0018765933232272728 0.025058624524069196 0 0.0020683369539534402 0.024306983104178243 0 0.0018765933232272728 0.025058624524069196 0 0.0025653883686065147 0.024872342494029448 0 0.00090762791926060887 0.02501878475252544 0 0.0012262970746736773 0.024207013454388988 0 0.0018765933232272728 0.025058624524069196 0 0.0028954296645215104 0.025540036408548843 0 0.0029782029616688965 0.025568567274749723 0 0.002974552530510809 0.023964621977417506 0 0.0025653883686065147 0.024872342494029448 0 0.003281815326823226 0.02555411855615055 0 0.002974552530510809 0.023964621977417506 0 0.0020683369539534402 0.024306983104178243 0 0.0025653883686065147 0.024872342494029448 0 0.0025993968218966119 0.025421044382340718 0 0.0018765933232272728 0.025058624524069196 0 0.0025653883686065147 0.024872342494029448 0 0.0025993968218966119 0.025421044382340718 0 0.0025653883686065147 0.024872342494029448 0 0.003281815326823226 0.02555411855615055 0 0.0032228792695387603 0.026381470188052546 0 0.003281815326823226 0.02555411855615055 0 0.0032999094420496315 0.025568898640051307 0 0.0038111251735875218 0.026825692276155416 0 0.0032228792695387603 0.026381470188052546 0 0.003281815326823226 0.02555411855615055 0 0.0032228792695387603 0.026381470188052546 0 0.0022561044956042704 0.027029385587840991 0 0.0032999094420496315 0.025568898640051307 0 0.0012443842043616984 0.03037217294123316 0 0.001577904357007434 0.030082658591949526 0 0.00011709950393541598 0.033857904988424212 0 -2.2988857741155677e-05 0.033803187848013443 0 0.00023650625838729725 0.033858085012973771 0 0.0038111251735875218 0.026825692276155416 0 0.0032228792695387603 0.026381470188052546 0 0.0031847590881191306 0.027526699825265309 0 0.0032228792695387603 0.026381470188052546 0 0.0022561044956042704 0.027029385587840991 0 0.0031847590881191306 0.027526699825265309 0 0.0031847590881191306 0.027526699825265309 0 0.0026690603382380461 0.028079637646707904 0 0.0031269500275117224 0.028500165667973199 0 0.0038772075357719599 0.02808544358990275 0 0.0031847590881191306 0.027526699825265309 0 0.0031269500275117224 0.028500165667973199 0 0.0022561044956042704 0.027029385587840991 0 0.0031847590881191306 0.027526699825265309 0 0.0026690603382380461 0.028079637646707904 0 0.0022561044956042704 0.027029385587840991 0 0.0022221669959064721 0.02819400222729351 0 0.0026690603382380461 0.028079637646707904 0 0.0022561044956042704 0.027029385587840991 0 0.0022221669959064721 0.02819400222729351 0 0.001373222841527838 0.028735417770080322 0 0.0022221669959064721 0.02819400222729351 0 0.0026690603382380461 0.028079637646707904 0 0.0025792167465789936 0.028889172784531306 0 0.0022221669959064721 0.02819400222729351 0 0.0025792167465789936 0.028889172784531306 0 0.001373222841527838 0.028735417770080322 0 0.0033847489869372411 0.028823959424893335 0 0.0031269500275117224 0.028500165667973199 0 0.0029833421597580696 0.02903559716459438 0 0.0025792167465789936 0.028889172784531306 0 0.0031269500275117224 0.028500165667973199 0 0.0029833421597580696 0.02903559716459438 0 0.0026690603382380461 0.028079637646707904 0 0.0025792167465789936 0.028889172784531306 0 0.0031269500275117224 0.028500165667973199 0 0.00042337711327151777 0.033226143862272024 0 0.00069418873073634696 0.033182959379133695 0 0.00045514546228090551 0.032592863476346517 0 9.8695974917847043e-05 0.033259906797589479 0 0.0014453882938812272 0.032582425672134534 0 0.00085249838653662219 0.032078034583485251 0 0.00045514546228090551 0.032592863476346517 0 0.0014453882938812272 0.032582425672134534 0 0.00085249838653662219 0.032078034583485251 0 0.0014453882938812272 0.032582425672134534 0 0.0014129024018317057 0.031736362618514438 0 0.00045514546228090551 0.032592863476346517 0 -0.00012063759424645211 0.033090373779685552 0 0.00098562623932391884 0.030936451500289765 0 0.0025792167465789936 0.028889172784531306 0 0.001373222841527838 0.028735417770080322 0 0.00111255290289304 0.030754995145488954 0 0.00045514546228090551 0.032592863476346517 0 -0.00012063759424645211 0.033090373779685552 0 9.8695974917847043e-05 0.033259906797589479 0 -2.2988857741155677e-05 0.033803187848013443 0 -0.00012063759424645211 0.033090373779685552 0 0.00010905457583876204 0.033671028481978081 0 -0.00012063759424645211 0.033090373779685552 0 9.8695974917847043e-05 0.033259906797589479 0 0.00010905457583876204 0.033671028481978081 0 0.0012443842043616984 0.03037217294123316 0 0.00096472640567008634 0.030703625237048553 0 9.8695974917847043e-05 0.033259906797589479 0 0.00022210906468169786 0.033607244429411674 0 0.00026377335590315842 0.03352116212829389 0 9.8695974917847043e-05 0.033259906797589479 0 0.00022210906468169786 0.033607244429411674 0 0.00010905457583876204 0.033671028481978081 0 0.00022210906468169786 0.033607244429411674 0 0.00020406913665712699 0.033820058835906108 0 0.00027686920602016882 0.033769911451181939 0 0.00022210906468169786 0.033607244429411674 0 0.00020406913665712699 0.033820058835906108 0 0.00010905457583876204 0.033671028481978081 0 0.00020406913665712699 0.033820058835906108 0 0.00010905457583876204 0.033671028481978081 0 0.00012486838294336795 0.033847161401579812 0 -2.2988857741155677e-05 0.033803187848013443 0 0.00010905457583876204 0.033671028481978081 0 0.00012486838294336795 0.033847161401579812 0 0.00011709950393541598 0.033857904988424212 0 0.00012486838294336795 0.033847161401579812 0 0.00015735709542389153 0.033881593640563534 0 0.00011709950393541598 0.033857904988424212 0 -2.2988857741155677e-05 0.033803187848013443 0 0.00012486838294336795 0.033847161401579812 0 0.00020406913665712699 0.033820058835906108 0 0.00012486838294336795 0.033847161401579812 0 0.00019374267361069758 0.033917127129621291 0 0.00020406913665712699 0.033820058835906108 0 0.00019374267361069758 0.033917127129621291 0 0.00026472387216986006 0.033945685991778794 0 0.00012486838294336795 0.033847161401579812 0 0.00019374267361069758 0.033917127129621291 0 0.00015735709542389153 0.033881593640563534 0 0.00019374267361069758 0.033917127129621291 0 0.00017454428567971169 0.033901469544429672 0 0.00015735709542389153 0.033881593640563534 0 0.00017454428567971169 0.033901469544429672 0 0.00017246234359720501 0.033816988140540093 0 0.00015735709542389153 0.033881593640563534 0 0.00017454428567971169 0.033901469544429672 0 0.00017246234359720501 0.033816988140540093 0 0.00018356625672625484 0.033748734665370629 0 0.00017454428567971169 0.033901469544429672 0 0.00018356625672625484 0.033748734665370629 0 0.00016703108409971333 0.033864069173379044 0 0.00017246234359720501 0.033816988140540093 0 0.00020862824795950437 0.03370365550878511 0 0.00018356625672625484 0.033748734665370629 0 0.00017246234359720501 0.033816988140540093 0 0.00015735709542389153 0.033881593640563534 0 0.00016938611308625487 0.033826394487611752 0 0.00011709950393541598 0.033857904988424212 0 0.00015735709542389153 0.033881593640563534 0 0.00016938611308625487 0.033826394487611752 0 0.00016938611308625487 0.033826394487611752 0 0.00023650625838729725 0.033858085012973771 0 0.00026505220220896024 0.033729447205653497 0 0.00011709950393541598 0.033857904988424212 0 0.00016938611308625487 0.033826394487611752 0 0.00023650625838729725 0.033858085012973771 0 0.0015410732907601133 0.03045355211642289 0 0.001577904357007434 0.030082658591949526 0 0.0030847998578818364 0.026961549066921015 0 0.003281815326823226 0.02555411855615055 0 0.0032999094420496315 0.025568898640051307 0 0.00045688594192966412 0.033644023820615925 0 0.00023650625838729725 0.033858085012973771 0 0.00026505220220896024 0.033729447205653497 0 0.00016938611308625487 0.033826394487611752 0 0.00026505220220896024 0.033729447205653497 0 0.00020862824795950437 0.03370365550878511 0 0.00017246234359720501 0.033816988140540093 0 0.00016938611308625487 0.033826394487611752 0 0.00020862824795950437 0.03370365550878511 0 0.00026505220220896024 0.033729447205653497 0 0.00020862824795950437 0.03370365550878511 0 0.00029972257159299417 0.033461717891946213 0 0.00020862824795950437 0.03370365550878511 0 0.00029972257159299417 0.033461717891946213 0 0.00022094635688011972 0.033592724606703518 0 0.00045688594192966412 0.033644023820615925 0 0.00026505220220896024 0.033729447205653497 0 0.00029972257159299417 0.033461717891946213 0 0.00025077379400207257 0.033402566190656853 0 0.00029972257159299417 0.033461717891946213 0 0.00022094635688011972 0.033592724606703518 0 0.00025077379400207257 0.033402566190656853 0 0.00022094635688011972 0.033592724606703518 0 0.0001951317767205224 0.03369301246464175 0 0.0001951317767205224 0.03369301246464175 0 0.00018356625672625484 0.033748734665370629 0 0.00016703108409971333 0.033864069173379044 0 0.00022094635688011972 0.033592724606703518 0 0.0001951317767205224 0.03369301246464175 0 0.00018356625672625484 0.033748734665370629 0 0.00020862824795950437 0.03370365550878511 0 0.00022094635688011972 0.033592724606703518 0 0.00018356625672625484 0.033748734665370629 0 0.00013971840210012822 0.033991464609595019 0 0.00015406121854055578 0.033890136702362565 0 0.0001117876177078236 0.034021259760549434 0 0.00013971840210012822 0.033991464609595019 0 0.00016703108409971333 0.033864069173379044 0 0.00015406121854055578 0.033890136702362565 0 0.0001951317767205224 0.03369301246464175 0 0.00016703108409971333 0.033864069173379044 0 0.00015406121854055578 0.033890136702362565 0 0.00018922639510415596 0.033791336073804301 0 0.0001951317767205224 0.03369301246464175 0 0.00015406121854055578 0.033890136702362565 0 0.00013142496954604034 0.033942261404986608 0 0.00015406121854055578 0.033890136702362565 0 0.0001117876177078236 0.034021259760549434 0 6.0160210653098582e-05 0.034170737554318716 0 0.0001117876177078236 0.034021259760549434 0 7.1002710609515887e-05 0.034139737621999428 0 6.0160210653098582e-05 0.034170737554318716 0 0.00013142496954604034 0.033942261404986608 0 0.0001117876177078236 0.034021259760549434 0 6.0160210653098582e-05 0.034170737554318716 0 7.1002710609515887e-05 0.034139737621999428 0 4.5456467434374939e-05 0.034250380599289067 0 7.1002710609515887e-05 0.034139737621999428 0 8.1808781913321105e-05 0.034131190534323917 0 3.8368640714773787e-05 0.034219304673786151 0 7.1002710609515887e-05 0.034139737621999428 0 0.00010765063997253051 0.034069406221301085 0 8.1808781913321105e-05 0.034131190534323917 0 7.1002710609515887e-05 0.034139737621999428 0 3.8368640714773787e-05 0.034219304673786151 0 4.5456467434374939e-05 0.034250380599289067 0 0.0001117876177078236 0.034021259760549434 0 7.1002710609515887e-05 0.034139737621999428 0 0.00010765063997253051 0.034069406221301085 0 0.00013971840210012822 0.033991464609595019 0 0.0001117876177078236 0.034021259760549434 0 0.00010765063997253051 0.034069406221301085 0 0.00010765063997253051 0.034069406221301085 0 0.00014668382823434771 0.034059986093417913 0 8.1808781913321105e-05 0.034131190534323917 0 0.00013971840210012822 0.033991464609595019 0 0.00010765063997253051 0.034069406221301085 0 0.00014668382823434771 0.034059986093417913 0 8.1808781913321105e-05 0.034131190534323917 0 6.6649750071869882e-05 0.034186305175052133 0 4.5456274791239554e-05 0.034183403640724558 0 8.1808781913321105e-05 0.034131190534323917 0 0.00013593859885300104 0.034123493926907694 0 6.6649750071869882e-05 0.034186305175052133 0 0.00014668382823434771 0.034059986093417913 0 8.1808781913321105e-05 0.034131190534323917 0 0.00013593859885300104 0.034123493926907694 0 0.00014668382823434771 0.034059986093417913 0 0.00013593859885300104 0.034123493926907694 0 0.00020481902632331952 0.034035464130390589 0 0.00014668382823434771 0.034059986093417913 0 0.00020481902632331952 0.034035464130390589 0 0.00017689007305758697 0.033978507642264032 0 0.00020481902632331952 0.034035464130390589 0 0.00017689007305758697 0.033978507642264032 0 0.00021696562934897659 0.033978667578475702 0 0.00013971840210012822 0.033991464609595019 0 0.00014668382823434771 0.034059986093417913 0 0.00017689007305758697 0.033978507642264032 0 0.00013971840210012822 0.033991464609595019 0 0.00016703108409971333 0.033864069173379044 0 0.00017689007305758697 0.033978507642264032 0 0.00017454428567971169 0.033901469544429672 0 0.00016703108409971333 0.033864069173379044 0 0.00017689007305758697 0.033978507642264032 0 0.00017454428567971169 0.033901469544429672 0 0.00017689007305758697 0.033978507642264032 0 0.00021696562934897659 0.033978667578475702 0 0.00019374267361069758 0.033917127129621291 0 0.00017454428567971169 0.033901469544429672 0 0.00021696562934897659 0.033978667578475702 0 0.00021696562934897659 0.033978667578475702 0 0.00026472387216986006 0.033945685991778794 0 0.00026618508609914333 0.034018634305884123 0 0.00019374267361069758 0.033917127129621291 0 0.00021696562934897659 0.033978667578475702 0 0.00026472387216986006 0.033945685991778794 0 0.00026618508609914333 0.034018634305884123 0 0.00037370316013165053 0.03401515215260887 0 0.00021330042250718512 0.034103428686568932 0 0.00020481902632331952 0.034035464130390589 0 0.00026618508609914333 0.034018634305884123 0 0.00021330042250718512 0.034103428686568932 0 0.00020481902632331952 0.034035464130390589 0 0.00021696562934897659 0.033978667578475702 0 0.00026618508609914333 0.034018634305884123 0 0.00026472387216986006 0.033945685991778794 0 0.00026618508609914333 0.034018634305884123 0 0.00037370316013165053 0.03401515215260887 0 0.00020406913665712699 0.033820058835906108 0 0.00026472387216986006 0.033945685991778794 0 0.00027686920602016882 0.033769911451181939 0 0.00026472387216986006 0.033945685991778794 0 0.00037370316013165053 0.03401515215260887 0 0.00027686920602016882 0.033769911451181939 0 0.00022210906468169786 0.033607244429411674 0 0.00027686920602016882 0.033769911451181939 0 0.00026377335590315842 0.03352116212829389 0 0.00027686920602016882 0.033769911451181939 0 0.0003863412853030363 0.033692811454634999 0 0.00026377335590315842 0.03352116212829389 0 0.00037370316013165053 0.03401515215260887 0 0.00027686920602016882 0.033769911451181939 0 0.0003863412853030363 0.033692811454634999 0 0.00037370316013165053 0.03401515215260887 0 0.0003863412853030363 0.033692811454634999 0 0.00063312218696294866 0.033682361822296204 0 0.00022842366042807316 0.033867018812388072 0 0.00023519695842259608 0.033785673823374163 0 0.0003863412853030363 0.033692811454634999 0 0.0004737281290741919 0.033497788101316699 0 0.00063312218696294866 0.033682361822296204 0 0.0009476021424842093 0.03318717447568182 0 0.00069418873073634696 0.033182959379133695 0 0.0003863412853030363 0.033692811454634999 0 0.0004737281290741919 0.033497788101316699 0 0.00026377335590315842 0.03352116212829389 0 0.0022496544444034075 0.032215672087764782 0 0.0014453882938812272 0.032582425672134534 0 0.0018874087769193333 0.031770710198939636 0 0.0014453882938812272 0.032582425672134534 0 0.0014129024018317057 0.031736362618514438 0 0.0018874087769193333 0.031770710198939636 0 0.00027157504339428342 0.033464716709343111 0 0.00029429172387940376 0.033806176194395902 0 -0.00028092228277949179 0.034519208560517045 0 -0.0003536652918101807 0.034541709911294072 0 -7.1384576395852115e-05 0.034557381240008969 0 0.0001454431898642351 0.03464878860105973 0 0.0001122012135547221 0.034457241620301809 0 -7.1384576395852115e-05 0.034557381240008969 0 0.0001482126526147487 0.033540251204017782 0 0.00027157504339428342 0.033464716709343111 0 0.0009476021424842093 0.03318717447568182 0 0.00027157504339428342 0.033464716709343111 0 0.0001454431898642351 0.03464878860105973 0 0.00027220012693987127 0.034442675253514611 0 0.0001122012135547221 0.034457241620301809 0 0.00027157504339428342 0.033464716709343111 0 0.00023519695842259608 0.033785673823374163 0 0.0004737281290741919 0.033497788101316699 0 0.00080494706266163952 0.033441130969022584 0 0.00063312218696294866 0.033682361822296204 0 0.00037370316013165053 0.03401515215260887 0 0.00027220012693987127 0.034442675253514611 0 0.0001696749495015515 0.034245379665327855 0 0.00027220012693987127 0.034442675253514611 0 0.0001122012135547221 0.034457241620301809 0 0.0001696749495015515 0.034245379665327855 0 0.0001122012135547221 0.034457241620301809 0 5.5338585753381689e-05 0.034377694566314461 0 -7.1384576395852115e-05 0.034557381240008969 0 0.0001122012135547221 0.034457241620301809 0 5.5338585753381689e-05 0.034377694566314461 0 0.0001696749495015515 0.034245379665327855 0 5.5338585753381689e-05 0.034377694566314461 0 8.8758061728496724e-05 0.034237400950101735 0 5.8471815801238737e-06 0.034396414912489508 0 5.5338585753381689e-05 0.034377694566314461 0 0.0001696749495015515 0.034245379665327855 0 8.8758061728496724e-05 0.034237400950101735 0 0.0001696749495015515 0.034245379665327855 0 0.00021330042250718512 0.034103428686568932 0 8.8758061728496724e-05 0.034237400950101735 0 0.00037370316013165053 0.03401515215260887 0 0.0001696749495015515 0.034245379665327855 0 0.00021330042250718512 0.034103428686568932 0 0.00013593859885300104 0.034123493926907694 0 0.00021330042250718512 0.034103428686568932 0 8.8758061728496724e-05 0.034237400950101735 0 0.00013593859885300104 0.034123493926907694 0 0.00020481902632331952 0.034035464130390589 0 0.00021330042250718512 0.034103428686568932 0 0.00013593859885300104 0.034123493926907694 0 8.8758061728496724e-05 0.034237400950101735 0 6.6649750071869882e-05 0.034186305175052133 0 8.8758061728496724e-05 0.034237400950101735 0 2.8585082657035045e-06 0.034314034677893415 0 5.8471815801238737e-06 0.034396414912489508 0 8.8758061728496724e-05 0.034237400950101735 0 2.8585082657035045e-06 0.034314034677893415 0 6.6649750071869882e-05 0.034186305175052133 0 2.8585082657035045e-06 0.034314034677893415 0 -3.3071966548201165e-05 0.034506488606263867 0 -0.0001222738979925748 0.034359031603261286 0 2.8585082657035045e-06 0.034314034677893415 0 -0.0001222738979925748 0.034359031603261286 0 -3.5466245836805606e-05 0.034269035614022177 0 -3.3071966548201165e-05 0.034506488606263867 0 5.8471815801238737e-06 0.034396414912489508 0 -7.1384576395852115e-05 0.034557381240008969 0 2.8585082657035045e-06 0.034314034677893415 0 -3.3071966548201165e-05 0.034506488606263867 0 5.8471815801238737e-06 0.034396414912489508 0 5.5338585753381689e-05 0.034377694566314461 0 5.8471815801238737e-06 0.034396414912489508 0 -7.1384576395852115e-05 0.034557381240008969 0 -7.1384576395852115e-05 0.034557381240008969 0 -4.6188108600592338e-05 0.03463053011712372 0 -7.4593887339265185e-05 0.034619849139934392 0 -3.3071966548201165e-05 0.034506488606263867 0 -4.6188108600592338e-05 0.03463053011712372 0 -5.5497939315137832e-05 0.034650326470388008 0 -3.3071966548201165e-05 0.034506488606263867 0 -7.1384576395852115e-05 0.034557381240008969 0 -4.6188108600592338e-05 0.03463053011712372 0 -7.4593887339265185e-05 0.034619849139934392 0 -2.2623332674171793e-05 0.034741613889960311 0 -8.2280276579389204e-06 0.034673665720665429 0 -4.6188108600592338e-05 0.03463053011712372 0 -7.4593887339265185e-05 0.034619849139934392 0 -2.2623332674171793e-05 0.034741613889960311 0 -7.4593887339265185e-05 0.034619849139934392 0 -8.2280276579389204e-06 0.034673665720665429 0 -7.4117787003908977e-05 0.034552723100446055 0 -7.4593887339265185e-05 0.034619849139934392 0 -0.00015311247927319712 0.034524871223124365 0 -7.4117787003908977e-05 0.034552723100446055 0 -7.1384576395852115e-05 0.034557381240008969 0 -7.4593887339265185e-05 0.034619849139934392 0 -0.0001632556984463931 0.034552981817727015 0 -0.00028092228277949179 0.034519208560517045 0 -7.1384576395852115e-05 0.034557381240008969 0 -0.0001632556984463931 0.034552981817727015 0 -7.4593887339265185e-05 0.034619849139934392 0 -0.0001632556984463931 0.034552981817727015 0 -0.00015311247927319712 0.034524871223124365 0 1.772013354829633e-05 0.03483230774745745 0 -2.2623332674171793e-05 0.034741613889960311 0 -3.2220386707891781e-07 0.034999278861443432 0 1.772013354829633e-05 0.03483230774745745 0 -3.2220386707891781e-07 0.034999278861443432 0 1.0021447174312429e-07 0.034999943196311181 0 1.772013354829633e-05 0.03483230774745745 0 -2.2623332674171793e-05 0.034741613889960311 0 -8.2280276579389204e-06 0.034673665720665429 0 -2.2623332674171793e-05 0.034741613889960311 0 -5.5497939315137832e-05 0.034650326470388008 0 -3.2220386707891781e-07 0.034999278861443432 0 -4.6188108600592338e-05 0.03463053011712372 0 -2.2623332674171793e-05 0.034741613889960311 0 -5.5497939315137832e-05 0.034650326470388008 0 -3.3256764768645112e-09 0.034999996766953617 0 3.1383563399401265e-06 0.035001374785835156 0 4.2968313080750459e-09 0.035000008715835577 0 -2.3896661679691001e-09 0.034999716601372001 0 2.8825094202997365e-05 0.034825326289448059 0 -5.5497939315137832e-05 0.034650326470388008 0 -3.2220386707891781e-07 0.034999278861443432 0 -0.00013272106251180338 0.03459915561272827 0 3.1383563399401265e-06 0.035001374785835156 0 4.2968313080750459e-09 0.035000008715835577 0 1.4711050608232729e-10 0.034999980584642508 0 -3.3071966548201165e-05 0.034506488606263867 0 -5.5497939315137832e-05 0.034650326470388008 0 -0.0001222738979925748 0.034359031603261286 0 -5.5497939315137832e-05 0.034650326470388008 0 -0.00013272106251180338 0.03459915561272827 0 -0.0001222738979925748 0.034359031603261286 0 2.8825094202997365e-05 0.034825326289448059 0 5.6116714552941694e-05 0.034731965217707481 0 3.1383563399401265e-06 0.035001374785835156 0 1.4711050608232729e-10 0.034999980584642508 0 6.7273799036879938e-06 0.034992712825209077 0 3.1383563399401265e-06 0.035001374785835156 0 1.6242112143158842e-05 0.034991397325669853 0 6.7273799036879938e-06 0.034992712825209077 0 4.2701078114650648e-06 0.035001644633730178 0 0.0015110414919634488 0.035006458907346404 0 1.4711050608232729e-10 0.034999980584642508 0 6.7273799036879938e-06 0.034992712825209077 0 1.2275272607241779e-06 0.034984829826645129 0 1.6242112143158842e-05 0.034991397325669853 0 6.7273799036879938e-06 0.034992712825209077 0 1.0959764868666934e-05 0.034982108308357622 0 1.2275272607241779e-06 0.034984829826645129 0 1.0959764868666934e-05 0.034982108308357622 0 2.6805637855483272e-06 0.034970721652411219 0 0.0015110414919634488 0.035006458907346404 0 0.00028303891412429421 0.034973898326488381 0 -1.8371568222001625e-09 0.034903042783129369 0 4.073395188821007e-09 0.035000000975786427 0 -1.5148960552738272e-05 0.034997922603592246 0 6.7273799036879938e-06 0.034992712825209077 0 1.2275272607241779e-06 0.034984829826645129 0 1.0959764868666934e-05 0.034982108308357622 0 1.0959764868666934e-05 0.034982108308357622 0 2.6805637855483272e-06 0.034970721652411219 0 1.4447713125342529e-05 0.034971922365208186 0 0.00025908956689007985 0.034231195746843628 0 0.00015545702758562902 0.034314666001461436 0 0.00025810452629523747 0.034432546071441937 0 0.00028303891412429421 0.034973898326488381 0 0.0002312938919650283 0.034799770492700083 0 -1.4639047844100044e-08 0.035000139952627199 0 -1.4864310754399286e-06 0.034999844612466191 0 3.257390614606681e-06 0.035013250410424704 0 2.5722323841764809e-06 0.034999219213688489 0 0.00028303891412429421 0.034973898326488381 0 0.00028303891412429421 0.034973898326488381 0 0.00015723156851665086 0.03481099844417064 0 0.00025908956689007985 0.034231195746843628 0 0.00015545702758562902 0.034314666001461436 0 0.00012898449450138657 0.034225782034811685 0 7.8873914676515141e-05 0.034261526919243911 0 5.2801583435510284e-05 0.034286476873836666 0 7.8665813594435454e-05 0.034344492967633221 0 0.00015545702758562902 0.034314666001461436 0 7.8873914676515141e-05 0.034261526919243911 0 7.8665813594435454e-05 0.034344492967633221 0 0.00015545702758562902 0.034314666001461436 0 7.8873914676515141e-05 0.034261526919243911 0 0.00012898449450138657 0.034225782034811685 0 0.00015723156851665086 0.03481099844417064 0 0.00011501394487526906 0.034698300998981114 0 7.8873914676515141e-05 0.034261526919243911 0 0.00012898449450138657 0.034225782034811685 0 5.0449584380411613e-05 0.034223604493224452 0 1.0959764868666934e-05 0.034982108308357622 0 1.4447713125342529e-05 0.034971922365208186 0 2.7430095032429066e-05 0.034973008752439062 0 1.6242112143158842e-05 0.034991397325669853 0 1.0959764868666934e-05 0.034982108308357622 0 2.7430095032429066e-05 0.034973008752439062 0 5.6116714552941694e-05 0.034731965217707481 0 0.00011501394487526906 0.034698300998981114 0 2.8585082657035045e-06 0.034314034677893415 0 -3.5466245836805606e-05 0.034269035614022177 0 2.4636598983996195e-05 0.034197975920572388 0 -0.0001222738979925748 0.034359031603261286 0 -3.5466245836805606e-05 0.034269035614022177 0 -7.1246360412589085e-05 0.034189780956497683 0 -3.5466245836805606e-05 0.034269035614022177 0 2.4636598983996195e-05 0.034197975920572388 0 -7.1246360412589085e-05 0.034189780956497683 0 6.9982483854054935e-05 0.034650745460283017 0 0.00011501394487526906 0.034698300998981114 0 2.8585082657035045e-06 0.034314034677893415 0 6.6649750071869882e-05 0.034186305175052133 0 2.4636598983996195e-05 0.034197975920572388 0 6.6649750071869882e-05 0.034186305175052133 0 2.4636598983996195e-05 0.034197975920572388 0 4.5456274791239554e-05 0.034183403640724558 0 2.4636598983996195e-05 0.034197975920572388 0 4.5456274791239554e-05 0.034183403640724558 0 3.3121324536942232e-05 0.034226124989517215 0 4.5456274791239554e-05 0.034183403640724558 0 3.3121324536942232e-05 0.034226124989517215 0 3.8368640714773787e-05 0.034219304673786151 0 8.1808781913321105e-05 0.034131190534323917 0 4.5456274791239554e-05 0.034183403640724558 0 3.8368640714773787e-05 0.034219304673786151 0 7.8873914676515141e-05 0.034261526919243911 0 4.4491511358297569e-05 0.034243913107695048 0 5.0449584380411613e-05 0.034223604493224452 0 0.00012371275749725253 0.034670431434373886 0 0.00011501394487526906 0.034698300998981114 0 2.4636598983996195e-05 0.034197975920572388 0 4.4491511358297569e-05 0.034243913107695048 0 5.5272214095713585e-05 0.034224655718001096 0 2.4636598983996195e-05 0.034197975920572388 0 3.3121324536942232e-05 0.034226124989517215 0 4.4491511358297569e-05 0.034243913107695048 0 3.3121324536942232e-05 0.034226124989517215 0 4.4491511358297569e-05 0.034243913107695048 0 3.9844714918077503e-05 0.034264098630959076 0 7.8873914676515141e-05 0.034261526919243911 0 4.4491511358297569e-05 0.034243913107695048 0 5.2801583435510284e-05 0.034286476873836666 0 4.4491511358297569e-05 0.034243913107695048 0 3.9844714918077503e-05 0.034264098630959076 0 5.2801583435510284e-05 0.034286476873836666 0 3.6497334418236626e-05 0.034321006194112769 0 3.8368640714773787e-05 0.034219304673786151 0 3.7482570949914515e-05 0.03435290651288319 0 3.9844714918077503e-05 0.034264098630959076 0 5.2801583435510284e-05 0.034286476873836666 0 3.6497334418236626e-05 0.034321006194112769 0 5.2801583435510284e-05 0.034286476873836666 0 3.6497334418236626e-05 0.034321006194112769 0 7.8665813594435454e-05 0.034344492967633221 0 3.3121324536942232e-05 0.034226124989517215 0 3.9844714918077503e-05 0.034264098630959076 0 3.6497334418236626e-05 0.034321006194112769 0 3.6497334418236626e-05 0.034321006194112769 0 3.7482570949914515e-05 0.03435290651288319 0 4.4768973394603509e-05 0.034461578111670756 0 3.3121324536942232e-05 0.034226124989517215 0 3.6497334418236626e-05 0.034321006194112769 0 3.8368640714773787e-05 0.034219304673786151 0 3.8368640714773787e-05 0.034219304673786151 0 4.5456467434374939e-05 0.034250380599289067 0 3.7482570949914515e-05 0.03435290651288319 0 5.5279289757137518e-05 0.034376523950953732 0 6.0160210653098582e-05 0.034170737554318716 0 4.5456467434374939e-05 0.034250380599289067 0 5.5279289757137518e-05 0.034376523950953732 0 4.5456467434374939e-05 0.034250380599289067 0 3.7482570949914515e-05 0.03435290651288319 0 3.7482570949914515e-05 0.03435290651288319 0 4.6681049692759628e-05 0.034485387773055695 0 4.4768973394603509e-05 0.034461578111670756 0 5.5279289757137518e-05 0.034376523950953732 0 3.7482570949914515e-05 0.03435290651288319 0 4.6681049692759628e-05 0.034485387773055695 0 4.6681049692759628e-05 0.034485387773055695 0 5.2269272212355552e-05 0.034629812233211175 0 4.4768973394603509e-05 0.034461578111670756 0 5.2269272212355552e-05 0.034629812233211175 0 4.4768973394603509e-05 0.034461578111670756 0 7.7578076277432919e-05 0.034585900593208568 0 4.4768973394603509e-05 0.034461578111670756 0 7.7578076277432919e-05 0.034585900593208568 0 6.5454031722965496e-05 0.034438567770438945 0 7.5341006311620249e-05 0.034894054956988926 0 7.7578076277432919e-05 0.034585900593208568 0 0.00025810452629523747 0.034432546071441937 0 0.00021022038377454258 0.034792179110898908 0 0.0002312938919650283 0.034799770492700083 0 7.5341006311620249e-05 0.034894054956988926 0 5.2269272212355552e-05 0.034629812233211175 0 7.7578076277432919e-05 0.034585900593208568 0 7.5341006311620249e-05 0.034894054956988926 0 4.1772456120931494e-08 0.034999798862061574 0 3.257390614606681e-06 0.035013250410424704 0 7.7578076277432919e-05 0.034585900593208568 0 0.00025810452629523747 0.034432546071441937 0 0.00011939176514027545 0.034417565185686359 0 -1.4639047844100044e-08 0.035000139952627199 0 4.1772456120931494e-08 0.034999798862061574 0 3.257390614606681e-06 0.035013250410424704 0 0.00015545702758562902 0.034314666001461436 0 0.00025810452629523747 0.034432546071441937 0 0.00011939176514027545 0.034417565185686359 0 0.00015545702758562902 0.034314666001461436 0 7.8665813594435454e-05 0.034344492967633221 0 0.00011939176514027545 0.034417565185686359 0 3.6497334418236626e-05 0.034321006194112769 0 7.8665813594435454e-05 0.034344492967633221 0 6.5454031722965496e-05 0.034438567770438945 0 3.6497334418236626e-05 0.034321006194112769 0 4.4768973394603509e-05 0.034461578111670756 0 6.5454031722965496e-05 0.034438567770438945 0 7.7578076277432919e-05 0.034585900593208568 0 6.5454031722965496e-05 0.034438567770438945 0 0.00011939176514027545 0.034417565185686359 0 7.8665813594435454e-05 0.034344492967633221 0 6.5454031722965496e-05 0.034438567770438945 0 0.00011939176514027545 0.034417565185686359 0 1.357050873572068e-05 0.034956398991420903 0 -5.7611707127694503e-06 0.034974134686775932 0 9.6348790004820015e-06 0.034988807021943076 0 1.357050873572068e-05 0.034956398991420903 0 2.9897669367047617e-08 0.034999941490904331 0 9.6348790004820015e-06 0.034988807021943076 0 2.9897669367047617e-08 0.034999941490904331 0 1.1333353412909394e-05 0.034946945488489665 0 -6.4111771606695468e-09 0.034999916695581251 0 1.357050873572068e-05 0.034956398991420903 0 2.9897669367047617e-08 0.034999941490904331 0 1.1333353412909394e-05 0.034946945488489665 0 1.357050873572068e-05 0.034956398991420903 0 1.823106192114487e-05 0.034866427966943246 0 1.1333353412909394e-05 0.034946945488489665 0 1.823106192114487e-05 0.034866427966943246 0 0.00011973545130473534 0.034612839095175603 0 0.00017698141015860314 0.034786482925431246 0 1.357050873572068e-05 0.034956398991420903 0 1.823106192114487e-05 0.034866427966943246 0 -5.7611707127694503e-06 0.034974134686775932 0 1.823106192114487e-05 0.034866427966943246 0 0.00011973545130473534 0.034612839095175603 0 -5.4276318609713299e-05 0.034629198270864976 0 5.8750610251647499e-05 0.03480046258391168 0 6.3258758464821747e-05 0.03474528019944452 0 -5.4276318609713299e-05 0.034629198270864976 0 3.0508507904269972e-05 0.034505761456782351 0 -9.8730581301657822e-05 0.034426170123136493 0 0.00011973545130473534 0.034612839095175603 0 -5.4276318609713299e-05 0.034629198270864976 0 3.0508507904269972e-05 0.034505761456782351 0 6.3258758464821747e-05 0.03474528019944452 0 9.5324731586724575e-05 0.03458649689782263 0 0.00011973545130473534 0.034612839095175603 0 3.0508507904269972e-05 0.034505761456782351 0 0.00014365796192929931 0.034449840866820312 0 0.00011973545130473534 0.034612839095175603 0 0.00014365796192929931 0.034449840866820312 0 0.00021128716149909475 0.034531946438429002 0 0.00013160347995747084 0.033255134244280449 0 0.00065366264694000119 0.032339019012222088 0 3.0508507904269972e-05 0.034505761456782351 0 0.00014365796192929931 0.034449840866820312 0 6.5605716749458172e-05 0.034328073177119237 0 0.00014365796192929931 0.034449840866820312 0 6.5605716749458172e-05 0.034328073177119237 0 0.00028276424425579578 0.034425463438473289 0 3.0508507904269972e-05 0.034505761456782351 0 -9.8730581301657822e-05 0.034426170123136493 0 6.5605716749458172e-05 0.034328073177119237 0 5.8421784294401668e-06 0.034995798029823839 0 9.6348790004820015e-06 0.034988807021943076 0 1.2093271148013992e-05 0.034997801193639246 0 -5.7611707127694503e-06 0.034974134686775932 0 5.8421784294401668e-06 0.034995798029823839 0 9.6348790004820015e-06 0.034988807021943076 0 2.9897669367047617e-08 0.034999941490904331 0 9.6348790004820015e-06 0.034988807021943076 0 -3.1875617615481381e-09 0.034999967377629469 0 -3.1875617615481381e-09 0.034999967377629469 0 1.2093271148013992e-05 0.034997801193639246 0 5.9740800877408734e-08 0.035000113711023781 0 9.6348790004820015e-06 0.034988807021943076 0 -3.1875617615481381e-09 0.034999967377629469 0 1.2093271148013992e-05 0.034997801193639246 0 1.2093271148013992e-05 0.034997801193639246 0 2.2155959677714683e-05 0.03499262530978535 0 5.9740800877408734e-08 0.035000113711023781 0 1.2093271148013992e-05 0.034997801193639246 0 2.2155959677714683e-05 0.03499262530978535 0 1.8131726355686779e-05 0.034994338343982176 0 2.2155959677714683e-05 0.03499262530978535 0 5.9740800877408734e-08 0.035000113711023781 0 4.7162129172217261e-05 0.034967835943094792 0 9.5324731586724575e-05 0.03458649689782263 0 0.00015703580400774596 0.03417647234744825 0 5.8421784294401668e-06 0.034995798029823839 0 1.2093271148013992e-05 0.034997801193639246 0 1.8131726355686779e-05 0.034994338343982176 0 0.00068011218370352545 0.03513638642380059 0 0.00054986041966624392 0.034574547681695517 0 4.7162129172217261e-05 0.034967835943094792 0 0.00066220705665697658 0.033505712552463873 0 0.00034848616192567161 0.034003012317021512 0 7.7406978608735643e-05 0.033426612718312591 0 0.00066220705665697658 0.033505712552463873 0 0.00034848616192567161 0.034003012317021512 0 0.00054986041966624392 0.034574547681695517 0 0.00015703580400774596 0.03417647234744825 0 0.0002036956334355324 0.034244110491379903 0 0.00034848616192567161 0.034003012317021512 0 0.00054986041966624392 0.034574547681695517 0 0.000537543106500843 0.034594482306015507 0 0.00054986041966624392 0.034574547681695517 0 4.7162129172217261e-05 0.034967835943094792 0 2.0037365611179711e-07 0.034999132476253081 0 5.9740800877408734e-08 0.035000113711023781 0 4.7162129172217261e-05 0.034967835943094792 0 2.0037365611179711e-07 0.034999132476253081 0 2.2155959677714683e-05 0.03499262530978535 0 1.8131726355686779e-05 0.034994338343982176 0 4.7162129172217261e-05 0.034967835943094792 0 0.00015703580400774596 0.03417647234744825 0 0.00023495189703511376 0.034342091931724134 0 0.00054986041966624392 0.034574547681695517 0 2.0037365611179711e-07 0.034999132476253081 0 0.000537543106500843 0.034594482306015507 0 1.4847959911743727e-07 0.034999378088004574 0 7.7153174317694216e-05 0.034666891617151883 0 3.9870275376941915e-05 0.034854340519815431 0 1.4847959911743727e-07 0.034999378088004574 0 0.00012931386395400137 0.034409695230932548 0 7.7153174317694216e-05 0.034666891617151883 0 2.3705170321891085e-07 0.034999409783211914 0 5.611131130011186e-05 0.0347206232869509 0 0.00012931386395400137 0.034409695230932548 0 8.5096411283295086e-05 0.034486838736455042 0 7.7153174317694216e-05 0.034666891617151883 0 0.00012931386395400137 0.034409695230932548 0 8.5096411283295086e-05 0.034486838736455042 0 2.3098181258464667e-05 0.034269895400800228 0 5.4123846632271753e-05 0.034520368187399945 0 8.5096411283295086e-05 0.034486838736455042 0 2.3098181258464667e-05 0.034269895400800228 0 5.4123846632271753e-05 0.034520368187399945 0 7.7153174317694216e-05 0.034666891617151883 0 4.5172378575517438e-05 0.034694736604915274 0 5.4123846632271753e-05 0.034520368187399945 0 8.5096411283295086e-05 0.034486838736455042 0 7.7153174317694216e-05 0.034666891617151883 0 1.772013354829633e-05 0.03483230774745745 0 4.5172378575517438e-05 0.034694736604915274 0 -8.2280276579389204e-06 0.034673665720665429 0 5.4123846632271753e-05 0.034520368187399945 0 4.5172378575517438e-05 0.034694736604915274 0 -8.6782109490518147e-06 0.034527579585713626 0 4.5172378575517438e-05 0.034694736604915274 0 -8.2280276579389204e-06 0.034673665720665429 0 -8.6782109490518147e-06 0.034527579585713626 0 1.4847959911743727e-07 0.034999378088004574 0 1.0021447174312429e-07 0.034999943196311181 0 3.9870275376941915e-05 0.034854340519815431 0 1.772013354829633e-05 0.03483230774745745 0 4.5172378575517438e-05 0.034694736604915274 0 3.9870275376941915e-05 0.034854340519815431 0 1.772013354829633e-05 0.03483230774745745 0 1.0021447174312429e-07 0.034999943196311181 0 3.9870275376941915e-05 0.034854340519815431 0 7.7153174317694216e-05 0.034666891617151883 0 4.5172378575517438e-05 0.034694736604915274 0 3.9870275376941915e-05 0.034854340519815431 0 -0.00015385981554213256 0.034356747135779554 0 -0.00024810692785358867 0.03447660345854766 0 -0.00037074877524846407 0.034375864506739941 0 -0.00028092228277949179 0.034519208560517045 0 -0.0001632556984463931 0.034552981817727015 0 -0.00024810692785358867 0.03447660345854766 0 -0.0001632556984463931 0.034552981817727015 0 -0.00024810692785358867 0.03447660345854766 0 -0.00015311247927319712 0.034524871223124365 0 -0.00015385981554213256 0.034356747135779554 0 -0.00024810692785358867 0.03447660345854766 0 -0.00015311247927319712 0.034524871223124365 0 -0.00015385981554213256 0.034356747135779554 0 -0.00015311247927319712 0.034524871223124365 0 -7.4117787003908977e-05 0.034552723100446055 0 -8.2280276579389204e-06 0.034673665720665429 0 -7.4117787003908977e-05 0.034552723100446055 0 -8.6782109490518147e-06 0.034527579585713626 0 -0.00015385981554213256 0.034356747135779554 0 -7.4117787003908977e-05 0.034552723100446055 0 -8.6782109490518147e-06 0.034527579585713626 0 -0.00015385981554213256 0.034356747135779554 0 -2.6106319924935888e-05 0.034305691462367907 0 -0.00010600359678472516 0.034076858644529438 0 -0.00015385981554213256 0.034356747135779554 0 -8.6782109490518147e-06 0.034527579585713626 0 -2.6106319924935888e-05 0.034305691462367907 0 5.4123846632271753e-05 0.034520368187399945 0 -2.6106319924935888e-05 0.034305691462367907 0 2.3098181258464667e-05 0.034269895400800228 0 5.4123846632271753e-05 0.034520368187399945 0 -8.6782109490518147e-06 0.034527579585713626 0 -2.6106319924935888e-05 0.034305691462367907 0 -2.6106319924935888e-05 0.034305691462367907 0 2.3098181258464667e-05 0.034269895400800228 0 -0.00010600359678472516 0.034076858644529438 0 2.3098181258464667e-05 0.034269895400800228 0 -0.00010600359678472516 0.034076858644529438 0 -8.6852116291596485e-05 0.033736389753300712 0 -0.00017972113565374804 0.033943758288837826 0 -0.00015157613443258337 0.033943207242257252 0 -0.00015385981554213256 0.034356747135779554 0 -0.00032171663016666196 0.033843695221660738 0 -0.00037074877524846407 0.034375864506739941 0 -0.00015385981554213256 0.034356747135779554 0 -0.00010600359678472516 0.034076858644529438 0 -0.00032171663016666196 0.033843695221660738 0 -0.00032171663016666196 0.033843695221660738 0 -0.00042004125108009743 0.033330681002310132 0 -0.00071788684996195709 0.033480065566726162 0 -0.00010600359678472516 0.034076858644529438 0 -0.00032171663016666196 0.033843695221660738 0 -8.6852116291596485e-05 0.033736389753300712 0 -0.00032171663016666196 0.033843695221660738 0 -0.00042004125108009743 0.033330681002310132 0 -8.6852116291596485e-05 0.033736389753300712 0 -0.00042004125108009743 0.033330681002310132 0 -8.6852116291596485e-05 0.033736389753300712 0 -0.0002275255993262314 0.033215321784256964 0 0.00012931386395400137 0.034409695230932548 0 2.3098181258464667e-05 0.034269895400800228 0 -8.6852116291596485e-05 0.033736389753300712 0 0.00034848616192567161 0.034003012317021512 0 0.000537543106500843 0.034594482306015507 0 -8.6852116291596485e-05 0.033736389753300712 0 5.611131130011186e-05 0.0347206232869509 0 -3.8112600976983351e-05 0.034538807829794363 0 -8.6852116291596485e-05 0.033736389753300712 0 7.7406978608735643e-05 0.033426612718312591 0 -0.0002275255993262314 0.033215321784256964 0 0.00034848616192567161 0.034003012317021512 0 -8.6852116291596485e-05 0.033736389753300712 0 7.7406978608735643e-05 0.033426612718312591 0 0.00066220705665697658 0.033505712552463873 0 7.7406978608735643e-05 0.033426612718312591 0 -0.00022077141357722645 0.032671267677306742 0 0.00015703580400774596 0.03417647234744825 0 0.00013160347995747084 0.033255134244280449 0 -9.8730581301657822e-05 0.034426170123136493 0 -0.00014217473132344599 0.034227385959708895 0 6.5605716749458172e-05 0.034328073177119237 0 7.7406978608735643e-05 0.033426612718312591 0 -0.0002275255993262314 0.033215321784256964 0 -0.00022077141357722645 0.032671267677306742 0 -0.00047143351614461955 0.032931876396170359 0 -0.00022077141357722645 0.032671267677306742 0 -0.00069903576934429853 0.032559277546680032 0 -0.00042004125108009743 0.033330681002310132 0 -0.00047143351614461955 0.032931876396170359 0 -0.00072383606063502819 0.032848416789298597 0 -0.00042004125108009743 0.033330681002310132 0 -0.00047143351614461955 0.032931876396170359 0 -0.0002275255993262314 0.033215321784256964 0 -0.00047143351614461955 0.032931876396170359 0 -0.0002275255993262314 0.033215321784256964 0 -0.00022077141357722645 0.032671267677306742 0 -0.00069903576934429853 0.032559277546680032 0 -0.00072383606063502819 0.032848416789298597 0 -0.0010404716097474804 0.032265033293790699 0 -0.00072383606063502819 0.032848416789298597 0 -0.0010404716097474804 0.032265033293790699 0 -0.0010075774472772967 0.032671604109717943 0 -0.00047143351614461955 0.032931876396170359 0 -0.00069903576934429853 0.032559277546680032 0 -0.00072383606063502819 0.032848416789298597 0 -0.0010404716097474804 0.032265033293790699 0 -0.00121762377283104 0.031873622405269246 0 -0.00092977631391658597 0.032259023826009932 0 -0.0010404716097474804 0.032265033293790699 0 -0.00121762377283104 0.031873622405269246 0 -0.0010075774472772967 0.032671604109717943 0 -0.00121762377283104 0.031873622405269246 0 -0.0014092946377940701 0.032814176109383794 0 -0.0010075774472772967 0.032671604109717943 0 -0.0014092946377940701 0.032814176109383794 0 -0.0010075774472772967 0.032671604109717943 0 -0.0011776631806781092 0.033263587008921763 0 -0.0010075774472772967 0.032671604109717943 0 -0.0011776631806781092 0.033263587008921763 0 -0.00071788684996195709 0.033480065566726162 0 -0.0014092946377940701 0.032814176109383794 0 -0.0011776631806781092 0.033263587008921763 0 -0.0017238823409786903 0.033356583626624997 0 -0.00072383606063502819 0.032848416789298597 0 -0.0010075774472772967 0.032671604109717943 0 -0.00071788684996195709 0.033480065566726162 0 -0.00042004125108009743 0.033330681002310132 0 -0.00072383606063502819 0.032848416789298597 0 -0.00071788684996195709 0.033480065566726162 0 -0.00071788684996195709 0.033480065566726162 0 -0.001111738303395976 0.033793215023730852 0 -0.00057027732693048052 0.034062118500567382 0 -0.00032171663016666196 0.033843695221660738 0 -0.00071788684996195709 0.033480065566726162 0 -0.00057027732693048052 0.034062118500567382 0 -0.001111738303395976 0.033793215023730852 0 -0.0017808293999174855 0.034064854087272577 0 -0.0017238823409786903 0.033356583626624997 0 -0.0011776631806781092 0.033263587008921763 0 -0.00071788684996195709 0.033480065566726162 0 -0.001111738303395976 0.033793215023730852 0 -0.0011776631806781092 0.033263587008921763 0 -0.001111738303395976 0.033793215023730852 0 -0.0017238823409786903 0.033356583626624997 0 -0.00095613174799645149 0.034657889329379368 0 -0.0010195267784750069 0.034359695889215967 0 -0.0017808293999174855 0.034064854087272577 0 -0.001111738303395976 0.033793215023730852 0 -0.0010195267784750069 0.034359695889215967 0 -0.0017808293999174855 0.034064854087272577 0 0.00027157504339428342 0.033464716709343111 0 0.00048324497284283794 0.03242531267502409 0 0.0022496544444034075 0.032215672087764782 0 0.0031719205056084132 0.03206884516165822 0 0.0022581148535388922 0.031323163194608913 0 -0.00028092228277949179 0.034519208560517045 0 -0.00033933900007746459 0.034549156764854115 0 -0.00037074877524846407 0.034375864506739941 0 -0.00095613174799645149 0.034657889329379368 0 -0.0010195267784750069 0.034359695889215967 0 -0.00057027732693048052 0.034062118500567382 0 0.00027157504339428342 0.033464716709343111 0 -0.00015157613443258337 0.033943207242257252 0 -0.001111738303395976 0.033793215023730852 0 -0.0010195267784750069 0.034359695889215967 0 -0.00057027732693048052 0.034062118500567382 0 -0.00028092228277949179 0.034519208560517045 0 -0.00024810692785358867 0.03447660345854766 0 -0.00037074877524846407 0.034375864506739941 0 0.0014375797642556503 0.031277830593594499 0 0.0018874087769193333 0.031770710198939636 0 0.0022581148535388922 0.031323163194608913 0 0.0014375797642556503 0.031277830593594499 0 0.0014129024018317057 0.031736362618514438 0 0.0011680327729337826 0.031504319812537068 0 0.0014375797642556503 0.031277830593594499 0 0.0014129024018317057 0.031736362618514438 0 0.0018874087769193333 0.031770710198939636 0 0.0022496544444034075 0.032215672087764782 0 0.0018874087769193333 0.031770710198939636 0 0.0022581148535388922 0.031323163194608913 0 -0.0017808293999174855 0.034064854087272577 0 -0.0017238823409786903 0.033356583626624997 0 -0.0027807324989318535 0.033320837799886184 0 0.0014375797642556503 0.031277830593594499 0 0.0012376437074238106 0.030920210181934634 0 0.00098562623932391884 0.030936451500289765 0 0.00048324497284283794 0.03242531267502409 0 0.00083761335744525533 0.031254580815907068 0 0.0014375797642556503 0.031277830593594499 0 0.0022581148535388922 0.031323163194608913 0 0.0012376437074238106 0.030920210181934634 0 0.00093374235743019318 0.029031820650392087 0 -0.00016963415197282451 0.030023121164006506 0 0.0010022969340777804 0.030350786897186177 0 0.00083761335744525533 0.031254580815907068 0 -5.8538086219271822e-05 0.031613014824674705 0 -0.0017238823409786903 0.033356583626624997 0 -0.0027807324989318535 0.033320837799886184 0 -0.0021667136817748768 0.032752271575084986 0 -0.0014092946377940701 0.032814176109383794 0 -0.0017238823409786903 0.033356583626624997 0 -0.0021667136817748768 0.032752271575084986 0 -0.00121762377283104 0.031873622405269246 0 -0.0014092946377940701 0.032814176109383794 0 -0.0021667136817748768 0.032752271575084986 0 -0.00121762377283104 0.031873622405269246 0 -0.00010563716316821886 0.031334903693015941 0 -0.00092977631391658597 0.032259023826009932 0 -0.00029741027815789875 0.031711545500044035 0 -5.8538086219271822e-05 0.031613014824674705 0 -0.00121762377283104 0.031873622405269246 0 -0.00016963415197282451 0.030023121164006506 0 -0.00010563716316821886 0.031334903693015941 0 -0.00010563716316821886 0.031334903693015941 0 0.0010022969340777804 0.030350786897186177 0 0.00097139545326026288 0.03168578514336802 0 -0.00016963415197282451 0.030023121164006506 0 -0.00010563716316821886 0.031334903693015941 0 0.0010022969340777804 0.030350786897186177 0 0.0032099029101648247 0.029916545880150643 0 0.0033243786852249807 0.029710687891794076 0 0.0035057109217884862 0.029833701243579026 0 0.0032099029101648247 0.029916545880150643 0 0.0033243786852249807 0.029710687891794076 0 0.0029552452490117743 0.029590699486658673 0 0.0033243786852249807 0.029710687891794076 0 0.0032529064991737512 0.02948806538296312 0 0.0029552452490117743 0.029590699486658673 0 0.0033243786852249807 0.029710687891794076 0 0.0032529064991737512 0.02948806538296312 0 0.0035375065781740509 0.029681723939783577 0 0.0016814971570843428 0.032220305471927453 0 0.00150850943276628 0.032336881349479575 0 0.0004556100607453712 0.034561628910605213 0 0.00036474240653950788 0.034519098975451065 0 0.00034808306046499446 0.034593287814913498 0 0.0017727667530829238 0.031195698549187679 0 0.0013552262512859902 0.031603042051623835 0 0.0033243786852249807 0.029710687891794076 0 0.0035375065781740509 0.029681723939783577 0 0.0035057109217884862 0.029833701243579026 0 -0.00010563716316821886 0.031334903693015941 0 0.00097139545326026288 0.03168578514336802 0 -0.00092977631391658597 0.032259023826009932 0 0.0013552262512859902 0.031603042051623835 0 0.00065366264694000119 0.032339019012222088 0 -0.0010404716097474804 0.032265033293790699 0 -0.00092977631391658597 0.032259023826009932 0 -0.00094405950835813534 0.032176879693362817 0 0.0035375065781740509 0.029681723939783577 0 0.0035057109217884862 0.029833701243579026 0 0.0037358309191091003 0.02980649206909573 0 0.00150850943276628 0.032336881349479575 0 0.00065366264694000119 0.032339019012222088 0 0.00043982566455681547 0.032564591359479082 0 0.00065366264694000119 0.032339019012222088 0 -0.00022077141357722645 0.032671267677306742 0 -0.00069903576934429853 0.032559277546680032 0 -0.00094405950835813534 0.032176879693362817 0 0.00014365796192929931 0.034449840866820312 0 0.00025005849168663265 0.034449259307139775 0 0.00021128716149909475 0.034531946438429002 0 -0.00069903576934429853 0.032559277546680032 0 -0.0010404716097474804 0.032265033293790699 0 -0.00094405950835813534 0.032176879693362817 0 0.00011973545130473534 0.034612839095175603 0 0.00021128716149909475 0.034531946438429002 0 0.00024963693105170852 0.034614640491855718 0 0.00025005849168663265 0.034449259307139775 0 0.00021128716149909475 0.034531946438429002 0 0.00028368596912581209 0.034539742158333837 0 0.00021128716149909475 0.034531946438429002 0 0.00028368596912581209 0.034539742158333837 0 0.00024963693105170852 0.034614640491855718 0 0.00036474240653950788 0.034519098975451065 0 0.00025005849168663265 0.034449259307139775 0 0.00028368596912581209 0.034539742158333837 0 0.00036474240653950788 0.034519098975451065 0 0.00028368596912581209 0.034539742158333837 0 0.00034808306046499446 0.034593287814913498 0 0.00028368596912581209 0.034539742158333837 0 0.00034808306046499446 0.034593287814913498 0 0.00024963693105170852 0.034614640491855718 0 0.00034808306046499446 0.034593287814913498 0 0.00024963693105170852 0.034614640491855718 0 0.00031379181699001666 0.03469302949950135 0 0.00034808306046499446 0.034593287814913498 0 0.00031379181699001666 0.03469302949950135 0 0.00038912448021862081 0.034636722177317128 0 0.00011973545130473534 0.034612839095175603 0 0.00024963693105170852 0.034614640491855718 0 0.00017698141015860314 0.034786482925431246 0 0.00024963693105170852 0.034614640491855718 0 0.00017698141015860314 0.034786482925431246 0 0.00031379181699001666 0.03469302949950135 0 0.00017698141015860314 0.034786482925431246 0 0.00031379181699001666 0.03469302949950135 0 0.00033607194199296927 0.034768643663221632 0 0.00031379181699001666 0.03469302949950135 0 0.00040692381219691758 0.034701867958122148 0 0.00033607194199296927 0.034768643663221632 0 0.00040692381219691758 0.034701867958122148 0 0.00046310891143274416 0.034630143185286094 0 0.00038912448021862081 0.034636722177317128 0 0.00031379181699001666 0.03469302949950135 0 0.00040692381219691758 0.034701867958122148 0 0.00038912448021862081 0.034636722177317128 0 0.00040692381219691758 0.034701867958122148 0 0.00046310891143274416 0.034630143185286094 0 0.00050941440766546196 0.034671373910385335 0 0.0004556100607453712 0.034561628910605213 0 0.00046310891143274416 0.034630143185286094 0 0.00038912448021862081 0.034636722177317128 0 0.0004556100607453712 0.034561628910605213 0 0.00046310891143274416 0.034630143185286094 0 0.0005381176634287997 0.034580601457368604 0 0.0004556100607453712 0.034561628910605213 0 0.00034808306046499446 0.034593287814913498 0 0.00038912448021862081 0.034636722177317128 0 0.0016661790117891136 0.032142073026238775 0 0.0016067658514118846 0.032143390456019563 0 0.0027972525229431979 0.029349063851909409 0 0.0029209196103765333 0.029326900594901152 0 0.0027209246255686052 0.029275657996594488 0 0.0027972525229431979 0.029349063851909409 0 0.0027489750053537694 0.029334461672141467 0 0.0027209246255686052 0.029275657996594488 0 0.0027972525229431979 0.029349063851909409 0 0.0027489750053537694 0.029334461672141467 0 0.0027462191170847593 0.02940993627820079 0 0.0027972525229431979 0.029349063851909409 0 0.0029209196103765333 0.029326900594901152 0 0.0029552452490117743 0.029590699486658673 0 0.0016814971570843428 0.032220305471927453 0 0.0016661790117891136 0.032142073026238775 0 0.00046310891143274416 0.034630143185286094 0 0.0005381176634287997 0.034580601457368604 0 0.00050941440766546196 0.034671373910385335 0 0.0005381176634287997 0.034580601457368604 0 0.00050941440766546196 0.034671373910385335 0 0.00056934764979871646 0.034609327647666437 0 0.00050941440766546196 0.034671373910385335 0 0.00057411836545079092 0.03464384255029368 0 0.00056934764979871646 0.034609327647666437 0 0.0005381176634287997 0.034580601457368604 0 0.00056934764979871646 0.034609327647666437 0 0.00063029457267480243 0.034587842569868459 0 0.00057411836545079092 0.03464384255029368 0 0.00056934764979871646 0.034609327647666437 0 0.0006119165420866244 0.034615597355198285 0 0.00056934764979871646 0.034609327647666437 0 0.0006119165420866244 0.034615597355198285 0 0.00063029457267480243 0.034587842569868459 0 0.0006119165420866244 0.034615597355198285 0 0.00063029457267480243 0.034587842569868459 0 0.00062967620369713199 0.034600081904138422 0 0.00057411836545079092 0.03464384255029368 0 0.0006119165420866244 0.034615597355198285 0 0.00061098826982552794 0.034642894428463501 0 0.00061098826982552794 0.034642894428463501 0 0.00063044701616971803 0.034626915499112607 0 0.00063749753004416492 0.034643138772437479 0 0.0006119165420866244 0.034615597355198285 0 0.00061098826982552794 0.034642894428463501 0 0.00063044701616971803 0.034626915499112607 0 0.0027240040528269936 0.029291620698327924 0 0.0027209246255686052 0.029275657996594488 0 0.0027323376931059286 0.029309757118641835 0 0.00063044701616971803 0.034626915499112607 0 0.00063778287643464289 0.034610217147580925 0 0.00065529902880350356 0.034623741616644693 0 0.00063044701616971803 0.034626915499112607 0 0.00065529902880350356 0.034623741616644693 0 0.00063749753004416492 0.034643138772437479 0 0.0016067658514118846 0.032143390456019563 0 0.0020483101644466189 0.030722521485683021 0 0.00066544118359354858 0.034594774361614865 0 0.00063029457267480243 0.034587842569868459 0 0.00076762506003732317 0.034578420853477378 0 0.00066544118359354858 0.034594774361614865 0 0.00068460964378128097 0.034596433673408332 0 0.00076762506003732317 0.034578420853477378 0 0.0016067658514118846 0.032143390456019563 0 0.0015045332238581197 0.032730619760787512 0 0.0027209246255686052 0.029275657996594488 0 0.0027428394825669399 0.02934713701250773 0 0.0027323376931059286 0.029309757118641835 0 0.0006119165420866244 0.034615597355198285 0 0.00063778287643464289 0.034610217147580925 0 0.00062967620369713199 0.034600081904138422 0 0.0006119165420866244 0.034615597355198285 0 0.00063044701616971803 0.034626915499112607 0 0.00063778287643464289 0.034610217147580925 0 0.00063778287643464289 0.034610217147580925 0 0.00062967620369713199 0.034600081904138422 0 0.00064524054896537939 0.0345994343078911 0 0.00063778287643464289 0.034610217147580925 0 0.00066007734993203508 0.034606548922475659 0 0.00064524054896537939 0.0345994343078911 0 0.00063778287643464289 0.034610217147580925 0 0.00066007734993203508 0.034606548922475659 0 0.00065529902880350356 0.034623741616644693 0 0.00066544118359354858 0.034594774361614865 0 0.00066007734993203508 0.034606548922475659 0 0.00064524054896537939 0.0345994343078911 0 0.00066007734993203508 0.034606548922475659 0 0.00065529902880350356 0.034623741616644693 0 0.00067814515859718585 0.034609588801811163 0 0.00067814515859718585 0.034609588801811163 0 0.00070732097856912417 0.03459920644922803 0 0.00068464587858385227 0.034621354051566071 0 0.00065529902880350356 0.034623741616644693 0 0.00067814515859718585 0.034609588801811163 0 0.00068464587858385227 0.034621354051566071 0 0.00067814515859718585 0.034609588801811163 0 0.00070732097856912417 0.03459920644922803 0 0.00068460964378128097 0.034596433673408332 0 0.00070732097856912417 0.03459920644922803 0 0.00071513753360304881 0.034612822282445908 0 0.00068464587858385227 0.034621354051566071 0 0.00066007734993203508 0.034606548922475659 0 0.00067814515859718585 0.034609588801811163 0 0.00068460964378128097 0.034596433673408332 0 0.00066544118359354858 0.034594774361614865 0 0.00066007734993203508 0.034606548922475659 0 0.00068460964378128097 0.034596433673408332 0 0.0027264179214871822 0.029297758860825217 0 0.0027240040528269936 0.029291620698327924 0 0.0027323376931059286 0.029309757118641835 0 0.0027282063856196009 0.029300158947479164 0 0.0027264179214871822 0.029297758860825217 0 0.0027323376931059286 0.029309757118641835 0 0.0027282063856196009 0.029300158947479164 0 0.0027306641312063095 0.029296398762072583 0 0.0027249789921304384 0.029295699820452579 0 0.0027264179214871822 0.029297758860825217 0 0.0027228513043708377 0.029295294881119427 0 0.0027249789921304384 0.029295699820452579 0 0.0027282063856196009 0.029300158947479164 0 0.0027264179214871822 0.029297758860825217 0 0.0027249789921304384 0.029295699820452579 0 0.0027264179214871822 0.029297758860825217 0 0.0027240040528269936 0.029291620698327924 0 0.0027228513043708377 0.029295294881119427 0 0.0027240040528269936 0.029291620698327924 0 0.0027230351390356458 0.029291026177854187 0 0.0027228513043708377 0.029295294881119427 0 0.0027240040528269936 0.029291620698327924 0 0.0027230351390356458 0.029291026177854187 0 0.0027209246255686052 0.029275657996594488 0 0.0027230351390356458 0.029291026177854187 0 0.0027209246255686052 0.029275657996594488 0 0.0027242248435948809 0.029296430500709722 0 0.00063029457267480243 0.034587842569868459 0 0.00062967620369713199 0.034600081904138422 0 0.00064524054896537939 0.0345994343078911 0 0.00066544118359354858 0.034594774361614865 0 0.00063029457267480243 0.034587842569868459 0 0.00064524054896537939 0.0345994343078911 0 0.00057450965389616569 0.034422823022480245 0 0.00076762506003732317 0.034578420853477378 0 0.00079032025311968077 0.034546372080305685 0 0.0027428394825669399 0.02934713701250773 0 0.002765996461232499 0.0293207877534973 0 0.0028018657861840811 0.029323795184161196 0 0.00079195664547591861 0.034582606205482883 0 0.00079032025311968077 0.034546372080305685 0 0.00082433896431041329 0.034590371000476974 0 0.00079195664547591861 0.034582606205482883 0 0.00076762506003732317 0.034578420853477378 0 0.00079032025311968077 0.034546372080305685 0 0.0027428394825669399 0.02934713701250773 0 0.0027412602354188985 0.029324931305958882 0 0.002750468307719133 0.029321283700537999 0 0.0027428394825669399 0.02934713701250773 0 0.002750468307719133 0.029321283700537999 0 0.002765996461232499 0.0293207877534973 0 0.00070732097856912417 0.03459920644922803 0 0.00068460964378128097 0.034596433673408332 0 0.00076762506003732317 0.034578420853477378 0 0.00070732097856912417 0.03459920644922803 0 0.00076762506003732317 0.034578420853477378 0 0.0007339513724217518 0.034601643783947332 0 0.00070732097856912417 0.03459920644922803 0 0.00071513753360304881 0.034612822282445908 0 0.0007339513724217518 0.034601643783947332 0 0.0027428394825669399 0.02934713701250773 0 0.0027323376931059286 0.029309757118641835 0 0.0027412602354188985 0.029324931305958882 0 0.0027323376931059286 0.029309757118641835 0 0.0027306641312063095 0.029296398762072583 0 0.0027375206269306999 0.029299054255727531 0 0.0027282063856196009 0.029300158947479164 0 0.0027323376931059286 0.029309757118641835 0 0.0027306641312063095 0.029296398762072583 0 0.0027375206269306999 0.029299054255727531 0 0.0027427131033732491 0.029308361836300499 0 0.0027509016389049919 0.029285627383481012 0 0.0027323376931059286 0.029309757118641835 0 0.0027375206269306999 0.029299054255727531 0 0.0027427131033732491 0.029308361836300499 0 0.0027323376931059286 0.029309757118641835 0 0.0027427131033732491 0.029308361836300499 0 0.0027412602354188985 0.029324931305958882 0 0.0027427131033732491 0.029308361836300499 0 0.0027412602354188985 0.029324931305958882 0 0.002750468307719133 0.029321283700537999 0 0.002750468307719133 0.029321283700537999 0 0.0027592139092272741 0.029305125959967721 0 0.002765996461232499 0.0293207877534973 0 0.0027427131033732491 0.029308361836300499 0 0.002750468307719133 0.029321283700537999 0 0.0027592139092272741 0.029305125959967721 0 0.0027427131033732491 0.029308361836300499 0 0.0027592139092272741 0.029305125959967721 0 0.0027509016389049919 0.029285627383481012 0 0.0027592139092272741 0.029305125959967721 0 0.0027509016389049919 0.029285627383481012 0 0.0027849214545618457 0.02926811961788232 0 0.0027592139092272741 0.029305125959967721 0 0.0027856011096668095 0.02930052962974258 0 0.0027849214545618457 0.02926811961788232 0 0.0027856011096668095 0.02930052962974258 0 0.002765996461232499 0.0293207877534973 0 0.0028018657861840811 0.029323795184161196 0 0.0027592139092272741 0.029305125959967721 0 0.0027856011096668095 0.02930052962974258 0 0.002765996461232499 0.0293207877534973 0 0.0027849214545618457 0.02926811961788232 0 0.0027613393776913047 0.029256116245081159 0 0.0027956274038633414 0.029203196411594436 0 0.0027613393776913047 0.029256116245081159 0 0.0027539206952363394 0.029243077470996665 0 0.0027956274038633414 0.029203196411594436 0 0.0027509016389049919 0.029285627383481012 0 0.0027849214545618457 0.02926811961788232 0 0.0027613393776913047 0.029256116245081159 0 0.0027509016389049919 0.029285627383481012 0 0.0027613393776913047 0.029256116245081159 0 0.0027396372276255838 0.029279695707815748 0 0.0027613393776913047 0.029256116245081159 0 0.0027396372276255838 0.029279695707815748 0 0.0027539206952363394 0.029243077470996665 0 0.0027396372276255838 0.029279695707815748 0 0.0027323342996734283 0.029279369095696933 0 0.0027539206952363394 0.029243077470996665 0 0.0027306641312063095 0.029296398762072583 0 0.0027375206269306999 0.029299054255727531 0 0.0027396372276255838 0.029279695707815748 0 0.0027375206269306999 0.029299054255727531 0 0.0027509016389049919 0.029285627383481012 0 0.0027396372276255838 0.029279695707815748 0 0.0027306641312063095 0.029296398762072583 0 0.0027396372276255838 0.029279695707815748 0 0.0027294684868324629 0.029289726286867865 0 0.0027306641312063095 0.029296398762072583 0 0.0027294684868324629 0.029289726286867865 0 0.0027249789921304384 0.029295699820452579 0 0.0027294684868324629 0.029289726286867865 0 0.0027323342996734283 0.029279369095696933 0 0.0027233045718962766 0.029297179060605222 0 0.0027396372276255838 0.029279695707815748 0 0.0027294684868324629 0.029289726286867865 0 0.0027323342996734283 0.029279369095696933 0 0.0027323342996734283 0.029279369095696933 0 0.0027293193569089243 0.029302143242488633 0 0.0027462191122269528 0.02926175940217671 0 0.0027323342996734283 0.029279369095696933 0 0.0027539206952363394 0.029243077470996665 0 0.0027462191122269528 0.02926175940217671 0 0.0027539206952363394 0.029243077470996665 0 0.0027755499560706489 0.029198458331482317 0 0.0027956274038633414 0.029203196411594436 0 0.0027539206952363394 0.029243077470996665 0 0.0027755499560706489 0.029198458331482317 0 0.0027462191122269528 0.02926175940217671 0 0.0027489750053537694 0.029334461672141467 0 0.0027209246255686052 0.029275657996594488 0 0.0027291253493986782 0.029308399919719601 0 0.0027231870079617352 0.029310767445817808 0 0.0027291253493986782 0.029308399919719601 0 0.002723144133919738 0.02930051315933031 0 0.0027307245432165446 0.029323145198624744 0 0.0027231870079617352 0.029310767445817808 0 0.0027291253493986782 0.029308399919719601 0 0.0027489750053537694 0.029334461672141467 0 0.0027307245432165446 0.029323145198624744 0 0.0027291253493986782 0.029308399919719601 0 0.0027209246255686052 0.029275657996594488 0 0.0027291253493986782 0.029308399919719601 0 0.0027242248435948809 0.029296430500709722 0 0.0027291253493986782 0.029308399919719601 0 0.0027242248435948809 0.029296430500709722 0 0.002723144133919738 0.02930051315933031 0 0.0027230351390356458 0.029291026177854187 0 0.0027242248435948809 0.029296430500709722 0 0.002723144133919738 0.02930051315933031 0 0.0027230351390356458 0.029291026177854187 0 0.002723144133919738 0.02930051315933031 0 0.0027228513043708377 0.029295294881119427 0 0.0027228513043708377 0.029295294881119427 0 0.0027223588350612613 0.029298884244500722 0 0.0027249789921304384 0.029295699820452579 0 0.002723144133919738 0.02930051315933031 0 0.0027228513043708377 0.029295294881119427 0 0.0027223588350612613 0.029298884244500722 0 0.0027294684868324629 0.029289726286867865 0 0.0027249789921304384 0.029295699820452579 0 0.0027233045718962766 0.029297179060605222 0 0.0027223588350612613 0.029298884244500722 0 0.0027249789921304384 0.029295699820452579 0 0.0027233045718962766 0.029297179060605222 0 0.0027231870079617352 0.029310767445817808 0 0.0027223588350612613 0.029298884244500722 0 0.0027233045718962766 0.029297179060605222 0 0.0027231870079617352 0.029310767445817808 0 0.0027233045718962766 0.029297179060605222 0 0.0027231077679848435 0.02931114694834187 0 0.0027231870079617352 0.029310767445817808 0 0.002723144133919738 0.02930051315933031 0 0.0027223588350612613 0.029298884244500722 0 0.0027231870079617352 0.029310767445817808 0 0.0027231077679848435 0.02931114694834187 0 0.0027278518280713757 0.029343325371148317 0 0.0027323342996734283 0.029279369095696933 0 0.0027231077679848435 0.02931114694834187 0 0.0027293193569089243 0.029302143242488633 0 0.0027323342996734283 0.029279369095696933 0 0.0027233045718962766 0.029297179060605222 0 0.0027231077679848435 0.02931114694834187 0 0.0027231077679848435 0.02931114694834187 0 0.0027293193569089243 0.029302143242488633 0 0.0027247329637011103 0.029337970212729356 0 0.0027231077679848435 0.02931114694834187 0 0.0027247329637011103 0.029337970212729356 0 0.0027278518280713757 0.029343325371148317 0 0.0027247329637011103 0.029337970212729356 0 0.0027278518280713757 0.029343325371148317 0 0.0027268973824122883 0.029388283309111224 0 0.0027489750053537694 0.029334461672141467 0 0.0027278518280713757 0.029343325371148317 0 0.0027462191170847593 0.02940993627820079 0 0.0027307245432165446 0.029323145198624744 0 0.0027231870079617352 0.029310767445817808 0 0.0027278518280713757 0.029343325371148317 0 0.0027489750053537694 0.029334461672141467 0 0.0027307245432165446 0.029323145198624744 0 0.0027278518280713757 0.029343325371148317 0 0.0027268973824122883 0.029388283309111224 0 0.0027280879941362925 0.029502483299845204 0 0.0027462191170847593 0.02940993627820079 0 0.0027278518280713757 0.029343325371148317 0 0.0027268973824122883 0.029388283309111224 0 0.0027462191170847593 0.02940993627820079 0 0.0027247329637011103 0.029337970212729356 0 0.0027268973824122883 0.029388283309111224 0 0.0027314640041241518 0.029336350333915615 0 0.0027293193569089243 0.029302143242488633 0 0.0027247329637011103 0.029337970212729356 0 0.0027314640041241518 0.029336350333915615 0 0.0027268973824122883 0.029388283309111224 0 0.0027314640041241518 0.029336350333915615 0 0.0027325875023251566 0.029417767655827026 0 0.0027314640041241518 0.029336350333915615 0 0.0027325875023251566 0.029417767655827026 0 0.0027539207661011161 0.02930416953297665 0 0.0027325875023251566 0.029417767655827026 0 0.0027539207661011161 0.02930416953297665 0 0.0027674286929217917 0.029405391774924277 0 0.0027268973824122883 0.029388283309111224 0 0.0027325875023251566 0.029417767655827026 0 0.0027280879941362925 0.029502483299845204 0 0.0027325875023251566 0.029417767655827026 0 0.0027280879941362925 0.029502483299845204 0 0.0027272609725877204 0.029547943611465524 0 0.0027755499560706489 0.029198458331482317 0 0.0027788262015564606 0.029203683317452194 0 0.0028281884018750256 0.029092054573141724 0 0.0027755499560706489 0.029198458331482317 0 0.0027788262015564606 0.029203683317452194 0 0.0027462191122269528 0.02926175940217671 0 0.0027314640041241518 0.029336350333915615 0 0.0027462191122269528 0.02926175940217671 0 0.0027539207661011161 0.02930416953297665 0 0.0027788262015564606 0.029203683317452194 0 0.0027462191122269528 0.02926175940217671 0 0.0027539207661011161 0.02930416953297665 0 0.0027293193569089243 0.029302143242488633 0 0.0027314640041241518 0.029336350333915615 0 0.0027462191122269528 0.02926175940217671 0 0.0027788262015564606 0.029203683317452194 0 0.0027539207661011161 0.02930416953297665 0 0.0027948153799977359 0.029236727645588573 0 0.0027539207661011161 0.02930416953297665 0 0.0027948153799977359 0.029236727645588573 0 0.0027674286929217917 0.029405391774924277 0 0.0027788262015564606 0.029203683317452194 0 0.0027948153799977359 0.029236727645588573 0 0.0028506214839030303 0.029059773758535096 0 0.0028340495051768859 0.029257656182450263 0 0.0029099906599066539 0.029154994603080051 0 0.0028506214839030303 0.029059773758535096 0 0.0027948153799977359 0.029236727645588573 0 0.0028340495051768859 0.029257656182450263 0 0.0028506214839030303 0.029059773758535096 0 0.0028340495051768859 0.029257656182450263 0 0.0028252578366769285 0.029423286284322961 0 0.0027674286929217917 0.029405391774924277 0 0.0027948153799977359 0.029236727645588573 0 0.0028340495051768859 0.029257656182450263 0 0.0027674286929217917 0.029405391774924277 0 0.0028340495051768859 0.029257656182450263 0 0.0028252578366769285 0.029423286284322961 0 0.0029099906599066539 0.029154994603080051 0 0.0027272609725877204 0.029547943611465524 0 0.0027674286929217917 0.029405391774924277 0 0.002740685519534923 0.029619746539652214 0 0.0027272609725877204 0.029547943611465524 0 0.002740685519534923 0.029619746539652214 0 0.0026983707364795929 0.02971145826978585 0 0.0027325875023251566 0.029417767655827026 0 0.0027272609725877204 0.029547943611465524 0 0.0027674286929217917 0.029405391774924277 0 0.0028252578366769285 0.029423286284322961 0 0.002740685519534923 0.029619746539652214 0 0.0027726844071735706 0.02966591263200612 0 0.0028252578366769285 0.029423286284322961 0 0.0027674286929217917 0.029405391774924277 0 0.002740685519534923 0.029619746539652214 0 0.002740685519534923 0.029619746539652214 0 0.002707083656559247 0.029843256673134068 0 0.0026983707364795929 0.02971145826978585 0 0.002707083656559247 0.029843256673134068 0 0.0026434145248247763 0.030155454518950343 0 0.0026983707364795929 0.02971145826978585 0 0.0026983707364795929 0.02971145826978585 0 0.0027824040271315575 0.02954084083297711 0 0.0028338582555573854 0.029768897888958253 0 0.0026434145248247763 0.030155454518950343 0 0.0026983707364795929 0.02971145826978585 0 0.0028338582555573854 0.029768897888958253 0 0.0027280879941362925 0.029502483299845204 0 0.0027272609725877204 0.029547943611465524 0 0.0026983707364795929 0.02971145826978585 0 0.0027972525229431979 0.029349063851909409 0 0.0027824040271315575 0.02954084083297711 0 0.0029552452490117743 0.029590699486658673 0 0.0027280879941362925 0.029502483299845204 0 0.0026983707364795929 0.02971145826978585 0 0.0027824040271315575 0.02954084083297711 0 0.0027972525229431979 0.029349063851909409 0 0.0027824040271315575 0.02954084083297711 0 0.0027462191170847593 0.02940993627820079 0 0.0027280879941362925 0.029502483299845204 0 0.0027824040271315575 0.02954084083297711 0 0.0027462191170847593 0.02940993627820079 0 0.0032529064991737512 0.02948806538296312 0 0.0029209196103765333 0.029326900594901152 0 0.0029552452490117743 0.029590699486658673 0 0.0027824040271315575 0.02954084083297711 0 0.0029552452490117743 0.029590699486658673 0 0.0028338582555573854 0.029768897888958253 0 0.0032099029101648247 0.029916545880150643 0 0.0029552452490117743 0.029590699486658673 0 0.0028338582555573854 0.029768897888958253 0 0.0032099029101648247 0.029916545880150643 0 0.0026434145248247763 0.030155454518950343 0 0.0028338582555573854 0.029768897888958253 0 0.0017727667530829238 0.031195698549187679 0 0.0019792164570005297 0.031024130826825046 0 0.00097139545326026288 0.03168578514336802 0 0.0026434145248247763 0.030155454518950343 0 0.0019694853516773422 0.030330248769232317 0 0.0010022969340777804 0.030350786897186177 0 0.00097139545326026288 0.03168578514336802 0 0.0019694853516773422 0.030330248769232317 0 0.0019694853516773422 0.030330248769232317 0 0.0026524018092821998 0.029852637011595014 0 0.0019594745348465435 0.029777360488035212 0 0.0010022969340777804 0.030350786897186177 0 0.0019694853516773422 0.030330248769232317 0 0.0019594745348465435 0.029777360488035212 0 0.002707083656559247 0.029843256673134068 0 0.0026524018092821998 0.029852637011595014 0 0.0027726844071735706 0.02966591263200612 0 0.002707083656559247 0.029843256673134068 0 0.0026434145248247763 0.030155454518950343 0 0.0026524018092821998 0.029852637011595014 0 0.0026434145248247763 0.030155454518950343 0 0.0019694853516773422 0.030330248769232317 0 0.0026524018092821998 0.029852637011595014 0 0.0015599725488153701 0.030781638161181516 0 0.0013110837196723783 0.030833992475475552 0 0.0026524018092821998 0.029852637011595014 0 0.0027391595833762303 0.029616138259393743 0 0.0026038068862630111 0.029511265540859304 0 0.0026524018092821998 0.029852637011595014 0 0.0027391595833762303 0.029616138259393743 0 0.0027726844071735706 0.02966591263200612 0 0.0027391595833762303 0.029616138259393743 0 0.0026038068862630111 0.029511265540859304 0 0.0027607352441856481 0.029480453006684216 0 0.0026524018092821998 0.029852637011595014 0 0.0026038068862630111 0.029511265540859304 0 0.0023520183708904824 0.029553030635266007 0 0.0026038068862630111 0.029511265540859304 0 0.0023520183708904824 0.029553030635266007 0 0.0024904001339405295 0.029352542554454034 0 0.0026038068862630111 0.029511265540859304 0 0.0024904001339405295 0.029352542554454034 0 0.0027202866168200362 0.029364623897101479 0 0.0026038068862630111 0.029511265540859304 0 0.0027202866168200362 0.029364623897101479 0 0.0027607352441856481 0.029480453006684216 0 0.0021540531401547337 0.02937693927436456 0 0.0023520183708904824 0.029553030635266007 0 0.0024904001339405295 0.029352542554454034 0 0.00093374235743019318 0.029031820650392087 0 0.0010022969340777804 0.030350786897186177 0 0.0019594745348465435 0.029777360488035212 0 0.00083761335744525533 0.031254580815907068 0 0.0013110837196723783 0.030833992475475552 0 0.0021540531401547337 0.02937693927436456 0 0.0024904001339405295 0.029352542554454034 0 0.0024925209241927629 0.029130087640209374 0 0.00083761335744525533 0.031254580815907068 0 0.0018448443567502361 0.030102746042359258 0 0.0012376437074238106 0.030920210181934634 0 0.00111255290289304 0.030754995145488954 0 0.00098562623932391884 0.030936451500289765 0 0.0024904001339405295 0.029352542554454034 0 0.0026146217502875579 0.029232669189235998 0 0.0024925209241927629 0.029130087640209374 0 0.0024904001339405295 0.029352542554454034 0 0.0026146217502875579 0.029232669189235998 0 0.0027202866168200362 0.029364623897101479 0 0.0022420598314700597 0.029643642625090543 0 0.0018448443567502361 0.030102746042359258 0 0.0026146217502875579 0.029232669189235998 0 0.0024925209241927629 0.029130087640209374 0 0.0026959739081446454 0.029144312885652952 0 0.001373222841527838 0.028735417770080322 0 0.00111255290289304 0.030754995145488954 0 0.00098562623932391884 0.030936451500289765 0 0.00096472640567008634 0.030703625237048553 0 0.00094669484225127446 0.030750060478719886 0 0.00085249838653662219 0.032078034583485251 0 0.00045514546228090551 0.032592863476346517 0 0.00098562623932391884 0.030936451500289765 0 0.00085249838653662219 0.032078034583485251 0 0.0011680327729337826 0.031504319812537068 0 0.00098562623932391884 0.030936451500289765 0 0.00085249838653662219 0.032078034583485251 0 0.0014129024018317057 0.031736362618514438 0 0.0011680327729337826 0.031504319812537068 0 0.0014375797642556503 0.031277830593594499 0 0.0011680327729337826 0.031504319812537068 0 0.00098562623932391884 0.030936451500289765 0 0.0033847489869372411 0.028823959424893335 0 0.0029833421597580696 0.02903559716459438 0 0.0031853936689913045 0.029262458639105558 0 0.0029833421597580696 0.02903559716459438 0 0.0026959739081446454 0.029144312885652952 0 0.0029834151221614221 0.029220326584505543 0 0.0029833421597580696 0.02903559716459438 0 0.0029834151221614221 0.029220326584505543 0 0.0031853936689913045 0.029262458639105558 0 0.0025792167465789936 0.028889172784531306 0 0.0029833421597580696 0.02903559716459438 0 0.0026959739081446454 0.029144312885652952 0 0.0025792167465789936 0.028889172784531306 0 0.0024925209241927629 0.029130087640209374 0 0.0026959739081446454 0.029144312885652952 0 0.0026959739081446454 0.029144312885652952 0 0.0027249158834161966 0.029259236860325308 0 0.0028675926380164665 0.029296803692135616 0 0.0026959739081446454 0.029144312885652952 0 0.0028675926380164665 0.029296803692135616 0 0.0029834151221614221 0.029220326584505543 0 0.0026146217502875579 0.029232669189235998 0 0.0026959739081446454 0.029144312885652952 0 0.0027249158834161966 0.029259236860325308 0 0.0026146217502875579 0.029232669189235998 0 0.0027249158834161966 0.029259236860325308 0 0.0027202866168200362 0.029364623897101479 0 0.0027249158834161966 0.029259236860325308 0 0.0027202866168200362 0.029364623897101479 0 0.0028675926380164665 0.029296803692135616 0 0.0027202866168200362 0.029364623897101479 0 0.0028675926380164665 0.029296803692135616 0 0.0028618509309578715 0.029403610698092268 0 0.0028675926380164665 0.029296803692135616 0 0.0029834151221614221 0.029220326584505543 0 0.003029275147044356 0.029375269805611413 0 0.0028675926380164665 0.029296803692135616 0 0.003029275147044356 0.029375269805611413 0 0.0028618509309578715 0.029403610698092268 0 0.0029834151221614221 0.029220326584505543 0 0.003029275147044356 0.029375269805611413 0 0.0031853936689913045 0.029262458639105558 0 0.003029275147044356 0.029375269805611413 0 0.0029315074693262878 0.029399197908447826 0 0.0029701247309043867 0.029233163132913652 0 0.003029275147044356 0.029375269805611413 0 0.0029315074693262878 0.029399197908447826 0 0.0028618509309578715 0.029403610698092268 0 0.0027202866168200362 0.029364623897101479 0 0.0028618509309578715 0.029403610698092268 0 0.0027607352441856481 0.029480453006684216 0 0.0029315074693262878 0.029399197908447826 0 0.0028618509309578715 0.029403610698092268 0 0.0028321478625195637 0.029508389661372689 0 0.0027391595833762303 0.029616138259393743 0 0.0028321478625195637 0.029508389661372689 0 0.0027607352441856481 0.029480453006684216 0 0.0028618509309578715 0.029403610698092268 0 0.0028321478625195637 0.029508389661372689 0 0.0027607352441856481 0.029480453006684216 0 0.0027391595833762303 0.029616138259393743 0 0.0028321478625195637 0.029508389661372689 0 0.0027726844071735706 0.02966591263200612 0 0.0028321478625195637 0.029508389661372689 0 0.0027726844071735706 0.02966591263200612 0 0.0028899298438025381 0.029407828312471979 0 0.0029315074693262878 0.029399197908447826 0 0.0028321478625195637 0.029508389661372689 0 0.0028899298438025381 0.029407828312471979 0 0.0028252578366769285 0.029423286284322961 0 0.0027726844071735706 0.02966591263200612 0 0.0028899298438025381 0.029407828312471979 0 0.002740685519534923 0.029619746539652214 0 0.002707083656559247 0.029843256673134068 0 0.0027726844071735706 0.02966591263200612 0 0.0028899298438025381 0.029407828312471979 0 0.0029701247309043867 0.029233163132913652 0 0.0029099906599066539 0.029154994603080051 0 0.0029315074693262878 0.029399197908447826 0 0.0028899298438025381 0.029407828312471979 0 0.0029701247309043867 0.029233163132913652 0 0.0028252578366769285 0.029423286284322961 0 0.0028899298438025381 0.029407828312471979 0 0.0029099906599066539 0.029154994603080051 0 0.0029536105093279268 0.029039984772185903 0 0.0029701247309043867 0.029233163132913652 0 0.0029099906599066539 0.029154994603080051 0 0.0029536105093279268 0.029039984772185903 0 0.0028033210472266264 0.02908289892118673 0 0.0029701247309043867 0.029233163132913652 0 0.0029536105093279268 0.029039984772185903 0 0.0028033210472266264 0.02908289892118673 0 0.0029854525487239929 0.028722160374602752 0 0.0028033210472266264 0.02908289892118673 0 0.0029701247309043867 0.029233163132913652 0 0.0028370029077929189 0.029381463129959016 0 0.0037392296472818572 0.027160321319243549 0 0.0041662997470594343 0.027921362784079966 0 0.0036757256556929721 0.027643043892643705 0 0.0029011719271741531 0.028203294160801928 0 0.0022500497918500929 0.027051044483459987 0 0.003029275147044356 0.029375269805611413 0 0.0029701247309043867 0.029233163132913652 0 0.0028370029077929189 0.029381463129959016 0 0.003029275147044356 0.029375269805611413 0 0.0031853936689913045 0.029262458639105558 0 0.0034242095277592379 0.029326991103883492 0 0.002517504891982025 0.027593017411138364 0 0.0022500497918500929 0.027051044483459987 0 0.0022500497918500929 0.027051044483459987 0 0.0022198110001446394 0.026154551710588284 0 0.0011434349329704971 0.024570140027888786 0 0.0010956880272149302 0.024646947498888318 0 0.0011749173539589556 0.024694753922063269 0 0.0031853936689913045 0.029262458639105558 0 0.0034242095277592379 0.029326991103883492 0 0.0033504142812066911 0.029030714151235464 0 0.002081462757537871 0.027076923190475093 0 0.0022198110001446394 0.026154551710588284 0 0.0033847489869372411 0.028823959424893335 0 0.0031853936689913045 0.029262458639105558 0 0.0038185282952219279 0.028897235935921233 0 0.0010119221597841156 0.024689629411928357 0 0.0010164082496920267 0.024597813056116944 0 0.00089354926930275923 0.024623350186741593 0 0.0019169927008695915 0.025820092075459246 0 0.0011536904988288653 0.024526878226409803 0 0.0010956880272149302 0.024646947498888318 0 0.0010119221597841156 0.024689629411928357 0 0.0010164082496920267 0.024597813056116944 0 0.0041662997470594343 0.027921362784079966 0 0.0035815104100568851 0.028213818064854661 0 0.0036757256556929721 0.027643043892643705 0 0.0011434349329704971 0.024570140027888786 0 0.0010956880272149302 0.024646947498888318 0 0.0010164082496920267 0.024597813056116944 0 0.0022500497918500929 0.027051044483459987 0 0.0019169927008695915 0.025820092075459246 0 0.0035815104100568851 0.028213818064854661 0 0.0031639789568239725 0.027903093384874074 0 0.0029346850743522559 0.028532524910328472 0 0.0035815104100568851 0.028213818064854661 0 0.0031639789568239725 0.027903093384874074 0 0.0036757256556929721 0.027643043892643705 0 0.0031639789568239725 0.027903093384874074 0 0.0036757256556929721 0.027643043892643705 0 0.0036169841609416031 0.02724991523330355 0 0.0031639789568239725 0.027903093384874074 0 0.0036169841609416031 0.02724991523330355 0 0.0028242130388969329 0.027055035239681585 0 0.0037392296472818572 0.027160321319243549 0 0.0036757256556929721 0.027643043892643705 0 0.0036169841609416031 0.02724991523330355 0 0.0037392296472818572 0.027160321319243549 0 0.0036169841609416031 0.02724991523330355 0 0.0040641261787147638 0.026747642397152039 0 0.0036169841609416031 0.02724991523330355 0 0.0040641261787147638 0.026747642397152039 0 0.0028242130388969329 0.027055035239681585 0 0.0040641261787147638 0.026747642397152039 0 0.0031490521884272003 0.024585664245278326 0 0.0028576935259869989 0.026069044480929612 0 0.0040641261787147638 0.026747642397152039 0 0.0041951542730796565 0.02399279485711622 0 0.0057400830707832447 0.023317679441561882 0 0.0036648516773954802 0.026086335303287286 0 0.0036000134397780464 0.025811802437935228 0 0.0040641261787147638 0.026747642397152039 0 0.0041951542730796565 0.02399279485711622 0 0.0031490521884272003 0.024585664245278326 0 0.0041951542730796565 0.02399279485711622 0 0.0057400830707832447 0.023317679441561882 0 0.0046524616711691464 0.022641412195773775 0 0.0041951542730796565 0.02399279485711622 0 0.003553569453877926 0.022903360675995268 0 0.0031490521884272003 0.024585664245278326 0 0.0041951542730796565 0.02399279485711622 0 0.003553569453877926 0.022903360675995268 0 0.0046524616711691464 0.022641412195773775 0 0.0040641261787147638 0.026747642397152039 0 0.0037461355406992361 0.028730705913311529 0 0.003210406296485412 0.028038861002832725 0 0.0037461355406992361 0.028730705913311529 0 0.003210406296485412 0.028038861002832725 0 0.0031582730357593582 0.028800397925615034 0 0.0029011719271741531 0.028203294160801928 0 0.0030303504567791273 0.0283543588540584 0 0.0037392296472818572 0.027160321319243549 0 0.0040641261787147638 0.026747642397152039 0 0.003210406296485412 0.028038861002832725 0 0.003210406296485412 0.028038861002832725 0 0.0029854525487239929 0.028722160374602752 0 0.003010822139555001 0.028623471563538248 0 0.0028033210472266264 0.02908289892118673 0 0.003210406296485412 0.028038861002832725 0 0.0029854525487239929 0.028722160374602752 0 0.0029854525487239929 0.028722160374602752 0 0.0029099906599066539 0.029154994603080051 0 0.0028506214839030303 0.029059773758535096 0 0.0029536105093279268 0.029039984772185903 0 0.0029854525487239929 0.028722160374602752 0 0.0029099906599066539 0.029154994603080051 0 0.0028506214839030303 0.029059773758535096 0 0.0029194980929241536 0.028862728492075693 0 0.0028281884018750256 0.029092054573141724 0 0.0029854525487239929 0.028722160374602752 0 0.0028506214839030303 0.029059773758535096 0 0.0029194980929241536 0.028862728492075693 0 0.0029194980929241536 0.028862728492075693 0 0.002899879970533805 0.029021612240017883 0 0.0028281884018750256 0.029092054573141724 0 0.0027788262015564606 0.029203683317452194 0 0.0028506214839030303 0.029059773758535096 0 0.0028281884018750256 0.029092054573141724 0 0.003210406296485412 0.028038861002832725 0 0.003010822139555001 0.028623471563538248 0 0.0031582730357593582 0.028800397925615034 0 0.0029854525487239929 0.028722160374602752 0 0.0029194980929241536 0.028862728492075693 0 0.003010822139555001 0.028623471563538248 0 0.0029194980929241536 0.028862728492075693 0 0.003010822139555001 0.028623471563538248 0 0.0029710970491393725 0.02898456047548691 0 0.0029194980929241536 0.028862728492075693 0 0.002899879970533805 0.029021612240017883 0 0.0029710970491393725 0.02898456047548691 0 0.003010822139555001 0.028623471563538248 0 0.0031582730357593582 0.028800397925615034 0 0.0029710970491393725 0.02898456047548691 0 0.0031582730357593582 0.028800397925615034 0 0.0030716070143342604 0.029084961903209035 0 0.0029710970491393725 0.02898456047548691 0 0.0031582730357593582 0.028800397925615034 0 0.0030716070143342604 0.029084961903209035 0 0.0032401420109925481 0.029147337814208078 0 0.0029710970491393725 0.02898456047548691 0 0.0029721526050840697 0.029160036663402854 0 0.0028769358009085523 0.029133590936993206 0 0.0030716070143342604 0.029084961903209035 0 0.0029710970491393725 0.02898456047548691 0 0.0029721526050840697 0.029160036663402854 0 0.0030716070143342604 0.029084961903209035 0 0.0029721526050840697 0.029160036663402854 0 0.0030656330896957659 0.029216872074058712 0 0.0029721526050840697 0.029160036663402854 0 0.0029028820618730898 0.029237759353003885 0 0.0029804229467141593 0.029267599234110556 0 0.0029721526050840697 0.029160036663402854 0 0.0030656330896957659 0.029216872074058712 0 0.0029804229467141593 0.029267599234110556 0 0.0030716070143342604 0.029084961903209035 0 0.0030656330896957659 0.029216872074058712 0 0.0032401420109925481 0.029147337814208078 0 0.0030656330896957659 0.029216872074058712 0 0.0031429672431720766 0.029275431373908197 0 0.0032401420109925481 0.029147337814208078 0 0.0027755499560706489 0.029198458331482317 0 0.0028281884018750256 0.029092054573141724 0 0.0027956274038633414 0.029203196411594436 0 0.0028281884018750256 0.029092054573141724 0 0.0027956274038633414 0.029203196411594436 0 0.0028769358009085523 0.029133590936993206 0 0.002899879970533805 0.029021612240017883 0 0.0029710970491393725 0.02898456047548691 0 0.0028769358009085523 0.029133590936993206 0 0.002899879970533805 0.029021612240017883 0 0.0028281884018750256 0.029092054573141724 0 0.0028769358009085523 0.029133590936993206 0 0.0028769358009085523 0.029133590936993206 0 0.0029028820618730898 0.029237759353003885 0 0.0028362902636150989 0.029238620232771729 0 0.0029721526050840697 0.029160036663402854 0 0.0028769358009085523 0.029133590936993206 0 0.0029028820618730898 0.029237759353003885 0 0.0027956274038633414 0.029203196411594436 0 0.0028769358009085523 0.029133590936993206 0 0.0028362902636150989 0.029238620232771729 0 0.0027849214545618457 0.02926811961788232 0 0.0027956274038633414 0.029203196411594436 0 0.0028362902636150989 0.029238620232771729 0 0.0020483101644466189 0.030722521485683021 0 0.0023683683420179275 0.028440372131635885 0 0.0027428394825669399 0.02934713701250773 0 0.0029184099860420304 0.029387199438918151 0 0.002853540313532021 0.029349709024086935 0 0.00079032025311968077 0.034546372080305685 0 0.00096047588339602389 0.034576258843770288 0 0.00082433896431041329 0.034590371000476974 0 0.0027428394825669399 0.02934713701250773 0 0.0029184099860420304 0.029387199438918151 0 0.0030234398262492883 0.029478474446914722 0 0.0028018657861840811 0.029323795184161196 0 0.002817991029962131 0.029289629211214578 0 0.0028449262458330503 0.029318838175784102 0 0.0027856011096668095 0.02930052962974258 0 0.0028018657861840811 0.029323795184161196 0 0.002817991029962131 0.029289629211214578 0 0.0027856011096668095 0.02930052962974258 0 0.0027849214545618457 0.02926811961788232 0 0.002817991029962131 0.029289629211214578 0 0.0027849214545618457 0.02926811961788232 0 0.0028362902636150989 0.029238620232771729 0 0.002817991029962131 0.029289629211214578 0 0.0028362902636150989 0.029238620232771729 0 0.002817991029962131 0.029289629211214578 0 0.0028673353671251436 0.029290851428160614 0 0.0028018657861840811 0.029323795184161196 0 0.0028449262458330503 0.029318838175784102 0 0.002853540313532021 0.029349709024086935 0 0.002817991029962131 0.029289629211214578 0 0.0028449262458330503 0.029318838175784102 0 0.0028673353671251436 0.029290851428160614 0 0.0028449262458330503 0.029318838175784102 0 0.0028767589707232857 0.029327486146084901 0 0.002853540313532021 0.029349709024086935 0 0.0028767589707232857 0.029327486146084901 0 0.0028673353671251436 0.029290851428160614 0 0.0029182578584126752 0.029324051324856788 0 0.0028767589707232857 0.029327486146084901 0 0.0029182578584126752 0.029324051324856788 0 0.0029025490697973453 0.029353193441847981 0 0.0028449262458330503 0.029318838175784102 0 0.0028767589707232857 0.029327486146084901 0 0.0028673353671251436 0.029290851428160614 0 0.0029028820618730898 0.029237759353003885 0 0.0028362902636150989 0.029238620232771729 0 0.0028673353671251436 0.029290851428160614 0 0.0029028820618730898 0.029237759353003885 0 0.0028673353671251436 0.029290851428160614 0 0.0029182578584126752 0.029324051324856788 0 0.0029028820618730898 0.029237759353003885 0 0.0029182578584126752 0.029324051324856788 0 0.0029804229467141593 0.029267599234110556 0 0.0029389335030974837 0.029361548695318974 0 0.0029184099860420304 0.029387199438918151 0 0.0029680824498895457 0.029380598968009729 0 0.0029182578584126752 0.029324051324856788 0 0.0029389335030974837 0.029361548695318974 0 0.0029875825468343676 0.029347366452043139 0 0.0029182578584126752 0.029324051324856788 0 0.0029389335030974837 0.029361548695318974 0 0.0029025490697973453 0.029353193441847981 0 0.0029389335030974837 0.029361548695318974 0 0.0029184099860420304 0.029387199438918151 0 0.0029025490697973453 0.029353193441847981 0 0.0029184099860420304 0.029387199438918151 0 0.0029025490697973453 0.029353193441847981 0 0.002853540313532021 0.029349709024086935 0 0.0028767589707232857 0.029327486146084901 0 0.0029025490697973453 0.029353193441847981 0 0.002853540313532021 0.029349709024086935 0 0.0027428394825669399 0.02934713701250773 0 0.0028018657861840811 0.029323795184161196 0 0.002853540313532021 0.029349709024086935 0 0.0031259465854585988 0.029357954296277806 0 0.0032482454787100723 0.029262383200511267 0 0.0031216321623340009 0.029507254009818327 0 0.0031429672431720766 0.029275431373908197 0 0.0031259465854585988 0.029357954296277806 0 0.0032482454787100723 0.029262383200511267 0 0.0030517218904389694 0.029308787677883082 0 0.0030440155583983546 0.029370222246173971 0 0.0031259465854585988 0.029357954296277806 0 0.0031429672431720766 0.029275431373908197 0 0.0030517218904389694 0.029308787677883082 0 0.0031259465854585988 0.029357954296277806 0 0.0030656330896957659 0.029216872074058712 0 0.0031429672431720766 0.029275431373908197 0 0.0030517218904389694 0.029308787677883082 0 0.0030656330896957659 0.029216872074058712 0 0.0029804229467141593 0.029267599234110556 0 0.0030517218904389694 0.029308787677883082 0 0.0029182578584126752 0.029324051324856788 0 0.0029804229467141593 0.029267599234110556 0 0.0029875825468343676 0.029347366452043139 0 0.0029804229467141593 0.029267599234110556 0 0.0030517218904389694 0.029308787677883082 0 0.0029875825468343676 0.029347366452043139 0 0.0030517218904389694 0.029308787677883082 0 0.0030440155583983546 0.029370222246173971 0 0.0029875825468343676 0.029347366452043139 0 0.0030440155583983546 0.029370222246173971 0 0.0030046328689779735 0.029383711878103642 0 0.0029875825468343676 0.029347366452043139 0 0.0029184099860420304 0.029387199438918151 0 0.0029953988632705213 0.029418440513879287 0 0.0030234398262492883 0.029478474446914722 0 0.0030440155583983546 0.029370222246173971 0 0.0030046328689779735 0.029383711878103642 0 0.003032764641151476 0.029411012856586035 0 0.0029389335030974837 0.029361548695318974 0 0.0029875825468343676 0.029347366452043139 0 0.0029680824498895457 0.029380598968009729 0 0.0030046328689779735 0.029383711878103642 0 0.0029875825468343676 0.029347366452043139 0 0.0029680824498895457 0.029380598968009729 0 0.0029184099860420304 0.029387199438918151 0 0.0029680824498895457 0.029380598968009729 0 0.0029953988632705213 0.029418440513879287 0 0.0030046328689779735 0.029383711878103642 0 0.0029680824498895457 0.029380598968009729 0 0.0029953988632705213 0.029418440513879287 0 0.0030440155583983546 0.029370222246173971 0 0.003032764641151476 0.029411012856586035 0 0.0030690163080452108 0.029424099253684072 0 0.0029953988632705213 0.029418440513879287 0 0.003032764641151476 0.029411012856586035 0 0.0030234398262492883 0.029478474446914722 0 0.003032764641151476 0.029411012856586035 0 0.0030690163080452108 0.029424099253684072 0 0.0030234398262492883 0.029478474446914722 0 0.0030046328689779735 0.029383711878103642 0 0.0029953988632705213 0.029418440513879287 0 0.003032764641151476 0.029411012856586035 0 0.0030690163080452108 0.029424099253684072 0 0.0031259465854585988 0.029357954296277806 0 0.0031216321623340009 0.029507254009818327 0 0.0030440155583983546 0.029370222246173971 0 0.0030690163080452108 0.029424099253684072 0 0.0031259465854585988 0.029357954296277806 0 0.0029886276469183919 0.025663396410779207 0 0.0021357258129448579 0.026834181337147524 0 0.0062884674507934259 0.020960083866688829 0 0.0050381726917051138 0.020035004167259448 0 0.0053173569069219226 0.021670261485186904 0 0.0029886276469183919 0.025663396410779207 0 0.0022892895599989781 0.024290658931473037 0 0.0062884674507934259 0.020960083866688829 0 0.0050381726917051138 0.020035004167259448 0 0.0049188539160047477 0.018547994741446371 0 0.0053173569069219226 0.021670261485186904 0 0.0043802212117835448 0.018170721701047693 0 0.0036519579087586963 0.019353379295502758 0 0.0050381726917051138 0.020035004167259448 0 0.0053173569069219226 0.021670261485186904 0 0.0036097715669422439 0.018924957583543407 0 0.0053173569069219226 0.021670261485186904 0 0.0036519579087586963 0.019353379295502758 0 0.0035295412477443539 0.020534814238115442 0 0.0042944950351973968 0.019906694727508462 0 0.0036353693634220124 0.01840547457039813 0 0.0053173569069219226 0.021670261485186904 0 0.0039816230247347656 0.02183519768758866 0 0.0035295412477443539 0.020534814238115442 0 0.003553569453877926 0.022903360675995268 0 0.0039816230247347656 0.02183519768758866 0 0.0046524616711691464 0.022641412195773775 0 0.0057400830707832447 0.023317679441561882 0 0.0053173569069219226 0.021670261485186904 0 0.0046524616711691464 0.022641412195773775 0 0.0053173569069219226 0.021670261485186904 0 0.0039816230247347656 0.02183519768758866 0 0.0046524616711691464 0.022641412195773775 0 0.0036000134397780464 0.025811802437935228 0 0.0029886276469183919 0.025663396410779207 0 0.0057400830707832447 0.023317679441561882 0 0.0062884674507934259 0.020960083866688829 0 0.0053173569069219226 0.021670261485186904 0 0.0037461355406992361 0.028730705913311529 0 0.0033618696625790992 0.029472590916207561 0 0.0032401420109925481 0.029147337814208078 0 0.0037461355406992361 0.028730705913311529 0 0.0031582730357593582 0.028800397925615034 0 0.0032401420109925481 0.029147337814208078 0 0.0031429672431720766 0.029275431373908197 0 0.0032482454787100723 0.029262383200511267 0 0.0032401420109925481 0.029147337814208078 0 0.0029886276469183919 0.025663396410779207 0 0.003122170011605824 0.026108443720876676 0 0.0012090165747800556 0.025586112150479973 0 0.0012062389438664987 0.025600949125920924 0 0.0011867849527950206 0.025566249612394724 0 0.0012090165747800556 0.025586112150479973 0 0.0012000226274482687 0.025568915731098877 0 0.0011867849527950206 0.025566249612394724 0 0.0012090165747800556 0.025586112150479973 0 0.0012062389438664987 0.025600949125920924 0 0.0012131449715022105 0.025597212326043565 0 0.0012090165747800556 0.025586112150479973 0 0.0012131449715022105 0.025597212326043565 0 0.0012186053617437222 0.025596871493360082 0 0.0012090165747800556 0.025586112150479973 0 0.0012182205287786785 0.025588060235119926 0 0.0012131736855385917 0.025575104994363801 0 0.0012090165747800556 0.025586112150479973 0 0.0012000226274482687 0.025568915731098877 0 0.0012131736855385917 0.025575104994363801 0 0.0012090165747800556 0.025586112150479973 0 0.0012186053617437222 0.025596871493360082 0 0.0012182205287786785 0.025588060235119926 0 0.0034653319341582871 0.018377559610195177 0 0.0036097715669422439 0.018924957583543407 0 0.0021617795892186656 0.016699043029034601 0 0.0022892895599989781 0.024290658931473037 0 0.0012394499225269618 0.022083592344442151 0 0.0034653319341582871 0.018377559610195177 0 0.003288841461249109 0.016789747544733558 0 0.0021617795892186656 0.016699043029034601 0 0.0034653319341582871 0.018377559610195177 0 0.004364553815655741 0.018646164314836611 0 0.003288841461249109 0.016789747544733558 0 0.0036353693634220124 0.01840547457039813 0 0.0024883335972764545 0.016111534627265233 0 0.0034653319341582871 0.018377559610195177 0 0.0036097715669422439 0.018924957583543407 0 0.0049188539160047477 0.018547994741446371 0 0.0023784862756246203 0.023990701426990502 0 0.0022892895599989781 0.024290658931473037 0 0.0043802212117835448 0.018170721701047693 0 0.0036519579087586963 0.019353379295502758 0 0.0031805562624244699 0.018202589941264915 0 0.0050381726917051138 0.020035004167259448 0 0.0036097715669422439 0.018924957583543407 0 0.0049188539160047477 0.018547994741446371 0 0.0031078723323005506 0.025854265557663889 0 0.0029423483912788496 0.025440689753873945 0 0.0032361435395209847 0.025529102873241123 0 0.0012062389438664987 0.025600949125920924 0 0.0012131449715022105 0.025597212326043565 0 0.0012201960121442552 0.025604561059259342 0 0.0022892895599989781 0.024290658931473037 0 0.0021357258129448579 0.026834181337147524 0 0.0012131449715022105 0.025597212326043565 0 0.0012201960121442552 0.025604561059259342 0 0.0012186053617437222 0.025596871493360082 0 0.0011790441199407815 0.025760249611379023 0 0.0012264073933832464 0.025773608256873429 0 0.0012279575304407926 0.025601203143114221 0 0.0023683683420179275 0.028440372131635885 0 0.00080256397316706728 0.029149273165550771 0 0.0021357258129448579 0.026834181337147524 0 0.0023683683420179275 0.028440372131635885 0 0.0030690163080452108 0.029424099253684072 0 0.0031216321623340009 0.029507254009818327 0 0.0030234398262492883 0.029478474446914722 0 0.00096047588339602389 0.034576258843770288 0 0.00082433896431041329 0.034590371000476974 0 0.00086956499337963492 0.034642120524120114 0 0.00096047588339602389 0.034576258843770288 0 0.00086956499337963492 0.034642120524120114 0 0.000882425484423037 0.034743827437329559 0 0.00082433896431041329 0.034590371000476974 0 0.00086956499337963492 0.034642120524120114 0 0.00081164006176576468 0.034661431663600292 0 0.00086956499337963492 0.034642120524120114 0 0.000882425484423037 0.034743827437329559 0 0.00081164006176576468 0.034661431663600292 0 0.000882425484423037 0.034743827437329559 0 0.00075048908659199065 0.034718475421678316 0 0.00081164006176576468 0.034661431663600292 0 0.0021357258129448579 0.026834181337147524 0 0.0020550164108670936 0.026304067006597178 0 0.0012201960121442552 0.025604561059259342 0 0.0012186053617437222 0.025596871493360082 0 0.0012279575304407926 0.025601203143114221 0 0.0012264073933832464 0.025773608256873429 0 0.0012639193581036833 0.025602685023799535 0 0.0012279575304407926 0.025601203143114221 0 0.0012639193581036833 0.025602685023799535 0 0.0012279575304407926 0.025601203143114221 0 0.001232135827274854 0.025577091159752766 0 0.0012279575304407926 0.025601203143114221 0 0.0012182205287786785 0.025588060235119926 0 0.001232135827274854 0.025577091159752766 0 0.0012186053617437222 0.025596871493360082 0 0.0012279575304407926 0.025601203143114221 0 0.0012182205287786785 0.025588060235119926 0 0.0012182205287786785 0.025588060235119926 0 0.001232135827274854 0.025577091159752766 0 0.0012131736855385917 0.025575104994363801 0 0.001232135827274854 0.025577091159752766 0 0.0012668122302795478 0.025546860618908044 0 0.0012174754825427356 0.025554692390706964 0 0.001232135827274854 0.025577091159752766 0 0.0012174754825427356 0.025554692390706964 0 0.0012131736855385917 0.025575104994363801 0 0.0012639193581036833 0.025602685023799535 0 0.001232135827274854 0.025577091159752766 0 0.0012668122302795478 0.025546860618908044 0 0.000882425484423037 0.034743827437329559 0 0.00081388275852415216 0.034885754275127585 0 0.00075037235015934154 0.034817721077963854 0 0.00080256397316706728 0.029149273165550771 0 0.00015122381682828464 0.026611992522750743 0 0.00015122381682828464 0.026611992522750743 0 0.00074078614628509765 0.023802324828297302 0 9.7685636079285838e-05 0.020599655709986321 0 0.00032365640860853732 0.020625268306441114 0 0.00032594699570455567 0.020713758305646153 0 0.00032365640860853732 0.020625268306441114 0 0.00030772728814149378 0.02063741657724583 0 0.00032594699570455567 0.020713758305646153 0 0.00032365640860853732 0.020625268306441114 0 0.00030772728814149378 0.02063741657724583 0 0.00030551504610444488 0.020728234520339655 0 0.00030772728814149378 0.02063741657724583 0 0.00024897972612924053 0.020640885776751133 0 0.00027477555314532186 0.020656036035138315 0 0.0012174754825427356 0.025554692390706964 0 0.0012000226274482687 0.025568915731098877 0 0.0011811351370509104 0.025549679443287163 0 0.00074078614628509765 0.023802324828297302 0 0.00080984541317574948 0.021631445646259934 0 0.0012174754825427356 0.025554692390706964 0 0.0012000226274482687 0.025568915731098877 0 0.0012131736855385917 0.025575104994363801 0 0.003288841461249109 0.016789747544733558 0 0.002778329775792886 0.016063476236997297 0 0.0021617795892186656 0.016699043029034601 0 0.0012394499225269618 0.022083592344442151 0 0.00080984541317574948 0.021631445646259934 0 0.0012000226274482687 0.025568915731098877 0 0.0011867849527950206 0.025566249612394724 0 0.0011811351370509104 0.025549679443287163 0 0.00032321147445734831 0.020592436000200578 0 0.00042367811988459604 0.018682923237917464 0 -2.3815309779221987e-05 0.020344982808036795 0 0.00030551504610444488 0.020728234520339655 0 0.00032321147445734831 0.020592436000200578 0 -2.3815309779221987e-05 0.020344982808036795 0 0.00030772728814149378 0.02063741657724583 0 0.00030551504610444488 0.020728234520339655 0 0.00032321147445734831 0.020592436000200578 0 0.00080984541317574948 0.021631445646259934 0 0.00044571256822403978 0.01919881825371271 0 0.00032321147445734831 0.020592436000200578 0 0.00024897972612924053 0.020640885776751133 0 0.00013839872818654139 0.020636138449828888 0 0.00030772728814149378 0.02063741657724583 0 0.00032321147445734831 0.020592436000200578 0 0.00024897972612924053 0.020640885776751133 0 0.00028092596612109416 0.019692749468132729 0 0.0002067784382480003 0.019219000038091242 0 0.00032321147445734831 0.020592436000200578 0 0.00013839872818654139 0.020636138449828888 0 -0.00010139654614389888 0.020625510035439908 0 0.00024897972612924053 0.020640885776751133 0 0.00013839872818654139 0.020636138449828888 0 0.00027477555314532186 0.020656036035138315 0 0.00013839872818654139 0.020636138449828888 0 0.00027477555314532186 0.020656036035138315 0 0.00016282736288329597 0.020528093549734183 0 0.00013839872818654139 0.020636138449828888 0 -0.00010139654614389888 0.020625510035439908 0 0.00016282736288329597 0.020528093549734183 0 0.00027477555314532186 0.020656036035138315 0 0.0003158327563731316 0.020627420817273732 0 0.00032594699570455567 0.020713758305646153 0 0.00030772728814149378 0.02063741657724583 0 0.00027477555314532186 0.020656036035138315 0 0.00032594699570455567 0.020713758305646153 0 0.00027477555314532186 0.020656036035138315 0 0.0003158327563731316 0.020627420817273732 0 0.00016282736288329597 0.020528093549734183 0 0.0003158327563731316 0.020627420817273732 0 0.00026045791955027123 0.020326286752435238 0 0.00037107990033250518 0.020782710213370737 0 0.0003158327563731316 0.020627420817273732 0 0.00026045791955027123 0.020326286752435238 0 0.00016282736288329597 0.020528093549734183 0 -0.00010139654614389888 0.020625510035439908 0 -2.5280266155846957e-05 0.020124916714619072 0 -0.00060612956708214379 0.019584808614183088 0 -0.00010139654614389888 0.020625510035439908 0 0.00016282736288329597 0.020528093549734183 0 -2.5280266155846957e-05 0.020124916714619072 0 0.00026045791955027123 0.020326286752435238 0 0.00016282736288329597 0.020528093549734183 0 -2.5280266155846957e-05 0.020124916714619072 0 0.00026045791955027123 0.020326286752435238 0 -2.5280266155846957e-05 0.020124916714619072 0 6.6330172853242228e-05 0.019256962333919242 0 -2.5280266155846957e-05 0.020124916714619072 0 6.6330172853242228e-05 0.019256962333919242 0 -0.00060612956708214379 0.019584808614183088 0 0.00026045791955027123 0.020326286752435238 0 6.6330172853242228e-05 0.019256962333919242 0 0.00025607290167217728 0.020257775825250679 0 0.00026045791955027123 0.020326286752435238 0 0.00025607290167217728 0.020257775825250679 0 0.00037107990033250518 0.020782710213370737 0 9.9527925787262759e-07 0.018670075145705494 0 5.4010340242367442e-07 0.02059517609193285 0 0.00025607290167217728 0.020257775825250679 0 6.6330172853242228e-05 0.019256962333919242 0 9.9527925787262759e-07 0.018670075145705494 0 0.00025607290167217728 0.020257775825250679 0 6.6330172853242228e-05 0.019256962333919242 0 9.9527925787262759e-07 0.018670075145705494 0 -2.4149477365949152e-06 0.01674835413125203 0 5.4010340242367442e-07 0.02059517609193285 0 0.00025000561891584937 0.02159523210324131 0 -3.1344389746950447e-07 0.022519879657552339 0 5.4010340242367442e-07 0.02059517609193285 0 0.00025607290167217728 0.020257775825250679 0 0.00025000561891584937 0.02159523210324131 0 0.00025607290167217728 0.020257775825250679 0 0.00025000561891584937 0.02159523210324131 0 0.00037107990033250518 0.020782710213370737 0 0.00025000561891584937 0.02159523210324131 0 0.00021898122521294886 0.020899690906040356 0 -0.0001922583724745505 0.021092488150748791 0 0.00025000561891584937 0.02159523210324131 0 0.00037107990033250518 0.020782710213370737 0 0.00021898122521294886 0.020899690906040356 0 0.00037107990033250518 0.020782710213370737 0 0.00032594699570455567 0.020713758305646153 0 0.00021898122521294886 0.020899690906040356 0 0.0003158327563731316 0.020627420817273732 0 0.00037107990033250518 0.020782710213370737 0 0.00032594699570455567 0.020713758305646153 0 9.7685636079285838e-05 0.020599655709986321 0 0.00032594699570455567 0.020713758305646153 0 0.00021898122521294886 0.020899690906040356 0 -0.0016268831065272286 0.026677566076121515 0 -0.0011840968348383262 0.025531134434266141 0 -0.00040834335040942308 0.026425848222640262 0 9.7685636079285838e-05 0.020599655709986321 0 0.00021898122521294886 0.020899690906040356 0 -0.0001922583724745505 0.021092488150748791 0 0.00015122381682828464 0.026611992522750743 0 0.00016194977833233775 0.024087298433554911 0 -0.0011840968348383262 0.025531134434266141 0 4.3560206360192311e-05 0.025354204446370245 0 -0.00040834335040942308 0.026425848222640262 0 0.00016194977833233775 0.024087298433554911 0 0.00010641197984011303 0.02363692722076333 0 -0.0011840968348383262 0.025531134434266141 0 -0.00035231171376517252 0.023455847764380876 0 4.3560206360192311e-05 0.025354204446370245 0 0.00025000561891584937 0.02159523210324131 0 -0.0001922583724745505 0.021092488150748791 0 -0.00035231171376517252 0.023455847764380876 0 -0.00035231171376517252 0.023455847764380876 0 -3.1344389746950447e-07 0.022519879657552339 0 -4.5163745880512588e-08 0.024444407279265369 0 0.00025000561891584937 0.02159523210324131 0 -0.00035231171376517252 0.023455847764380876 0 -3.1344389746950447e-07 0.022519879657552339 0 -4.5163745880512588e-08 0.024444407279265369 0 0.00010792891468087405 0.024652466051763921 0 4.5854457337094256e-07 0.026368956909114675 0 -0.00035231171376517252 0.023455847764380876 0 -4.5163745880512588e-08 0.024444407279265369 0 0.00010792891468087405 0.024652466051763921 0 0.00010792891468087405 0.024652466051763921 0 0.00035596237061437527 0.025566434546879981 0 4.3560206360192311e-05 0.025354204446370245 0 -0.00035231171376517252 0.023455847764380876 0 0.00010792891468087405 0.024652466051763921 0 4.3560206360192311e-05 0.025354204446370245 0 0.00010792891468087405 0.024652466051763921 0 0.00035596237061437527 0.025566434546879981 0 4.5854457337094256e-07 0.026368956909114675 0 0.00035596237061437527 0.025566434546879981 0 0.00044587221908575365 0.026108467978050665 0 0.00046576626516465943 0.026086213472120836 0 0.00035596237061437527 0.025566434546879981 0 4.3560206360192311e-05 0.025354204446370245 0 0.00044587221908575365 0.026108467978050665 0 4.3560206360192311e-05 0.025354204446370245 0 0.00044587221908575365 0.026108467978050665 0 -0.00040834335040942308 0.026425848222640262 0 0.00048643958735854534 0.034991422641871515 0 0.00052917724633703414 0.034864533620107586 0 0.0003876861845943758 0.03493077325846812 0 0.00046728969713618978 0.034865503678123223 0 0.0004019612482971547 0.034836417106773016 0 0.00052917724633703414 0.034864533620107586 0 0.00054094240534104576 0.034783713739342796 0 0.00043499144163047348 0.034790934576483482 0 0.00052917724633703414 0.034864533620107586 0 0.00065459405736942289 0.034803140813940939 0 0.00054094240534104576 0.034783713739342796 0 0.00052917724633703414 0.034864533620107586 0 0.00065268516858549373 0.034937199058310824 0 0.00065459405736942289 0.034803140813940939 0 0.00048643958735854534 0.034991422641871515 0 0.00052917724633703414 0.034864533620107586 0 0.00065268516858549373 0.034937199058310824 0 0.00025618042064542019 0.030196826643564292 0 -6.0591001966387051e-05 0.029017440946562674 0 0.00015122381682828464 0.026611992522750743 0 -6.0591001966387051e-05 0.029017440946562674 0 0.00081388275852415216 0.034885754275127585 0 0.00065268516858549373 0.034937199058310824 0 0.00075037235015934154 0.034817721077963854 0 0.00065268516858549373 0.034937199058310824 0 0.00075037235015934154 0.034817721077963854 0 0.00065459405736942289 0.034803140813940939 0 0.00065459405736942289 0.034803140813940939 0 0.0006724267037249989 0.034720469362166904 0 0.00060329157072978705 0.034724317246203833 0 0.00065459405736942289 0.034803140813940939 0 0.0006724267037249989 0.034720469362166904 0 0.00075048908659199065 0.034718475421678316 0 0.0006724267037249989 0.034720469362166904 0 0.00075048908659199065 0.034718475421678316 0 0.00070760003111364515 0.034658472433043416 0 0.0006724267037249989 0.034720469362166904 0 0.00065382663040721963 0.034685592708294501 0 0.00060329157072978705 0.034724317246203833 0 0.00075037235015934154 0.034817721077963854 0 0.00065459405736942289 0.034803140813940939 0 0.00075048908659199065 0.034718475421678316 0 0.000882425484423037 0.034743827437329559 0 0.00075037235015934154 0.034817721077963854 0 0.00075048908659199065 0.034718475421678316 0 0.00075048908659199065 0.034718475421678316 0 0.00081164006176576468 0.034661431663600292 0 0.00076012181244567811 0.034653929794880314 0 0.00081164006176576468 0.034661431663600292 0 0.00076012181244567811 0.034653929794880314 0 0.00078512977587713291 0.034613221714233589 0 0.00075048908659199065 0.034718475421678316 0 0.00076012181244567811 0.034653929794880314 0 0.00070760003111364515 0.034658472433043416 0 0.00076012181244567811 0.034653929794880314 0 0.00074659870057998835 0.034617198521532111 0 0.00070760003111364515 0.034658472433043416 0 0.00071513753360304881 0.034612822282445908 0 0.00074659870057998835 0.034617198521532111 0 0.00070760003111364515 0.034658472433043416 0 0.00071513753360304881 0.034612822282445908 0 0.0007339513724217518 0.034601643783947332 0 0.00074659870057998835 0.034617198521532111 0 0.00076762506003732317 0.034578420853477378 0 0.0007339513724217518 0.034601643783947332 0 0.00074659870057998835 0.034617198521532111 0 0.00082433896431041329 0.034590371000476974 0 0.00081164006176576468 0.034661431663600292 0 0.00078512977587713291 0.034613221714233589 0 0.00076012181244567811 0.034653929794880314 0 0.00074659870057998835 0.034617198521532111 0 0.00078512977587713291 0.034613221714233589 0 0.00076762506003732317 0.034578420853477378 0 0.00074659870057998835 0.034617198521532111 0 0.00078512977587713291 0.034613221714233589 0 0.00079195664547591861 0.034582606205482883 0 0.00076762506003732317 0.034578420853477378 0 0.00078512977587713291 0.034613221714233589 0 0.00079195664547591861 0.034582606205482883 0 0.00082433896431041329 0.034590371000476974 0 0.00078512977587713291 0.034613221714233589 0 0.00065382663040721963 0.034685592708294501 0 0.00066667345366063077 0.034648080540762426 0 0.00062203532328994479 0.034675750080882743 0 0.0006724267037249989 0.034720469362166904 0 0.00065382663040721963 0.034685592708294501 0 0.00070760003111364515 0.034658472433043416 0 0.00065382663040721963 0.034685592708294501 0 0.00070760003111364515 0.034658472433043416 0 0.00066667345366063077 0.034648080540762426 0 0.00071513753360304881 0.034612822282445908 0 0.00070760003111364515 0.034658472433043416 0 0.00069376609954920261 0.03463558562059587 0 0.00070760003111364515 0.034658472433043416 0 0.00069376609954920261 0.03463558562059587 0 0.00066667345366063077 0.034648080540762426 0 0.00071513753360304881 0.034612822282445908 0 0.00069376609954920261 0.03463558562059587 0 0.00068464587858385227 0.034621354051566071 0 0.00069376609954920261 0.03463558562059587 0 0.00068464587858385227 0.034621354051566071 0 0.00066667345366063077 0.034648080540762426 0 0.00065529902880350356 0.034623741616644693 0 0.00066667345366063077 0.034648080540762426 0 0.00063749753004416492 0.034643138772437479 0 0.00066667345366063077 0.034648080540762426 0 0.00063749753004416492 0.034643138772437479 0 0.00062203532328994479 0.034675750080882743 0 0.00065529902880350356 0.034623741616644693 0 0.00068464587858385227 0.034621354051566071 0 0.00066667345366063077 0.034648080540762426 0 0.00057151191718839362 0.034680834392802777 0 0.00051888593459853243 0.034734781357173172 0 0.00060329157072978705 0.034724317246203833 0 0.00061098826982552794 0.034642894428463501 0 0.00063749753004416492 0.034643138772437479 0 0.00062203532328994479 0.034675750080882743 0 0.00061098826982552794 0.034642894428463501 0 0.00062203532328994479 0.034675750080882743 0 0.00057151191718839362 0.034680834392802777 0 0.00062203532328994479 0.034675750080882743 0 0.00057151191718839362 0.034680834392802777 0 0.00060329157072978705 0.034724317246203833 0 0.00065382663040721963 0.034685592708294501 0 0.00062203532328994479 0.034675750080882743 0 0.00060329157072978705 0.034724317246203833 0 0.00057411836545079092 0.03464384255029368 0 0.00061098826982552794 0.034642894428463501 0 0.00057151191718839362 0.034680834392802777 0 0.00050941440766546196 0.034671373910385335 0 0.00057151191718839362 0.034680834392802777 0 0.00051888593459853243 0.034734781357173172 0 0.00050941440766546196 0.034671373910385335 0 0.00051888593459853243 0.034734781357173172 0 0.00043499144163047348 0.034790934576483482 0 0.00050941440766546196 0.034671373910385335 0 0.00057411836545079092 0.03464384255029368 0 0.00057151191718839362 0.034680834392802777 0 0.00051888593459853243 0.034734781357173172 0 0.00054094240534104576 0.034783713739342796 0 0.00043499144163047348 0.034790934576483482 0 0.00051888593459853243 0.034734781357173172 0 0.00054094240534104576 0.034783713739342796 0 0.00060329157072978705 0.034724317246203833 0 0.00065459405736942289 0.034803140813940939 0 0.00054094240534104576 0.034783713739342796 0 0.00060329157072978705 0.034724317246203833 0 0.0004019612482971547 0.034836417106773016 0 0.00029877103380483066 0.034795096898835531 0 0.0003671756871525262 0.03484931255600035 0 0.00025989384352594942 0.034838379864475306 0 0.00028641010817849369 0.034920957019208124 0 0.00040692381219691758 0.034701867958122148 0 0.00050941440766546196 0.034671373910385335 0 0.00043499144163047348 0.034790934576483482 0 0.00040692381219691758 0.034701867958122148 0 0.00043499144163047348 0.034790934576483482 0 0.00033607194199296927 0.034768643663221632 0 0.0002355373094573969 0.034769755516379279 0 0.00029877103380483066 0.034795096898835531 0 0.00017698141015860314 0.034786482925431246 0 0.00025989384352594942 0.034838379864475306 0 0.0001819909769441759 0.034870403877363954 0 0.0001819909769441759 0.034870403877363954 0 0.00021014434541378067 0.034906808291264281 0 0.00014472160349641655 0.034915346528754984 0 0.00021014434541378067 0.034906808291264281 0 0.00016827850888735221 0.034943946721460131 0 0.00014472160349641655 0.034915346528754984 0 0.00025989384352594942 0.034838379864475306 0 0.0001819909769441759 0.034870403877363954 0 0.00021014434541378067 0.034906808291264281 0 0.00025989384352594942 0.034838379864475306 0 0.00021014434541378067 0.034906808291264281 0 0.00028641010817849369 0.034920957019208124 0 0.00021014434541378067 0.034906808291264281 0 0.0002065450178649873 0.034963188709147892 0 0.00028641010817849369 0.034920957019208124 0 0.00021014434541378067 0.034906808291264281 0 0.00016827850888735221 0.034943946721460131 0 0.0002065450178649873 0.034963188709147892 0 0.00016827850888735221 0.034943946721460131 0 0.0002065450178649873 0.034963188709147892 0 0.00014487766627079113 0.034978025530779153 0 0.0002065450178649873 0.034963188709147892 0 0.00015945085828070386 0.035012163588849579 0 0.00014487766627079113 0.034978025530779153 0 0.0002065450178649873 0.034963188709147892 0 0.00015945085828070386 0.035012163588849579 0 0.0002160833700277658 0.035004893835470799 0 0.0002065450178649873 0.034963188709147892 0 0.00026011037553686623 0.03497224519768985 0 0.00028641010817849369 0.034920957019208124 0 0.0002065450178649873 0.034963188709147892 0 0.00026011037553686623 0.03497224519768985 0 0.0002160833700277658 0.035004893835470799 0 0.00026011037553686623 0.03497224519768985 0 0.0002160833700277658 0.035004893835470799 0 0.000278402822429176 0.035009140098235317 0 0.00030821098717715356 0.034970866379402075 0 0.0003876861845943758 0.03493077325846812 0 0.00033427401268848862 0.035025527019400114 0 0.00030821098717715356 0.034970866379402075 0 0.00028641010817849369 0.034920957019208124 0 0.0003876861845943758 0.03493077325846812 0 0.00026011037553686623 0.03497224519768985 0 0.00030821098717715356 0.034970866379402075 0 0.000278402822429176 0.035009140098235317 0 0.00026011037553686623 0.03497224519768985 0 0.00030821098717715356 0.034970866379402075 0 0.00028641010817849369 0.034920957019208124 0 0.00052917724633703414 0.034864533620107586 0 0.0003671756871525262 0.03484931255600035 0 0.0003876861845943758 0.03493077325846812 0 0.0003671756871525262 0.03484931255600035 0 0.00028641010817849369 0.034920957019208124 0 0.0003876861845943758 0.03493077325846812 0 0.00048643958735854534 0.034991422641871515 0 0.0003876861845943758 0.03493077325846812 0 0.00033427401268848862 0.035025527019400114 0 0.00025618042064542019 0.030196826643564292 0 0.00035792213469772855 0.031149122304060337 0 0.00044587221908575365 0.026108467978050665 0 0.00042614939145065007 0.026090563694610189 0 0.00046576626516465943 0.026086213472120836 0 0.00042614939145065007 0.026090563694610189 0 0.0001966301818160123 0.026503424395872926 0 -0.00029121479466225704 0.026201320744025737 0 0.00035792213469772855 0.031149122304060337 0 0.00023979247414770581 0.0325361339178004 0 0.00030821098717715356 0.034970866379402075 0 0.00033427401268848862 0.035025527019400114 0 0.000278402822429176 0.035009140098235317 0 0.00042614939145065007 0.026090563694610189 0 0.0001966301818160123 0.026503424395872926 0 0.00046576626516465943 0.026086213472120836 0 0.0001966301818160123 0.026503424395872926 0 0.00046576626516465943 0.026086213472120836 0 0.00031153561342556923 0.026667224266710313 0 0.00035596237061437527 0.025566434546879981 0 0.00046576626516465943 0.026086213472120836 0 0.00031153561342556923 0.026667224266710313 0 0.00035596237061437527 0.025566434546879981 0 0.00031153561342556923 0.026667224266710313 0 4.5854457337094256e-07 0.026368956909114675 0 0.00031153561342556923 0.026667224266710313 0 1.299704638784216e-06 0.028294214642015283 0 -3.09975856053685e-05 0.027299130793706813 0 0.0001966301818160123 0.026503424395872926 0 0.00031153561342556923 0.026667224266710313 0 -3.09975856053685e-05 0.027299130793706813 0 0.00031153561342556923 0.026667224266710313 0 1.299704638784216e-06 0.028294214642015283 0 4.5854457337094256e-07 0.026368956909114675 0 -0.00018075654407385443 0.028389101631736875 0 -3.1945518938586002e-06 0.030215486449450678 0 -0.001471509977027027 0.028386537203668766 0 -9.1658594580850204e-07 0.030220204697806632 0 -0.00019811382279760263 0.030822183033009855 0 1.299704638784216e-06 0.028294214642015283 0 -0.00018075654407385443 0.028389101631736875 0 -3.09975856053685e-05 0.027299130793706813 0 1.299704638784216e-06 0.028294214642015283 0 -0.00018075654407385443 0.028389101631736875 0 -3.1945518938586002e-06 0.030215486449450678 0 -0.00018075654407385443 0.028389101631736875 0 -0.00089163483401971785 0.027566207071399808 0 -0.001471509977027027 0.028386537203668766 0 -3.09975856053685e-05 0.027299130793706813 0 -0.00089163483401971785 0.027566207071399808 0 -0.0010024762905761534 0.026704175708665498 0 -0.00018075654407385443 0.028389101631736875 0 -3.09975856053685e-05 0.027299130793706813 0 -0.00089163483401971785 0.027566207071399808 0 0.0002180327274519349 0.032222991672459476 0 0.00023979247414770581 0.0325361339178004 0 -3.09975856053685e-05 0.027299130793706813 0 -0.0010024762905761534 0.026704175708665498 0 -0.00029121479466225704 0.026201320744025737 0 0.00015433213432158123 0.035069706810734257 0 0.00021267811767131909 0.035023936526649743 0 0.00015440312297367593 0.035047777417409665 0 0.0001966301818160123 0.026503424395872926 0 -3.09975856053685e-05 0.027299130793706813 0 -0.00029121479466225704 0.026201320744025737 0 0.00033427401268848862 0.035025527019400114 0 0.00022748737842282629 0.035028004703737077 0 0.000278402822429176 0.035009140098235317 0 0.0002160833700277658 0.035004893835470799 0 0.00021731545324214435 0.035047853634501823 0 0.000278402822429176 0.035009140098235317 0 0.00023979247414770581 0.0325361339178004 0 -1.4328436202793359e-05 0.032943942404935193 0 0.00021731545324214435 0.035047853634501823 0 0.00015440312297367593 0.035047777417409665 0 0.00017909366336546636 0.035030623117933521 0 0.00023979247414770581 0.0325361339178004 0 0.00010902748331178312 0.032821245935761967 0 0.00015440312297367593 0.035047777417409665 0 0.00017909366336546636 0.035030623117933521 0 0.00014981257965696024 0.035034082973780932 0 0.0002160833700277658 0.035004893835470799 0 0.00021731545324214435 0.035047853634501823 0 0.00017909366336546636 0.035030623117933521 0 0.00015945085828070386 0.035012163588849579 0 0.0002160833700277658 0.035004893835470799 0 0.00017909366336546636 0.035030623117933521 0 0.00015945085828070386 0.035012163588849579 0 0.00017909366336546636 0.035030623117933521 0 0.00014981257965696024 0.035034082973780932 0 0.00015945085828070386 0.035012163588849579 0 0.00014981257965696024 0.035034082973780932 0 0.00012420183258195127 0.035031947460993737 0 0.00015945085828070386 0.035012163588849579 0 0.00012420183258195127 0.035031947460993737 0 0.00011361188765043005 0.03500865386622852 0 0.00012420183258195127 0.035031947460993737 0 9.3903237425714165e-05 0.035028063038202155 0 0.00011361188765043005 0.03500865386622852 0 0.00012420183258195127 0.035031947460993737 0 0.00010568967048161429 0.035053223816475999 0 0.00013173061098674515 0.035051355266457432 0 0.00012420183258195127 0.035031947460993737 0 0.00010568967048161429 0.035053223816475999 0 9.3903237425714165e-05 0.035028063038202155 0 0.00014981257965696024 0.035034082973780932 0 0.00012420183258195127 0.035031947460993737 0 0.00013173061098674515 0.035051355266457432 0 0.00015440312297367593 0.035047777417409665 0 0.00014981257965696024 0.035034082973780932 0 0.00013173061098674515 0.035051355266457432 0 0.00010568967048161429 0.035053223816475999 0 6.0239470414522823e-05 0.035037664788135886 0 9.3903237425714165e-05 0.035028063038202155 0 6.0239470414522823e-05 0.035037664788135886 0 9.3903237425714165e-05 0.035028063038202155 0 6.9619194162497778e-05 0.035008176753640263 0 5.8738187510336806e-05 0.032836553531418532 0 0.00022394345432323197 0.034002262898928583 0 0.00010568967048161429 0.035053223816475999 0 6.0239470414522823e-05 0.035037664788135886 0 0.00010747037263701222 0.035092141716285628 0 -9.2243874860108692e-05 0.034833428980353166 0 -7.3368850676503854e-05 0.034820913342291551 0 7.9847836464359494e-07 0.034876111766958387 0 -1.7886631152075629e-05 0.034953552402875343 0 -9.2243874860108692e-05 0.034833428980353166 0 7.9847836464359494e-07 0.034876111766958387 0 0.00049670807529582253 0.034334997430201547 0 0.00024294608707962071 0.032441850570731158 0 0.0002180327274519349 0.032222991672459476 0 0.00024294608707962071 0.032441850570731158 0 0.00015433213432158123 0.035069706810734257 0 0.00012364770507886905 0.035068540072531865 0 0.00010747037263701222 0.035092141716285628 0 -0.00089163483401971785 0.027566207071399808 0 -0.0010024762905761534 0.026704175708665498 0 -0.0020730241759969073 0.027314620128809922 0 0.00010568967048161429 0.035053223816475999 0 0.00012364770507886905 0.035068540072531865 0 0.00010747037263701222 0.035092141716285628 0 0.00015433213432158123 0.035069706810734257 0 0.00013173061098674515 0.035051355266457432 0 0.00012364770507886905 0.035068540072531865 0 0.00015433213432158123 0.035069706810734257 0 0.00015440312297367593 0.035047777417409665 0 0.00013173061098674515 0.035051355266457432 0 0.00010568967048161429 0.035053223816475999 0 0.00013173061098674515 0.035051355266457432 0 0.00012364770507886905 0.035068540072531865 0 -0.00089163483401971785 0.027566207071399808 0 -0.0020730241759969073 0.027314620128809922 0 -0.001471509977027027 0.028386537203668766 0 7.2149510022485538e-05 0.031506209354906924 0 8.5060582560690919e-05 0.031479865118294155 0 -9.5410357376162225e-06 0.031410948746037226 0 0.00024294608707962071 0.032441850570731158 0 -0.00019811382279760263 0.030822183033009855 0 7.6464255902460238e-05 0.031511937730207967 0 8.5060582560690919e-05 0.031479865118294155 0 -9.5410357376162225e-06 0.031410948746037226 0 8.2613894988963294e-06 0.033239597299538244 0 -6.4243555881567654e-07 0.033245941452977053 0 -3.6721264845235378e-06 0.033234763390683646 0 0.00024294608707962071 0.032441850570731158 0 5.8738187510336806e-05 0.032836553531418532 0 7.6464255902460238e-05 0.031511937730207967 0 8.5060582560690919e-05 0.031479865118294155 0 0.0001058176527498803 0.03149281114035999 0 8.5060582560690919e-05 0.031479865118294155 0 4.566252295816253e-05 0.03141307146507312 0 3.002362395550702e-05 0.031497179128868402 0 5.0512416728486666e-05 0.032825872416123565 0 5.8738187510336806e-05 0.032836553531418532 0 5.8738187510336806e-05 0.032836553531418532 0 5.7899087168878827e-05 0.033167919350247731 0 4.566252295816253e-05 0.03141307146507312 0 -0.00027786776339996455 0.031472491232126261 0 3.002362395550702e-05 0.031497179128868402 0 7.2149510022485538e-05 0.031506209354906924 0 3.002362395550702e-05 0.031497179128868402 0 0.00012410099523723218 0.031672368879943846 0 -0.00027786776339996455 0.031472491232126261 0 3.002362395550702e-05 0.031497179128868402 0 0.00012410099523723218 0.031672368879943846 0 7.2149510022485538e-05 0.031506209354906924 0 8.5060582560690919e-05 0.031479865118294155 0 3.002362395550702e-05 0.031497179128868402 0 -0.00027786776339996455 0.031472491232126261 0 0.00012410099523723218 0.031672368879943846 0 1.8806630717390107e-08 0.032324427858770675 0 5.7899087168878827e-05 0.033167919350247731 0 -1.760591794045591e-07 0.032329042224722819 0 -1.4883448437636555e-08 0.030222712657685131 0 0.00012410099523723218 0.031672368879943846 0 1.8806630717390107e-08 0.032324427858770675 0 -1.4883448437636555e-08 0.030222712657685131 0 0.00012410099523723218 0.031672368879943846 0 -9.5410357376162225e-06 0.031410948746037226 0 7.2149510022485538e-05 0.031506209354906924 0 0.00012410099523723218 0.031672368879943846 0 -9.5410357376162225e-06 0.031410948746037226 0 -3.9046283588038591e-07 0.032330961525958914 0 2.7054047034901479e-07 0.034998166875542282 0 -1.3739511069489719e-05 0.034619794878858481 0 2.7054047034901479e-07 0.034998166875542282 0 -1.0479399125168141e-05 0.034917473051215418 0 -1.40493712836733e-07 0.035000713136410906 0 2.7054047034901479e-07 0.034998166875542282 0 -1.3739511069489719e-05 0.034619794878858481 0 -1.0479399125168141e-05 0.034917473051215418 0 -1.3739511069489719e-05 0.034619794878858481 0 -9.3678388653706488e-05 0.034750363566318034 0 -1.0479399125168141e-05 0.034917473051215418 0 -1.5314120231238298e-05 0.033538731296532738 0 -1.7012974933319279e-05 0.033451175911187105 0 -0.00015153170454727954 0.033486685214138383 0 -3.9046283588038591e-07 0.032330961525958914 0 9.3385093943424276e-05 0.033471612204398815 0 -3.9046283588038591e-07 0.032330961525958914 0 -1.3739511069489719e-05 0.034619794878858481 0 9.3385093943424276e-05 0.033471612204398815 0 5.7899087168878827e-05 0.033167919350247731 0 -1.7012974933319279e-05 0.033451175911187105 0 5.7899087168878827e-05 0.033167919350247731 0 0.00022394345432323197 0.034002262898928583 0 -9.3678388653706488e-05 0.034750363566318034 0 -0.00010021291445407969 0.034880563378253217 0 -1.0479399125168141e-05 0.034917473051215418 0 -0.00017421726674156035 0.034849350008138942 0 -0.00010021291445407969 0.034880563378253217 0 -0.00010982475443743308 0.034967619885673797 0 -0.00017421726674156035 0.034849350008138942 0 -9.3678388653706488e-05 0.034750363566318034 0 -0.00010021291445407969 0.034880563378253217 0 -0.00010021291445407969 0.034880563378253217 0 -1.0479399125168141e-05 0.034917473051215418 0 -0.00010982475443743308 0.034967619885673797 0 -1.0479399125168141e-05 0.034917473051215418 0 -3.1194910896644151e-05 0.034985315123517213 0 -1.40493712836733e-07 0.035000713136410906 0 -1.0479399125168141e-05 0.034917473051215418 0 -3.1194910896644151e-05 0.034985315123517213 0 -0.00010982475443743308 0.034967619885673797 0 0.00012441792571314566 0.034560972909356946 0 0.00022394345432323197 0.034002262898928583 0 0.00022394345432323197 0.034002262898928583 0 0.00026969883841231697 0.034598395597557619 0 -1.7886631152075629e-05 0.034953552402875343 0 7.9847836464359494e-07 0.034876111766958387 0 4.9606981315460769e-06 0.034979958509049495 0 3.5259537777004176e-06 0.034993528287343013 0 1.3681655963580024e-05 0.034996205006960428 0 4.9606981315460769e-06 0.034979958509049495 0 3.5259537777004176e-06 0.034993528287343013 0 -9.5129749069619367e-09 0.034999949361438798 0 4.9606981315460769e-06 0.034979958509049495 0 0.00012441792571314566 0.034560972909356946 0 5.4059646674162992e-07 0.034998761103682607 0 9.7554598867358713e-06 0.03499641893514259 0 1.956304407161498e-08 0.035000009769131535 0 4.9606981315460769e-06 0.034979958509049495 0 -9.5129749069619367e-09 0.034999949361438798 0 1.956304407161498e-08 0.035000009769131535 0 4.9606981315460769e-06 0.034979958509049495 0 9.7554598867358713e-06 0.03499641893514259 0 1.956304407161498e-08 0.035000009769131535 0 1.0234810514341289e-05 0.034979159718933082 0 9.7554598867358713e-06 0.03499641893514259 0 2.8137356778966503e-05 0.034977249944280565 0 1.0234810514341289e-05 0.034979159718933082 0 9.7554598867358713e-06 0.03499641893514259 0 2.8137356778966503e-05 0.034977249944280565 0 5.4054604061116924e-05 0.034984659062314738 0 6.0239470414522823e-05 0.035037664788135886 0 9.7554598867358713e-06 0.03499641893514259 0 6.9619194162497778e-05 0.035008176753640263 0 -1.7886631152075629e-05 0.034953552402875343 0 9.7554598867358713e-06 0.03499641893514259 0 4.9606981315460769e-06 0.034979958509049495 0 0.00049670807529582253 0.034334997430201547 0 0.00042388749314045405 0.034626945902847088 0 9.7554598867358713e-06 0.03499641893514259 0 6.9619194162497778e-05 0.035008176753640263 0 5.4054604061116924e-05 0.034984659062314738 0 9.3903237425714165e-05 0.035028063038202155 0 6.9619194162497778e-05 0.035008176753640263 0 0.00011361188765043005 0.03500865386622852 0 6.9619194162497778e-05 0.035008176753640263 0 0.00011361188765043005 0.03500865386622852 0 9.522231334956364e-05 0.034981404478654769 0 6.9619194162497778e-05 0.035008176753640263 0 5.4054604061116924e-05 0.034984659062314738 0 9.522231334956364e-05 0.034981404478654769 0 0.00015945085828070386 0.035012163588849579 0 0.00011361188765043005 0.03500865386622852 0 0.00014487766627079113 0.034978025530779153 0 0.00011361188765043005 0.03500865386622852 0 0.00014487766627079113 0.034978025530779153 0 9.522231334956364e-05 0.034981404478654769 0 0.00016827850888735221 0.034943946721460131 0 0.00014487766627079113 0.034978025530779153 0 0.00012533268220334413 0.03495430966295926 0 0.00014487766627079113 0.034978025530779153 0 0.00012533268220334413 0.03495430966295926 0 9.522231334956364e-05 0.034981404478654769 0 0.00012533268220334413 0.03495430966295926 0 9.522231334956364e-05 0.034981404478654769 0 7.2437447991754991e-05 0.034953861570766617 0 0.00016827850888735221 0.034943946721460131 0 0.00012533268220334413 0.03495430966295926 0 0.00014472160349641655 0.034915346528754984 0 2.8137356778966503e-05 0.034977249944280565 0 5.4054604061116924e-05 0.034984659062314738 0 7.2437447991754991e-05 0.034953861570766617 0 5.4054604061116924e-05 0.034984659062314738 0 9.522231334956364e-05 0.034981404478654769 0 7.2437447991754991e-05 0.034953861570766617 0 2.8137356778966503e-05 0.034977249944280565 0 7.2437447991754991e-05 0.034953861570766617 0 3.3320604358083773e-05 0.034945232616841557 0 7.2437447991754991e-05 0.034953861570766617 0 9.5863154748535492e-05 0.034897566597703239 0 3.3320604358083773e-05 0.034945232616841557 0 7.2437447991754991e-05 0.034953861570766617 0 0.00014472160349641655 0.034915346528754984 0 9.5863154748535492e-05 0.034897566597703239 0 0.0001819909769441759 0.034870403877363954 0 0.00014472160349641655 0.034915346528754984 0 9.5863154748535492e-05 0.034897566597703239 0 0.00012533268220334413 0.03495430966295926 0 7.2437447991754991e-05 0.034953861570766617 0 0.00014472160349641655 0.034915346528754984 0 1.823106192114487e-05 0.034866427966943246 0 0.00017698141015860314 0.034786482925431246 0 9.5863154748535492e-05 0.034897566597703239 0 0.00017698141015860314 0.034786482925431246 0 0.0001819909769441759 0.034870403877363954 0 9.5863154748535492e-05 0.034897566597703239 0 1.823106192114487e-05 0.034866427966943246 0 9.5863154748535492e-05 0.034897566597703239 0 3.3320604358083773e-05 0.034945232616841557 0 1.823106192114487e-05 0.034866427966943246 0 1.1333353412909394e-05 0.034946945488489665 0 3.3320604358083773e-05 0.034945232616841557 0 1.1333353412909394e-05 0.034946945488489665 0 -6.4111771606695468e-09 0.034999916695581251 0 1.0234810514341289e-05 0.034979159718933082 0 1.956304407161498e-08 0.035000009769131535 0 -6.4111771606695468e-09 0.034999916695581251 0 1.0234810514341289e-05 0.034979159718933082 0 2.8137356778966503e-05 0.034977249944280565 0 1.0234810514341289e-05 0.034979159718933082 0 3.3320604358083773e-05 0.034945232616841557 0 1.1333353412909394e-05 0.034946945488489665 0 1.0234810514341289e-05 0.034979159718933082 0 3.3320604358083773e-05 0.034945232616841557 0 0.0016995653060532646 0.00076757232790440957 0 0.00186313458225041 0.00012147987565334825 0 0.00087175063546078872 0.001030764719710696 0 -0.0013237985227782766 0.0066743777572093035 0 -0.0032934961460078199 0.0081418779351024977 0 0.0016995653060532646 0.00076757232790440957 0 0.00087175063546078872 0.001030764719710696 0 0.0015129424634721534 0.0014574778726391677 0 0.0016995653060532646 0.00076757232790440957 0 0.001983462821445417 0.00086022063939506053 0 0.0018213049217665762 0.0012396945065136237 0 0.0016995653060532646 0.00076757232790440957 0 0.001983462821445417 0.00086022063939506053 0 0.0019675233605132695 0.00064407805198077241 0 0.0016995653060532646 0.00076757232790440957 0 0.0019675233605132695 0.00064407805198077241 0 0.0020454628555968161 0.0006617044319198117 0 0.0020033957704489293 0.00085374010297878443 0 0.0019675233605132695 0.00064407805198077241 0 0.0020454628555968161 0.0006617044319198117 0 -0.0105390366673744 0.017916154879904628 0 -0.009371231815089422 0.01826321389244779 0 -0.0089608683658410435 0.015627207083286524 0 -0.0105390366673744 0.017916154879904628 0 -0.009371231815089422 0.01826321389244779 0 -0.0096324833750961025 0.019639876791490703 0 -0.00080489990985836842 0.0048878466123208446 0 -0.0013237985227782766 0.0066743777572093035 0 -0.009371231815089422 0.01826321389244779 0 -0.0082949693191752411 0.017908746769821338 0 -0.0089608683658410435 0.015627207083286524 0 -0.009371231815089422 0.01826321389244779 0 -0.0082949693191752411 0.017908746769821338 0 -0.0084440799697682398 0.019286126255443466 0 -0.0082949693191752411 0.017908746769821338 0 -0.0070095922143140468 0.018908013144700388 0 -0.0084440799697682398 0.019286126255443466 0 -0.0072212728697692401 0.017327535158951704 0 -0.0070095922143140468 0.018908013144700388 0 -0.0054299886186672149 0.018167665580883917 0 -0.0082949693191752411 0.017908746769821338 0 -0.0072212728697692401 0.017327535158951704 0 -0.0070095922143140468 0.018908013144700388 0 -0.0069479229034556745 0.016016189991062555 0 -0.0089608683658410435 0.015627207083286524 0 -0.0064629302215204769 0.014554801427538365 0 -0.0072212728697692401 0.017327535158951704 0 -0.0069479229034556745 0.016016189991062555 0 -0.0089608683658410435 0.015627207083286524 0 -0.0072212728697692401 0.017327535158951704 0 -0.0069479229034556745 0.016016189991062555 0 -0.005596474520975398 0.016422436379079142 0 -0.0069479229034556745 0.016016189991062555 0 -0.0064629302215204769 0.014554801427538365 0 -0.005596474520975398 0.016422436379079142 0 -0.0082949693191752411 0.017908746769821338 0 -0.0072212728697692401 0.017327535158951704 0 -0.0089608683658410435 0.015627207083286524 0 0.00087175063546078872 0.001030764719710696 0 0.00093426344473722411 0.0020314955267813771 0 -0.0004059541229882282 0.0026968829396529143 0 -0.0032934961460078199 0.0081418779351024977 0 -0.0032881810960817353 0.0078228872628752708 0 0.00087175063546078872 0.001030764719710696 0 0.00093426344473722411 0.0020314955267813771 0 0.0015129424634721534 0.0014574778726391677 0 -0.0089608683658410435 0.015627207083286524 0 -0.0064629302215204769 0.014554801427538365 0 -0.0071149083134903826 0.012811378361633605 0 -0.0004059541229882282 0.0026968829396529143 0 0.0011203344324292942 0.0029075097261151098 0 -0.00049735403671812689 0.004419828898322248 0 0.00093426344473722411 0.0020314955267813771 0 -0.0004059541229882282 0.0026968829396529143 0 0.0011203344324292942 0.0029075097261151098 0 0.00093426344473722411 0.0020314955267813771 0 0.0011203344324292942 0.0029075097261151098 0 0.0014435095274077038 0.0019879114208900244 0 0.00046346690312109651 0.0037878592216675053 0 0.0010637846163113018 0.0032335100838283126 0 0.00093048586574979346 0.0038399960586293657 0 0.0011203344324292942 0.0029075097261151098 0 0.0014435095274077038 0.0019879114208900244 0 0.0019962366186986645 0.001587281461759257 0 0.00046346690312109651 0.0037878592216675053 0 0.0011488298223350664 0.0024546396771108633 0 0.0010637846163113018 0.0032335100838283126 0 0.00063745251868551592 0.0030171693598454916 0 0.0015387183542880391 0.0022900733094286365 0 0.00093426344473722411 0.0020314955267813771 0 0.0014435095274077038 0.0019879114208900244 0 0.0015129424634721534 0.0014574778726391677 0 0.0014435095274077038 0.0019879114208900244 0 0.001686454025138402 0.0015985393720463488 0 0.0019962366186986645 0.001587281461759257 0 0.0016995653060532646 0.00076757232790440957 0 0.0015129424634721534 0.0014574778726391677 0 0.0018213049217665762 0.0012396945065136237 0 0.0014435095274077038 0.0019879114208900244 0 0.001686454025138402 0.0015985393720463488 0 0.0015129424634721534 0.0014574778726391677 0 0.001686454025138402 0.0015985393720463488 0 0.0015129424634721534 0.0014574778726391677 0 0.0018213049217665762 0.0012396945065136237 0 0.001983462821445417 0.00086022063939506053 0 0.0018213049217665762 0.0012396945065136237 0 0.0019962366186986645 0.001587281461759257 0 0.0013270327357159904 0.0025243550973637631 0 0.0011488298223350664 0.0024546396771108633 0 0.0021049555189928113 0.00080188488679809632 0 0.001686454025138402 0.0015985393720463488 0 0.0018213049217665762 0.0012396945065136237 0 0.0019962366186986645 0.001587281461759257 0 0.0013270327357159904 0.0025243550973637631 0 0.0011488298223350664 0.0024546396771108633 0 0.0010637846163113018 0.0032335100838283126 0 0.0010637846163113018 0.0032335100838283126 0 0.0012881282979696896 0.0036825803944357965 0 0.00093048586574979346 0.0038399960586293657 0 0.0013270327357159904 0.0025243550973637631 0 0.0010637846163113018 0.0032335100838283126 0 0.0013398614506081601 0.0032152080284158732 0 0.0010637846163113018 0.0032335100838283126 0 0.0013398614506081601 0.0032152080284158732 0 0.0012881282979696896 0.0036825803944357965 0 0.0013270327357159904 0.0025243550973637631 0 0.0013398614506081601 0.0032152080284158732 0 0.0017859295309637258 0.0034218135263733461 0 0.0013398614506081601 0.0032152080284158732 0 0.0017859295309637258 0.0034218135263733461 0 0.0012881282979696896 0.0036825803944357965 0 0.0013270327357159904 0.0025243550973637631 0 0.0017859295309637258 0.0034218135263733461 0 0.0033579235672554176 0.0033488042502837173 0 0.0013270327357159904 0.0025243550973637631 0 0.0022682401551176404 0.0010060392765612438 0 0.0021049555189928113 0.00080188488679809632 0 0.0018100177894738775 0.0017403756860095885 0 0.0024716705918462908 0.0016581226828006018 0 0.0022682401551176404 0.0010060392765612438 0 0.0023253847070671195 0.0005393714303712822 0 0.002440763112758499 0.00037576253327725311 0 0.0022682401551176404 0.0010060392765612438 0 0.0023253847070671195 0.0005393714303712822 0 0.0021049555189928113 0.00080188488679809632 0 0.0023253847070671195 0.0005393714303712822 0 0.0021049555189928113 0.00080188488679809632 0 0.0023406457289596181 0.00012756115067681783 0 0.0015387183542880391 0.0022900733094286365 0 0.0019856500860646826 0.0018967280404127639 0 0.001983462821445417 0.00086022063939506053 0 0.0019962366186986645 0.001587281461759257 0 0.0021049555189928113 0.00080188488679809632 0 0.002440763112758499 0.00037576253327725311 0 0.0025382364775795876 -1.2729095516028851e-05 0 0.0025270974676060297 0.00015171525195516107 0 0.0025382364775795876 -1.2729095516028851e-05 0 0.0025270974676060297 0.00015171525195516107 0 0.0026038927836152088 -0.0002744811597477327 0 0.0025382364775795876 -1.2729095516028851e-05 0 0.0026038927836152088 -0.0002744811597477327 0 0.0026004871487321853 -0.00032224803678374204 0 0.0022682401551176404 0.0010060392765612438 0 0.002440763112758499 0.00037576253327725311 0 0.0025270974676060297 0.00015171525195516107 0 0.0024716705918462908 0.0016581226828006018 0 0.0027479719173831435 0.0011236800338927761 0 0.0023253847070671195 0.0005393714303712822 0 0.0024565656789136405 0.00018653856485119537 0 0.0023406457289596181 0.00012756115067681783 0 0.0023253847070671195 0.0005393714303712822 0 0.002440763112758499 0.00037576253327725311 0 0.0024565656789136405 0.00018653856485119537 0 0.002440763112758499 0.00037576253327725311 0 0.0024565656789136405 0.00018653856485119537 0 0.0025382364775795876 -1.2729095516028851e-05 0 0.0025382364775795876 -1.2729095516028851e-05 0 0.0025377726798869855 -0.00020148203709602488 0 0.0026004871487321853 -0.00032224803678374204 0 0.0024565656789136405 0.00018653856485119537 0 0.0025382364775795876 -1.2729095516028851e-05 0 0.0025377726798869855 -0.00020148203709602488 0 0.0025377726798869855 -0.00020148203709602488 0 0.0023406457289596181 0.00012756115067681783 0 0.0024626010629774306 -0.00047088899024816031 0 0.0024565656789136405 0.00018653856485119537 0 0.0025377726798869855 -0.00020148203709602488 0 0.0023406457289596181 0.00012756115067681783 0 0.0023406457289596181 0.00012756115067681783 0 0.0018149309948028486 0.0003595624513163034 0 0.0022505703544876943 -0.00034019042770432625 0 0.001983462821445417 0.00086022063939506053 0 0.0019675233605132695 0.00064407805198077241 0 0.0018149309948028486 0.0003595624513163034 0 0.001983462821445417 0.00086022063939506053 0 0.0021049555189928113 0.00080188488679809632 0 0.0018149309948028486 0.0003595624513163034 0 0.0021049555189928113 0.00080188488679809632 0 0.0023406457289596181 0.00012756115067681783 0 0.0018149309948028486 0.0003595624513163034 0 0.0020033957704489293 0.00085374010297878443 0 0.0019675233605132695 0.00064407805198077241 0 0.0018149309948028486 0.0003595624513163034 0 0.0020033957704489293 0.00085374010297878443 0 0.0018149309948028486 0.0003595624513163034 0 0.0020746160673506728 0.0015211667354302957 0 0.0018149309948028486 0.0003595624513163034 0 0.0020746160673506728 0.0015211667354302957 0 0.00057582658956330962 0.0014757953048681869 0 0.0011031059251056768 0.00029468746401231373 0 0.00076192975752737563 0.00044223056073881741 0 0.00057582658956330962 0.0014757953048681869 0 0.001003732282731511 0.0025303014028149762 0 -0.00059103631010630963 0.0029163682386459154 0 0.0020746160673506728 0.0015211667354302957 0 0.00057582658956330962 0.0014757953048681869 0 0.001003732282731511 0.0025303014028149762 0 0.0020746160673506728 0.0015211667354302957 0 0.001003732282731511 0.0025303014028149762 0 0.0020290989779351552 0.0025369328473830626 0 0.0023406457289596181 0.00012756115067681783 0 0.0022505703544876943 -0.00034019042770432625 0 0.0024626010629774306 -0.00047088899024816031 0 0.00076192975752737563 0.00044223056073881741 0 -0.00025986552326930887 0.00076520625763002673 0 0.0022505703544876943 -0.00034019042770432625 0 0.0024626010629774306 -0.00047088899024816031 0 0.0024815644288794891 -0.00036709757839524249 0 0.0024626010629774306 -0.00047088899024816031 0 0.0024815644288794891 -0.00036709757839524249 0 0.0023885033742003111 -0.00032864429700822228 0 -0.00025986552326930887 0.00076520625763002673 0 -0.002451937993680306 0.0011590592954173287 0 0.0024815644288794891 -0.00036709757839524249 0 0.0024009742301695524 -7.7057530978471757e-06 0 0.0023885033742003111 -0.00032864429700822228 0 -0.00059103631010630963 0.0029163682386459154 0 -0.00057644255113041825 0.0040568058458630143 0 0.00060770993151472658 0.0037661552252931537 0 -0.00057644255113041825 0.0040568058458630143 0 0.00060770993151472658 0.0037661552252931537 0 0.00025774675121983422 0.0046927993605152696 0 -0.00059103631010630963 0.0029163682386459154 0 -0.00057644255113041825 0.0040568058458630143 0 -0.0016560937842572221 0.004412591685111363 0 0.0024815644288794891 -0.00036709757839524249 0 0.0024474846196543745 5.7003913977685049e-05 0 0.0024009742301695524 -7.7057530978471757e-06 0 -0.002451937993680306 0.0011590592954173287 0 -0.0022455149013135265 0.0012446520656323164 0 0.0020290989779351552 0.0025369328473830626 0 0.0016394610911249297 0.0034106010671032358 0 0.0026161752181698464 0.0037458542204983976 0 0.001003732282731511 0.0025303014028149762 0 0.0020290989779351552 0.0025369328473830626 0 0.0016394610911249297 0.0034106010671032358 0 0.001003732282731511 0.0025303014028149762 0 -0.00059103631010630963 0.0029163682386459154 0 0.00060770993151472658 0.0037661552252931537 0 0.001003732282731511 0.0025303014028149762 0 0.0016394610911249297 0.0034106010671032358 0 0.00060770993151472658 0.0037661552252931537 0 0.00060770993151472658 0.0037661552252931537 0 0.00098211255988473216 0.0046271292487802653 0 0.0014852777123951508 0.0041683500367819485 0 0.00060770993151472658 0.0037661552252931537 0 0.00025774675121983422 0.0046927993605152696 0 0.00098211255988473216 0.0046271292487802653 0 0.00098211255988473216 0.0046271292487802653 0 0.0015272172047473883 0.0046955668234983598 0 0.0014852777123951508 0.0041683500367819485 0 0.0016394610911249297 0.0034106010671032358 0 0.00060770993151472658 0.0037661552252931537 0 0.0014852777123951508 0.0041683500367819485 0 0.0016394610911249297 0.0034106010671032358 0 0.0014852777123951508 0.0041683500367819485 0 0.0020485644732585158 0.0040721902348402669 0 0.0016394610911249297 0.0034106010671032358 0 0.0020485644732585158 0.0040721902348402669 0 0.0026161752181698464 0.0037458542204983976 0 0.0014852777123951508 0.0041683500367819485 0 0.0020485644732585158 0.0040721902348402669 0 0.0019949181997938195 0.0045134320327036206 0 0.0015272172047473883 0.0046955668234983598 0 0.0014852777123951508 0.0041683500367819485 0 0.0019949181997938195 0.0045134320327036206 0 0.0019226809982551139 0.0050208474528833699 0 0.0015272172047473883 0.0046955668234983598 0 0.0019949181997938195 0.0045134320327036206 0 0.0024582034272310521 0.004968905469025813 0 0.0019949181997938195 0.0045134320327036206 0 0.0029393499709478819 0.0044232246515328076 0 -0.00016829462270192207 0.012369083300979297 0 -0.00037227675859444697 0.012534731758092438 0 0.0020485644732585158 0.0040721902348402669 0 0.0019949181997938195 0.0045134320327036206 0 0.0024543319778865865 0.0045424117552946884 0 -0.00037227675859444697 0.012534731758092438 0 -0.0018152551446549985 0.013752320576986036 0 0.0031813967411069306 0.0050062058104354372 0 0.0029393499709478819 0.0044232246515328076 0 0.0041604715117760874 0.0044421082314424461 0 -0.0019549944476282156 0.013959123164829897 0 -0.0011239297292160741 0.013991182135745031 0 -0.0017112233217609991 0.01273671505417248 0 -0.010747482356741197 0.024188303414173884 0 -0.011296624761615125 0.023032310324015627 0 -0.0099101825860755371 0.02314205698526136 0 -0.0018152551446549985 0.013752320576986036 0 -0.0011118227491611048 0.011876045882992474 0 0.0020485644732585158 0.0040721902348402669 0 0.0024543319778865865 0.0045424117552946884 0 0.0026161752181698464 0.0037458542204983976 0 -0.00037227675859444697 0.012534731758092438 0 -0.0011118227491611048 0.011876045882992474 0 -0.010747482356741197 0.024188303414173884 0 -0.0099101825860755371 0.02314205698526136 0 -0.0086738518383102908 0.02430135310416941 0 -0.0018152551446549985 0.013752320576986036 0 -0.0049083744034382811 0.017799044015773223 0 -0.0099101825860755371 0.02314205698526136 0 -0.0093901047341293283 0.022111541185821572 0 -0.0086802174094712838 0.022997931381368155 0 -0.0099101825860755371 0.02314205698526136 0 -0.010295441607634612 0.022007874408257463 0 -0.0093901047341293283 0.022111541185821572 0 -0.011296624761615125 0.023032310324015627 0 -0.0099101825860755371 0.02314205698526136 0 -0.010295441607634612 0.022007874408257463 0 -0.010295441607634612 0.022007874408257463 0 -0.0093901047341293283 0.022111541185821572 0 -0.0097836732852759206 0.021028238825486104 0 0.0020290989779351552 0.0025369328473830626 0 0.0025661195342554254 0.0037428123681041785 0 0.002859103132354524 0.0019344757277359589 0 -0.011296624761615125 0.023032310324015627 0 -0.010295441607634612 0.022007874408257463 0 -0.010884039751933659 0.020535962129311448 0 -0.0014922839002999833 0.0087178641447347837 0 -0.0011118227491611048 0.011876045882992474 0 -0.0011118227491611048 0.011876045882992474 0 -0.0021501814066727746 0.010809250026755963 0 0.0020746160673506728 0.0015211667354302957 0 0.0020290989779351552 0.0025369328473830626 0 0.002859103132354524 0.0019344757277359589 0 -0.010295441607634612 0.022007874408257463 0 -0.010884039751933659 0.020535962129311448 0 -0.0097836732852759206 0.021028238825486104 0 -0.0093901047341293283 0.022111541185821572 0 -0.0097836732852759206 0.021028238825486104 0 -0.0087029419311538455 0.020817076114547587 0 -0.0097836732852759206 0.021028238825486104 0 -0.0096324833750961025 0.019639876791490703 0 -0.0087029419311538455 0.020817076114547587 0 -0.010884039751933659 0.020535962129311448 0 -0.0097836732852759206 0.021028238825486104 0 -0.0096324833750961025 0.019639876791490703 0 -0.0105390366673744 0.017916154879904628 0 -0.010884039751933659 0.020535962129311448 0 -0.0096324833750961025 0.019639876791490703 0 -0.0013237985227782766 0.0066743777572093035 0 -0.0021501814066727746 0.010809250026755963 0 0.0030943059348308172 0.00038674039931257286 0 0.0020746160673506728 0.0015211667354302957 0 0.002859103132354524 0.0019344757277359589 0 -0.0013237985227782766 0.0066743777572093035 0 0.0013519693657977401 0.0032349292824649721 0 0.0020033957704489293 0.00085374010297878443 0 0.0020454628555968161 0.0006617044319198117 0 0.0020746160673506728 0.0015211667354302957 0 -0.007622060473783691 0.020098500125902311 0 -0.0070095922143140468 0.018908013144700388 0 -0.006447290631496949 0.020525412846374481 0 -0.0070095922143140468 0.018908013144700388 0 -0.006447290631496949 0.020525412846374481 0 -0.0055125131531601227 0.019829558887949846 0 -0.007622060473783691 0.020098500125902311 0 -0.0070095922143140468 0.018908013144700388 0 -0.0084440799697682398 0.019286126255443466 0 -0.0096324833750961025 0.019639876791490703 0 -0.0084440799697682398 0.019286126255443466 0 -0.0087029419311538455 0.020817076114547587 0 -0.007622060473783691 0.020098500125902311 0 -0.0084440799697682398 0.019286126255443466 0 -0.0087029419311538455 0.020817076114547587 0 -0.009371231815089422 0.01826321389244779 0 -0.0096324833750961025 0.019639876791490703 0 -0.0084440799697682398 0.019286126255443466 0 -0.007622060473783691 0.020098500125902311 0 -0.0087029419311538455 0.020817076114547587 0 -0.0073844390485405731 0.021106473128646261 0 -0.0087029419311538455 0.020817076114547587 0 -0.0073844390485405731 0.021106473128646261 0 -0.0078940436124856472 0.022129609161487037 0 -0.007622060473783691 0.020098500125902311 0 -0.0073844390485405731 0.021106473128646261 0 -0.006447290631496949 0.020525412846374481 0 -0.0073844390485405731 0.021106473128646261 0 -0.006447290631496949 0.020525412846374481 0 -0.0065061357787084481 0.021717365021026388 0 -0.0065061357787084481 0.021717365021026388 0 -0.0067147190663086383 0.02269940842878793 0 -0.0078940436124856472 0.022129609161487037 0 -0.0073844390485405731 0.021106473128646261 0 -0.0065061357787084481 0.021717365021026388 0 -0.0078940436124856472 0.022129609161487037 0 -0.0067147190663086383 0.02269940842878793 0 -0.0078940436124856472 0.022129609161487037 0 -0.0075226541466679835 0.023306234593149063 0 -0.0093901047341293283 0.022111541185821572 0 -0.0078940436124856472 0.022129609161487037 0 -0.0086802174094712838 0.022997931381368155 0 -0.0093901047341293283 0.022111541185821572 0 -0.0087029419311538455 0.020817076114547587 0 -0.0078940436124856472 0.022129609161487037 0 -0.0078940436124856472 0.022129609161487037 0 -0.0086802174094712838 0.022997931381368155 0 -0.0075226541466679835 0.023306234593149063 0 -0.0049083744034382811 0.017799044015773223 0 -0.005031681579120751 0.019548390914290264 0 -0.0085735573170287061 0.024258775455863704 0 -0.0075226541466679835 0.023306234593149063 0 -0.0070738718922994451 0.024345808911380627 0 -0.0099101825860755371 0.02314205698526136 0 -0.0086802174094712838 0.022997931381368155 0 -0.0086738518383102908 0.02430135310416941 0 -0.0086802174094712838 0.022997931381368155 0 -0.0086738518383102908 0.02430135310416941 0 -0.0075226541466679835 0.023306234593149063 0 -0.0049083744034382811 0.017799044015773223 0 -0.0062917200771331156 0.01937093070661295 0 -0.005031681579120751 0.019548390914290264 0 -0.0051574465711511303 0.020814026538146468 0 -0.0064000561583595992 0.023529137944455283 0 -0.0070738718922994451 0.024345808911380627 0 -0.0055151325980303508 0.024417108348509072 0 -0.0067147190663086383 0.02269940842878793 0 -0.0064000561583595992 0.023529137944455283 0 -0.0075226541466679835 0.023306234593149063 0 -0.0064000561583595992 0.023529137944455283 0 -0.0075226541466679835 0.023306234593149063 0 -0.0070738718922994451 0.024345808911380627 0 -0.0067147190663086383 0.02269940842878793 0 -0.0064000561583595992 0.023529137944455283 0 -0.005055186679101732 0.022946590107361442 0 -0.0064000561583595992 0.023529137944455283 0 -0.0055151325980303508 0.024417108348509072 0 -0.005055186679101732 0.022946590107361442 0 -0.0051574465711511303 0.020814026538146468 0 -0.0051941967539240611 0.021623468022148387 0 -0.0048287962320849353 0.022594610736787826 0 -0.0046863168971322394 0.02203539078185766 0 -0.0045037168092625186 0.022387933159649643 0 -0.0045795842814634171 0.022608389848932962 0 -0.0048287962320849353 0.022594610736787826 0 -0.0045037168092625186 0.022387933159649643 0 -0.005113795548534035 0.020850793130560593 0 -0.0051574465711511303 0.020814026538146468 0 -0.0051941967539240611 0.021623468022148387 0 -0.0051339843581219343 0.021633235296463701 0 -0.005055186679101732 0.022946590107361442 0 -0.0055253030155948003 0.021196564097674106 0 -0.0045666564425595494 0.021443970977560255 0 -0.0065061357787084481 0.021717365021026388 0 -0.0067147190663086383 0.02269940842878793 0 -0.005055186679101732 0.022946590107361442 0 -0.0065061357787084481 0.021717365021026388 0 -0.005055186679101732 0.022946590107361442 0 -0.0055253030155948003 0.021196564097674106 0 -0.0046863168971322394 0.02203539078185766 0 -0.0040539283545580939 0.021751582365480106 0 -0.0041799468129416224 0.022250295430356358 0 -0.0046863168971322394 0.02203539078185766 0 -0.0040539283545580939 0.021751582365480106 0 -0.0045666564425595494 0.021443970977560255 0 -0.0046863168971322394 0.02203539078185766 0 -0.0041799468129416224 0.022250295430356358 0 -0.0045037168092625186 0.022387933159649643 0 -0.004276459460072591 0.022598814306983968 0 -0.0045795842814634171 0.022608389848932962 0 -0.0045037168092625186 0.022387933159649643 0 -0.0039583642137149787 0.022678601770861961 0 -0.004276459460072591 0.022598814306983968 0 -0.0041799468129416224 0.022250295430356358 0 -0.004276459460072591 0.022598814306983968 0 -0.0041799468129416224 0.022250295430356358 0 -0.0045037168092625186 0.022387933159649643 0 -0.0039583642137149787 0.022678601770861961 0 -0.0035265617323788517 0.022437530876500959 0 -0.0036301247824009355 0.021994900348445468 0 -0.0039583642137149787 0.022678601770861961 0 -0.0041799468129416224 0.022250295430356358 0 -0.0036301247824009355 0.021994900348445468 0 -0.0032075791181600775 0.022690268639114212 0 -0.0035265617323788517 0.022437530876500959 0 -0.0031564444272524066 0.021942240010168725 0 -0.0035265617323788517 0.022437530876500959 0 -0.0031564444272524066 0.021942240010168725 0 -0.0036301247824009355 0.021994900348445468 0 -0.003182026157062394 0.021566552782568287 0 -0.0036301247824009355 0.021994900348445468 0 -0.0033584247042905062 0.021314372301369278 0 -0.0031564444272524066 0.021942240010168725 0 -0.003182026157062394 0.021566552782568287 0 -0.0036301247824009355 0.021994900348445468 0 -0.0040539283545580939 0.021751582365480106 0 -0.0041799468129416224 0.022250295430356358 0 -0.0036301247824009355 0.021994900348445468 0 -0.0040539283545580939 0.021751582365480106 0 -0.0036301247824009355 0.021994900348445468 0 -0.0033584247042905062 0.021314372301369278 0 -0.0040539283545580939 0.021751582365480106 0 -0.0033584247042905062 0.021314372301369278 0 -0.0036984057870336033 0.020996542921696691 0 -0.0033584247042905062 0.021314372301369278 0 -0.003292379849819076 0.020956290415444143 0 -0.0036984057870336033 0.020996542921696691 0 -0.003292379849819076 0.020956290415444143 0 -0.0036984057870336033 0.020996542921696691 0 -0.0032526163078448979 0.020583308786858556 0 -0.0033584247042905062 0.021314372301369278 0 -0.0029697148138513444 0.021262219042607122 0 -0.0030752339929252218 0.020932504416423012 0 -0.003182026157062394 0.021566552782568287 0 -0.0033584247042905062 0.021314372301369278 0 -0.0029697148138513444 0.021262219042607122 0 -0.0033584247042905062 0.021314372301369278 0 -0.003292379849819076 0.020956290415444143 0 -0.0030752339929252218 0.020932504416423012 0 -0.0029697148138513444 0.021262219042607122 0 -0.0030752339929252218 0.020932504416423012 0 -0.0028475067131346083 0.021028030628966913 0 -0.0030752339929252218 0.020932504416423012 0 -0.0029268922806747078 0.020889026694874569 0 -0.0028475067131346083 0.021028030628966913 0 -0.0030752339929252218 0.020932504416423012 0 -0.0030604703782498169 0.020791422986843094 0 -0.0032526163078448979 0.020583308786858556 0 -0.0030752339929252218 0.020932504416423012 0 -0.0030604703782498169 0.020791422986843094 0 -0.0029268922806747078 0.020889026694874569 0 -0.0032526163078448979 0.020583308786858556 0 -0.0035820007393175426 0.020179782753503624 0 -0.0030922851485134296 0.019542770224438417 0 -0.0036984057870336033 0.020996542921696691 0 -0.0032526163078448979 0.020583308786858556 0 -0.0035820007393175426 0.020179782753503624 0 -0.003292379849819076 0.020956290415444143 0 -0.0030752339929252218 0.020932504416423012 0 -0.0032526163078448979 0.020583308786858556 0 -0.0036984057870336033 0.020996542921696691 0 -0.0035820007393175426 0.020179782753503624 0 -0.0044800697210268577 0.020558720473672486 0 -0.0035820007393175426 0.020179782753503624 0 -0.0045462595182617074 0.019449313831710151 0 -0.0044800697210268577 0.020558720473672486 0 -0.0035820007393175426 0.020179782753503624 0 -0.0045462595182617074 0.019449313831710151 0 -0.0040157491123849936 0.018209230694232865 0 -0.0045462595182617074 0.019449313831710151 0 -0.0055125131531601227 0.019829558887949846 0 -0.0054299886186672149 0.018167665580883917 0 -0.0070095922143140468 0.018908013144700388 0 -0.0055125131531601227 0.019829558887949846 0 -0.0054299886186672149 0.018167665580883917 0 -0.0045462595182617074 0.019449313831710151 0 -0.0055125131531601227 0.019829558887949846 0 -0.0044800697210268577 0.020558720473672486 0 -0.006447290631496949 0.020525412846374481 0 -0.0055125131531601227 0.019829558887949846 0 -0.0055253030155948003 0.021196564097674106 0 -0.0055125131531601227 0.019829558887949846 0 -0.0055253030155948003 0.021196564097674106 0 -0.0044800697210268577 0.020558720473672486 0 -0.006447290631496949 0.020525412846374481 0 -0.0065061357787084481 0.021717365021026388 0 -0.0055253030155948003 0.021196564097674106 0 -0.0055253030155948003 0.021196564097674106 0 -0.0045666564425595494 0.021443970977560255 0 -0.0044800697210268577 0.020558720473672486 0 -0.0040539283545580939 0.021751582365480106 0 -0.0036984057870336033 0.020996542921696691 0 -0.0045666564425595494 0.021443970977560255 0 -0.0036984057870336033 0.020996542921696691 0 -0.0045666564425595494 0.021443970977560255 0 -0.0044800697210268577 0.020558720473672486 0 0.0031639789568239725 0.027903093384874074 0 0.0029346850743522559 0.028532524910328472 0 0.0022743498112768128 0.027949279109970256 0 -0.0016932142971140607 0.022044716867204536 0 -0.00205797937270699 0.021880271314348755 0 -0.0020631136348098532 0.021486199438521331 0 0.0011536904988288653 0.024526878226409803 0 0.00027256355603781971 0.024284203428858103 0 0.00084655192501963475 0.024713060389198207 0 0.00089354926930275923 0.024623350186741593 0 0.00075371385596391253 0.024657969790166184 0 -0.0016932142971140607 0.022044716867204536 0 -0.0022936413356484495 0.022223770539369588 0 -0.00205797937270699 0.021880271314348755 0 0.0011536904988288653 0.024526878226409803 0 -0.0014320835368787626 0.023267893466512053 0 -0.0014320835368787626 0.023267893466512053 0 -0.0019959371856659771 0.023071247051400318 0 -0.0014320835368787626 0.023267893466512053 0 -0.0021030139755865026 0.021851887225923797 0 -0.0022936413356484495 0.022223770539369588 0 -0.00205797937270699 0.021880271314348755 0 -0.0025031016701011757 0.021590651202192016 0 -0.00205797937270699 0.021880271314348755 0 -0.0025031016701011757 0.021590651202192016 0 -0.0020631136348098532 0.021486199438521331 0 -0.0020656497316237487 0.022192800987614707 0 -0.002316958937407521 0.021513721521291242 0 -0.0026154039155668186 0.021888043610858329 0 -0.002316958937407521 0.021513721521291242 0 -0.0026154039155668186 0.021888043610858329 0 -0.002802328412690628 0.021568521594798495 0 -0.0032075791181600775 0.022690268639114212 0 -0.0026154039155668186 0.021888043610858329 0 -0.0021782536013966033 0.022437898109766503 0 -0.0020656497316237487 0.022192800987614707 0 -0.0026154039155668186 0.021888043610858329 0 -0.0023130191895411353 0.022264436518804272 0 -0.0022415377291815967 0.022717564696137161 0 -0.0019959371856659771 0.023071247051400318 0 -0.0032075791181600775 0.022690268639114212 0 -0.0031564444272524066 0.021942240010168725 0 -0.0026154039155668186 0.021888043610858329 0 -0.0031564444272524066 0.021942240010168725 0 -0.0026154039155668186 0.021888043610858329 0 -0.002802328412690628 0.021568521594798495 0 -0.003182026157062394 0.021566552782568287 0 -0.0029697148138513444 0.021262219042607122 0 -0.002802328412690628 0.021568521594798495 0 -0.0031564444272524066 0.021942240010168725 0 -0.003182026157062394 0.021566552782568287 0 -0.002802328412690628 0.021568521594798495 0 -0.0029697148138513444 0.021262219042607122 0 -0.002802328412690628 0.021568521594798495 0 -0.0027118437643827492 0.021263594353547459 0 -0.0029697148138513444 0.021262219042607122 0 -0.0027118437643827492 0.021263594353547459 0 -0.0028475067131346083 0.021028030628966913 0 -0.0029268922806747078 0.020889026694874569 0 -0.0028475067131346083 0.021028030628966913 0 -0.0027838324332787223 0.020938011217556882 0 -0.0028475067131346083 0.021028030628966913 0 -0.0027838324332787223 0.020938011217556882 0 -0.0026454401018370282 0.021018705486542891 0 -0.0027118437643827492 0.021263594353547459 0 -0.0028475067131346083 0.021028030628966913 0 -0.0026454401018370282 0.021018705486542891 0 -0.0021030139755865026 0.021851887225923797 0 -0.0022985554917486135 0.021444381058254136 0 -0.0025031016701011757 0.021590651202192016 0 -0.0026454401018370282 0.021018705486542891 0 -0.0024421549796057951 0.020986486592800863 0 -0.002316958937407521 0.021513721521291242 0 -0.002802328412690628 0.021568521594798495 0 -0.0027118437643827492 0.021263594353547459 0 -0.002316958937407521 0.021513721521291242 0 -0.0027118437643827492 0.021263594353547459 0 -0.0026454401018370282 0.021018705486542891 0 -0.00062282342656422784 0.023560811519899416 0 0.00027256355603781971 0.024284203428858103 0 -0.0025031016701011757 0.021590651202192016 0 -0.0024421549796057951 0.020986486592800863 0 -0.0020631136348098532 0.021486199438521331 0 0.00087994474340245918 0.026837967655586093 0 0.0028242130388969329 0.027055035239681585 0 0.0022743498112768128 0.027949279109970256 0 0.00087994474340245918 0.026837967655586093 0 0.0028242130388969329 0.027055035239681585 0 0.0019092363299606182 0.026025471091822031 0 0.0031639789568239725 0.027903093384874074 0 0.0028242130388969329 0.027055035239681585 0 0.0022743498112768128 0.027949279109970256 0 0.003553569453877926 0.022903360675995268 0 0.002232884483438021 0.022996454627992276 0 0.0031490521884272003 0.024585664245278326 0 0.002232884483438021 0.022996454627992276 0 0.001990430925529535 0.024625528995364875 0 0.0031490521884272003 0.024585664245278326 0 0.001990430925529535 0.024625528995364875 0 0.0031490521884272003 0.024585664245278326 0 0.0028576935259869989 0.026069044480929612 0 0.0040641261787147638 0.026747642397152039 0 0.0028242130388969329 0.027055035239681585 0 0.0028576935259869989 0.026069044480929612 0 0.0028242130388969329 0.027055035239681585 0 0.0028576935259869989 0.026069044480929612 0 0.0019092363299606182 0.026025471091822031 0 0.001990430925529535 0.024625528995364875 0 0.0028576935259869989 0.026069044480929612 0 0.0019092363299606182 0.026025471091822031 0 0.001990430925529535 0.024625528995364875 0 0.0019092363299606182 0.026025471091822031 0 0.00094821349661409842 0.025075428033392636 0 0.00087994474340245918 0.026837967655586093 0 0.0019092363299606182 0.026025471091822031 0 0.00094821349661409842 0.025075428033392636 0 0.001990430925529535 0.024625528995364875 0 0.00094821349661409842 0.025075428033392636 0 0.00085535326414048216 0.023262761870652973 0 0.002232884483438021 0.022996454627992276 0 0.001990430925529535 0.024625528995364875 0 0.00085535326414048216 0.023262761870652973 0 0.00094821349661409842 0.025075428033392636 0 0.00085535326414048216 0.023262761870652973 0 -0.00099357251802399075 0.024378663413525688 0 0.00085535326414048216 0.023262761870652973 0 -0.00099357251802399075 0.024378663413525688 0 -0.00035081389765172899 0.021459643092717324 0 -0.00099357251802399075 0.024378663413525688 0 -0.0024866947813107342 0.02102743100304412 0 -0.00035081389765172899 0.021459643092717324 0 0.00087994474340245918 0.026837967655586093 0 0.00094821349661409842 0.025075428033392636 0 -0.00099357251802399075 0.024378663413525688 0 -0.0027838324332787223 0.020938011217556882 0 -0.0026454401018370282 0.021018705486542891 0 -0.0027336601999320047 0.020894940612333709 0 -0.0026454401018370282 0.021018705486542891 0 -0.0024421549796057951 0.020986486592800863 0 -0.0027336601999320047 0.020894940612333709 0 -0.00062282342656422784 0.023560811519899416 0 -0.0014591561852256929 0.022585455368075071 0 -0.0027336601999320047 0.020894940612333709 0 -0.0028295106212423847 0.020907039857804618 0 -0.0027408346512481359 0.020994534526274651 0 -0.0027838324332787223 0.020938011217556882 0 -0.0027336601999320047 0.020894940612333709 0 -0.0028295106212423847 0.020907039857804618 0 -0.0029268922806747078 0.020889026694874569 0 -0.0027838324332787223 0.020938011217556882 0 -0.0028295106212423847 0.020907039857804618 0 -0.0027336601999320047 0.020894940612333709 0 -0.0027408346512481359 0.020994534526274651 0 -0.0024866947813107342 0.02102743100304412 0 -0.0014591561852256929 0.022585455368075071 0 -0.0018922308086493714 0.021951633129350934 0 -0.0027408346512481359 0.020994534526274651 0 -0.0024866947813107342 0.02102743100304412 0 -0.003115025178691627 0.020703234335744607 0 -0.0024866947813107342 0.02102743100304412 0 -0.0012249557780131047 0.020380553983745234 0 -0.00035081389765172899 0.021459643092717324 0 -0.0024866947813107342 0.02102743100304412 0 -0.0019447730622718493 0.019835726576537489 0 -0.0012249557780131047 0.020380553983745234 0 -0.0024866947813107342 0.02102743100304412 0 -0.0019447730622718493 0.019835726576537489 0 -0.003115025178691627 0.020703234335744607 0 -0.0019447730622718493 0.019835726576537489 0 -0.003115025178691627 0.020703234335744607 0 -0.0022319294157266017 0.017435777952130162 0 -0.0019447730622718493 0.019835726576537489 0 -0.00052319790394971075 0.019309995154198477 0 -0.0022319294157266017 0.017435777952130162 0 -0.0019447730622718493 0.019835726576537489 0 -0.00052319790394971075 0.019309995154198477 0 -0.0012249557780131047 0.020380553983745234 0 -0.00052319790394971075 0.019309995154198477 0 0.00029033409991868146 0.020304872208628012 0 -0.0012249557780131047 0.020380553983745234 0 -0.00052319790394971075 0.019309995154198477 0 0.00029033409991868146 0.020304872208628012 0 0.0012284207790545451 0.019033725044457085 0 0.00029033409991868146 0.020304872208628012 0 -0.0012249557780131047 0.020380553983745234 0 -0.00035081389765172899 0.021459643092717324 0 0.002232884483438021 0.022996454627992276 0 0.00085535326414048216 0.023262761870652973 0 0.0013588729765642226 0.021170353135602806 0 0.00029033409991868146 0.020304872208628012 0 -0.00035081389765172899 0.021459643092717324 0 0.0013588729765642226 0.021170353135602806 0 0.00085535326414048216 0.023262761870652973 0 -0.00035081389765172899 0.021459643092717324 0 0.0013588729765642226 0.021170353135602806 0 0.00029033409991868146 0.020304872208628012 0 0.0013588729765642226 0.021170353135602806 0 0.0012284207790545451 0.019033725044457085 0 0.0013588729765642226 0.021170353135602806 0 0.0012284207790545451 0.019033725044457085 0 0.0023595881851199087 0.019977422690001689 0 0.0012284207790545451 0.019033725044457085 0 0.0023595881851199087 0.019977422690001689 0 0.002614587114890769 0.018803949291530998 0 0.0023595881851199087 0.019977422690001689 0 0.0036519579087586963 0.019353379295502758 0 0.002614587114890769 0.018803949291530998 0 0.0023595881851199087 0.019977422690001689 0 0.0036519579087586963 0.019353379295502758 0 0.0035295412477443539 0.020534814238115442 0 0.0023595881851199087 0.019977422690001689 0 0.0035295412477443539 0.020534814238115442 0 0.0027746215769685095 0.021532251535004834 0 0.0039816230247347656 0.02183519768758866 0 0.0035295412477443539 0.020534814238115442 0 0.0027746215769685095 0.021532251535004834 0 0.0013588729765642226 0.021170353135602806 0 0.0023595881851199087 0.019977422690001689 0 0.0027746215769685095 0.021532251535004834 0 0.002232884483438021 0.022996454627992276 0 0.0013588729765642226 0.021170353135602806 0 0.0027746215769685095 0.021532251535004834 0 0.003553569453877926 0.022903360675995268 0 0.002232884483438021 0.022996454627992276 0 0.0027746215769685095 0.021532251535004834 0 0.003553569453877926 0.022903360675995268 0 0.0039816230247347656 0.02183519768758866 0 0.0027746215769685095 0.021532251535004834 0 -0.0041679295169306223 0.016518969906171199 0 -0.0040157491123849936 0.018209230694232865 0 -0.0023696670162982763 0.016547165418087088 0 -0.0041679295169306223 0.016518969906171199 0 -0.0023696670162982763 0.016547165418087088 0 -0.0034363013800218674 0.014715050130986266 0 -0.0041679295169306223 0.016518969906171199 0 -0.0034363013800218674 0.014715050130986266 0 -0.0049511236492526551 0.014990445694956308 0 -0.0041679295169306223 0.016518969906171199 0 -0.005596474520975398 0.016422436379079142 0 -0.0049511236492526551 0.014990445694956308 0 -0.0064629302215204769 0.014554801427538365 0 -0.005596474520975398 0.016422436379079142 0 -0.0049511236492526551 0.014990445694956308 0 -0.0041679295169306223 0.016518969906171199 0 -0.005596474520975398 0.016422436379079142 0 -0.0054299886186672149 0.018167665580883917 0 -0.0072212728697692401 0.017327535158951704 0 -0.005596474520975398 0.016422436379079142 0 -0.0054299886186672149 0.018167665580883917 0 -0.0045462595182617074 0.019449313831710151 0 -0.0054299886186672149 0.018167665580883917 0 -0.0040157491123849936 0.018209230694232865 0 -0.0035820007393175426 0.020179782753503624 0 -0.0040157491123849936 0.018209230694232865 0 -0.0023696670162982763 0.016547165418087088 0 -0.0041679295169306223 0.016518969906171199 0 -0.0054299886186672149 0.018167665580883917 0 -0.0040157491123849936 0.018209230694232865 0 -0.0031716494255108934 0.018795931435915746 0 -0.0029957665804691337 0.017593345750046605 0 -0.0035820007393175426 0.020179782753503624 0 -0.0030922851485134296 0.019542770224438417 0 -0.0035306479972129915 0.019393587373087957 0 -0.0031314499655798358 0.020464383474451939 0 -0.0030296659647985466 0.020137927015088555 0 -0.0030604703782498169 0.020791422986843094 0 -0.0032526163078448979 0.020583308786858556 0 -0.0029043920401229497 0.020968472549804319 0 -0.0030604703782498169 0.020791422986843094 0 -0.0029162580837795763 0.020894300710692204 0 -0.0029043920401229497 0.020968472549804319 0 -0.0027408346512481359 0.020994534526274651 0 -0.0029162580837795763 0.020894300710692204 0 -0.0029043920401229497 0.020968472549804319 0 -0.0030604703782498169 0.020791422986843094 0 -0.0029268922806747078 0.020889026694874569 0 -0.0029162580837795763 0.020894300710692204 0 -0.0029268922806747078 0.020889026694874569 0 -0.0028295106212423847 0.020907039857804618 0 -0.0029162580837795763 0.020894300710692204 0 -0.0028295106212423847 0.020907039857804618 0 -0.0027408346512481359 0.020994534526274651 0 -0.0029162580837795763 0.020894300710692204 0 -0.0030922851485134296 0.019542770224438417 0 -0.0032308686443124203 0.019030866792184728 0 -0.0027900775571341979 0.018660756059569534 0 -0.0027408346512481359 0.020994534526274651 0 -0.0029043920401229497 0.020968472549804319 0 -0.003115025178691627 0.020703234335744607 0 -0.0030296659647985466 0.020137927015088555 0 -0.0028119440703848284 0.019336696914886563 0 -0.0030922851485134296 0.019542770224438417 0 -0.0035306479972129915 0.019393587373087957 0 -0.0032308686443124203 0.019030866792184728 0 -0.0035306479972129915 0.019393587373087957 0 -0.0032308686443124203 0.019030866792184728 0 -0.00360359363021909 0.018428992638606551 0 -0.0032308686443124203 0.019030866792184728 0 -0.0027900775571341979 0.018660756059569534 0 -0.00360359363021909 0.018428992638606551 0 -0.0029957665804691337 0.017593345750046605 0 -0.0027374725233810233 0.015377722646026612 0 -0.0027900775571341979 0.018660756059569534 0 -0.003019053684127037 0.017896833940476486 0 -0.0022319294157266017 0.017435777952130162 0 -0.0028119440703848284 0.019336696914886563 0 -0.0025716556120871144 0.018480688574143426 0 -0.0027900775571341979 0.018660756059569534 0 -0.003019053684127037 0.017896833940476486 0 -0.00360359363021909 0.018428992638606551 0 -0.0016614849125977445 0.012715811899552423 0 -0.0046660702608355715 0.012410068616016366 0 -0.0029548206496210947 0.010742369651637605 0 -0.0016614849125977445 0.012715811899552423 0 -0.0034363013800218674 0.014715050130986266 0 -0.0046660702608355715 0.012410068616016366 0 -0.0034363013800218674 0.014715050130986266 0 -0.0049511236492526551 0.014990445694956308 0 -0.0046660702608355715 0.012410068616016366 0 -0.0023696670162982763 0.016547165418087088 0 -0.0016614849125977445 0.012715811899552423 0 -0.0034363013800218674 0.014715050130986266 0 -0.0064629302215204769 0.014554801427538365 0 -0.0049511236492526551 0.014990445694956308 0 -0.0046660702608355715 0.012410068616016366 0 -0.0064629302215204769 0.014554801427538365 0 -0.0071149083134903826 0.012811378361633605 0 -0.0046660702608355715 0.012410068616016366 0 -0.0071149083134903826 0.012811378361633605 0 -0.0046660702608355715 0.012410068616016366 0 -0.0046553688107667003 0.0096865473137022051 0 -0.0032881810960817353 0.0078228872628752708 0 -0.0028680279070917368 0.0073973680381542659 0 -0.0004059541229882282 0.0026968829396529143 0 -0.0015084079500055788 0.0050608272493870262 0 -0.00049735403671812689 0.004419828898322248 0 -0.0015084079500055788 0.0050608272493870262 0 -0.00068025218071137989 0.0056538471795147763 0 -0.00049735403671812689 0.004419828898322248 0 -0.0015084079500055788 0.0050608272493870262 0 -0.00068025218071137989 0.0056538471795147763 0 -0.0011464005060471266 0.0066061559805670814 0 -0.00068025218071137989 0.0056538471795147763 0 -0.0011464005060471266 0.0066061559805670814 0 -0.00047211663530722145 0.0065284544808818035 0 -0.0028680279070917368 0.0073973680381542659 0 -0.0025563972210041397 0.007190660013096776 0 -0.0015084079500055788 0.0050608272493870262 0 -0.0011464005060471266 0.0066061559805670814 0 -0.0019767575939289499 0.0073534385575365763 0 -0.0046553688107667003 0.0096865473137022051 0 -0.0013060299762407829 0.008542013761374808 0 -0.0019767575939289499 0.0073534385575365763 0 -0.0046660702608355715 0.012410068616016366 0 -0.0046553688107667003 0.0096865473137022051 0 -0.0029548206496210947 0.010742369651637605 0 -0.0046553688107667003 0.0096865473137022051 0 -0.0029548206496210947 0.010742369651637605 0 -0.0013060299762407829 0.008542013761374808 0 -0.0027374725233810233 0.015377722646026612 0 -0.0025295319257006188 0.013025049761209495 0 -0.0016614849125977445 0.012715811899552423 0 -0.0029548206496210947 0.010742369651637605 0 -0.0013060299762407829 0.008542013761374808 0 -0.003019053684127037 0.017896833940476486 0 -0.00360359363021909 0.018428992638606551 0 -0.0037163291817692034 0.016761162471047496 0 -0.003019053684127037 0.017896833940476486 0 -0.0037163291817692034 0.016761162471047496 0 -0.0022319294157266017 0.017435777952130162 0 -0.0024021960203821518 0.015462061268977534 0 -0.0037163291817692034 0.016761162471047496 0 -0.0022319294157266017 0.017435777952130162 0 -0.0013060299762407829 0.008542013761374808 0 -0.0019763417724176727 0.007317358745436332 0 -0.0019767575939289499 0.0073534385575365763 0 -0.0024021960203821518 0.015462061268977534 0 -0.0037163291817692034 0.016761162471047496 0 -0.0033306164766163239 0.013999157499833895 0 -0.0019763417724176727 0.007317358745436332 0 -0.0019767575939289499 0.0073534385575365763 0 -0.0014248526843340522 0.0073770252570907989 0 -0.0025295319257006188 0.013025049761209495 0 -0.0023585409073959996 0.011390140660017409 0 -0.0024021960203821518 0.015462061268977534 0 -0.0033306164766163239 0.013999157499833895 0 -0.0018550316160429391 0.013285775413762758 0 -0.0024021960203821518 0.015462061268977534 0 -0.0018550316160429391 0.013285775413762758 0 -0.0012005534086504419 0.014018349927617631 0 -0.0033306164766163239 0.013999157499833895 0 -0.0018550316160429391 0.013285775413762758 0 -0.0015465615411404193 0.010610172882541546 0 -0.0018550316160429391 0.013285775413762758 0 -0.0012005534086504419 0.014018349927617631 0 -0.00095059452298369598 0.012439943088927449 0 -0.0023585409073959996 0.011390140660017409 0 -0.0022089999444256095 0.010926756372555737 0 -0.0019763417724176727 0.007317358745436332 0 -0.0012192698822505094 0.0088011740502281551 0 -0.00094290271003055 0.0080297868661800657 0 -0.0019763417724176727 0.007317358745436332 0 -0.0012192698822505094 0.0088011740502281551 0 -0.0015465615411404193 0.010610172882541546 0 -0.0012192698822505094 0.0088011740502281551 0 -0.00094290271003055 0.0080297868661800657 0 -0.0005363786701000037 0.0087352097268798834 0 -0.00094290271003055 0.0080297868661800657 0 -0.00023272329871147523 0.0079575074255728295 0 -0.00075069996929030543 0.0073816531061310564 0 -0.00094290271003055 0.0080297868661800657 0 -0.00023272329871147523 0.0079575074255728295 0 -0.0005363786701000037 0.0087352097268798834 0 -0.00023272329871147523 0.0079575074255728295 0 -0.00075069996929030543 0.0073816531061310564 0 -0.00022969396198306561 0.007218460462691219 0 -0.00075069996929030543 0.0073816531061310564 0 -0.00022969396198306561 0.007218460462691219 0 -0.00047211663530722145 0.0065284544808818035 0 -0.0011464005060471266 0.0066061559805670814 0 -0.00075069996929030543 0.0073816531061310564 0 -0.00047211663530722145 0.0065284544808818035 0 -0.0011464005060471266 0.0066061559805670814 0 -0.00075069996929030543 0.0073816531061310564 0 -0.0014248526843340522 0.0073770252570907989 0 -0.0019763417724176727 0.007317358745436332 0 -0.00094290271003055 0.0080297868661800657 0 -0.0014248526843340522 0.0073770252570907989 0 -0.0011464005060471266 0.0066061559805670814 0 -0.0019767575939289499 0.0073534385575365763 0 -0.0014248526843340522 0.0073770252570907989 0 -0.00094290271003055 0.0080297868661800657 0 -0.00075069996929030543 0.0073816531061310564 0 -0.0014248526843340522 0.0073770252570907989 0 0.0028271381982841195 0.016973880085985469 0 0.0015621433715375418 0.015736069730301137 0 0.0030783001194139691 0.015183350441716648 0 0.0043802212117835448 0.018170721701047693 0 0.0028271381982841195 0.016973880085985469 0 0.0030783001194139691 0.015183350441716648 0 0.0043802212117835448 0.018170721701047693 0 0.0028271381982841195 0.016973880085985469 0 0.0031805562624244699 0.018202589941264915 0 0.0036519579087586963 0.019353379295502758 0 0.0031805562624244699 0.018202589941264915 0 0.002614587114890769 0.018803949291530998 0 0.0012284207790545451 0.019033725044457085 0 0.002614587114890769 0.018803949291530998 0 0.0024677299657247902 0.017777290594991751 0 0.0031805562624244699 0.018202589941264915 0 0.002614587114890769 0.018803949291530998 0 0.0024677299657247902 0.017777290594991751 0 0.0028271381982841195 0.016973880085985469 0 0.0031805562624244699 0.018202589941264915 0 0.0024677299657247902 0.017777290594991751 0 0.0028271381982841195 0.016973880085985469 0 0.0024677299657247902 0.017777290594991751 0 0.0014370480320932738 0.017301308977660666 0 0.0012284207790545451 0.019033725044457085 0 0.0024677299657247902 0.017777290594991751 0 0.0014370480320932738 0.017301308977660666 0 0.0012284207790545451 0.019033725044457085 0 0.0014370480320932738 0.017301308977660666 0 -3.9737833415032058e-05 0.017728748171952646 0 0.0014370480320932738 0.017301308977660666 0 0.00060617398912320673 0.016369672993556298 0 -3.9737833415032058e-05 0.017728748171952646 0 0.0014370480320932738 0.017301308977660666 0 0.00060617398912320673 0.016369672993556298 0 0.0015621433715375418 0.015736069730301137 0 0.0028271381982841195 0.016973880085985469 0 0.0014370480320932738 0.017301308977660666 0 0.0015621433715375418 0.015736069730301137 0 0.00060617398912320673 0.016369672993556298 0 0.0015621433715375418 0.015736069730301137 0 0.00036094152195031558 0.014973597100418694 0 -0.00050872616416204651 0.016396226574415751 0 -0.0012718280456397691 0.015486777094888542 0 0.00036094152195031558 0.014973597100418694 0 0.00060617398912320673 0.016369672993556298 0 -0.00050872616416204651 0.016396226574415751 0 0.00036094152195031558 0.014973597100418694 0 0.00060617398912320673 0.016369672993556298 0 -0.00050872616416204651 0.016396226574415751 0 -3.9737833415032058e-05 0.017728748171952646 0 -0.00052319790394971075 0.019309995154198477 0 0.0012284207790545451 0.019033725044457085 0 -3.9737833415032058e-05 0.017728748171952646 0 -0.00052319790394971075 0.019309995154198477 0 -3.9737833415032058e-05 0.017728748171952646 0 -0.0022319294157266017 0.017435777952130162 0 -0.00050872616416204651 0.016396226574415751 0 -3.9737833415032058e-05 0.017728748171952646 0 -0.0022319294157266017 0.017435777952130162 0 -0.00050872616416204651 0.016396226574415751 0 -0.0022319294157266017 0.017435777952130162 0 -0.0012718280456397691 0.015486777094888542 0 -0.0024021960203821518 0.015462061268977534 0 -0.0022319294157266017 0.017435777952130162 0 -0.0012718280456397691 0.015486777094888542 0 -0.0012718280456397691 0.015486777094888542 0 -0.0012005534086504419 0.014018349927617631 0 -0.00020924318247264747 0.013699543975139913 0 -0.0024021960203821518 0.015462061268977534 0 -0.0012718280456397691 0.015486777094888542 0 -0.0012005534086504419 0.014018349927617631 0 -0.0012005534086504419 0.014018349927617631 0 -0.00020924318247264747 0.013699543975139913 0 -0.00095059452298369598 0.012439943088927449 0 -0.00020924318247264747 0.013699543975139913 0 -0.00011974982602224576 0.012474558851222483 0 -0.00095059452298369598 0.012439943088927449 0 -0.00020924318247264747 0.013699543975139913 0 0.00059615271084316034 0.013297066385246966 0 -0.00011974982602224576 0.012474558851222483 0 -0.00020924318247264747 0.013699543975139913 0 0.00036094152195031558 0.014973597100418694 0 0.00059615271084316034 0.013297066385246966 0 -0.0012718280456397691 0.015486777094888542 0 -0.00020924318247264747 0.013699543975139913 0 0.00036094152195031558 0.014973597100418694 0 0.00036094152195031558 0.014973597100418694 0 0.0014142747764857664 0.014361993915737056 0 0.00059615271084316034 0.013297066385246966 0 0.0015621433715375418 0.015736069730301137 0 0.00036094152195031558 0.014973597100418694 0 0.0014142747764857664 0.014361993915737056 0 0.00059615271084316034 0.013297066385246966 0 0.0015915478912901808 0.012837019559036548 0 0.00033715347742338292 0.012393483887808919 0 0.0014142747764857664 0.014361993915737056 0 0.00059615271084316034 0.013297066385246966 0 0.0015915478912901808 0.012837019559036548 0 0.00090009636574958521 0.014635032910281698 0 0.0019979987482901989 0.014978729124781865 0 0.0021617795892186656 0.016699043029034601 0 0.0013641966766802694 0.014241518585387377 0 0.0024883335972764545 0.016111534627265233 0 0.0014142747764857664 0.014361993915737056 0 0.0015915478912901808 0.012837019559036548 0 0.0030783001194139691 0.015183350441716648 0 0.002778329775792886 0.016063476236997297 0 0.0019979987482901989 0.014978729124781865 0 0.0021617795892186656 0.016699043029034601 0 0.0015621433715375418 0.015736069730301137 0 0.0014142747764857664 0.014361993915737056 0 0.0030783001194139691 0.015183350441716648 0 0.00042367811988459604 0.018682923237917464 0 -0.00028159314920104465 0.018474209994418775 0 0.00017013723978585689 0.017122505103298089 0 0.0002067784382480003 0.019219000038091242 0 9.6938567631674356e-05 0.018217162666720028 0 0.00012554681590885332 0.017051366350137959 0 -1.6737756768774893e-05 0.016010705289207242 0 0.00042367811988459604 0.018682923237917464 0 -2.3815309779221987e-05 0.020344982808036795 0 -0.00028159314920104465 0.018474209994418775 0 0.00090009636574958521 0.014635032910281698 0 0.0019979987482901989 0.014978729124781865 0 0.00077082193634743609 0.013752256096744233 0 0.00044571256822403978 0.01919881825371271 0 0.00012554681590885332 0.017051366350137959 0 0.0013641966766802694 0.014241518585387377 0 0.00059889742728289487 0.013391999704415682 0 0.0015915478912901808 0.012837019559036548 0 0.00033715347742338292 0.012393483887808919 0 -9.6965612522925505e-05 0.011940931722960723 0 0.00090009636574958521 0.014635032910281698 0 0.00077082193634743609 0.013752256096744233 0 2.7982141580743573e-05 0.013494656599658844 0 0.00033715347742338292 0.012393483887808919 0 -9.6965612522925505e-05 0.011940931722960723 0 -7.1348113673812261e-05 0.012030109869647714 0 0.00077082193634743609 0.013752256096744233 0 2.7982141580743573e-05 0.013494656599658844 0 -0.00023028800927758056 0.01362470141800831 0 -9.6965612522925505e-05 0.011940931722960723 0 -7.1348113673812261e-05 0.012030109869647714 0 6.0680836615246246e-06 0.012538407963811452 0 -7.1348113673812261e-05 0.012030109869647714 0 -0.00020685891279783949 0.012017206076931996 0 6.0680836615246246e-06 0.012538407963811452 0 0.00033715347742338292 0.012393483887808919 0 -7.1348113673812261e-05 0.012030109869647714 0 -0.00011974982602224576 0.012474558851222483 0 0.00059615271084316034 0.013297066385246966 0 0.00033715347742338292 0.012393483887808919 0 -0.00011974982602224576 0.012474558851222483 0 -7.1348113673812261e-05 0.012030109869647714 0 -0.00011974982602224576 0.012474558851222483 0 -0.00054959010645251908 0.011865597327027664 0 -0.00011974982602224576 0.012474558851222483 0 -0.00095059452298369598 0.012439943088927449 0 -0.00054959010645251908 0.011865597327027664 0 -7.1348113673812261e-05 0.012030109869647714 0 -0.00054959010645251908 0.011865597327027664 0 -0.00020685891279783949 0.012017206076931996 0 -0.00054959010645251908 0.011865597327027664 0 -0.00020685891279783949 0.012017206076931996 0 -0.0015465615411404193 0.010610172882541546 0 -0.00020685891279783949 0.012017206076931996 0 -4.8662296538315688e-05 0.012883573279020278 0 -0.00035330219651561856 0.011544564072033374 0 -0.00020685891279783949 0.012017206076931996 0 -4.8662296538315688e-05 0.012883573279020278 0 6.0680836615246246e-06 0.012538407963811452 0 -4.8662296538315688e-05 0.012883573279020278 0 7.3149769226088255e-07 0.013609359419838192 0 -0.00035330219651561856 0.011544564072033374 0 -4.8662296538315688e-05 0.012883573279020278 0 7.3149769226088255e-07 0.013609359419838192 0 -4.3075794202370993e-05 0.014238778089618825 0 7.3149769226088255e-07 0.013609359419838192 0 -4.3075794202370993e-05 0.014238778089618825 0 -2.3932313096600248e-06 0.015500976822106143 0 -4.8662296538315688e-05 0.012883573279020278 0 -4.3075794202370993e-05 0.014238778089618825 0 6.0680836615246246e-06 0.012538407963811452 0 -9.6965612522925505e-05 0.011940931722960723 0 -4.3075794202370993e-05 0.014238778089618825 0 6.0680836615246246e-06 0.012538407963811452 0 0.00059889742728289487 0.013391999704415682 0 0.0004589252216548871 0.013587003419644571 0 2.7982141580743573e-05 0.013494656599658844 0 -4.3075794202370993e-05 0.014238778089618825 0 -0.00023028800927758056 0.01362470141800831 0 -0.00027252564464791661 0.017016299094835746 0 -1.3876764990219549e-06 0.015510900529109379 0 1.1615498488566483e-06 0.016740214708881533 0 -4.3075794202370993e-05 0.014238778089618825 0 -0.00023028800927758056 0.01362470141800831 0 -2.3932313096600248e-06 0.015500976822106143 0 -1.6737756768774893e-05 0.016010705289207242 0 -1.7055544859832797e-07 0.015506470794273378 0 -1.223901579078553e-07 0.016746981946124832 0 9.6938567631674356e-05 0.018217162666720028 0 6.6330172853242228e-05 0.019256962333919242 0 -2.4149477365949152e-06 0.01674835413125203 0 -0.00060612956708214379 0.019584808614183088 0 -0.00027252564464791661 0.017016299094835746 0 1.1615498488566483e-06 0.016740214708881533 0 0.00017013723978585689 0.017122505103298089 0 -0.00028159314920104465 0.018474209994418775 0 -0.00027252564464791661 0.017016299094835746 0 0.00017013723978585689 0.017122505103298089 0 -0.00030241491056205093 0.0093576619734803811 0 -0.0015465615411404193 0.010610172882541546 0 -0.00030416701354202334 0.010353245401453142 0 -0.00030241491056205093 0.0093576619734803811 0 1.5355666181534939e-05 0.0086349438184688976 0 1.3325093397609295e-05 0.0083424488650010939 0 -0.00030241491056205093 0.0093576619734803811 0 -0.0005363786701000037 0.0087352097268798834 0 1.3325093397609295e-05 0.0083424488650010939 0 -0.00023272329871147523 0.0079575074255728295 0 -0.0005363786701000037 0.0087352097268798834 0 1.3325093397609295e-05 0.0083424488650010939 0 -0.00030241491056205093 0.0093576619734803811 0 -0.0005363786701000037 0.0087352097268798834 0 -0.0015465615411404193 0.010610172882541546 0 -0.0012192698822505094 0.0088011740502281551 0 -0.0005363786701000037 0.0087352097268798834 0 -0.0015465615411404193 0.010610172882541546 0 -0.0018550316160429391 0.013285775413762758 0 -0.00095059452298369598 0.012439943088927449 0 -0.0015465615411404193 0.010610172882541546 0 -0.00095059452298369598 0.012439943088927449 0 -0.00054959010645251908 0.011865597327027664 0 -0.0015465615411404193 0.010610172882541546 0 -0.00020685891279783949 0.012017206076931996 0 -0.0015465615411404193 0.010610172882541546 0 -0.00035330219651561856 0.011544564072033374 0 -0.0015465615411404193 0.010610172882541546 0 -0.00035330219651561856 0.011544564072033374 0 -0.00030416701354202334 0.010353245401453142 0 7.3149769226088255e-07 0.013609359419838192 0 -0.00035330219651561856 0.011544564072033374 0 -5.6844689897336019e-07 0.01171262111407074 0 -0.00035330219651561856 0.011544564072033374 0 -5.6844689897336019e-07 0.01171262111407074 0 -0.00030416701354202334 0.010353245401453142 0 -5.6844689897336019e-07 0.01171262111407074 0 -0.00030416701354202334 0.010353245401453142 0 -6.851517779996753e-08 0.0098169769028936104 0 -0.00030241491056205093 0.0093576619734803811 0 -0.00030416701354202334 0.010353245401453142 0 1.5355666181534939e-05 0.0086349438184688976 0 -6.851517779996753e-08 0.0098169769028936104 0 2.0649395698672249e-07 0.007920752774920152 0 1.5355666181534939e-05 0.0086349438184688976 0 -0.00030416701354202334 0.010353245401453142 0 -6.851517779996753e-08 0.0098169769028936104 0 1.5355666181534939e-05 0.0086349438184688976 0 2.0649395698672249e-07 0.007920752774920152 0 0.00015801737452223797 0.0071850516089711795 0 1.5355666181534939e-05 0.0086349438184688976 0 2.0649395698672249e-07 0.007920752774920152 0 0.00015801737452223797 0.0071850516089711795 0 4.6539457796822387e-07 0.0060249173992132444 0 0.00015801737452223797 0.0071850516089711795 0 0.00041928882033659252 0.006628168706431012 0 5.2862959045781568e-05 0.0076112189188644232 0 0.00015801737452223797 0.0071850516089711795 0 1.5355666181534939e-05 0.0086349438184688976 0 5.2862959045781568e-05 0.0076112189188644232 0 4.6539457796822387e-07 0.0060249173992132444 0 0.00028914600653411266 0.0057549400827327799 0 6.2538358716147714e-07 0.0041284270236312069 0 0.00015801737452223797 0.0071850516089711795 0 4.6539457796822387e-07 0.0060249173992132444 0 0.00028914600653411266 0.0057549400827327799 0 0.00015801737452223797 0.0071850516089711795 0 0.00028914600653411266 0.0057549400827327799 0 0.00041928882033659252 0.006628168706431012 0 0.00028914600653411266 0.0057549400827327799 0 0.00039599742903562586 0.0062334450312422169 0 0.00041928882033659252 0.006628168706431012 0 0.00070830764132881778 0.0042891972456269778 0 0.00072540798233254925 0.0044863367083487204 0 0.00039599742903562586 0.0062334450312422169 0 0.00041928882033659252 0.006628168706431012 0 0.00082357681464247155 0.0054161556344230902 0 0.00041928882033659252 0.006628168706431012 0 0.00082357681464247155 0.0054161556344230902 0 5.2862959045781568e-05 0.0076112189188644232 0 0.00082357681464247155 0.0054161556344230902 0 5.2862959045781568e-05 0.0076112189188644232 0 0.00043989315907108661 0.0050301801550456764 0 0.00082357681464247155 0.0054161556344230902 0 0.00043989315907108661 0.0050301801550456764 0 0.00090780624760738017 0.0048721055515228611 0 0.00082357681464247155 0.0054161556344230902 0 0.00090780624760738017 0.0048721055515228611 0 0.00095467083957169029 0.004612215577778001 0 0.0011452052016961002 0.0038929473235555321 0 0.00082357681464247155 0.0054161556344230902 0 0.00095467083957169029 0.004612215577778001 0 1.5355666181534939e-05 0.0086349438184688976 0 5.2862959045781568e-05 0.0076112189188644232 0 1.3325093397609295e-05 0.0083424488650010939 0 0.00047128424134427761 0.0066113573214700771 0 0.00073019778415920949 0.0061253265418249958 0 5.2862959045781568e-05 0.0076112189188644232 0 0.00023764214871988692 0.0079069647103336971 0 0.00053463671353978749 0.0077608618805659838 0 5.2862959045781568e-05 0.0076112189188644232 0 0.00053463671353978749 0.0077608618805659838 0 0.00089484980401240849 0.0078445079365558994 0 -0.00023272329871147523 0.0079575074255728295 0 1.3325093397609295e-05 0.0083424488650010939 0 0.00023764214871988692 0.0079069647103336971 0 5.2862959045781568e-05 0.0076112189188644232 0 1.3325093397609295e-05 0.0083424488650010939 0 0.00023764214871988692 0.0079069647103336971 0 -0.00023272329871147523 0.0079575074255728295 0 0.00023764214871988692 0.0079069647103336971 0 0.00017932120647360845 0.0074639724442029445 0 -0.00023272329871147523 0.0079575074255728295 0 0.00017932120647360845 0.0074639724442029445 0 -0.00022969396198306561 0.007218460462691219 0 0.00017932120647360845 0.0074639724442029445 0 -0.00022969396198306561 0.007218460462691219 0 0.00015033596202205382 0.0066973171232777807 0 -0.00022969396198306561 0.007218460462691219 0 0.00015033596202205382 0.0066973171232777807 0 -0.00047211663530722145 0.0065284544808818035 0 0.00015033596202205382 0.0066973171232777807 0 0.00065781190437548412 0.0070046710639203227 0 0.00063399719340176571 0.0059595731779470288 0 0.00065781190437548412 0.0070046710639203227 0 0.0012182761540310554 0.0065736596838733737 0 0.00063399719340176571 0.0059595731779470288 0 0.00017932120647360845 0.0074639724442029445 0 0.00015033596202205382 0.0066973171232777807 0 0.00065781190437548412 0.0070046710639203227 0 0.00065781190437548412 0.0070046710639203227 0 0.00053463671353978749 0.0077608618805659838 0 0.0010925538532539053 0.00717069846918979 0 0.00017932120647360845 0.0074639724442029445 0 0.00065781190437548412 0.0070046710639203227 0 0.00053463671353978749 0.0077608618805659838 0 0.00023764214871988692 0.0079069647103336971 0 0.00017932120647360845 0.0074639724442029445 0 0.00053463671353978749 0.0077608618805659838 0 0.00089484980401240849 0.0078445079365558994 0 0.0010925538532539053 0.00717069846918979 0 0.0022344961211630027 0.0066520388331417412 0 0.00073019778415920949 0.0061253265418249958 0 0.0010627752922826512 0.0052548876096537925 0 0.00053463671353978749 0.0077608618805659838 0 0.00089484980401240849 0.0078445079365558994 0 0.0010925538532539053 0.00717069846918979 0 0.00090780624760738017 0.0048721055515228611 0 0.00090121180015901605 0.0045340264174225558 0 0.00093345269401812366 0.0047739273243425509 0 0.00043989315907108661 0.0050301801550456764 0 0.00090780624760738017 0.0048721055515228611 0 0.00090121180015901605 0.0045340264174225558 0 0.0010925538532539053 0.00717069846918979 0 0.0022344961211630027 0.0066520388331417412 0 0.0012182761540310554 0.0065736596838733737 0 0.0022344961211630027 0.0066520388331417412 0 0.0012182761540310554 0.0065736596838733737 0 0.0015939754276224388 0.0058324851843775966 0 0.00065781190437548412 0.0070046710639203227 0 0.0010925538532539053 0.00717069846918979 0 0.0012182761540310554 0.0065736596838733737 0 0.0012182761540310554 0.0065736596838733737 0 0.0015939754276224388 0.0058324851843775966 0 0.00063399719340176571 0.0059595731779470288 0 0.0015939754276224388 0.0058324851843775966 0 0.00070288700127516435 0.0046811239128009396 0 0.00063399719340176571 0.0059595731779470288 0 0.0010364650940332116 0.0051659477773848116 0 0.00092083872573552755 0.0050337064458127762 0 0.00122962120589235 0.0047804948370246091 0 0.0012182666941160602 0.0045143661323379918 0 0.0013602460406329628 0.0044420912313153024 0 0.0010627752922826512 0.0052548876096537925 0 0.0012184926903611171 0.0049856887975774627 0 0.0010627752922826512 0.0052548876096537925 0 0.0010364650940332116 0.0051659477773848116 0 0.00122962120589235 0.0047804948370246091 0 0.00096264759570789172 0.0046079772015671632 0 0.0012182666941160602 0.0045143661323379918 0 0.00096264759570789172 0.0046079772015671632 0 0.0012182666941160602 0.0045143661323379918 0 0.0011186561841025431 0.004262331485765305 0 0.0012182666941160602 0.0045143661323379918 0 0.0016405452309588887 0.0042635677744314697 0 0.0013602460406329628 0.0044420912313153024 0 0.0012182666941160602 0.0045143661323379918 0 0.0011186561841025431 0.004262331485765305 0 0.0016405452309588887 0.0042635677744314697 0 0.0011186561841025431 0.004262331485765305 0 0.0012881282979696896 0.0036825803944357965 0 0.00093048586574979346 0.0038399960586293657 0 0.0017859295309637258 0.0034218135263733461 0 0.0012881282979696896 0.0036825803944357965 0 0.0016405452309588887 0.0042635677744314697 0 0.0011186561841025431 0.004262331485765305 0 0.0012881282979696896 0.0036825803944357965 0 0.0016405452309588887 0.0042635677744314697 0 0.00096264759570789172 0.0046079772015671632 0 0.00085675830385799681 0.004334309073239305 0 0.00070288700127516435 0.0046811239128009396 0 0.00096264759570789172 0.0046079772015671632 0 0.0011186561841025431 0.004262331485765305 0 0.00085675830385799681 0.004334309073239305 0 0.00046346690312109651 0.0037878592216675053 0 0.00085675830385799681 0.004334309073239305 0 0.00070288700127516435 0.0046811239128009396 0 0.0011186561841025431 0.004262331485765305 0 0.00085675830385799681 0.004334309073239305 0 0.00093048586574979346 0.0038399960586293657 0 0.00046346690312109651 0.0037878592216675053 0 0.00085675830385799681 0.004334309073239305 0 0.00093048586574979346 0.0038399960586293657 0 0.00063745251868551592 0.0030171693598454916 0 -1.5225731529841763e-06 0.0034477904928120568 0 0.00046346690312109651 0.0037878592216675053 0 0.00070288700127516435 0.0046811239128009396 0 0.00012816940094811051 0.0049793396931565167 0 0.00046346690312109651 0.0037878592216675053 0 0.00012816940094811051 0.0049793396931565167 0 -0.00049735403671812689 0.004419828898322248 0 -0.00068025218071137989 0.0056538471795147763 0 0.00012816940094811051 0.0049793396931565167 0 -0.00049735403671812689 0.004419828898322248 0 -0.00068025218071137989 0.0056538471795147763 0 0.00012816940094811051 0.0049793396931565167 0 -5.181597980235947e-05 0.0058991649080518595 0 -0.00068025218071137989 0.0056538471795147763 0 -0.00047211663530722145 0.0065284544808818035 0 -5.181597980235947e-05 0.0058991649080518595 0 0.00015033596202205382 0.0066973171232777807 0 -0.00047211663530722145 0.0065284544808818035 0 -5.181597980235947e-05 0.0058991649080518595 0 0.00015033596202205382 0.0066973171232777807 0 -5.181597980235947e-05 0.0058991649080518595 0 0.00063399719340176571 0.0059595731779470288 0 0.00070288700127516435 0.0046811239128009396 0 0.00012816940094811051 0.0049793396931565167 0 0.00063399719340176571 0.0059595731779470288 0 0.00012816940094811051 0.0049793396931565167 0 -5.181597980235947e-05 0.0058991649080518595 0 0.00063399719340176571 0.0059595731779470288 0 0.00057057431703336095 0.0045855436700651554 0 0.00051090303921344081 0.0043664313214722581 0 0.00028340809845370506 0.0045237838890108493 0 0.00057057431703336095 0.0045855436700651554 0 0.00051090303921344081 0.0043664313214722581 0 0.00073141530277257721 0.0044352484042609096 0 0.00051090303921344081 0.0043664313214722581 0 0.00073141530277257721 0.0044352484042609096 0 0.00076161943744522777 0.0043016236034949277 0 0.00051090303921344081 0.0043664313214722581 0 0.00028340809845370506 0.0045237838890108493 0 0.00026070509606202375 0.0043077457597176134 0 7.0437220730713984e-05 0.0044259454546512443 0 0.00028340809845370506 0.0045237838890108493 0 0.00026070509606202375 0.0043077457597176134 0 7.0437220730713984e-05 0.0044259454546512443 0 3.750987164022315e-05 0.0042347028731280932 0 -0.00012568397184491444 0.0043348265792134168 0 7.0437220730713984e-05 0.0044259454546512443 0 3.750987164022315e-05 0.0042347028731280932 0 0.00026070509606202375 0.0043077457597176134 0 7.0437220730713984e-05 0.0044259454546512443 0 6.5171729287298415e-05 0.0046412545040901637 0 -0.00010331395710973453 0.0045361986350323947 0 7.0437220730713984e-05 0.0044259454546512443 0 0.00028340809845370506 0.0045237838890108493 0 6.5171729287298415e-05 0.0046412545040901637 0 0.0027479719173831435 0.0011236800338927761 0 0.0023564623945136571 0.00027869575260529642 0 0.00026014289810474258 0.0048908935802902129 0 6.5171729287298415e-05 0.0046412545040901637 0 -0.00017334146096125816 0.0047904014990568086 0 0.00028340809845370506 0.0045237838890108493 0 0.00026014289810474258 0.0048908935802902129 0 6.5171729287298415e-05 0.0046412545040901637 0 0.00057057431703336095 0.0045855436700651554 0 0.00026014289810474258 0.0048908935802902129 0 0.00085406662995917045 0.0048283562593280666 0 0.0027479719173831435 0.0011236800338927761 0 0.0021548771674932896 0.0025015978774455636 0 0.0033579235672554176 0.0033488042502837173 0 0.0054880204438076223 0.0038902126688663326 0 0.0036628752213517767 0.004074503320359339 0 0.00057057431703336095 0.0045855436700651554 0 0.00028340809845370506 0.0045237838890108493 0 0.00026014289810474258 0.0048908935802902129 0 0.0033579235672554176 0.0033488042502837173 0 0.0036628752213517767 0.004074503320359339 0 0.0016405452309588887 0.0042635677744314697 0 0.00057057431703336095 0.0045855436700651554 0 0.00085406662995917045 0.0048283562593280666 0 0.00083923527370670641 0.0045507299025995766 0 0.00085406662995917045 0.0048283562593280666 0 0.0011041081054571703 0.0045305187761009455 0 0.00083923527370670641 0.0045507299025995766 0 0.0011041081054571703 0.0045305187761009455 0 0.0016405452309588887 0.0042635677744314697 0 0.0012817834579706589 0.0044266580990370554 0 0.0017859295309637258 0.0034218135263733461 0 0.0033579235672554176 0.0033488042502837173 0 0.0016405452309588887 0.0042635677744314697 0 0.00085406662995917045 0.0048283562593280666 0 0.0011041081054571703 0.0045305187761009455 0 0.0016405452309588887 0.0042635677744314697 0 0.0021548771674932896 0.0025015978774455636 0 0.0018443026970738135 0.0028905264087113018 0 0.0016405452309588887 0.0042635677744314697 0 0.0013602460406329628 0.0044420912313153024 0 0.0012817834579706589 0.0044266580990370554 0 0.0013820166749926282 0.0042226731599228611 0 0.0013602460406329628 0.0044420912313153024 0 0.0010667565092056998 0.0042599493455911944 0 0.0013602460406329628 0.0044420912313153024 0 0.0012817834579706589 0.0044266580990370554 0 0.0010253549977763308 0.0044160412958626051 0 0.0013602460406329628 0.0044420912313153024 0 0.0010253549977763308 0.0044160412958626051 0 0.0010667565092056998 0.0042599493455911944 0 0.00083923527370670641 0.0045507299025995766 0 0.00073141530277257721 0.0044352484042609096 0 0.0010253549977763308 0.0044160412958626051 0 0.00057057431703336095 0.0045855436700651554 0 0.00083923527370670641 0.0045507299025995766 0 0.00073141530277257721 0.0044352484042609096 0 0.0011041081054571703 0.0045305187761009455 0 0.00083923527370670641 0.0045507299025995766 0 0.0010253549977763308 0.0044160412958626051 0 0.0011041081054571703 0.0045305187761009455 0 0.0012817834579706589 0.0044266580990370554 0 0.0010253549977763308 0.0044160412958626051 0 0.0010253549977763308 0.0044160412958626051 0 0.00076161943744522777 0.0043016236034949277 0 0.0010667565092056998 0.0042599493455911944 0 0.00073141530277257721 0.0044352484042609096 0 0.0010253549977763308 0.0044160412958626051 0 0.00076161943744522777 0.0043016236034949277 0 0.00076161943744522777 0.0043016236034949277 0 0.0008077397097021996 0.0041680290090118748 0 0.00046081692687187267 0.0041873565911597008 0 0.0008077397097021996 0.0041680290090118748 0 0.00059016652612271607 0.0040696882732795545 0 0.00046081692687187267 0.0041873565911597008 0 0.00076161943744522777 0.0043016236034949277 0 0.0008077397097021996 0.0041680290090118748 0 0.0010667565092056998 0.0042599493455911944 0 0.0013820166749926282 0.0042226731599228611 0 0.0010667565092056998 0.0042599493455911944 0 0.001001743092638145 0.0040345006192361223 0 0.0008077397097021996 0.0041680290090118748 0 0.0010667565092056998 0.0042599493455911944 0 0.001001743092638145 0.0040345006192361223 0 0.0010627752922826512 0.0052548876096537925 0 0.00085483347682501507 0.0047761239540500258 0 0.00090780624760738017 0.0048721055515228611 0 0.00093345269401812366 0.0047739273243425509 0 0.00095467083957169029 0.004612215577778001 0 0.0008077397097021996 0.0041680290090118748 0 0.001001743092638145 0.0040345006192361223 0 0.00059016652612271607 0.0040696882732795545 0 0.001001743092638145 0.0040345006192361223 0 0.00059016652612271607 0.0040696882732795545 0 0.00059935772674864338 0.0041039892426778281 0 0.00085483347682501507 0.0047761239540500258 0 0.00077433268429431682 0.0046237459552820838 0 0.00059016652612271607 0.0040696882732795545 0 0.00037147235847397703 0.0039724678513109882 0 0.00059935772674864338 0.0041039892426778281 0 0.00059016652612271607 0.0040696882732795545 0 0.00046081692687187267 0.0041873565911597008 0 0.00020854766328225858 0.0040391050708825753 0 0.00037147235847397703 0.0039724678513109882 0 0.00020854766328225858 0.0040391050708825753 0 0.00013200702168878205 0.0037691768892698617 0 0.00059016652612271607 0.0040696882732795545 0 0.00037147235847397703 0.0039724678513109882 0 0.00020854766328225858 0.0040391050708825753 0 0.00046081692687187267 0.0041873565911597008 0 0.00018364316351510252 0.0041614847614008027 0 0.00020854766328225858 0.0040391050708825753 0 0.00046081692687187267 0.0041873565911597008 0 0.00026070509606202375 0.0043077457597176134 0 0.00018364316351510252 0.0041614847614008027 0 0.00051090303921344081 0.0043664313214722581 0 0.00046081692687187267 0.0041873565911597008 0 0.00026070509606202375 0.0043077457597176134 0 0.00051090303921344081 0.0043664313214722581 0 0.00076161943744522777 0.0043016236034949277 0 0.00046081692687187267 0.0041873565911597008 0 3.750987164022315e-05 0.0042347028731280932 0 0.00026070509606202375 0.0043077457597176134 0 0.00018364316351510252 0.0041614847614008027 0 0.00018364316351510252 0.0041614847614008027 0 -4.9322754225725453e-05 0.0040470296138207917 0 0.00020854766328225858 0.0040391050708825753 0 3.750987164022315e-05 0.0042347028731280932 0 0.00018364316351510252 0.0041614847614008027 0 -4.9322754225725453e-05 0.0040470296138207917 0 -4.9322754225725453e-05 0.0040470296138207917 0 0.00020854766328225858 0.0040391050708825753 0 -0.00020445833980631563 0.0038083869167046141 0 0.00020854766328225858 0.0040391050708825753 0 0.00013200702168878205 0.0037691768892698617 0 -0.00020445833980631563 0.0038083869167046141 0 -0.00017651098411016952 0.0035979294094489397 0 0.00013200702168878205 0.0037691768892698617 0 -0.00020445833980631563 0.0038083869167046141 0 -0.00017651098411016952 0.0035979294094489397 0 0.00013200702168878205 0.0037691768892698617 0 0.0001057905534217078 0.0034849921411086943 0 0.00037147235847397703 0.0039724678513109882 0 0.00035039869549529501 0.0037570061199690965 0 0.00013200702168878205 0.0037691768892698617 0 0.00037147235847397703 0.0039724678513109882 0 0.00035039869549529501 0.0037570061199690965 0 0.00059935772674864338 0.0041039892426778281 0 0.00035039869549529501 0.0037570061199690965 0 0.00013200702168878205 0.0037691768892698617 0 0.0001057905534217078 0.0034849921411086943 0 0.00035039869549529501 0.0037570061199690965 0 0.0001057905534217078 0.0034849921411086943 0 0.0002772140300967927 0.0032986384736820823 0 0.0001057905534217078 0.0034849921411086943 0 0.0002772140300967927 0.0032986384736820823 0 9.4747256319081294e-07 0.0030096030214022684 0 0.0001057905534217078 0.0034849921411086943 0 -0.00018977431618785729 0.0033088296448560576 0 9.4747256319081294e-07 0.0030096030214022684 0 -0.00018977431618785729 0.0033088296448560576 0 -0.00030929949704234106 0.0029582696846081101 0 -0.0004518082616657398 0.0035102044697119983 0 -0.00018977431618785729 0.0033088296448560576 0 -0.00030929949704234106 0.0029582696846081101 0 9.4747256319081294e-07 0.0030096030214022684 0 -0.00017651098411016952 0.0035979294094489397 0 -0.00018977431618785729 0.0033088296448560576 0 -0.0004518082616657398 0.0035102044697119983 0 -0.00017651098411016952 0.0035979294094489397 0 0.0001057905534217078 0.0034849921411086943 0 -0.00018977431618785729 0.0033088296448560576 0 0.00093345269401812366 0.0047739273243425509 0 0.00095467083957169029 0.004612215577778001 0 0.00059935772674864338 0.0041039892426778281 0 0.00095467083957169029 0.004612215577778001 0 0.00059935772674864338 0.0041039892426778281 0 0.00063812157221472164 0.0036840925062688787 0 0.00035039869549529501 0.0037570061199690965 0 0.00059935772674864338 0.0041039892426778281 0 0.00063812157221472164 0.0036840925062688787 0 0.00035039869549529501 0.0037570061199690965 0 0.0002772140300967927 0.0032986384736820823 0 0.00063812157221472164 0.0036840925062688787 0 0.0002772140300967927 0.0032986384736820823 0 0.00063812157221472164 0.0036840925062688787 0 0.00041925926188054281 0.0028967965421808229 0 0.0011452052016961002 0.0038929473235555321 0 0.00095467083957169029 0.004612215577778001 0 0.00063812157221472164 0.0036840925062688787 0 0.00028914600653411266 0.0057549400827327799 0 0.00039599742903562586 0.0062334450312422169 0 -0.00026909076358507808 0.0048989300466670323 0 0.0011452052016961002 0.0038929473235555321 0 0.00063812157221472164 0.0036840925062688787 0 0.00077861179784514403 0.0028025764447975709 0 0.00070830764132881778 0.0042891972456269778 0 0.00053000815097202188 0.003583428965941726 0 0.00063812157221472164 0.0036840925062688787 0 0.00077861179784514403 0.0028025764447975709 0 0.00041925926188054281 0.0028967965421808229 0 0.00053000815097202188 0.003583428965941726 0 4.8725273357569392e-07 0.0022339649611418989 0 -0.00026909076358507808 0.0048989300466670323 0 -1.751379964261982e-06 0.0022342500490905855 0 6.2538358716147714e-07 0.0041284270236312069 0 0.00077861179784514403 0.0028025764447975709 0 0.00041925926188054281 0.0028967965421808229 0 2.8952773929975187e-06 0.0022284093890300042 0 0.00028914600653411266 0.0057549400827327799 0 -0.00026909076358507808 0.0048989300466670323 0 6.2538358716147714e-07 0.0041284270236312069 0 -0.00056082001339553421 0.0026097311600122731 0 -0.00030929949704234106 0.0029582696846081101 0 -0.0004518082616657398 0.0035102044697119983 0 -5.9028683013872942e-05 0.0025412632322432626 0 -0.00046526655114526022 0.0025986685794802552 0 -0.00030929949704234106 0.0029582696846081101 0 -0.00046526655114526022 0.0025986685794802552 0 -0.00083723389144851673 0.0025323128984330295 0 7.4253290020001025e-05 0.0018650511275904451 0 -5.9028683013872942e-05 0.0025412632322432626 0 -0.00046526655114526022 0.0025986685794802552 0 7.4253290020001025e-05 0.0018650511275904451 0 -0.00046526655114526022 0.0025986685794802552 0 -0.00056082001339553421 0.0026097311600122731 0 -0.00030929949704234106 0.0029582696846081101 0 0.00035685156034669129 -0.00075091469454544729 0 0.00036739445664289998 -0.0007747178149626325 0 -5.9028683013872942e-05 0.0025412632322432626 0 -0.00030929949704234106 0.0029582696846081101 0 9.4747256319081294e-07 0.0030096030214022684 0 0.0002772140300967927 0.0032986384736820823 0 9.4747256319081294e-07 0.0030096030214022684 0 0.00019264193256412086 0.0025503593305659412 0 0.0002772140300967927 0.0032986384736820823 0 0.00041925926188054281 0.0028967965421808229 0 0.00019264193256412086 0.0025503593305659412 0 -5.9028683013872942e-05 0.0025412632322432626 0 9.4747256319081294e-07 0.0030096030214022684 0 0.00019264193256412086 0.0025503593305659412 0 -5.9028683013872942e-05 0.0025412632322432626 0 0.00019264193256412086 0.0025503593305659412 0 7.4253290020001025e-05 0.0018650511275904451 0 2.8952773929975187e-06 0.0022284093890300042 0 -2.5494509774070983e-06 0.00067610396937772918 0 7.4253290020001025e-05 0.0018650511275904451 0 0.00041925926188054281 0.0028967965421808229 0 2.8952773929975187e-06 0.0022284093890300042 0 0.00019264193256412086 0.0025503593305659412 0 2.8952773929975187e-06 0.0022284093890300042 0 0.00019264193256412086 0.0025503593305659412 0 7.4253290020001025e-05 0.0018650511275904451 0 -0.00083723389144851673 0.0025323128984330295 0 -2.5494509774070983e-06 0.00067610396937772918 0 7.4253290020001025e-05 0.0018650511275904451 0 0.00036739445664289998 -0.0007747178149626325 0 8.3461213384687875e-08 0.00067019114335925621 0 -2.8504030639031209e-05 -0.00052572754698150558 0 -8.682250187114357e-07 0.00066897012615648377 0 6.2045315178254348e-07 -0.0010870192765390333 0 -2.8504030639031209e-05 -0.00052572754698150558 0 6.2045315178254348e-07 -0.0010870192765390333 0 4.5674534273465987e-05 -0.0015466923416088726 0 0.00036739445664289998 -0.0007747178149626325 0 0.00093545056240676439 -0.0023714310547912486 0 0.0029883029298964194 -0.0048197834495005837 0 0.0020424780282742817 -0.0043543868143859667 0 0.0025977949104686654 -0.0037816738835792832 0 0.0029883029298964194 -0.0048197834495005837 0 0.0020424780282742817 -0.0043543868143859667 0 0.0019244912989502434 -0.0050536275036340075 0 0.0020424780282742817 -0.0043543868143859667 0 0.0019244912989502434 -0.0050536275036340075 0 0.0013369553554132682 -0.0045260323835839694 0 6.2045315178254348e-07 -0.0010870192765390333 0 4.5674534273465987e-05 -0.0015466923416088726 0 -8.8497347835183608e-08 -0.0028468159272845373 0 0.0019244912989502434 -0.0050536275036340075 0 0.00090537436074394646 -0.0052864835908614186 0 0.00096699190741038061 -0.0048243328661600289 0 0.00093545056240676439 -0.0023714310547912486 0 0.00073125714671203219 -0.0034340755614027164 0 4.5674534273465987e-05 -0.0015466923416088726 0 -8.8497347835183608e-08 -0.0028468159272845373 0 -2.3831144132238181e-05 -0.0034083883375283599 0 -8.8497347835183608e-08 -0.0028468159272845373 0 -2.3831144132238181e-05 -0.0034083883375283599 0 -3.9484972820768464e-08 -0.0046067082049126807 0 0.00090537436074394646 -0.0052864835908614186 0 0.00054704811024082836 -0.0049875548526226382 0 0.00096699190741038061 -0.0048243328661600289 0 0.00096699190741038061 -0.0048243328661600289 0 0.00059884023331992458 -0.0044791418982849168 0 0.0013369553554132682 -0.0045260323835839694 0 4.3857848762944629e-05 -0.0044455098502296751 0 0.0005326409703913541 -0.004498231021060878 0 0.00054704811024082836 -0.0049875548526226382 0 0.00096699190741038061 -0.0048243328661600289 0 0.00059884023331992458 -0.0044791418982849168 0 0.0019244912989502434 -0.0050536275036340075 0 0.00096699190741038061 -0.0048243328661600289 0 0.0013369553554132682 -0.0045260323835839694 0 0.0020424780282742817 -0.0043543868143859667 0 0.0013369553554132682 -0.0045260323835839694 0 0.0013501303592539354 -0.0035586883292471612 0 0.00048843396085721403 -0.0044122807161459969 0 0.0013369553554132682 -0.0045260323835839694 0 0.0013501303592539354 -0.0035586883292471612 0 4.3857848762944629e-05 -0.0044455098502296751 0 0.00066467526652424092 -0.0011469699425741696 0 -0.001763828943826159 0.0018678753010689085 0 -0.0015741986215477236 0.0030666498309187785 0 -0.00098842580045845172 0.0026970745790829316 0 -0.0015741986215477236 0.0030666498309187785 0 -0.00098842580045845172 0.0026970745790829316 0 -0.00111672792841164 0.0036674164498388755 0 0.0020424780282742817 -0.0043543868143859667 0 0.0013501303592539354 -0.0035586883292471612 0 0.0025977949104686654 -0.0037816738835792832 0 0.00066467526652424092 -0.0011469699425741696 0 0.0012353952753829511 0.0011590573440281261 0 0.0013501303592539354 -0.0035586883292471612 0 0.0025977949104686654 -0.0037816738835792832 0 0.0021888683182623545 -0.0027104952384471607 0 0.00095664481176279694 -0.00012162355500574912 0 0.0012353952753829511 0.0011590573440281261 0 -0.00017651098411016952 0.0035979294094489397 0 -0.00020445833980631563 0.0038083869167046141 0 -0.0004518082616657398 0.0035102044697119983 0 -0.00020445833980631563 0.0038083869167046141 0 -0.0004518082616657398 0.0035102044697119983 0 -0.00039241281715138396 0.0039215265365121644 0 0.00036739445664289998 -0.0007747178149626325 0 0.00095664481176279694 -0.00012162355500574912 0 0.00032068705144321178 -0.0084298213544025322 0 0.00031669951829737587 -0.0083457285114891949 0 0.00026652345269755431 -0.008407544670556202 0 0.00031669951829737587 -0.0083457285114891949 0 0.00026652345269755431 -0.008407544670556202 0 0.00021848976368257371 -0.0081266974292818102 0 0.00026652345269755431 -0.008407544670556202 0 0.00018568568645973622 -0.0081518374412305437 0 0.00021848976368257371 -0.0081266974292818102 0 9.5886714926284215e-07 -0.0078549854306036275 0 0.00018568568645973622 -0.0081518374412305437 0 5.2120940234576467e-07 -0.0093452344207413576 0 0.00026652345269755431 -0.008407544670556202 0 0.00018568568645973622 -0.0081518374412305437 0 5.2120940234576467e-07 -0.0093452344207413576 0 9.5886714926284215e-07 -0.0078549854306036275 0 0.00018568568645973622 -0.0081518374412305437 0 0.00010930427959123395 -0.0075257612744993796 0 0.00018568568645973622 -0.0081518374412305437 0 0.00010930427959123395 -0.0075257612744993796 0 0.00021848976368257371 -0.0081266974292818102 0 9.5886714926284215e-07 -0.0078549854306036275 0 0.00010930427959123395 -0.0075257612744993796 0 -1.6191516984585123e-06 -0.0063687246628255263 0 -0.00023836228287540097 -0.0081203461697355091 0 -0.00038307583737090127 -0.0083950962379946547 0 0.00012001217082251557 -0.0084659039402274847 0 0.00010930427959123395 -0.0075257612744993796 0 0.00021848976368257371 -0.0081266974292818102 0 -0.00023836228287540097 -0.0081203461697355091 0 0.00031669951829737587 -0.0083457285114891949 0 0.00021848976368257371 -0.0081266974292818102 0 0.00012001217082251557 -0.0084659039402274847 0 0.00021848976368257371 -0.0081266974292818102 0 -0.00023836228287540097 -0.0081203461697355091 0 0.00012001217082251557 -0.0084659039402274847 0 0.00010930427959123395 -0.0075257612744993796 0 -0.00023836228287540097 -0.0081203461697355091 0 -0.0011734987127106178 -0.0076064823253632115 0 -0.00023836228287540097 -0.0081203461697355091 0 -0.0011734987127106178 -0.0076064823253632115 0 -0.00053517267837041018 -0.0086701177388727371 0 -0.0011771177414744438 -0.0049258808958411032 0 -0.0010368574112055435 -0.0044129355687607015 0 -1.3219522898897797e-07 -0.0063647612822486472 0 5.7457282200966797e-06 -0.005576562201119779 0 -3.9484972820768464e-08 -0.0046067082049126807 0 0.00010930427959123395 -0.0075257612744993796 0 -1.6191516984585123e-06 -0.0063687246628255263 0 -0.0011734987127106178 -0.0076064823253632115 0 -7.391295761337433e-07 -0.0063647017090664648 0 -0.00025163240021022884 -0.0057448071467986524 0 -1.3219522898897797e-07 -0.0063647612822486472 0 5.7457282200966797e-06 -0.005576562201119779 0 5.7935439462641936e-05 -0.0050626659318505022 0 0.00073125714671203219 -0.0034340755614027164 0 0.00050923636727955523 -0.0038912746827857898 0 0.00054704811024082836 -0.0049875548526226382 0 5.7457282200966797e-06 -0.005576562201119779 0 5.7935439462641936e-05 -0.0050626659318505022 0 0.00090537436074394646 -0.0052864835908614186 0 0.00054704811024082836 -0.0049875548526226382 0 5.7457282200966797e-06 -0.005576562201119779 0 -2.3831144132238181e-05 -0.0034083883375283599 0 5.7457282200966797e-06 -0.005576562201119779 0 -3.9484972820768464e-08 -0.0046067082049126807 0 4.3857848762944629e-05 -0.0044455098502296751 0 -0.00025163240021022884 -0.0057448071467986524 0 -0.0020377598367647496 -0.0084469969562309382 0 -0.0011734987127106178 -0.0076064823253632115 0 -0.00053517267837041018 -0.0086701177388727371 0 0.00054704811024082836 -0.0049875548526226382 0 0.00059884023331992458 -0.0044791418982849168 0 5.7935439462641936e-05 -0.0050626659318505022 0 4.3857848762944629e-05 -0.0044455098502296751 0 -0.0010368574112055435 -0.0044129355687607015 0 -0.001763828943826159 0.0018678753010689085 0 -0.0022776657908606095 0.0029379371636701524 0 -0.0027589162558965901 0.0019803948955894124 0 -0.001763828943826159 0.0018678753010689085 0 -0.0015741986215477236 0.0030666498309187785 0 -0.0022776657908606095 0.0029379371636701524 0 0.001432258811400204 -0.0082307694064305686 0 0.0011937863432761959 -0.0086160465876745779 0 0.0010877455843095088 -0.0083468925107299374 0 0.001432258811400204 -0.0082307694064305686 0 0.0010877455843095088 -0.0083468925107299374 0 0.001031568023515444 -0.0080229446851551468 0 -0.00010423328553599282 -0.0030337000313829126 0 -0.0010368574112055435 -0.0044129355687607015 0 0.0011937863432761959 -0.0086160465876745779 0 0.00089815769751980484 -0.0085661199947222738 0 0.0010877455843095088 -0.0083468925107299374 0 -0.0010368574112055435 -0.0044129355687607015 0 3.1711316529764695e-05 -0.0055595778909964325 0 0.00089815769751980484 -0.0085661199947222738 0 0.0010877455843095088 -0.0083468925107299374 0 0.00085449152775180285 -0.0083019098709726478 0 0.0010877455843095088 -0.0083468925107299374 0 0.00085449152775180285 -0.0083019098709726478 0 0.001031568023515444 -0.0080229446851551468 0 0.00085449152775180285 -0.0083019098709726478 0 0.00076871490640410237 -0.0090879588508997172 0 0.00067335149356486084 -0.0087145416437817303 0 0.00085449152775180285 -0.0083019098709726478 0 0.00069935724274037821 -0.008080880502291039 0 0.00063334482327227542 -0.0084335195169053991 0 0.00085449152775180285 -0.0083019098709726478 0 0.00067335149356486084 -0.0087145416437817303 0 0.00063334482327227542 -0.0084335195169053991 0 0.00085449152775180285 -0.0083019098709726478 0 0.00044396278526124335 -0.0084355683601434438 0 0.00032737426733060748 -0.0083874533044809938 0 3.1711316529764695e-05 -0.0055595778909964325 0 0.00027792609412136495 -0.0058993549693460738 0 0.00089815769751980484 -0.0085661199947222738 0 0.00085449152775180285 -0.0083019098709726478 0 0.00044396278526124335 -0.0084355683601434438 0 0.000707780225175642 -0.0089250038700180983 0 0.00059832644513276598 -0.0091673942130737936 0 0.00031669951829737587 -0.0083457285114891949 0 0.00012001217082251557 -0.0084659039402274847 0 0.00044396278526124335 -0.0084355683601434438 0 0.00032068705144321178 -0.0084298213544025322 0 0.00044396278526124335 -0.0084355683601434438 0 0.00032737426733060748 -0.0083874533044809938 0 0.00032068705144321178 -0.0084298213544025322 0 0.00031669951829737587 -0.0083457285114891949 0 0.00044396278526124335 -0.0084355683601434438 0 0.00085449152775180285 -0.0083019098709726478 0 0.00069935724274037821 -0.008080880502291039 0 0.001031568023515444 -0.0080229446851551468 0 0.0007076229535241394 -0.007720354289807752 0 0.00069935724274037821 -0.008080880502291039 0 0.001031568023515444 -0.0080229446851551468 0 0.00043610087453835263 -0.0062904474052347392 0 0.00066003526664319733 -0.0055688655238681833 0 0.0007076229535241394 -0.007720354289807752 0 0.001031568023515444 -0.0080229446851551468 0 0.0010852350628837396 -0.0076102098446012723 0 0.001031568023515444 -0.0080229446851551468 0 0.0013429750988462584 -0.0078341987380755405 0 0.0010852350628837396 -0.0076102098446012723 0 0.0013429750988462584 -0.0078341987380755405 0 0.0014895318079845153 -0.0074708256455266863 0 0.0010852350628837396 -0.0076102098446012723 0 0.001432258811400204 -0.0082307694064305686 0 0.001031568023515444 -0.0080229446851551468 0 0.0013429750988462584 -0.0078341987380755405 0 -0.00010423328553599282 -0.0030337000313829126 0 0.00072159417853445381 -0.0025260290357174246 0 -0.0015741986215477236 0.0030666498309187785 0 -0.0022776657908606095 0.0029379371636701524 0 -0.0017683095190077513 0.0038589696033770951 0 0.001432258811400204 -0.0082307694064305686 0 0.0013429750988462584 -0.0078341987380755405 0 0.0016864193653579654 -0.0078067899830753023 0 0.0013429750988462584 -0.0078341987380755405 0 0.0014895318079845153 -0.0074708256455266863 0 0.0016864193653579654 -0.0078067899830753023 0 0.0012771805852373162 -0.0040028501571306701 0 0.0019132346175422111 -0.0030576236234978699 0 0.0014963946270167634 -0.0025311010879531968 0 0.0012771805852373162 -0.0040028501571306701 0 0.00059941075384118065 -0.0032822540380761556 0 0.0014963946270167634 -0.0025311010879531968 0 0.0012771805852373162 -0.0040028501571306701 0 0.00059941075384118065 -0.0032822540380761556 0 0.00025050291384217781 -0.0046566659281337798 0 0.0011416480943187313 -0.0045128105382268215 0 0.00066003526664319733 -0.0055688655238681833 0 0.00025050291384217781 -0.0046566659281337798 0 -0.00010185576172589363 -0.0042555918142137437 0 -0.00033850200811649713 -0.0047175844886485525 0 0.00059941075384118065 -0.0032822540380761556 0 0.00025050291384217781 -0.0046566659281337798 0 -0.00010185576172589363 -0.0042555918142137437 0 0.00059941075384118065 -0.0032822540380761556 0 -0.00010185576172589363 -0.0042555918142137437 0 -4.8102571330858472e-05 -0.0036115860695022182 0 -0.00010185576172589363 -0.0042555918142137437 0 -4.8102571330858472e-05 -0.0036115860695022182 0 -0.00048196082944766943 -0.0042796512494626664 0 -0.00010185576172589363 -0.0042555918142137437 0 -0.00048196082944766943 -0.0042796512494626664 0 -0.00046779207616276888 -0.0049906423009626532 0 -0.00010185576172589363 -0.0042555918142137437 0 -0.00033850200811649713 -0.0047175844886485525 0 -0.00046779207616276888 -0.0049906423009626532 0 -0.00034887290673814872 -0.0047796406188246885 0 -0.00033850200811649713 -0.0047175844886485525 0 -4.6903193620095585e-05 -0.0049461440766657271 0 -0.00034887290673814872 -0.0047796406188246885 0 0.00025050291384217781 -0.0046566659281337798 0 -0.00033850200811649713 -0.0047175844886485525 0 -0.00042033057805856386 0.0039138989094878729 0 -0.00064676476064182717 0.004058269012286949 0 -0.0003861205041222788 0.0041034014729378742 0 -0.00042033057805856386 0.0039138989094878729 0 -0.0003861205041222788 0.0041034014729378742 0 -0.00033560112275571064 0.003998693224051446 0 -0.00042033057805856386 0.0039138989094878729 0 -0.00033560112275571064 0.003998693224051446 0 -0.00033421787003729084 0.0039445256971770166 0 -0.00042033057805856386 0.0039138989094878729 0 -0.00064676476064182717 0.004058269012286949 0 -0.00068755747555977113 0.0035793000271902922 0 -0.00064676476064182717 0.004058269012286949 0 -0.00044210761370277969 0.0043035320849824123 0 -0.00068240164862686794 0.0044217446037530979 0 -0.00064676476064182717 0.004058269012286949 0 -0.0003861205041222788 0.0041034014729378742 0 -0.00044210761370277969 0.0043035320849824123 0 -0.0003861205041222788 0.0041034014729378742 0 -0.00027788431629225947 0.0042468558174234301 0 -0.00044210761370277969 0.0043035320849824123 0 -0.00027788431629225947 0.0042468558174234301 0 -0.00015033171835495321 0.0041597773233444301 0 -0.00027190976420532839 0.0041029822610586571 0 -0.0003861205041222788 0.0041034014729378742 0 -0.00027788431629225947 0.0042468558174234301 0 -0.00027190976420532839 0.0041029822610586571 0 3.750987164022315e-05 0.0042347028731280932 0 -0.00015033171835495321 0.0041597773233444301 0 -0.00012568397184491444 0.0043348265792134168 0 -0.00027788431629225947 0.0042468558174234301 0 -0.00015033171835495321 0.0041597773233444301 0 -0.00012568397184491444 0.0043348265792134168 0 3.750987164022315e-05 0.0042347028731280932 0 -4.9322754225725453e-05 0.0040470296138207917 0 -0.00015033171835495321 0.0041597773233444301 0 -4.9322754225725453e-05 0.0040470296138207917 0 -0.00015033171835495321 0.0041597773233444301 0 -0.00023028897445279066 0.004022333677152737 0 -0.0003861205041222788 0.0041034014729378742 0 -0.00027190976420532839 0.0041029822610586571 0 -0.00033560112275571064 0.003998693224051446 0 -0.00015033171835495321 0.0041597773233444301 0 -0.00027190976420532839 0.0041029822610586571 0 -0.00023028897445279066 0.004022333677152737 0 -0.00027190976420532839 0.0041029822610586571 0 -0.00023028897445279066 0.004022333677152737 0 -0.00033560112275571064 0.003998693224051446 0 -0.00033421787003729084 0.0039445256971770166 0 -0.00024966487901428175 0.0039339462608393048 0 -0.00039241281715138396 0.0039215265365121644 0 -0.00020445833980631563 0.0038083869167046141 0 -0.00024966487901428175 0.0039339462608393048 0 -0.00039241281715138396 0.0039215265365121644 0 -0.00023028897445279066 0.004022333677152737 0 -0.00033560112275571064 0.003998693224051446 0 -0.00033421787003729084 0.0039445256971770166 0 -4.9322754225725453e-05 0.0040470296138207917 0 -0.00020445833980631563 0.0038083869167046141 0 -0.00024966487901428175 0.0039339462608393048 0 -0.00023028897445279066 0.004022333677152737 0 -0.00033421787003729084 0.0039445256971770166 0 -0.00024966487901428175 0.0039339462608393048 0 -4.9322754225725453e-05 0.0040470296138207917 0 -0.00023028897445279066 0.004022333677152737 0 -0.00024966487901428175 0.0039339462608393048 0 -0.00098842580045845172 0.0026970745790829316 0 -0.00024994944978539834 0.0035271033327740819 0 -0.00068755747555977113 0.0035793000271902922 0 -0.00042033057805856386 0.0039138989094878729 0 -0.00024994944978539834 0.0035271033327740819 0 -0.00068755747555977113 0.0035793000271902922 0 -0.00042033057805856386 0.0039138989094878729 0 -0.00033421787003729084 0.0039445256971770166 0 -0.00035904649633530371 0.0039143942829054047 0 0.0010641507596108261 0.0015441842252727968 0 0.0012353952753829511 0.0011590573440281261 0 0.0012353984162372493 0.0012060158351632321 0 0.0012353952753829511 0.0011590573440281261 0 -0.00098842580045845172 0.0026970745790829316 0 -0.00068755747555977113 0.0035793000271902922 0 -0.00111672792841164 0.0036674164498388755 0 -0.00064676476064182717 0.004058269012286949 0 -0.00068755747555977113 0.0035793000271902922 0 -0.00111672792841164 0.0036674164498388755 0 -0.0015741986215477236 0.0030666498309187785 0 -0.00111672792841164 0.0036674164498388755 0 -0.0017683095190077513 0.0038589696033770951 0 -0.0017683095190077513 0.0038589696033770951 0 -0.001276410165167857 0.0040959859072120441 0 -0.0012773330391618036 0.0046280344555658095 0 -0.00111672792841164 0.0036674164498388755 0 -0.0017683095190077513 0.0038589696033770951 0 -0.001276410165167857 0.0040959859072120441 0 -0.00064676476064182717 0.004058269012286949 0 -0.00111672792841164 0.0036674164498388755 0 -0.0009381908366589731 0.0042050517191752892 0 -0.00111672792841164 0.0036674164498388755 0 -0.001276410165167857 0.0040959859072120441 0 -0.0009381908366589731 0.0042050517191752892 0 -0.00064676476064182717 0.004058269012286949 0 -0.0009381908366589731 0.0042050517191752892 0 -0.00068240164862686794 0.0044217446037530979 0 -0.001276410165167857 0.0040959859072120441 0 -0.0009381908366589731 0.0042050517191752892 0 -0.0012773330391618036 0.0046280344555658095 0 -0.0009381908366589731 0.0042050517191752892 0 -0.0012773330391618036 0.0046280344555658095 0 -0.00068240164862686794 0.0044217446037530979 0 0.0018735003388762718 -0.0027390573712334928 0 0.0019167839840855182 -0.00091086914384499171 0 -0.0012773330391618036 0.0046280344555658095 0 -0.00065843002053096679 0.004723647312072048 0 -0.00068240164862686794 0.0044217446037530979 0 0.0012771805852373162 -0.0040028501571306701 0 0.0023058014822707898 -0.0033321043517692498 0 0.0019132346175422111 -0.0030576236234978699 0 0.00072159417853445381 -0.0025260290357174246 0 0.0018735003388762718 -0.0027390573712334928 0 0.0011416480943187313 -0.0045128105382268215 0 0.0018735003388762718 -0.0027390573712334928 0 0.0014895318079845153 -0.0074708256455266863 0 0.0016864193653579654 -0.0078067899830753023 0 0.0019332006611139782 -0.0073341182388089489 0 0.0018735003388762718 -0.0027390573712334928 0 0.0018762191292882033 -0.0027494860212501967 0 0.0019132346175422111 -0.0030576236234978699 0 0.0021779818045431286 -0.0024417125044833886 0 0.0014963946270167634 -0.0025311010879531968 0 0.0019132346175422111 -0.0030576236234978699 0 0.0021779818045431286 -0.0024417125044833886 0 0.0024026784876846107 -0.0030273683513356493 0 0.0023058014822707898 -0.0033321043517692498 0 0.0019132346175422111 -0.0030576236234978699 0 0.0024026784876846107 -0.0030273683513356493 0 0.0022592395294965158 -0.0033178627220464322 0 0.0024026784876846107 -0.0030273683513356493 0 0.0034273643757423483 -0.002904004610488431 0 0.0028697263609053173 -0.0025996998441361408 0 0.0024026784876846107 -0.0030273683513356493 0 0.0034273643757423483 -0.002904004610488431 0 0.0021779818045431286 -0.0024417125044833886 0 0.0028697263609053173 -0.0025996998441361408 0 0.0024026784876846107 -0.0030273683513356493 0 0.0021779818045431286 -0.0024417125044833886 0 0.0028697263609053173 -0.0025996998441361408 0 0.0026045754916280768 -0.0018559577987950087 0 0.0019167839840855182 -0.00091086914384499171 0 0.0023564623945136571 0.00027869575260529642 0 0.0028697263609053173 -0.0025996998441361408 0 0.0043257053914410471 -0.0020949683847092892 0 0.0026045754916280768 -0.0018559577987950087 0 0.0028697263609053173 -0.0025996998441361408 0 0.0034273643757423483 -0.002904004610488431 0 0.0043257053914410471 -0.0020949683847092892 0 0.0034273643757423483 -0.002904004610488431 0 0.0043257053914410471 -0.0020949683847092892 0 0.0046785920349061523 -0.0025290619672005024 0 -0.00065843002053096679 0.004723647312072048 0 -0.00032076297226302686 0.0045105031130272012 0 -0.00017334146096125816 0.0047904014990568086 0 -0.00065843002053096679 0.004723647312072048 0 -0.00068240164862686794 0.0044217446037530979 0 -0.00032076297226302686 0.0045105031130272012 0 -0.00044210761370277969 0.0043035320849824123 0 -0.00068240164862686794 0.0044217446037530979 0 -0.00032076297226302686 0.0045105031130272012 0 -0.00027788431629225947 0.0042468558174234301 0 -0.00044210761370277969 0.0043035320849824123 0 -0.00032076297226302686 0.0045105031130272012 0 7.0437220730713984e-05 0.0044259454546512443 0 -0.00012568397184491444 0.0043348265792134168 0 -0.00010331395710973453 0.0045361986350323947 0 -0.00027788431629225947 0.0042468558174234301 0 -0.00012568397184491444 0.0043348265792134168 0 -0.00032076297226302686 0.0045105031130272012 0 -0.00012568397184491444 0.0043348265792134168 0 -0.00032076297226302686 0.0045105031130272012 0 -0.00010331395710973453 0.0045361986350323947 0 -0.00032076297226302686 0.0045105031130272012 0 -0.00010331395710973453 0.0045361986350323947 0 -0.00017334146096125816 0.0047904014990568086 0 6.5171729287298415e-05 0.0046412545040901637 0 -0.00010331395710973453 0.0045361986350323947 0 -0.00017334146096125816 0.0047904014990568086 0 0.0027479719173831435 0.0011236800338927761 0 0.0031337674840786456 -9.4483312478104152e-05 0 0.0058061600243263164 -0.0022237343649591907 0 0.0043257053914410471 -0.0020949683847092892 0 0.0046785920349061523 -0.0025290619672005024 0 0.0026764885968823221 -0.00058164328760442797 0 0.0026038927836152088 -0.0002744811597477327 0 0.0026465157916752699 -0.00060118843898543514 0 0.0025270974676060297 0.00015171525195516107 0 0.0026764885968823221 -0.00058164328760442797 0 0.0026038927836152088 -0.0002744811597477327 0 0.0026038927836152088 -0.0002744811597477327 0 0.0026004871487321853 -0.00032224803678374204 0 0.0026465157916752699 -0.00060118843898543514 0 0.0031337674840786456 -9.4483312478104152e-05 0 0.0028384587753311698 -0.00045588231806208335 0 0.0026764885968823221 -0.00058164328760442797 0 0.0026601704385524894 -0.001025098106365574 0 0.0026465157916752699 -0.00060118843898543514 0 0.0026764885968823221 -0.00058164328760442797 0 0.0026601704385524894 -0.001025098106365574 0 0.0026045754916280768 -0.0018559577987950087 0 0.0025850390911569708 -0.00075585138772589239 0 0.0026465157916752699 -0.00060118843898543514 0 0.0025832282383577692 -0.00046557541077098659 0 0.0026601704385524894 -0.001025098106365574 0 0.0025850390911569708 -0.00075585138772589239 0 0.0026465157916752699 -0.00060118843898543514 0 0.0026601704385524894 -0.001025098106365574 0 0.0025850390911569708 -0.00075585138772589239 0 0.002496829275278467 -0.0012842919049720863 0 0.0025377726798869855 -0.00020148203709602488 0 0.0026004871487321853 -0.00032224803678374204 0 0.0025832282383577692 -0.00046557541077098659 0 0.0026004871487321853 -0.00032224803678374204 0 0.0026465157916752699 -0.00060118843898543514 0 0.0025832282383577692 -0.00046557541077098659 0 0.0025377726798869855 -0.00020148203709602488 0 0.0025832282383577692 -0.00046557541077098659 0 0.0025009242628048402 -0.00049782016059128176 0 0.0025377726798869855 -0.00020148203709602488 0 0.0024626010629774306 -0.00047088899024816031 0 0.0025009242628048402 -0.00049782016059128176 0 0.0025850390911569708 -0.00075585138772589239 0 0.0025832282383577692 -0.00046557541077098659 0 0.0025009242628048402 -0.00049782016059128176 0 0.0025850390911569708 -0.00075585138772589239 0 0.0025009242628048402 -0.00049782016059128176 0 0.0023434565955110149 -0.0007255021626227145 0 0.0012686868226451072 -0.0025816457970934343 0 -0.00034590357283020227 -0.0040479008632923691 0 3.3604311580080508e-05 -0.0025136935102507123 0 0.0014696733951429315 -0.001706616156963553 0 0.0008061250200016841 -0.0022430452102515847 0 0.0023818089938966334 -0.00050867764753285603 0 0.0023434565955110149 -0.0007255021626227145 0 0.0018283313404302759 -0.00061122477131897402 0 0.0025009242628048402 -0.00049782016059128176 0 0.0023818089938966334 -0.00050867764753285603 0 0.0023434565955110149 -0.0007255021626227145 0 0.0023434565955110149 -0.0007255021626227145 0 0.0018642240994203244 -0.0010791480659288666 0 0.0022516696718375435 -0.0011602525150281259 0 0.0023434565955110149 -0.0007255021626227145 0 0.0018642240994203244 -0.0010791480659288666 0 0.0018283313404302759 -0.00061122477131897402 0 0.0022516696718375435 -0.0011602525150281259 0 0.0020862498617316462 -0.0018239350276871632 0 0.001637981195891762 -0.0016924603076037251 0 0.0018642240994203244 -0.0010791480659288666 0 0.0022516696718375435 -0.0011602525150281259 0 0.001637981195891762 -0.0016924603076037251 0 0.0022516696718375435 -0.0011602525150281259 0 0.002496829275278467 -0.0012842919049720863 0 0.0020862498617316462 -0.0018239350276871632 0 0.0025850390911569708 -0.00075585138772589239 0 0.0023434565955110149 -0.0007255021626227145 0 0.0022516696718375435 -0.0011602525150281259 0 0.0025850390911569708 -0.00075585138772589239 0 0.0022516696718375435 -0.0011602525150281259 0 0.002496829275278467 -0.0012842919049720863 0 0.0026601704385524894 -0.001025098106365574 0 0.002496829275278467 -0.0012842919049720863 0 0.0026045754916280768 -0.0018559577987950087 0 0.002496829275278467 -0.0012842919049720863 0 0.0026045754916280768 -0.0018559577987950087 0 0.0020862498617316462 -0.0018239350276871632 0 0.0021779818045431286 -0.0024417125044833886 0 0.0020862498617316462 -0.0018239350276871632 0 0.0014963946270167634 -0.0025311010879531968 0 0.0021779818045431286 -0.0024417125044833886 0 0.0026045754916280768 -0.0018559577987950087 0 0.0020862498617316462 -0.0018239350276871632 0 0.0020862498617316462 -0.0018239350276871632 0 0.0014963946270167634 -0.0025311010879531968 0 0.001637981195891762 -0.0016924603076037251 0 0.0014963946270167634 -0.0025311010879531968 0 0.00093275627847294845 -0.0022858440273892558 0 0.001637981195891762 -0.0016924603076037251 0 0.00059941075384118065 -0.0032822540380761556 0 0.0014963946270167634 -0.0025311010879531968 0 0.00093275627847294845 -0.0022858440273892558 0 0.00059941075384118065 -0.0032822540380761556 0 0.00093275627847294845 -0.0022858440273892558 0 -4.7388680136654225e-05 -0.0025754310885124734 0 0.00021393978812683166 -0.0027256359420010728 0 -0.00016067569156788701 -0.0031456023531361414 0 0.00093275627847294845 -0.0022858440273892558 0 0.00088798871380772835 -0.001306204241002751 0 -4.7388680136654225e-05 -0.0025754310885124734 0 0.0018642240994203244 -0.0010791480659288666 0 0.00088798871380772835 -0.001306204241002751 0 0.001637981195891762 -0.0016924603076037251 0 0.00093275627847294845 -0.0022858440273892558 0 0.00088798871380772835 -0.001306204241002751 0 0.001637981195891762 -0.0016924603076037251 0 -0.00048196082944766943 -0.0042796512494626664 0 -0.00060095928202753585 -0.0037025308048304539 0 -0.00056011248798519563 -0.0037080569931315418 0 -4.8102571330858472e-05 -0.0036115860695022182 0 -0.00048196082944766943 -0.0042796512494626664 0 -4.7388680136654225e-05 -0.0025754310885124734 0 -0.00035993307547067609 -0.0034265149017086846 0 -0.00016067569156788701 -0.0031456023531361414 0 0.00059941075384118065 -0.0032822540380761556 0 -4.8102571330858472e-05 -0.0036115860695022182 0 -4.7388680136654225e-05 -0.0025754310885124734 0 -0.0011243465654760538 -0.0040715440651012584 0 -0.00056011248798519563 -0.0037080569931315418 0 -0.00078170411848725 -0.0040428388797629613 0 -0.00056011248798519563 -0.0037080569931315418 0 -0.00052334701735267514 -0.003841604163164931 0 -0.00078170411848725 -0.0040428388797629613 0 -0.00034228498645443934 -0.005427211691094308 0 -0.00026245955899384128 -0.0057549848599649659 0 -0.00060095928202753585 -0.0037025308048304539 0 -0.00052334701735267514 -0.003841604163164931 0 -0.00022521266974180997 -0.0040730693840547866 0 -0.00060095928202753585 -0.0037025308048304539 0 -0.00056011248798519563 -0.0037080569931315418 0 -0.00052334701735267514 -0.003841604163164931 0 -0.00052334701735267514 -0.003841604163164931 0 -0.00022521266974180997 -0.0040730693840547866 0 -0.00078170411848725 -0.0040428388797629613 0 -0.00022521266974180997 -0.0040730693840547866 0 -0.00078170411848725 -0.0040428388797629613 0 -0.00072523868663297185 -0.0045369934820404349 0 -0.00078170411848725 -0.0040428388797629613 0 -0.00072523868663297185 -0.0045369934820404349 0 -0.0012953676941308721 -0.0040064409352723093 0 -0.00022521266974180997 -0.0040730693840547866 0 -0.00072523868663297185 -0.0045369934820404349 0 2.1846535713220038e-05 -0.0050328900100363727 0 -0.00026245955899384128 -0.0057549848599649659 0 -0.00020039136395791869 -0.0061115242633825693 0 -0.0011243465654760538 -0.0040715440651012584 0 -0.00034590357283020227 -0.0040479008632923691 0 -0.0012953676941308721 -0.0040064409352723093 0 0.00021393978812683166 -0.0027256359420010728 0 0.0008061250200016841 -0.0022430452102515847 0 0.0018642240994203244 -0.0010791480659288666 0 0.00088798871380772835 -0.001306204241002751 0 0.0018283313404302759 -0.00061122477131897402 0 -0.0011243465654760538 -0.0040715440651012584 0 -0.00078170411848725 -0.0040428388797629613 0 -0.0012953676941308721 -0.0040064409352723093 0 -0.00072523868663297185 -0.0045369934820404349 0 -0.0012953676941308721 -0.0040064409352723093 0 -0.0011910887855533505 -0.0048667785002408665 0 -0.001293187732158724 -0.0039594871228456193 0 -0.0012814089518453817 -0.0039841738538762732 0 -0.0012953676941308721 -0.0040064409352723093 0 -0.0019172107757939247 -0.005413455212274999 0 -0.0011910887855533505 -0.0048667785002408665 0 -0.00034590357283020227 -0.0040479008632923691 0 -0.0012953676941308721 -0.0040064409352723093 0 3.3604311580080508e-05 -0.0025136935102507123 0 -0.0012953676941308721 -0.0040064409352723093 0 -0.0010180252184769779 -0.0019334168887138034 0 3.3604311580080508e-05 -0.0025136935102507123 0 -0.0010180252184769779 -0.0019334168887138034 0 3.3604311580080508e-05 -0.0025136935102507123 0 0.00012159927683759813 -0.0011861635985120054 0 -0.0011910887855533505 -0.0048667785002408665 0 -0.0012441350545668299 -0.0058531622588024407 0 -0.00076432237252933692 -0.0053721537906230273 0 -0.0019172107757939247 -0.005413455212274999 0 -0.0011910887855533505 -0.0048667785002408665 0 -0.0012441350545668299 -0.0058531622588024407 0 -0.0012441350545668299 -0.0058531622588024407 0 -0.0017184795837267835 -0.0062226727588252321 0 -0.001256590388211335 -0.0066682918758308044 0 -0.0019172107757939247 -0.005413455212274999 0 -0.0012441350545668299 -0.0058531622588024407 0 -0.0017184795837267835 -0.0062226727588252321 0 -0.0010180252184769779 -0.0019334168887138034 0 -0.00043994877082985552 -0.00037998662284813387 0 0.00012159927683759813 -0.0011861635985120054 0 -0.0012814089518453817 -0.0039841738538762732 0 -0.0012942495053013959 -0.004521946964369335 0 -0.0019172107757939247 -0.005413455212274999 0 -0.0017184795837267835 -0.0062226727588252321 0 -0.0021526726176295638 -0.0066268314251805988 0 -0.0017184795837267835 -0.0062226727588252321 0 -0.0019635320742273214 -0.0065596810991134383 0 -0.0016738422781925589 -0.0065997885734669524 0 -0.0014717407869494475 -0.0047503718076610133 0 -0.0012942495053013959 -0.004521946964369335 0 -0.00043994877082985552 -0.00037998662284813387 0 0.00052173314848605844 -0.00039908806488143819 0 0.00012159927683759813 -0.0011861635985120054 0 -0.00072523868663297185 -0.0045369934820404349 0 2.1846535713220038e-05 -0.0050328900100363727 0 -0.00076432237252933692 -0.0053721537906230273 0 2.1846535713220038e-05 -0.0050328900100363727 0 -0.00076432237252933692 -0.0053721537906230273 0 -0.00069073724185864062 -0.0062228470143918064 0 -0.00072523868663297185 -0.0045369934820404349 0 -0.0011910887855533505 -0.0048667785002408665 0 -0.00076432237252933692 -0.0053721537906230273 0 -0.00069073724185864062 -0.0062228470143918064 0 -0.00015490948782605627 -0.0067269239008445284 0 -0.0006447798462950958 -0.0069162920210063374 0 -0.0012441350545668299 -0.0058531622588024407 0 -0.00069073724185864062 -0.0062228470143918064 0 -0.001256590388211335 -0.0066682918758308044 0 -0.0012441350545668299 -0.0058531622588024407 0 -0.00076432237252933692 -0.0053721537906230273 0 -0.00069073724185864062 -0.0062228470143918064 0 -0.00020039136395791869 -0.0061115242633825693 0 -0.00019661768012359081 -0.0063717078054900365 0 2.1846535713220038e-05 -0.0050328900100363727 0 -0.00069073724185864062 -0.0062228470143918064 0 -0.00015490948782605627 -0.0067269239008445284 0 -0.00012092760550017457 -0.0070986349389064365 0 -0.00015490948782605627 -0.0067269239008445284 0 -0.00020757605386997693 -0.0069126083354504719 0 -0.00015490948782605627 -0.0067269239008445284 0 -0.00016874798701956584 -0.0070589021342588347 0 -0.00020757605386997693 -0.0069126083354504719 0 -0.00015490948782605627 -0.0067269239008445284 0 -0.00016874798701956584 -0.0070589021342588347 0 -0.0006447798462950958 -0.0069162920210063374 0 -0.00016874798701956584 -0.0070589021342588347 0 -0.0006447798462950958 -0.0069162920210063374 0 -0.00050025453129765496 -0.0072917394330956221 0 -0.00069073724185864062 -0.0062228470143918064 0 -0.0006447798462950958 -0.0069162920210063374 0 -0.001256590388211335 -0.0066682918758308044 0 -0.0006447798462950958 -0.0069162920210063374 0 -0.001256590388211335 -0.0066682918758308044 0 -0.0011114650328686161 -0.0072206884605084485 0 -0.0008680510930670017 -0.0073850710485214499 0 -0.00050025453129765496 -0.0072917394330956221 0 -0.00031793047101681806 -0.0078352060756587821 0 -0.0006447798462950958 -0.0069162920210063374 0 -0.0008680510930670017 -0.0073850710485214499 0 -0.0011114650328686161 -0.0072206884605084485 0 -0.0008680510930670017 -0.0073850710485214499 0 -0.0011745197053460372 -0.0075420361236593859 0 -0.00098062979824318727 -0.007871959909576844 0 -0.0008680510930670017 -0.0073850710485214499 0 -0.0011114650328686161 -0.0072206884605084485 0 -0.0011745197053460372 -0.0075420361236593859 0 -0.0006447798462950958 -0.0069162920210063374 0 -0.0008680510930670017 -0.0073850710485214499 0 -0.00050025453129765496 -0.0072917394330956221 0 -0.00016874798701956584 -0.0070589021342588347 0 -0.00024313708947522702 -0.0070751104923662371 0 -0.00016630730400390647 -0.0069992787836702184 0 -0.00058082728663965051 -0.0076692744814695667 0 -0.00083424296656226091 -0.0084335720852890105 0 -0.00016874798701956584 -0.0070589021342588347 0 -0.00050025453129765496 -0.0072917394330956221 0 -0.00031793047101681806 -0.0078352060756587821 0 -0.0015552073648828122 -0.0054526886080971315 0 -0.0017955487387669492 -0.0065386176937452479 0 -0.0024344488908789159 -0.0062773847345889439 0 -0.0012942495053013959 -0.004521946964369335 0 -0.0017681767805258124 -0.0064383837392729274 0 -0.0017259451595401138 -0.0069209575514969637 0 -0.0019635320742273214 -0.0065596810991134383 0 -0.0020562863713822887 -0.0072669968589588515 0 -0.0017259451595401138 -0.0069209575514969637 0 -0.0019635320742273214 -0.0065596810991134383 0 -0.0016738422781925589 -0.0065997885734669524 0 -0.0017259451595401138 -0.0069209575514969637 0 -0.0016738422781925589 -0.0065997885734669524 0 -0.001256590388211335 -0.0066682918758308044 0 -0.0017259451595401138 -0.0069209575514969637 0 -0.001256590388211335 -0.0066682918758308044 0 -0.0016870189484398121 -0.007449563963914798 0 -0.0017184795837267835 -0.0062226727588252321 0 -0.0016738422781925589 -0.0065997885734669524 0 -0.001256590388211335 -0.0066682918758308044 0 -0.001256590388211335 -0.0066682918758308044 0 -0.0011114650328686161 -0.0072206884605084485 0 -0.0015891173250677368 -0.0075842408335548318 0 -0.001458501618893058 -0.0071310765852358408 0 -0.0016508381591291029 -0.0075650794375323217 0 -0.0011114650328686161 -0.0072206884605084485 0 -0.0011745197053460372 -0.0075420361236593859 0 -0.0015891173250677368 -0.0075842408335548318 0 -0.0011745197053460372 -0.0075420361236593859 0 -0.0015891173250677368 -0.0075842408335548318 0 -0.001305690656025088 -0.0077668162028530739 0 -0.0017259451595401138 -0.0069209575514969637 0 -0.0016870189484398121 -0.007449563963914798 0 -0.0020562863713822887 -0.0072669968589588515 0 -0.0017955487387669492 -0.0065386176937452479 0 -0.0024344488908789159 -0.0062773847345889439 0 -0.0024587778097159784 -0.0070116773877652236 0 -0.0024344488908789159 -0.0062773847345889439 0 -0.0024587778097159784 -0.0070116773877652236 0 -0.0032703121616176473 -0.0070899639095839137 0 -0.00043994877082985552 -0.00037998662284813387 0 0.00077537261010990875 0.00027138592417252379 0 0.00052173314848605844 -0.00039908806488143819 0 -0.0012942495053013959 -0.004521946964369335 0 -0.00088547768680223343 -0.0036268232105718073 0 0.00077537261010990875 0.00027138592417252379 0 0.00052173314848605844 -0.00039908806488143819 0 0.0011919865575141686 -0.00016666505101320302 0 0.00052173314848605844 -0.00039908806488143819 0 0.0011919865575141686 -0.00016666505101320302 0 0.00084296510895309588 -0.00072031290479812702 0 0.00077537261010990875 0.00027138592417252379 0 0.0011919865575141686 -0.00016666505101320302 0 0.0014762604249384267 0.00014229418014521315 0 0.0011919865575141686 -0.00016666505101320302 0 0.0018389438157927426 -0.00017260282087484881 0 0.0016935856902415968 -0.0005791283904929451 0 0.0011919865575141686 -0.00016666505101320302 0 0.0014762604249384267 0.00014229418014521315 0 0.0018389438157927426 -0.00017260282087484881 0 0.0011919865575141686 -0.00016666505101320302 0 0.00084296510895309588 -0.00072031290479812702 0 0.0016935856902415968 -0.0005791283904929451 0 0.0014762604249384267 0.00014229418014521315 0 0.0019426982212684234 0.0001620319328017453 0 0.0015082223731785586 0.00055884227443961832 0 -0.00088547768680223343 -0.0036268232105718073 0 -0.00097771819806261756 -0.0034698387829280829 0 0.00077537261010990875 0.00027138592417252379 0 0.0014762604249384267 0.00014229418014521315 0 0.0015082223731785586 0.00055884227443961832 0 0.0019426982212684234 0.0001620319328017453 0 0.0015082223731785586 0.00055884227443961832 0 0.0019358873184866716 0.00046752533622326206 0 0.0019426982212684234 0.0001620319328017453 0 0.0022538285359801624 0.00020710869424149189 0 0.0019358873184866716 0.00046752533622326206 0 0.0014762604249384267 0.00014229418014521315 0 0.0019426982212684234 0.0001620319328017453 0 0.0018389438157927426 -0.00017260282087484881 0 0.0023703911452298242 0.0001930291221450688 0 0.0022538285359801624 0.00020710869424149189 0 0.0023066932336068689 0.00041054491436405891 0 0.0023703911452298242 0.0001930291221450688 0 0.0022538285359801624 0.00020710869424149189 0 0.0024009742301695524 -7.7057530978471757e-06 0 0.0025096513998847884 0.00018622328779885813 0 0.0023703911452298242 0.0001930291221450688 0 0.0024009742301695524 -7.7057530978471757e-06 0 0.0019426982212684234 0.0001620319328017453 0 0.0022538285359801624 0.00020710869424149189 0 0.0022636550249389618 -5.3326165398774752e-05 0 0.0019426982212684234 0.0001620319328017453 0 0.0022636550249389618 -5.3326165398774752e-05 0 0.0022065826414360695 -0.00019740774054213529 0 0.0022538285359801624 0.00020710869424149189 0 0.0022636550249389618 -5.3326165398774752e-05 0 0.0024009742301695524 -7.7057530978471757e-06 0 0.0022636550249389618 -5.3326165398774752e-05 0 0.0024009742301695524 -7.7057530978471757e-06 0 0.0023885033742003111 -0.00032864429700822228 0 0.0022636550249389618 -5.3326165398774752e-05 0 0.0022065826414360695 -0.00019740774054213529 0 0.0023885033742003111 -0.00032864429700822228 0 0.0022065826414360695 -0.00019740774054213529 0 0.0023885033742003111 -0.00032864429700822228 0 0.0022892243588165315 -0.00049601267699621505 0 0.0018389438157927426 -0.00017260282087484881 0 0.0022892243588165315 -0.00049601267699621505 0 0.0016935856902415968 -0.0005791283904929451 0 0.0019426982212684234 0.0001620319328017453 0 0.0022065826414360695 -0.00019740774054213529 0 0.0018389438157927426 -0.00017260282087484881 0 0.0022065826414360695 -0.00019740774054213529 0 0.0018389438157927426 -0.00017260282087484881 0 0.0022892243588165315 -0.00049601267699621505 0 0.0022892243588165315 -0.00049601267699621505 0 0.0022837320336542184 -0.00079596528677484675 0 0.0016935856902415968 -0.0005791283904929451 0 0.0024626010629774306 -0.00047088899024816031 0 0.0022892243588165315 -0.00049601267699621505 0 0.0022837320336542184 -0.00079596528677484675 0 0.0024626010629774306 -0.00047088899024816031 0 0.0023885033742003111 -0.00032864429700822228 0 0.0022892243588165315 -0.00049601267699621505 0 0.0024626010629774306 -0.00047088899024816031 0 0.0025009242628048402 -0.00049782016059128176 0 0.0022837320336542184 -0.00079596528677484675 0 0.0025009242628048402 -0.00049782016059128176 0 0.0023818089938966334 -0.00050867764753285603 0 0.0022837320336542184 -0.00079596528677484675 0 0.0012686868226451072 -0.0025816457970934343 0 0.0022837320336542184 -0.00079596528677484675 0 0.0010966781260883809 -0.0013375021930702932 0 0.0014696733951429315 -0.001706616156963553 0 0.0017926438206217405 -0.0014179877768097874 0 0.0012686868226451072 -0.0025816457970934343 0 0.0010966781260883809 -0.0013375021930702932 0 3.3604311580080508e-05 -0.0025136935102507123 0 0.0010966781260883809 -0.0013375021930702932 0 3.3604311580080508e-05 -0.0025136935102507123 0 0.00012159927683759813 -0.0011861635985120054 0 0.0010966781260883809 -0.0013375021930702932 0 0.00012159927683759813 -0.0011861635985120054 0 0.00084296510895309588 -0.00072031290479812702 0 0.00052173314848605844 -0.00039908806488143819 0 0.00012159927683759813 -0.0011861635985120054 0 0.00084296510895309588 -0.00072031290479812702 0 0.0010966781260883809 -0.0013375021930702932 0 0.00084296510895309588 -0.00072031290479812702 0 0.0016935856902415968 -0.0005791283904929451 0 0.0022837320336542184 -0.00079596528677484675 0 0.0010966781260883809 -0.0013375021930702932 0 0.0016935856902415968 -0.0005791283904929451 0 0.0019614823950523247 -0.0071204017818337429 0 0.0030440866074412224 -0.006854100623143935 0 0.0028954205937899045 -0.0078765677653827148 0 0.0019614823950523247 -0.0071204017818337429 0 0.0028954205937899045 -0.0078765677653827148 0 0.0020437797877156409 -0.0079354486303364058 0 0.0019614823950523247 -0.0071204017818337429 0 0.0020437797877156409 -0.0079354486303364058 0 0.0013184535199821639 -0.0077911912215940359 0 -0.00036958070804873715 -0.0071036154968985837 0 -0.00041673818937744867 -0.0071984648727556402 0 -0.00028348577012263221 -0.0071710384803567607 0 0.0010267792801401374 -0.0080510819030845688 0 0.0017540472243335063 -0.009248379917469263 0 -0.00041673818937744867 -0.0071984648727556402 0 -0.00052613057956818682 -0.0071908038089456361 0 -0.0004802213334444117 -0.0072659669943156554 0 -0.00036958070804873715 -0.0071036154968985837 0 -0.00041673818937744867 -0.0071984648727556402 0 -0.00052613057956818682 -0.0071908038089456361 0 0.00097894008777334326 -0.01237643155240104 0 0.00079804668473189104 -0.012770346535046577 0 0.00074509684310694125 -0.012505439065360776 0 0.0030440866074412224 -0.006854100623143935 0 0.0034242273013836734 -0.0071752825546556199 0 0.0039201042880861918 -0.0066213715172449205 0 0.0017540472243335063 -0.009248379917469263 0 0.001791025447878445 -0.012659452620361914 0 0.0023512970454641134 -0.010734023145444981 0 0.001791025447878445 -0.012659452620361914 0 0.00097894008777334326 -0.01237643155240104 0 0.00074509684310694125 -0.012505439065360776 0 0.00075848501043646044 -0.012231443707423286 0 0.00097894008777334326 -0.01237643155240104 0 0.00090376470047755968 -0.012158745591503019 0 0.00075848501043646044 -0.012231443707423286 0 0.0030440866074412224 -0.006854100623143935 0 0.0034242273013836734 -0.0071752825546556199 0 0.0028954205937899045 -0.0078765677653827148 0 0.00097894008777334326 -0.01237643155240104 0 0.00090376470047755968 -0.012158745591503019 0 0.0010137642724329574 -0.012102242788809715 0 0.0023512970454641134 -0.010734023145444981 0 0.0020774734038568128 -0.010403910702679863 0 0.00090620210661720155 -0.012054825659381325 0 0.00090376470047755968 -0.012158745591503019 0 0.0010137642724329574 -0.012102242788809715 0 0.00090620210661720155 -0.012054825659381325 0 0.00094122913335147474 -0.011949503165705082 0 0.0010137642724329574 -0.012102242788809715 0 0.00090376470047755968 -0.012158745591503019 0 0.00075848501043646044 -0.012231443707423286 0 0.00081775452850575616 -0.012107309857529681 0 0.00090620210661720155 -0.012054825659381325 0 0.00090376470047755968 -0.012158745591503019 0 0.00081775452850575616 -0.012107309857529681 0 0.00090620210661720155 -0.012054825659381325 0 0.00087395110076457104 -0.011997932609987844 0 0.00081775452850575616 -0.012107309857529681 0 0.00087395110076457104 -0.011997932609987844 0 0.00094122913335147474 -0.011949503165705082 0 0.00091763326178458332 -0.011910876127701239 0 0.00090620210661720155 -0.012054825659381325 0 0.00087395110076457104 -0.011997932609987844 0 0.00094122913335147474 -0.011949503165705082 0 0.00094122913335147474 -0.011949503165705082 0 0.0010137642724329574 -0.012102242788809715 0 0.00097682276095973231 -0.011866429489232879 0 0.00094122913335147474 -0.011949503165705082 0 0.00097682276095973231 -0.011866429489232879 0 0.00093572119243435831 -0.011800120566824735 0 0.0020774734038568128 -0.010403910702679863 0 0.0016570148370586518 -0.010552855220661879 0 0.0028954205937899045 -0.0078765677653827148 0 0.0020437797877156409 -0.0079354486303364058 0 0.0023004078276824625 -0.0087621246048940719 0 0.0020437797877156409 -0.0079354486303364058 0 0.0023004078276824625 -0.0087621246048940719 0 0.0013560219273074624 -0.0084133075167264291 0 0.0023004078276824625 -0.0087621246048940719 0 0.0013560219273074624 -0.0084133075167264291 0 0.0015831746052357442 -0.0098627258223928059 0 0.0013560219273074624 -0.0084133075167264291 0 0.00046362067402987649 -0.0089961582415990816 0 0.0015831746052357442 -0.0098627258223928059 0 0.0013560219273074624 -0.0084133075167264291 0 0.00046362067402987649 -0.0089961582415990816 0 0.00056737161793153049 -0.0080590177970752842 0 0.00046362067402987649 -0.0089961582415990816 0 0.00056737161793153049 -0.0080590177970752842 0 -9.1980365105586047e-05 -0.0084556307974865703 0 0.00056737161793153049 -0.0080590177970752842 0 0.0013184535199821639 -0.0077911912215940359 0 0.00054199417352298153 -0.0074725928631701796 0 0.00056737161793153049 -0.0080590177970752842 0 0.00013057306744353146 -0.0073367736418341063 0 0.00054199417352298153 -0.0074725928631701796 0 0.0013560219273074624 -0.0084133075167264291 0 0.00056737161793153049 -0.0080590177970752842 0 0.0013184535199821639 -0.0077911912215940359 0 0.0020437797877156409 -0.0079354486303364058 0 0.0013560219273074624 -0.0084133075167264291 0 0.0013184535199821639 -0.0077911912215940359 0 -0.0012078679918248354 -0.0086133060204354756 0 -0.0021281379183972601 -0.0096807549706467207 0 -0.0006329945177997678 -0.0093374742715416417 0 -0.00051893642191302666 -0.0079591439678431217 0 -0.00083424296656226091 -0.0084335720852890105 0 0.00046362067402987649 -0.0089961582415990816 0 -9.1980365105586047e-05 -0.0084556307974865703 0 -0.0006329945177997678 -0.0093374742715416417 0 -0.0012078679918248354 -0.0086133060204354756 0 -9.1980365105586047e-05 -0.0084556307974865703 0 -0.0006329945177997678 -0.0093374742715416417 0 0.00056737161793153049 -0.0080590177970752842 0 -9.1980365105586047e-05 -0.0084556307974865703 0 0.00013057306744353146 -0.0073367736418341063 0 1.8088067042157836e-05 -0.0075953659044152837 0 0.00032991419144611319 -0.0076795148829201954 0 -0.00024313708947522702 -0.0070751104923662371 0 0.00013057306744353146 -0.0073367736418341063 0 -0.00021415657625827036 -0.0071068221142041475 0 0.00013057306744353146 -0.0073367736418341063 0 -0.00021415657625827036 -0.0071068221142041475 0 0.00054199417352298153 -0.0074725928631701796 0 -0.0012078679918248354 -0.0086133060204354756 0 -9.1980365105586047e-05 -0.0084556307974865703 0 0.00013057306744353146 -0.0073367736418341063 0 -0.00051893642191302666 -0.0079591439678431217 0 -0.00024138496495379764 -0.0076607832773281865 0 -0.00016874798701956584 -0.0070589021342588347 0 -0.00021415657625827036 -0.0071068221142041475 0 -0.00020757605386997693 -0.0069126083354504719 0 -0.00016874798701956584 -0.0070589021342588347 0 -0.00024313708947522702 -0.0070751104923662371 0 -0.00021415657625827036 -0.0071068221142041475 0 -0.00021415657625827036 -0.0071068221142041475 0 -0.00020757605386997693 -0.0069126083354504719 0 -0.00022190092665359411 -0.0070302700750449008 0 -0.00020757605386997693 -0.0069126083354504719 0 -0.00022190092665359411 -0.0070302700750449008 0 -0.00022245165795938801 -0.0070372844946687161 0 -0.00022190092665359411 -0.0070302700750449008 0 -0.00022245165795938801 -0.0070372844946687161 0 -0.00024031810915575071 -0.0070704501216214124 0 -0.00021415657625827036 -0.0071068221142041475 0 -0.00022190092665359411 -0.0070302700750449008 0 -0.00023753529999445455 -0.0070378979410911603 0 -0.00023620162875490948 -0.0071060364489882559 0 -0.00022245165795938801 -0.0070372844946687161 0 -0.00024031810915575071 -0.0070704501216214124 0 -0.00023620162875490948 -0.0071060364489882559 0 -0.00024031810915575071 -0.0070704501216214124 0 -0.00026024381505414761 -0.0071319773165035988 0 -0.00023620162875490948 -0.0071060364489882559 0 -0.00022245165795938801 -0.0070372844946687161 0 -0.00019969335509138718 -0.0071609707771474332 0 -0.00012092760550017457 -0.0070986349389064365 0 -0.00020757605386997693 -0.0069126083354504719 0 -0.00022245165795938801 -0.0070372844946687161 0 -0.00012092760550017457 -0.0070986349389064365 0 -0.00022245165795938801 -0.0070372844946687161 0 -0.00019969335509138718 -0.0071609707771474332 0 0.0019614823950523247 -0.0071204017818337429 0 0.0013184535199821639 -0.0077911912215940359 0 0.00054199417352298153 -0.0074725928631701796 0 0.0010267792801401374 -0.0080510819030845688 0 0.00032991419144611319 -0.0076795148829201954 0 -0.00036958070804873715 -0.0071036154968985837 0 -0.00023753529999445455 -0.0070378979410911603 0 -0.00026920214834386889 -0.0070972979757334019 0 -0.00022190092665359411 -0.0070302700750449008 0 -0.00023753529999445455 -0.0070378979410911603 0 -0.00024031810915575071 -0.0070704501216214124 0 -0.00023753529999445455 -0.0070378979410911603 0 -0.00024031810915575071 -0.0070704501216214124 0 -0.00026920214834386889 -0.0070972979757334019 0 -0.00024031810915575071 -0.0070704501216214124 0 -0.00031673128843662555 -0.0071262122772548049 0 -0.00026024381505414761 -0.0071319773165035988 0 -0.00024031810915575071 -0.0070704501216214124 0 -0.00028348577012263221 -0.0071710384803567607 0 -0.00026920214834386889 -0.0070972979757334019 0 -0.00029125599547358581 -0.0071460327824128689 0 -0.00032422058911669104 -0.0071745578205707396 0 -0.00036958070804873715 -0.0071036154968985837 0 -0.00028348577012263221 -0.0071710384803567607 0 -0.00026920214834386889 -0.0070972979757334019 0 -0.00031673128843662555 -0.0071262122772548049 0 -0.00027304949014850456 -0.0072102395610637486 0 -0.00035025472807533097 -0.0072632876250306629 0 -0.00032422058911669104 -0.0071745578205707396 0 -0.0003935111437959711 -0.0072327666851988966 0 -0.00026024381505414761 -0.0071319773165035988 0 -0.00027304949014850456 -0.0072102395610637486 0 -0.00023839714950115871 -0.0071700736077765278 0 -0.00031673128843662555 -0.0071262122772548049 0 -0.00026024381505414761 -0.0071319773165035988 0 -0.00027304949014850456 -0.0072102395610637486 0 -0.00027304949014850456 -0.0072102395610637486 0 -0.00022631299790252591 -0.0072409431751098317 0 -0.00028090205659935181 -0.0072910512500455231 0 -0.00027304949014850456 -0.0072102395610637486 0 -0.00028090205659935181 -0.0072910512500455231 0 -0.00035025472807533097 -0.0072632876250306629 0 -0.00019295704216010806 -0.0072353880930380015 0 -0.00012092760550017457 -0.0070986349389064365 0 -0.00019969335509138718 -0.0071609707771474332 0 -0.00023620162875490948 -0.0071060364489882559 0 -0.00019969335509138718 -0.0071609707771474332 0 -0.00023839714950115871 -0.0071700736077765278 0 -0.00023620162875490948 -0.0071060364489882559 0 -0.00026024381505414761 -0.0071319773165035988 0 -0.00023839714950115871 -0.0071700736077765278 0 -0.00027304949014850456 -0.0072102395610637486 0 -0.00023839714950115871 -0.0071700736077765278 0 -0.00022631299790252591 -0.0072409431751098317 0 -0.00019969335509138718 -0.0071609707771474332 0 -0.00023839714950115871 -0.0071700736077765278 0 -0.00022631299790252591 -0.0072409431751098317 0 -0.00019295704216010806 -0.0072353880930380015 0 -0.00019969335509138718 -0.0071609707771474332 0 -0.00022631299790252591 -0.0072409431751098317 0 -0.00042492335665923617 -0.0072799292391204024 0 -0.00019295704216010806 -0.0072353880930380015 0 -0.00022690067486835449 -0.0072393615221037402 0 -0.00019295704216010806 -0.0072353880930380015 0 -0.00022631299790252591 -0.0072409431751098317 0 -0.00022690067486835449 -0.0072393615221037402 0 -0.00022631299790252591 -0.0072409431751098317 0 -0.00022690067486835449 -0.0072393615221037402 0 -0.00020798653718354153 -0.0072903424956218413 0 -0.00022690067486835449 -0.0072393615221037402 0 -0.00020917042399719852 -0.0070166664633946997 0 -0.00020798653718354153 -0.0072903424956218413 0 0.00013578593675641308 -0.0073861460287841241 0 0.00037000630337567087 -0.007493976458171233 0 -0.00020917042399719852 -0.0070166664633946997 0 0.0015123012744844805 -0.0068318680027294057 0 0.00062305494161715063 -0.0062668739555662746 0 -0.00020917042399719852 -0.0070166664633946997 0 -0.00014102061515857255 -0.0060579009421072999 0 0.00062305494161715063 -0.0062668739555662746 0 -0.00042492335665923617 -0.0072799292391204024 0 -0.00020917042399719852 -0.0070166664633946997 0 -0.00014102061515857255 -0.0060579009421072999 0 -0.00042492335665923617 -0.0072799292391204024 0 -0.00022690067486835449 -0.0072393615221037402 0 -0.00020917042399719852 -0.0070166664633946997 0 -0.00028090205659935181 -0.0072910512500455231 0 -0.00032489517907838852 -0.0074052611488873449 0 -0.00039116203115928568 -0.0073660588699559926 0 -0.00028090205659935181 -0.0072910512500455231 0 -0.00039116203115928568 -0.0073660588699559926 0 -0.00035025472807533097 -0.0072632876250306629 0 -0.00022631299790252591 -0.0072409431751098317 0 -0.00028090205659935181 -0.0072910512500455231 0 -0.00020798653718354153 -0.0072903424956218413 0 0.00037000630337567087 -0.007493976458171233 0 0.0002817178945647181 -0.0079281110506376571 0 -0.00028090205659935181 -0.0072910512500455231 0 -0.00020798653718354153 -0.0072903424956218413 0 -0.00032489517907838852 -0.0074052611488873449 0 0.0015123012744844805 -0.0068318680027294057 0 0.0013318674213925665 -0.0066957516402225484 0 0.0015352136666547207 -0.0070082050550682234 0 0.0013318674213925665 -0.0066957516402225484 0 -0.00032322573420011635 -0.0069611879144009722 0 0.00015717104246497379 -0.0074191738943976855 0 0.0002817178945647181 -0.0079281110506376571 0 -0.00034616842533254094 -0.008987032636238193 0 -0.00032489517907838852 -0.0074052611488873449 0 -0.00047213521566447152 -0.0075018542254248676 0 -0.00039116203115928568 -0.0073660588699559926 0 -0.00047213521566447152 -0.0075018542254248676 0 -0.00049596964785812996 -0.0074128367055554222 0 -0.00039116203115928568 -0.0073660588699559926 0 -0.00049596964785812996 -0.0074128367055554222 0 -0.00039116203115928568 -0.0073660588699559926 0 -0.00048516453340731886 -0.0072764335537830582 0 -0.00039116203115928568 -0.0073660588699559926 0 -0.00035025472807533097 -0.0072632876250306629 0 -0.00048516453340731886 -0.0072764335537830582 0 -0.00035025472807533097 -0.0072632876250306629 0 -0.00048516453340731886 -0.0072764335537830582 0 -0.00038837671847672886 -0.0071891256434854977 0 -0.00047061829918770853 -0.0072951711314150677 0 -0.0003935111437959711 -0.0072327666851988966 0 -0.00049224544287034433 -0.0073577431442055441 0 -0.0004802213334444117 -0.0072659669943156554 0 -0.00038210289711103438 -0.007272989783298745 0 -0.00041673818937744867 -0.0071984648727556402 0 -0.0004802213334444117 -0.0072659669943156554 0 -0.00038210289711103438 -0.007272989783298745 0 -0.00031673128843662555 -0.0071262122772548049 0 -0.00035025472807533097 -0.0072632876250306629 0 -0.00038837671847672886 -0.0071891256434854977 0 -0.00041673818937744867 -0.0071984648727556402 0 -0.00028348577012263221 -0.0071710384803567607 0 -0.00038210289711103438 -0.007272989783298745 0 -0.00057795111959606943 -0.0073101774326247478 0 -0.00066217007309271657 -0.0073737697945483235 0 -0.00067830147781720363 -0.0072744985287426399 0 -0.00052613057956818682 -0.0071908038089456361 0 -0.00057795111959606943 -0.0073101774326247478 0 -0.00067830147781720363 -0.0072744985287426399 0 -0.00052613057956818682 -0.0071908038089456361 0 -0.0004802213334444117 -0.0072659669943156554 0 -0.00057795111959606943 -0.0073101774326247478 0 -0.00049224544287034433 -0.0073577431442055441 0 -0.0004802213334444117 -0.0072659669943156554 0 -0.00057795111959606943 -0.0073101774326247478 0 -0.00049224544287034433 -0.0073577431442055441 0 -0.00057795111959606943 -0.0073101774326247478 0 -0.00059423753883721634 -0.0074171421019517013 0 -0.00047061829918770853 -0.0072951711314150677 0 -0.00051470623874333074 -0.0073301110491752527 0 -0.00057795111959606943 -0.0073101774326247478 0 -0.00066217007309271657 -0.0073737697945483235 0 -0.00059423753883721634 -0.0074171421019517013 0 -0.00066217007309271657 -0.0073737697945483235 0 -0.00059423753883721634 -0.0074171421019517013 0 -0.00070414310652086229 -0.0074751201303638977 0 -0.00059423753883721634 -0.0074171421019517013 0 -0.00064066605033924907 -0.0075026377726883356 0 -0.00070414310652086229 -0.0074751201303638977 0 -0.00059423753883721634 -0.0074171421019517013 0 -0.00056409788438108253 -0.0074838544549814005 0 -0.00064066605033924907 -0.0075026377726883356 0 -0.00049596964785812996 -0.0074128367055554222 0 -0.00059423753883721634 -0.0074171421019517013 0 -0.00056409788438108253 -0.0074838544549814005 0 -0.00049596964785812996 -0.0074128367055554222 0 -0.00048516453340731886 -0.0072764335537830582 0 -0.00059423753883721634 -0.0074171421019517013 0 -0.00047213521566447152 -0.0075018542254248676 0 -0.00049596964785812996 -0.0074128367055554222 0 -0.00056409788438108253 -0.0074838544549814005 0 -0.00032322573420011635 -0.0069611879144009722 0 -0.0022266730298394705 -0.0072930333797851096 0 -0.00098001485506836721 -0.0072252206383864089 0 -0.00034616842533254094 -0.008987032636238193 0 -0.0012070958773441459 -0.011288151238673879 0 -0.00047213521566447152 -0.0075018542254248676 0 -0.00056409788438108253 -0.0074838544549814005 0 -0.00063222183573860341 -0.007587357763655391 0 -0.00064066605033924907 -0.0075026377726883356 0 -0.00063222183573860341 -0.007587357763655391 0 -0.00071018183250908613 -0.0075576424895714969 0 -0.00056409788438108253 -0.0074838544549814005 0 -0.00064066605033924907 -0.0075026377726883356 0 -0.00063222183573860341 -0.007587357763655391 0 -0.0022266730298394705 -0.0072930333797851096 0 -0.0018625503467049073 -0.0087101946953173446 0 -0.003061707424904045 -0.0082890591986159428 0 -0.0017453688771697296 -0.008386743968604074 0 -0.0024730163021685066 -0.0096545397075122729 0 -0.0015884957632365776 -0.0093682029992869665 0 -0.00091622819734114987 -0.0098094204503465197 0 -0.0012610346993939974 -0.011738079197688966 0 -0.0018625503467049073 -0.0087101946953173446 0 -0.003061707424904045 -0.0082890591986159428 0 -0.0030357918829624249 -0.0090027453731551608 0 -0.0018625503467049073 -0.0087101946953173446 0 -0.0028632582338893511 -0.0101527418500083 0 -0.0030357918829624249 -0.0090027453731551608 0 -0.00098949191675995929 -0.0091889385406105015 0 -0.00096008361454887731 -0.0084018991142109905 0 -0.00048254286104816997 -0.0090494820540886756 0 -0.00098949191675995929 -0.0091889385406105015 0 -0.00096008361454887731 -0.0084018991142109905 0 -0.0015884957632365776 -0.0093682029992869665 0 -0.0017453688771697296 -0.008386743968604074 0 -0.00096008361454887731 -0.0084018991142109905 0 -0.0015884957632365776 -0.0093682029992869665 0 -0.0022266730298394705 -0.0072930333797851096 0 -0.0018625503467049073 -0.0087101946953173446 0 -0.00098001485506836721 -0.0072252206383864089 0 -0.00096008361454887731 -0.0084018991142109905 0 -0.00098001485506836721 -0.0072252206383864089 0 -0.0004929391817587327 -0.0076299081533194408 0 -0.00091622819734114987 -0.0098094204503465197 0 -0.00067396347036322848 -0.0090393372230782119 0 -0.0017453688771697296 -0.008386743968604074 0 -0.00096008361454887731 -0.0084018991142109905 0 -0.00098001485506836721 -0.0072252206383864089 0 -0.00032322573420011635 -0.0069611879144009722 0 -0.00098001485506836721 -0.0072252206383864089 0 -0.0004929391817587327 -0.0076299081533194408 0 -0.00032322573420011635 -0.0069611879144009722 0 0.00015717104246497379 -0.0074191738943976855 0 -0.0004929391817587327 -0.0076299081533194408 0 0.00015717104246497379 -0.0074191738943976855 0 0.00056854110437339685 -0.0078279060683925008 0 -0.00034953690849055862 -0.0081128015858982373 0 0.00015717104246497379 -0.0074191738943976855 0 -0.0004929391817587327 -0.0076299081533194408 0 -0.00034953690849055862 -0.0081128015858982373 0 -0.00096008361454887731 -0.0084018991142109905 0 -0.0004929391817587327 -0.0076299081533194408 0 -0.00034953690849055862 -0.0081128015858982373 0 0.0013318674213925665 -0.0066957516402225484 0 0.00015717104246497379 -0.0074191738943976855 0 0.00056854110437339685 -0.0078279060683925008 0 0.00056854110437339685 -0.0078279060683925008 0 0.00079245628578288897 -0.0088162149920062542 0 0.0012299077361554074 -0.0078338249820386098 0 0.00056854110437339685 -0.0078279060683925008 0 0.00026470772641003953 -0.0089223004029667357 0 -1.1645584845941957e-05 -0.0084865821896522708 0 0.00056854110437339685 -0.0078279060683925008 0 0.00026470772641003953 -0.0089223004029667357 0 0.00079245628578288897 -0.0088162149920062542 0 0.00056854110437339685 -0.0078279060683925008 0 -0.00034953690849055862 -0.0081128015858982373 0 -1.1645584845941957e-05 -0.0084865821896522708 0 -0.00034953690849055862 -0.0081128015858982373 0 -1.1645584845941957e-05 -0.0084865821896522708 0 -0.00048254286104816997 -0.0090494820540886756 0 -0.00096008361454887731 -0.0084018991142109905 0 -0.00034953690849055862 -0.0081128015858982373 0 -0.00048254286104816997 -0.0090494820540886756 0 0.00026470772641003953 -0.0089223004029667357 0 -1.1645584845941957e-05 -0.0084865821896522708 0 -0.00048254286104816997 -0.0090494820540886756 0 -0.00048254286104816997 -0.0090494820540886756 0 -0.00014494516634047251 -0.0099826022159677143 0 -0.00093342182883634616 -0.009959606773391385 0 0.00026470772641003953 -0.0089223004029667357 0 -0.00048254286104816997 -0.0090494820540886756 0 -0.00014494516634047251 -0.0099826022159677143 0 -0.00014494516634047251 -0.0099826022159677143 0 -0.00055294906338194483 -0.010466495762176231 0 -0.00093342182883634616 -0.009959606773391385 0 0.00079245628578288897 -0.0088162149920062542 0 0.00040098643398153272 -0.0097538763654783298 0 0.0010033632126343593 -0.0096750222540044929 0 0.00026470772641003953 -0.0089223004029667357 0 -0.00014494516634047251 -0.0099826022159677143 0 0.00040098643398153272 -0.0097538763654783298 0 0.00026470772641003953 -0.0089223004029667357 0 0.00079245628578288897 -0.0088162149920062542 0 0.00040098643398153272 -0.0097538763654783298 0 -0.00014494516634047251 -0.0099826022159677143 0 0.00040098643398153272 -0.0097538763654783298 0 0.00045772486178239188 -0.01072944403968374 0 0.00040098643398153272 -0.0097538763654783298 0 0.00070914696035808366 -0.010201430589842632 0 0.00045772486178239188 -0.01072944403968374 0 0.00070914696035808366 -0.010201430589842632 0 0.0010033632126343593 -0.0096750222540044929 0 0.0010012947366155856 -0.010631203494039102 0 0.00040098643398153272 -0.0097538763654783298 0 0.00070914696035808366 -0.010201430589842632 0 0.0010033632126343593 -0.0096750222540044929 0 0.00045772486178239188 -0.01072944403968374 0 0.00094176907965498732 -0.011563547802042873 0 0.00016904734938643073 -0.011908782824666141 0 0.00070914696035808366 -0.010201430589842632 0 0.00045772486178239188 -0.01072944403968374 0 0.0010012947366155856 -0.010631203494039102 0 0.00045772486178239188 -0.01072944403968374 0 0.0010012947366155856 -0.010631203494039102 0 0.00094176907965498732 -0.011563547802042873 0 0.00045772486178239188 -0.01072944403968374 0 -0.00022229141414232696 -0.010959918453924978 0 0.00016904734938643073 -0.011908782824666141 0 -0.00014494516634047251 -0.0099826022159677143 0 -0.00055294906338194483 -0.010466495762176231 0 -0.00022229141414232696 -0.010959918453924978 0 -0.00055294906338194483 -0.010466495762176231 0 -0.00022229141414232696 -0.010959918453924978 0 -0.00089592974899238521 -0.01095585558271542 0 -0.00014494516634047251 -0.0099826022159677143 0 0.00045772486178239188 -0.01072944403968374 0 -0.00022229141414232696 -0.010959918453924978 0 -0.00022229141414232696 -0.010959918453924978 0 -0.00089592974899238521 -0.01095585558271542 0 -0.00042504456068487062 -0.011678750928156602 0 -0.00055294906338194483 -0.010466495762176231 0 -0.00089592974899238521 -0.01095585558271542 0 -0.00093342182883634616 -0.009959606773391385 0 -0.00089592974899238521 -0.01095585558271542 0 -0.0016930059176455616 -0.011299758210254366 0 -0.0016169665895098516 -0.010374695893575534 0 -0.00089592974899238521 -0.01095585558271542 0 -0.0016169665895098516 -0.010374695893575534 0 -0.00093342182883634616 -0.009959606773391385 0 -0.00089592974899238521 -0.01095585558271542 0 -0.0016930059176455616 -0.011299758210254366 0 -0.001001133966573338 -0.011979636790638126 0 -0.0016930059176455616 -0.011299758210254366 0 -0.0023081749158837604 -0.010735670569037941 0 -0.002445719390881845 -0.011490402469038265 0 -0.0016930059176455616 -0.011299758210254366 0 -0.0023081749158837604 -0.010735670569037941 0 -0.0016169665895098516 -0.010374695893575534 0 -0.0023081749158837604 -0.010735670569037941 0 -0.0016169665895098516 -0.010374695893575534 0 -0.0024730163021685066 -0.0096545397075122729 0 -0.0016169665895098516 -0.010374695893575534 0 -0.0024730163021685066 -0.0096545397075122729 0 -0.0015884957632365776 -0.0093682029992869665 0 -0.00098949191675995929 -0.0091889385406105015 0 -0.0015884957632365776 -0.0093682029992869665 0 -0.00093342182883634616 -0.009959606773391385 0 -0.00098949191675995929 -0.0091889385406105015 0 -0.00048254286104816997 -0.0090494820540886756 0 -0.00093342182883634616 -0.009959606773391385 0 -0.0016169665895098516 -0.010374695893575534 0 -0.0015884957632365776 -0.0093682029992869665 0 -0.00093342182883634616 -0.009959606773391385 0 -0.00033850200811649713 -0.0047175844886485525 0 -4.6903193620095585e-05 -0.0049461440766657271 0 -0.00046779207616276888 -0.0049906423009626532 0 -4.6903193620095585e-05 -0.0049461440766657271 0 -0.00046779207616276888 -0.0049906423009626532 0 0.0003202598351667058 -0.0055069529873513472 0 -0.00046779207616276888 -0.0049906423009626532 0 -0.00014102061515857255 -0.0060579009421072999 0 0.0003202598351667058 -0.0055069529873513472 0 -0.00048196082944766943 -0.0042796512494626664 0 -0.00060095928202753585 -0.0037025308048304539 0 -0.00046779207616276888 -0.0049906423009626532 0 -0.00042492335665923617 -0.0072799292391204024 0 -0.00046779207616276888 -0.0049906423009626532 0 -0.00014102061515857255 -0.0060579009421072999 0 -0.00034228498645443934 -0.005427211691094308 0 -0.00035894548542848235 -0.0051808592374199217 0 -0.00014102061515857255 -0.0060579009421072999 0 0.0003202598351667058 -0.0055069529873513472 0 0.00062305494161715063 -0.0062668739555662746 0 0.0015123012744844805 -0.0068318680027294057 0 0.00062305494161715063 -0.0062668739555662746 0 0.0011443191934097248 -0.0062767227456581474 0 0.0003202598351667058 -0.0055069529873513472 0 0.00062305494161715063 -0.0062668739555662746 0 0.0011443191934097248 -0.0062767227456581474 0 -4.6903193620095585e-05 -0.0049461440766657271 0 0.00081258208302091442 -0.0054970102053645943 0 0.00033789829918156288 -0.0044087694289486456 0 -4.6903193620095585e-05 -0.0049461440766657271 0 0.0003202598351667058 -0.0055069529873513472 0 0.00081258208302091442 -0.0054970102053645943 0 0.0003202598351667058 -0.0055069529873513472 0 0.0011443191934097248 -0.0062767227456581474 0 0.00081258208302091442 -0.0054970102053645943 0 0.00081258208302091442 -0.0054970102053645943 0 0.0019378325136694562 -0.0067699051455673296 0 0.0019182158125063853 -0.0051083444793089856 0 0.0010974519308510078 -0.0073965998965654731 0 0.0010037165384467811 -0.007567552948900525 0 0.0011443191934097248 -0.0062767227456581474 0 0.00081258208302091442 -0.0054970102053645943 0 0.0019378325136694562 -0.0067699051455673296 0 0.0019378325136694562 -0.0067699051455673296 0 0.0014953863489683538 -0.0086189936776238322 0 0.0025628708621265569 -0.0088378137125187661 0 0.0015123012744844805 -0.0068318680027294057 0 0.0011443191934097248 -0.0062767227456581474 0 0.0019378325136694562 -0.0067699051455673296 0 0.0015123012744844805 -0.0068318680027294057 0 0.0019378325136694562 -0.0067699051455673296 0 0.0015352136666547207 -0.0070082050550682234 0 0.0019378325136694562 -0.0067699051455673296 0 0.0015352136666547207 -0.0070082050550682234 0 0.0012299077361554074 -0.0078338249820386098 0 0.00056854110437339685 -0.0078279060683925008 0 0.0015352136666547207 -0.0070082050550682234 0 0.0012299077361554074 -0.0078338249820386098 0 0.0013318674213925665 -0.0066957516402225484 0 0.00056854110437339685 -0.0078279060683925008 0 0.0015352136666547207 -0.0070082050550682234 0 0.0019378325136694562 -0.0067699051455673296 0 0.0012299077361554074 -0.0078338249820386098 0 0.0014953863489683538 -0.0086189936776238322 0 0.00079245628578288897 -0.0088162149920062542 0 0.0012299077361554074 -0.0078338249820386098 0 0.0014953863489683538 -0.0086189936776238322 0 0.00079245628578288897 -0.0088162149920062542 0 0.0014953863489683538 -0.0086189936776238322 0 0.0010033632126343593 -0.0096750222540044929 0 0.0014953863489683538 -0.0086189936776238322 0 0.0017342551019651994 -0.0096533807239113541 0 0.0010033632126343593 -0.0096750222540044929 0 0.0014953863489683538 -0.0086189936776238322 0 0.0017342551019651994 -0.0096533807239113541 0 0.0025628708621265569 -0.0088378137125187661 0 0.0017342551019651994 -0.0096533807239113541 0 0.0017259520256103153 -0.010698240046998897 0 0.0026308152864296676 -0.01046937524327156 0 0.0017342551019651994 -0.0096533807239113541 0 0.0013725196874299816 -0.010257544461931547 0 0.0017259520256103153 -0.010698240046998897 0 0.0017342551019651994 -0.0096533807239113541 0 0.0013725196874299816 -0.010257544461931547 0 0.0010033632126343593 -0.0096750222540044929 0 0.0013725196874299816 -0.010257544461931547 0 0.0010033632126343593 -0.0096750222540044929 0 0.0010012947366155856 -0.010631203494039102 0 0.0013159007433869241 -0.011132351828002658 0 0.0017259520256103153 -0.010698240046998897 0 0.0016338617983255727 -0.012217212965724443 0 0.0013725196874299816 -0.010257544461931547 0 0.0010012947366155856 -0.010631203494039102 0 0.0013159007433869241 -0.011132351828002658 0 0.0010012947366155856 -0.010631203494039102 0 0.0013159007433869241 -0.011132351828002658 0 0.00094176907965498732 -0.011563547802042873 0 0.0013725196874299816 -0.010257544461931547 0 0.0013159007433869241 -0.011132351828002658 0 0.0017259520256103153 -0.010698240046998897 0 0.0017259520256103153 -0.010698240046998897 0 0.0021318905312296263 -0.010598795374881849 0 0.0016338617983255727 -0.012217212965724443 0 -0.00049987520333537024 -0.007918969127979068 0 -6.0336635881598027e-05 -0.0082141533953122656 0 -0.00050695268992688902 -0.0086927163384670231 0 0.00067547033762273701 -0.0081687170918119997 0 0.00048307904543279335 -0.0099380026693696825 0 0.00075995446093048234 -0.0082272781219493493 0 0.00067547033762273701 -0.0081687170918119997 0 0.0018484314396040162 -0.004069452595782311 0 0.0019182158125063853 -0.0051083444793089856 0 0.00033789829918156288 -0.0044087694289486456 0 0.0017342551019651994 -0.0096533807239113541 0 0.0026308152864296676 -0.01046937524327156 0 0.0025628708621265569 -0.0088378137125187661 0 0.00067547033762273701 -0.0081687170918119997 0 0.0010037165384467811 -0.007567552948900525 0 0.00067547033762273701 -0.0081687170918119997 0 0.00052623222684462507 -0.0069971543810560324 0 0.00081258208302091442 -0.0054970102053645943 0 0.0019182158125063853 -0.0051083444793089856 0 0.00033789829918156288 -0.0044087694289486456 0 0.00018819598157932043 -0.0077966033192945275 0 -6.0336635881598027e-05 -0.0082141533953122656 0 0.00037197218340259209 -0.0083100734397917667 0 -0.00049987520333537024 -0.007918969127979068 0 0.00018819598157932043 -0.0077966033192945275 0 -6.0336635881598027e-05 -0.0082141533953122656 0 0.00069935724274037821 -0.008080880502291039 0 0.00018819598157932043 -0.0077966033192945275 0 0.00037197218340259209 -0.0083100734397917667 0 0.00069935724274037821 -0.008080880502291039 0 0.00063334482327227542 -0.0084335195169053991 0 0.00037197218340259209 -0.0083100734397917667 0 0.0007076229535241394 -0.007720354289807752 0 0.00069935724274037821 -0.008080880502291039 0 0.00018819598157932043 -0.0077966033192945275 0 -0.00034887290673814872 -0.0047796406188246885 0 -4.6903193620095585e-05 -0.0049461440766657271 0 0.00033789829918156288 -0.0044087694289486456 0 0.00043610087453835263 -0.0062904474052347392 0 0.00052623222684462507 -0.0069971543810560324 0 0.00076871490640410237 -0.0090879588508997172 0 0.00044415262537134928 -0.009201117205574658 0 0.00057890500329229168 -0.008967322885714472 0 0.00044415262537134928 -0.009201117205574658 0 0.00057890500329229168 -0.008967322885714472 0 0.00044753936338658514 -0.008772326262164622 0 0.00044415262537134928 -0.009201117205574658 0 0.00044753936338658514 -0.008772326262164622 0 0.00010665626773776041 -0.0091447500509062949 0 0.00076871490640410237 -0.0090879588508997172 0 0.00057890500329229168 -0.008967322885714472 0 0.00067335149356486084 -0.0087145416437817303 0 0.00057890500329229168 -0.008967322885714472 0 0.00067335149356486084 -0.0087145416437817303 0 0.00044753936338658514 -0.008772326262164622 0 0.00067335149356486084 -0.0087145416437817303 0 0.00063334482327227542 -0.0084335195169053991 0 0.00044753936338658514 -0.008772326262164622 0 0.00063334482327227542 -0.0084335195169053991 0 0.00037197218340259209 -0.0083100734397917667 0 0.00044753936338658514 -0.008772326262164622 0 0.00037197218340259209 -0.0083100734397917667 0 0.00044753936338658514 -0.008772326262164622 0 8.3320002282281916e-05 -0.0086144920116054038 0 -6.0336635881598027e-05 -0.0082141533953122656 0 8.3320002282281916e-05 -0.0086144920116054038 0 -0.00050695268992688902 -0.0086927163384670231 0 8.3320002282281916e-05 -0.0086144920116054038 0 0.00010665626773776041 -0.0091447500509062949 0 -0.00050695268992688902 -0.0086927163384670231 0 -6.0336635881598027e-05 -0.0082141533953122656 0 0.00037197218340259209 -0.0083100734397917667 0 8.3320002282281916e-05 -0.0086144920116054038 0 0.00044753936338658514 -0.008772326262164622 0 8.3320002282281916e-05 -0.0086144920116054038 0 0.00010665626773776041 -0.0091447500509062949 0 0.00010665626773776041 -0.0091447500509062949 0 -0.00050695268992688902 -0.0086927163384670231 0 -0.00044122396047875846 -0.009746560840416682 0 0.0016338617983255727 -0.012217212965724443 0 0.00076835033556580008 -0.012932078699077662 0 0.00060122833424942099 -0.012965136191820983 0 0.00048307904543279335 -0.0099380026693696825 0 0.00022602753619590428 -0.010826785824930072 0 0.0013159007433869241 -0.011132351828002658 0 0.0016338617983255727 -0.012217212965724443 0 0.00094176907965498732 -0.011563547802042873 0 0.0016338617983255727 -0.012217212965724443 0 0.00094176907965498732 -0.011563547802042873 0 0.00064368100742344457 -0.012529244716392976 0 0.0016338617983255727 -0.012217212965724443 0 0.00076835033556580008 -0.012932078699077662 0 0.00064368100742344457 -0.012529244716392976 0 0.00076835033556580008 -0.012932078699077662 0 0.00051627160416103718 -0.01286943206112068 0 0.00060122833424942099 -0.012965136191820983 0 0.00076835033556580008 -0.012932078699077662 0 0.00051627160416103718 -0.01286943206112068 0 0.00039597546141678484 -0.013516546948159179 0 0.00051627160416103718 -0.01286943206112068 0 -8.0891740641924201e-08 -0.011293706754979314 0 1.0496369162627231e-06 -0.013341073935408355 0 -2.5989757806331133e-06 -0.01128469293558315 0 -0.00044122396047875846 -0.009746560840416682 0 2.3285151418795247e-06 -0.010839723295313745 0 0.00051627160416103718 -0.01286943206112068 0 -8.0891740641924201e-08 -0.011293706754979314 0 0.00060122833424942099 -0.012965136191820983 0 4.3502950269833038e-07 -0.011289899447643087 0 0.00022602753619590428 -0.010826785824930072 0 0.00010665626773776041 -0.0091447500509062949 0 -0.00044122396047875846 -0.009746560840416682 0 0.0004271322880963283 -0.009958621324447383 0 0.00044415262537134928 -0.009201117205574658 0 0.00010665626773776041 -0.0091447500509062949 0 0.0004271322880963283 -0.009958621324447383 0 2.7735740645350377e-07 -0.010832693379297736 0 0.000393450679580061 -0.0097628939385707315 0 -1.0478342191265231e-06 -0.010831950121679645 0 5.2120940234576467e-07 -0.0093452344207413576 0 -5.9239597871806228e-05 -0.008789236299648881 0 -0.00044122396047875846 -0.009746560840416682 0 2.3285151418795247e-06 -0.010839723295313745 0 0.0004271322880963283 -0.009958621324447383 0 0.00026652345269755431 -0.008407544670556202 0 5.2120940234576467e-07 -0.0093452344207413576 0 -5.9239597871806228e-05 -0.008789236299648881 0 0.00059832644513276598 -0.0091673942130737936 0 0.000393450679580061 -0.0097628939385707315 0 0.00076871490640410237 -0.0090879588508997172 0 0.00044415262537134928 -0.009201117205574658 0 0.0004271322880963283 -0.009958621324447383 0 0.00032068705144321178 -0.0084298213544025322 0 0.00026652345269755431 -0.008407544670556202 0 -5.9239597871806228e-05 -0.008789236299648881 0 0.00032068705144321178 -0.0084298213544025322 0 0.00032737426733060748 -0.0083874533044809938 0 -5.9239597871806228e-05 -0.008789236299648881 0 -0.00082210547377305058 -0.013141627086717095 0 -0.00039459809214827482 -0.012415925868092773 0 8.8689030156165153e-05 -0.013030637545712242 0 -0.00082210547377305058 -0.013141627086717095 0 8.8689030156165153e-05 -0.013030637545712242 0 -0.00014919715760693933 -0.014533670332202389 0 -0.00082210547377305058 -0.013141627086717095 0 -0.0017789326439183655 -0.012320483430338253 0 -0.0020637209922752999 -0.014366514076611579 0 -0.00082210547377305058 -0.013141627086717095 0 -0.0017789326439183655 -0.012320483430338253 0 -0.001001133966573338 -0.011979636790638126 0 -0.0016930059176455616 -0.011299758210254366 0 -0.0017789326439183655 -0.012320483430338253 0 -0.002445719390881845 -0.011490402469038265 0 -0.0016930059176455616 -0.011299758210254366 0 -0.0017789326439183655 -0.012320483430338253 0 -0.001001133966573338 -0.011979636790638126 0 -0.00082210547377305058 -0.013141627086717095 0 -0.001001133966573338 -0.011979636790638126 0 -0.00039459809214827482 -0.012415925868092773 0 -0.001001133966573338 -0.011979636790638126 0 -0.00039459809214827482 -0.012415925868092773 0 -0.00042504456068487062 -0.011678750928156602 0 -0.00089592974899238521 -0.01095585558271542 0 -0.001001133966573338 -0.011979636790638126 0 -0.00042504456068487062 -0.011678750928156602 0 -0.00039459809214827482 -0.012415925868092773 0 0.00016904734938643073 -0.011908782824666141 0 8.8689030156165153e-05 -0.013030637545712242 0 -0.00022229141414232696 -0.010959918453924978 0 -0.00042504456068487062 -0.011678750928156602 0 0.00016904734938643073 -0.011908782824666141 0 -0.00039459809214827482 -0.012415925868092773 0 -0.00042504456068487062 -0.011678750928156602 0 0.00016904734938643073 -0.011908782824666141 0 0.00094176907965498732 -0.011563547802042873 0 0.00016904734938643073 -0.011908782824666141 0 0.00064368100742344457 -0.012529244716392976 0 0.00076835033556580008 -0.012932078699077662 0 0.00064368100742344457 -0.012529244716392976 0 0.00039597546141678484 -0.013516546948159179 0 0.00016904734938643073 -0.011908782824666141 0 0.00064368100742344457 -0.012529244716392976 0 8.8689030156165153e-05 -0.013030637545712242 0 0.00064368100742344457 -0.012529244716392976 0 8.8689030156165153e-05 -0.013030637545712242 0 0.00039597546141678484 -0.013516546948159179 0 8.8689030156165153e-05 -0.013030637545712242 0 0.00039597546141678484 -0.013516546948159179 0 -0.00014919715760693933 -0.014533670332202389 0 0.00051627160416103718 -0.01286943206112068 0 0.00039597546141678484 -0.013516546948159179 0 1.0496369162627231e-06 -0.013341073935408355 0 0.00039597546141678484 -0.013516546948159179 0 1.0496369162627231e-06 -0.013341073935408355 0 1.2599540089799259e-06 -0.015393270975697827 0 0.00039597546141678484 -0.013516546948159179 0 1.2599540089799259e-06 -0.015393270975697827 0 -0.00014919715760693933 -0.014533670332202389 0 1.2599540089799259e-06 -0.015393270975697827 0 -0.00014919715760693933 -0.014533670332202389 0 -4.8438227691248476e-06 -0.017440153681081781 0 -0.00082210547377305058 -0.013141627086717095 0 -0.00014919715760693933 -0.014533670332202389 0 -0.0020637209922752999 -0.014366514076611579 0 -0.00014919715760693933 -0.014533670332202389 0 -4.8438227691248476e-06 -0.017440153681081781 0 -0.0020637209922752999 -0.014366514076611579 0 -2.1067861774917556e-06 -0.017447407079991269 0 -8.911456302561383e-05 -0.018571226362176178 0 6.872781417895412e-07 -0.019019258504856126 0 -2.1067861774917556e-06 -0.017447407079991269 0 -8.911456302561383e-05 -0.018571226362176178 0 -0.00065979987119080231 -0.020275560750950297 0 -1.5289818324191683e-06 -0.017444307269911512 0 -0.00079660866561850712 -0.017283155539311399 0 -8.911456302561383e-05 -0.018571226362176178 0 3.6873245773175294e-05 -0.019839300357461946 0 -0.0001456490672147756 -0.019741852390495526 0 -8.911456302561383e-05 -0.018571226362176178 0 6.872781417895412e-07 -0.019019258504856126 0 3.6873245773175294e-05 -0.019839300357461946 0 6.872781417895412e-07 -0.019019258504856126 0 3.6873245773175294e-05 -0.019839300357461946 0 0.00011563693316123847 -0.020194250900119767 0 3.6873245773175294e-05 -0.019839300357461946 0 0.00016397287230815582 -0.020634839777478396 0 0.00011563693316123847 -0.020194250900119767 0 3.6873245773175294e-05 -0.019839300357461946 0 -0.00012132536302056797 -0.020167627719384601 0 -0.0001456490672147756 -0.019741852390495526 0 3.6873245773175294e-05 -0.019839300357461946 0 -0.00012132536302056797 -0.020167627719384601 0 4.642745689451601e-05 -0.020477332291582894 0 -0.00012132536302056797 -0.020167627719384601 0 4.642745689451601e-05 -0.020477332291582894 0 -0.00014252509595729038 -0.020665052864427786 0 3.6873245773175294e-05 -0.019839300357461946 0 4.642745689451601e-05 -0.020477332291582894 0 0.00016397287230815582 -0.020634839777478396 0 -0.00072222543330906176 -0.019362685842032691 0 -0.00082345755440095818 -0.019420542846472877 0 -8.911456302561383e-05 -0.018571226362176178 0 -0.00065979987119080231 -0.020275560750950297 0 -0.00040900282114249715 -0.020638655168074303 0 -8.911456302561383e-05 -0.018571226362176178 0 -0.0001456490672147756 -0.019741852390495526 0 -0.00054916247832006429 -0.020457628013012291 0 -0.00012132536302056797 -0.020167627719384601 0 -0.0001456490672147756 -0.019741852390495526 0 -0.00054916247832006429 -0.020457628013012291 0 -0.00012132536302056797 -0.020167627719384601 0 -0.00054916247832006429 -0.020457628013012291 0 -0.00014252509595729038 -0.020665052864427786 0 -0.00054916247832006429 -0.020457628013012291 0 -0.00014252509595729038 -0.020665052864427786 0 -0.00035627972550492961 -0.021078230478148014 0 -0.0017789326439183655 -0.012320483430338253 0 -0.0020637209922752999 -0.014366514076611579 0 -0.0030187788894062632 -0.012270961264930684 0 -0.00079660866561850712 -0.017283155539311399 0 -0.0012858122181205491 -0.017355150979716974 0 -0.00082345755440095818 -0.019420542846472877 0 -0.0012858122181205491 -0.017355150979716974 0 -0.00065979987119080231 -0.020275560750950297 0 -0.00040900282114249715 -0.020638655168074303 0 -0.00029503110889000217 -0.022399024750606848 0 4.642745689451601e-05 -0.020477332291582894 0 0.00017702864880007107 -0.020911466298415074 0 0.00016397287230815582 -0.020634839777478396 0 4.642745689451601e-05 -0.020477332291582894 0 -0.00014252509595729038 -0.020665052864427786 0 0.00017702864880007107 -0.020911466298415074 0 -0.00014252509595729038 -0.020665052864427786 0 -0.00035627972550492961 -0.021078230478148014 0 0.00017702864880007107 -0.020911466298415074 0 -0.0019102584861285798 -0.018493777800973207 0 -0.0017417760627851029 -0.016323513932071224 0 0.00017702864880007107 -0.020911466298415074 0 0.00028070486178006213 -0.020768337550903796 0 0.0001788764859126864 -0.020808617477049072 0 -0.00035627972550492961 -0.021078230478148014 0 0.00017702864880007107 -0.020911466298415074 0 -0.00026742723197890656 -0.021476782857644559 0 -0.0012858122181205491 -0.017355150979716974 0 -0.0016843255645796679 -0.015326434216468263 0 -0.0017789326439183655 -0.012320483430338253 0 -0.0030187788894062632 -0.012270961264930684 0 -0.002445719390881845 -0.011490402469038265 0 -0.0030187788894062632 -0.012270961264930684 0 -0.0032469068904011451 -0.010886765624837784 0 -0.002445719390881845 -0.011490402469038265 0 -0.0012858122181205491 -0.017355150979716974 0 -0.0017417760627851029 -0.016323513932071224 0 7.3625291842568396e-05 -0.02090905588394832 0 -3.1047618747098916e-05 -0.020876697183790274 0 3.2377989413934827e-05 -0.020789273313277241 0 7.3625291842568396e-05 -0.02090905588394832 0 0.00011860741117812825 -0.020837247936374138 0 3.2377989413934827e-05 -0.020789273313277241 0 0.00011860741117812825 -0.020837247936374138 0 0.00017702864880007107 -0.020911466298415074 0 0.0001788764859126864 -0.020808617477049072 0 7.3625291842568396e-05 -0.02090905588394832 0 0.00011860741117812825 -0.020837247936374138 0 0.00017702864880007107 -0.020911466298415074 0 0.00017702864880007107 -0.020911466298415074 0 0.00014079259586054013 -0.021085043690669832 0 0.00016397287230815582 -0.020634839777478396 0 7.3625291842568396e-05 -0.02090905588394832 0 0.00017702864880007107 -0.020911466298415074 0 0.00014079259586054013 -0.021085043690669832 0 0.00012865067810259982 -0.021802692320658217 0 7.9253772243431103e-05 -0.021903091159779307 0 7.3625291842568396e-05 -0.02090905588394832 0 0.00014079259586054013 -0.021085043690669832 0 -7.2000101278561535e-05 -0.021010824502706631 0 0.00014079259586054013 -0.021085043690669832 0 0.00012706450850489612 -0.021292822686153973 0 4.9712221687472505e-05 -0.021985457118775375 0 0.00014079259586054013 -0.021085043690669832 0 0.00012706450850489612 -0.021292822686153973 0 0.00016397287230815582 -0.020634839777478396 0 0.00012706450850489612 -0.021292822686153973 0 0.00016397287230815582 -0.020634839777478396 0 0.00011563693316123847 -0.020194250900119767 0 0.00012706450850489612 -0.021292822686153973 0 3.2867234298765282e-07 -0.020595772818047305 0 0.00011563693316123847 -0.020194250900119767 0 6.872781417895412e-07 -0.019019258504856126 0 3.2867234298765282e-07 -0.020595772818047305 0 0.00011563693316123847 -0.020194250900119767 0 0.00012706450850489612 -0.021292822686153973 0 3.2867234298765282e-07 -0.020595772818047305 0 6.5730727656910669e-08 -0.022167039978519269 0 0.00012706450850489612 -0.021292822686153973 0 6.5730727656910669e-08 -0.022167039978519269 0 1.5611419910012171e-05 -0.021917049928544138 0 4.6952392472913017e-07 -0.022171438790681328 0 0.00027714750879796784 -0.022876312352288139 0 6.5730727656910669e-08 -0.022167039978519269 0 1.5611419910012171e-05 -0.021917049928544138 0 9.2622252037772768e-05 -0.022006623530715471 0 -3.3122773628965067e-07 -0.022170818382717533 0 -4.4868629532597013e-08 -0.024048723719523175 0 -5.4783654480990488e-05 -0.024101788635978769 0 1.5611419910012171e-05 -0.021917049928544138 0 9.2622252037772768e-05 -0.022006623530715471 0 0.00011446399516654295 -0.022161606075427567 0 1.5611419910012171e-05 -0.021917049928544138 0 0.00011446399516654295 -0.022161606075427567 0 7.3133829513603361e-05 -0.021945641256332804 0 0.00011446399516654295 -0.022161606075427567 0 0.00021136029404126978 -0.022401175131071059 0 7.3133829513603361e-05 -0.021945641256332804 0 0.00012706450850489612 -0.021292822686153973 0 1.5611419910012171e-05 -0.021917049928544138 0 7.3133829513603361e-05 -0.021945641256332804 0 0.00012706450850489612 -0.021292822686153973 0 7.3133829513603361e-05 -0.021945641256332804 0 4.9712221687472505e-05 -0.021985457118775375 0 1.7608563301267972e-06 -0.02592646629967512 0 0.00015295401958739463 -0.025402966204896588 0 0.00037218320963871616 -0.025223600995009674 0 -4.4868629532597013e-08 -0.024048723719523175 0 -5.4783654480990488e-05 -0.024101788635978769 0 0.00037218320963871616 -0.025223600995009674 0 9.2622252037772768e-05 -0.022006623530715471 0 0.00011446399516654295 -0.022161606075427567 0 0.00042745429940457629 -0.02282464701152543 0 -4.4868629532597013e-08 -0.024048723719523175 0 1.7608563301267972e-06 -0.02592646629967512 0 0.00037218320963871616 -0.025223600995009674 0 0.00027714750879796784 -0.022876312352288139 0 0.00016584300556549237 -0.023291682716696405 0 0.00011446399516654295 -0.022161606075427567 0 0.00021136029404126978 -0.022401175131071059 0 0.00042745429940457629 -0.02282464701152543 0 0.00021136029404126978 -0.022401175131071059 0 0.00042745429940457629 -0.02282464701152543 0 0.00039620552181713064 -0.022921569051176382 0 0.00016584300556549237 -0.023291682716696405 0 -2.1591669510178387e-05 -0.023398911883146776 0 0.00042745429940457629 -0.02282464701152543 0 0.00027585675913421995 -0.023539965724792705 0 4.0337512477345896e-05 -0.024357494730344095 0 0.00015295401958739463 -0.025402966204896588 0 0.00037218320963871616 -0.025223600995009674 0 4.0337512477345896e-05 -0.024357494730344095 0 0.00042745429940457629 -0.02282464701152543 0 0.00027585675913421995 -0.023539965724792705 0 0.00039620552181713064 -0.022921569051176382 0 0.00025337978529428492 -0.023008198651300198 0 0.00039620552181713064 -0.022921569051176382 0 0.00035137765484306784 -0.022850063459292105 0 0.00025337978529428492 -0.023008198651300198 0 0.00027585675913421995 -0.023539965724792705 0 0.00039620552181713064 -0.022921569051176382 0 0.00021136029404126978 -0.022401175131071059 0 0.00039620552181713064 -0.022921569051176382 0 0.00027265598628051674 -0.022677424561187966 0 -0.00027428598202537734 -0.020868088373194031 0 -0.00037874104479715008 -0.020902553542658145 0 -0.0002258871461779872 -0.02095357054306848 0 -0.00021924602914619832 -0.022528938002680202 0 -3.2159699535980548e-05 -0.022147956779187749 0 0.00039620552181713064 -0.022921569051176382 0 0.00035137765484306784 -0.022850063459292105 0 0.00027265598628051674 -0.022677424561187966 0 -0.00076125419241167454 -0.023272965168216198 0 -0.00055733349115675505 -0.023672751305455552 0 -0.00023556994251099363 -0.023505676817322588 0 -7.4137381385984953e-05 -0.023674222516453111 0 -2.5425573767447905e-05 -0.023528297647215566 0 -0.00019939140590080826 -0.023547075104424567 0 -0.00021924602914619832 -0.022528938002680202 0 -0.00016590884387411995 -0.022650181105322548 0 -2.5425573767447905e-05 -0.023528297647215566 0 -0.00023556994251099363 -0.023505676817322588 0 -0.00019939140590080826 -0.023547075104424567 0 -0.00026636976009371228 -0.022912923011772196 0 -0.00021924602914619832 -0.022528938002680202 0 0.00021136029404126978 -0.022401175131071059 0 4.9712221687472505e-05 -0.021985457118775375 0 0.00027265598628051674 -0.022677424561187966 0 7.9253772243431103e-05 -0.021903091159779307 0 -3.2159699535980548e-05 -0.022147956779187749 0 0.00021136029404126978 -0.022401175131071059 0 7.3133829513603361e-05 -0.021945641256332804 0 4.9712221687472505e-05 -0.021985457118775375 0 -0.00027428598202537734 -0.020868088373194031 0 -0.0002258871461779872 -0.02095357054306848 0 -0.00018342577056051386 -0.020835260068817956 0 -0.0002258871461779872 -0.02095357054306848 0 -0.00011538066547573348 -0.020900109338996019 0 -0.00018342577056051386 -0.020835260068817956 0 -7.2000101278561535e-05 -0.021010824502706631 0 -0.0002258871461779872 -0.02095357054306848 0 -0.00011538066547573348 -0.020900109338996019 0 -7.2000101278561535e-05 -0.021010824502706631 0 -0.00011538066547573348 -0.020900109338996019 0 -3.1047618747098916e-05 -0.020876697183790274 0 -0.00011538066547573348 -0.020900109338996019 0 -3.1047618747098916e-05 -0.020876697183790274 0 -7.8486134651753676e-05 -0.020792606432860739 0 7.3625291842568396e-05 -0.02090905588394832 0 -7.2000101278561535e-05 -0.021010824502706631 0 -3.1047618747098916e-05 -0.020876697183790274 0 -3.1047618747098916e-05 -0.020876697183790274 0 -7.8486134651753676e-05 -0.020792606432860739 0 3.2377989413934827e-05 -0.020789273313277241 0 -7.8486134651753676e-05 -0.020792606432860739 0 -3.0083151791087786e-05 -0.020713008983726109 0 -8.7929506160571035e-05 -0.020703508995154454 0 -7.8486134651753676e-05 -0.020792606432860739 0 -3.0083151791087786e-05 -0.020713008983726109 0 3.2377989413934827e-05 -0.020789273313277241 0 -7.8486134651753676e-05 -0.020792606432860739 0 -0.00014216162164245756 -0.02072693926779047 0 -8.7929506160571035e-05 -0.020703508995154454 0 -0.00011538066547573348 -0.020900109338996019 0 -7.8486134651753676e-05 -0.020792606432860739 0 -0.00018342577056051386 -0.020835260068817956 0 -0.00018342577056051386 -0.020835260068817956 0 -0.00014216162164245756 -0.02072693926779047 0 -0.00025840089625193139 -0.020761661071971697 0 -0.00027428598202537734 -0.020868088373194031 0 -0.00018342577056051386 -0.020835260068817956 0 -0.00025840089625193139 -0.020761661071971697 0 -7.8486134651753676e-05 -0.020792606432860739 0 -0.00018342577056051386 -0.020835260068817956 0 -0.00014216162164245756 -0.02072693926779047 0 -0.0021622463782857036 -0.024944639549780063 0 -0.0014827886804822299 -0.024088158524135414 0 -0.0015249958034790232 -0.024758202097337458 0 -0.00014216162164245756 -0.02072693926779047 0 -0.00013892519464143657 -0.020630693847060753 0 -0.00025840089625193139 -0.020761661071971697 0 -0.00066055122868223255 -0.023701127189213508 0 -0.00046903283494869642 -0.022898479057720075 0 -0.00014216162164245756 -0.02072693926779047 0 -0.00013892519464143657 -0.020630693847060753 0 -0.00010626873438477193 -0.020642080269814074 0 -0.00066055122868223255 -0.023701127189213508 0 -0.00067042638750802893 -0.023666633393459782 0 -0.00013649736245643538 -0.020633173884435446 0 -0.00010626873438477193 -0.020642080269814074 0 -6.9523777316701909e-05 -0.02062600892213266 0 -0.00010626873438477193 -0.020642080269814074 0 -6.2132668768998507e-05 -0.020665922125570776 0 -8.7929506160571035e-05 -0.020703508995154454 0 -0.00010626873438477193 -0.020642080269814074 0 -6.2132668768998507e-05 -0.020665922125570776 0 -6.9523777316701909e-05 -0.02062600892213266 0 -6.2132668768998507e-05 -0.020665922125570776 0 -3.0083151791087786e-05 -0.020713008983726109 0 -1.6614348658033895e-05 -0.020646214192909178 0 -6.2132668768998507e-05 -0.020665922125570776 0 -6.9523777316701909e-05 -0.02062600892213266 0 -1.6614348658033895e-05 -0.020646214192909178 0 -6.2132668768998507e-05 -0.020665922125570776 0 -3.0083151791087786e-05 -0.020713008983726109 0 -8.7929506160571035e-05 -0.020703508995154454 0 -0.00014216162164245756 -0.02072693926779047 0 -0.00010626873438477193 -0.020642080269814074 0 -8.7929506160571035e-05 -0.020703508995154454 0 -0.00076125419241167454 -0.023272965168216198 0 -0.00055733349115675505 -0.023672751305455552 0 -0.00086321602064818996 -0.023963175095007009 0 -0.00036970690384366238 -0.024016939519369642 0 -0.00055733349115675505 -0.023672751305455552 0 -0.00023556994251099363 -0.023505676817322588 0 -0.00036970690384366238 -0.024016939519369642 0 -0.00055733349115675505 -0.023672751305455552 0 -0.00086321602064818996 -0.023963175095007009 0 -0.00021924602914619832 -0.022528938002680202 0 -0.00046903283494869642 -0.022898479057720075 0 -0.00027428598202537734 -0.020868088373194031 0 -0.00037874104479715008 -0.020902553542658145 0 -0.00025840089625193139 -0.020761661071971697 0 -0.00076125419241167454 -0.023272965168216198 0 -0.00086321602064818996 -0.023963175095007009 0 -0.0014827886804822299 -0.024088158524135414 0 -0.00086321602064818996 -0.023963175095007009 0 -0.0014827886804822299 -0.024088158524135414 0 -0.0010168912345635008 -0.024795043798904143 0 -0.0014827886804822299 -0.024088158524135414 0 -0.0015249958034790232 -0.024758202097337458 0 -0.0010168912345635008 -0.024795043798904143 0 -0.0015249958034790232 -0.024758202097337458 0 -0.0010168912345635008 -0.024795043798904143 0 -0.0014558603184501077 -0.025179755966837327 0 -0.00036970690384366238 -0.024016939519369642 0 -0.00086321602064818996 -0.023963175095007009 0 -0.0010168912345635008 -0.024795043798904143 0 -0.00060793006046720244 -0.024575040449205214 0 -0.0010168912345635008 -0.024795043798904143 0 -0.00060740625292675908 -0.024966290596580593 0 -0.0001431366157186441 -0.025040772221126988 0 -0.00031628310194751564 -0.025047938891342141 0 -0.00058723812885579801 -0.025282128917171097 0 -0.00084472954536343042 -0.025325289197665104 0 -0.00033438301954455049 -0.02552932770981705 0 -0.0010168912345635008 -0.024795043798904143 0 -0.00060740625292675908 -0.024966290596580593 0 -0.00087264105649767325 -0.025351585399021687 0 -0.00060740625292675908 -0.024966290596580593 0 -0.00058723812885579801 -0.025282128917171097 0 -0.00087264105649767325 -0.025351585399021687 0 -0.00023095657966909082 -0.02636652164824952 0 -0.00016824665650752514 -0.026410011029600132 0 -0.00045524648887641686 -0.024966348838144345 0 -0.00046729986266973893 -0.024954370780966538 0 -0.00047304758397365311 -0.024957710455722676 0 -0.00016824665650752514 -0.026410011029600132 0 -0.00027895279407446163 -0.026016368214727258 0 -0.00016824665650752514 -0.026410011029600132 0 -0.00060289659708355231 -0.025007967928878015 0 -0.0010168912345635008 -0.024795043798904143 0 -0.00087264105649767325 -0.025351585399021687 0 -0.0014558603184501077 -0.025179755966837327 0 0.00052345558797797038 -0.034919670109418086 0 0.0011909735084208273 -0.034796783956232744 0 0.00085035812509763609 -0.034400044933432065 0 -0.00016824665650752514 -0.026410011029600132 0 0.00040825355712439417 -0.028559097905778839 0 0.00052345558797797038 -0.034919670109418086 0 -2.4094341354605591e-07 -0.034743687384225591 0 0.00023101396812167592 -0.03433568432490517 0 0.00052345558797797038 -0.034919670109418086 0 0.00023101396812167592 -0.03433568432490517 0 0.00085035812509763609 -0.034400044933432065 0 -0.00013649736245643538 -0.020633173884435446 0 -6.9523777316701909e-05 -0.02062600892213266 0 -2.2207958680187857e-05 -0.020575183243889388 0 -0.00047677647257108035 -0.024946964444842207 0 -0.00047304758397365311 -0.024957710455722676 0 -0.00048489071858661445 -0.02495164534439526 0 -0.00066055122868223255 -0.023701127189213508 0 -0.00070673547261358727 -0.023412641012136335 0 -0.00013649736245643538 -0.020633173884435446 0 -1.8158509982796937e-05 -0.020493267655512272 0 -2.2207958680187857e-05 -0.020575183243889388 0 -6.9523777316701909e-05 -0.02062600892213266 0 -2.2207958680187857e-05 -0.020575183243889388 0 -1.6614348658033895e-05 -0.020646214192909178 0 -0.00047677647257108035 -0.024946964444842207 0 -0.00046729986266973893 -0.024954370780966538 0 -0.00047304758397365311 -0.024957710455722676 0 -0.00066055122868223255 -0.023701127189213508 0 -0.00060289659708355231 -0.025007967928878015 0 -0.0021622463782857036 -0.024944639549780063 0 -0.0015249958034790232 -0.024758202097337458 0 -0.0014558603184501077 -0.025179755966837327 0 0.0011909735084208273 -0.034796783956232744 0 0.0014402571834026291 -0.034247313967600612 0 0.00085035812509763609 -0.034400044933432065 0 0.0011909735084208273 -0.034796783956232744 0 0.0018892888382590364 -0.034655111124075072 0 0.0014402571834026291 -0.034247313967600612 0 -0.00027895279407446163 -0.026016368214727258 0 -0.00070673547261358727 -0.023412641012136335 0 -0.0012126392591474834 -0.021110590548957038 0 -0.00064685092105307173 -0.021005851155407863 0 -0.00080869314296460292 -0.020642857230125135 0 -0.00070673547261358727 -0.023412641012136335 0 -0.00068506750539911159 -0.02052522895341604 0 -0.00070673547261358727 -0.023412641012136335 0 -0.0009059620409370779 -0.024194367345048033 0 -1.8158509982796937e-05 -0.020493267655512272 0 0.00010087577601935888 -0.020552647635279083 0 9.6229506130809548e-05 -0.020466464216246143 0 -2.2207958680187857e-05 -0.020575183243889388 0 4.7984212093973406e-05 -0.020620518080633757 0 0.00010087577601935888 -0.020552647635279083 0 -1.8158509982796937e-05 -0.020493267655512272 0 -2.2207958680187857e-05 -0.020575183243889388 0 0.00010087577601935888 -0.020552647635279083 0 -2.2207958680187857e-05 -0.020575183243889388 0 4.7984212093973406e-05 -0.020620518080633757 0 -1.6614348658033895e-05 -0.020646214192909178 0 0.00010087577601935888 -0.020552647635279083 0 0.00024803966186273202 -0.02060690532188747 0 0.00012867141408757365 -0.020655883987288952 0 4.7984212093973406e-05 -0.020620518080633757 0 0.00010087577601935888 -0.020552647635279083 0 0.00012867141408757365 -0.020655883987288952 0 -0.00068506750539911159 -0.02052522895341604 0 -0.0011165763428882015 -0.017640821031872263 0 0.00010087577601935888 -0.020552647635279083 0 9.6229506130809548e-05 -0.020466464216246143 0 0.00020753162980631488 -0.020439243663844586 0 -0.00064685092105307173 -0.021005851155407863 0 -0.00034654868444381701 -0.020855143487985485 0 -9.4525043415038756e-05 -0.020894489631475825 0 -0.0005542105512658089 -0.02077286764477871 0 -0.00064685092105307173 -0.021005851155407863 0 -0.00080869314296460292 -0.020642857230125135 0 -0.0005542105512658089 -0.02077286764477871 0 -0.00064685092105307173 -0.021005851155407863 0 -0.00034654868444381701 -0.020855143487985485 0 -0.00034654868444381701 -0.020855143487985485 0 -9.4525043415038756e-05 -0.020894489631475825 0 -0.00010910502389699087 -0.0208297664737109 0 -0.001209958144640464 -0.017994306036967288 0 -0.00083198176389309405 -0.017963813000786453 0 -0.0012605892720261305 -0.017761223468766865 0 -0.00034654868444381701 -0.020855143487985485 0 -0.0001056593818429078 -0.020834284275824049 0 -0.0001378840897459829 -0.020688908765914688 0 -0.0048984074870335971 -0.0077341541155052903 0 -0.004204293710800608 -0.0083546753053335056 0 -0.0044765636986996244 -0.00902958156840678 0 -0.0011165763428882015 -0.017640821031872263 0 -0.0021934698067561909 -0.014342582037889573 0 -0.0010445098295516575 -0.01758262659918057 0 -0.0011014519127423834 -0.017509421528581079 0 -0.0011014519127423834 -0.017509421528581079 0 -0.0010943909195003602 -0.0185967242964022 0 -0.0048984074870335971 -0.0077341541155052903 0 -0.0049313485869486801 -0.0075811247029101327 0 -0.0043618833090785436 -0.0075322696126440504 0 -0.0011165763428882015 -0.017640821031872263 0 -0.0011014519127423834 -0.017509421528581079 0 -0.0048984074870335971 -0.0077341541155052903 0 -0.0042601531322347501 -0.0076492602995135908 0 -0.004071865727595326 -0.0079773155923338127 0 -0.0048984074870335971 -0.0077341541155052903 0 -0.0043618833090785436 -0.0075322696126440504 0 -0.0042601531322347501 -0.0076492602995135908 0 -0.0011014519127423834 -0.017509421528581079 0 -0.0021211977967827015 -0.01629574066000895 0 -0.0021211977967827015 -0.01629574066000895 0 -0.0021521672485838917 -0.016248509195720889 0 -0.0048984074870335971 -0.0077341541155052903 0 -0.004204293710800608 -0.0083546753053335056 0 -0.004071865727595326 -0.0079773155923338127 0 -0.0022266730298394705 -0.0072930333797851096 0 -0.0043637322430739771 -0.0075321629721863534 0 -0.0036383725627465017 -0.0078294489379818616 0 -0.0012070958773441459 -0.011288151238673879 0 -0.0021211977967827015 -0.01629574066000895 0 -0.0022266730298394705 -0.0072930333797851096 0 -0.0036383725627465017 -0.0078294489379818616 0 -0.003061707424904045 -0.0082890591986159428 0 -0.0042601531322347501 -0.0076492602995135908 0 -0.0036383725627465017 -0.0078294489379818616 0 -0.004071865727595326 -0.0079773155923338127 0 -0.0043637322430739771 -0.0075321629721863534 0 -0.0042601531322347501 -0.0076492602995135908 0 -0.0036383725627465017 -0.0078294489379818616 0 -0.0036383725627465017 -0.0078294489379818616 0 -0.0038427158842471373 -0.0082384828633558158 0 -0.004071865727595326 -0.0079773155923338127 0 -0.004204293710800608 -0.0083546753053335056 0 -0.0038427158842471373 -0.0082384828633558158 0 -0.004071865727595326 -0.0079773155923338127 0 -0.004204293710800608 -0.0083546753053335056 0 -0.003920408519293081 -0.0084908467783982276 0 -0.0040294024449181046 -0.0087579860327135772 0 -0.004204293710800608 -0.0083546753053335056 0 -0.0038427158842471373 -0.0082384828633558158 0 -0.003920408519293081 -0.0084908467783982276 0 -0.0038427158842471373 -0.0082384828633558158 0 -0.003920408519293081 -0.0084908467783982276 0 -0.0036079948439925913 -0.0086113178996324417 0 -0.0038427158842471373 -0.0082384828633558158 0 -0.003061707424904045 -0.0082890591986159428 0 -0.0036079948439925913 -0.0086113178996324417 0 -0.0036383725627465017 -0.0078294489379818616 0 -0.0038427158842471373 -0.0082384828633558158 0 -0.003061707424904045 -0.0082890591986159428 0 -0.0038392664592926643 -0.0095551311157693608 0 -0.0041512494402428371 -0.009091526595653595 0 -0.0040303726477056 -0.010360642761307192 0 -0.0027142284206612211 -0.011872182196752457 0 -0.0024561234182073556 -0.013091893582973146 0 -0.003061707424904045 -0.0082890591986159428 0 -0.0030357918829624249 -0.0090027453731551608 0 -0.0036079948439925913 -0.0086113178996324417 0 -0.0030357918829624249 -0.0090027453731551608 0 -0.0036970672905180589 -0.009071487601901497 0 -0.0036079948439925913 -0.0086113178996324417 0 -0.0036970672905180589 -0.009071487601901497 0 -0.0036079948439925913 -0.0086113178996324417 0 -0.0040294024449181046 -0.0087579860327135772 0 -0.003920408519293081 -0.0084908467783982276 0 -0.0036079948439925913 -0.0086113178996324417 0 -0.0040294024449181046 -0.0087579860327135772 0 -0.0036970672905180589 -0.009071487601901497 0 -0.0040294024449181046 -0.0087579860327135772 0 -0.0041512494402428371 -0.009091526595653595 0 -0.0036970672905180589 -0.009071487601901497 0 -0.0038392664592926643 -0.0095551311157693608 0 -0.0041512494402428371 -0.009091526595653595 0 -0.0038392664592926643 -0.0095551311157693608 0 -0.0034578159237123062 -0.0095016795037293541 0 -0.0036120274162986005 -0.010086255059987661 0 -0.0036970672905180589 -0.009071487601901497 0 -0.0038392664592926643 -0.0095551311157693608 0 -0.0034578159237123062 -0.0095016795037293541 0 -0.0030357918829624249 -0.0090027453731551608 0 -0.0036970672905180589 -0.009071487601901497 0 -0.0034578159237123062 -0.0095016795037293541 0 -0.0028632582338893511 -0.0101527418500083 0 -0.0030357918829624249 -0.0090027453731551608 0 -0.0034578159237123062 -0.0095016795037293541 0 -0.0015722251184817815 -0.015863112657654235 0 -0.0015712908251643693 -0.016242479128049776 0 -0.0018431925486301032 -0.015501991494526777 0 -0.0012660447267656061 -0.016978784140372769 0 -0.0015722251184817815 -0.015863112657654235 0 -0.0015712908251643693 -0.016242479128049776 0 -0.0041512494402428371 -0.009091526595653595 0 -0.0044765636986996244 -0.00902958156840678 0 -0.00400507472143372 -0.010653470256368702 0 -0.0011165763428882015 -0.017640821031872263 0 -0.0011269736576297947 -0.017829215984914496 0 -0.0021934698067561909 -0.014342582037889573 0 -0.0024561234182073556 -0.013091893582973146 0 0.00010087577601935888 -0.020552647635279083 0 0.00020753162980631488 -0.020439243663844586 0 0.00024803966186273202 -0.02060690532188747 0 -0.004204293710800608 -0.0083546753053335056 0 -0.0040294024449181046 -0.0087579860327135772 0 -0.0044765636986996244 -0.00902958156840678 0 -0.0040294024449181046 -0.0087579860327135772 0 -0.0041512494402428371 -0.009091526595653595 0 -0.0044765636986996244 -0.00902958156840678 0 -0.0015722251184817815 -0.015863112657654235 0 -0.0018431925486301032 -0.015501991494526777 0 -0.001864061931789715 -0.014749343697062087 0 -0.0011269736576297947 -0.017829215984914496 0 -0.0017417760627851029 -0.016323513932071224 0 0.00024803966186273202 -0.02060690532188747 0 0.00018973732943154586 -0.020717728557555111 0 0.00012867141408757365 -0.020655883987288952 0 0.00024803966186273202 -0.02060690532188747 0 0.00018973732943154586 -0.020717728557555111 0 0.00028070486178006213 -0.020768337550903796 0 -0.0028632582338893511 -0.0101527418500083 0 -0.0038648194231768285 -0.010875698884536791 0 -0.0038970942762974912 -0.011566420157931578 0 -0.0012610346993939974 -0.011738079197688966 0 -0.0016843255645796679 -0.015326434216468263 0 -0.0028632582338893511 -0.0101527418500083 0 -0.0034578159237123062 -0.0095016795037293541 0 -0.0036120274162986005 -0.010086255059987661 0 -0.0028632582338893511 -0.0101527418500083 0 -0.0036120274162986005 -0.010086255059987661 0 -0.0038648194231768285 -0.010875698884536791 0 -0.0038392664592926643 -0.0095551311157693608 0 -0.0036120274162986005 -0.010086255059987661 0 -0.0040303726477056 -0.010360642761307192 0 -0.0040253113264421938 -0.01036990883901516 0 -0.0038648194231768285 -0.010875698884536791 0 -0.0038970942762974912 -0.011566420157931578 0 -0.0036120274162986005 -0.010086255059987661 0 -0.0040303726477056 -0.010360642761307192 0 -0.0038648194231768285 -0.010875698884536791 0 -0.0024561234182073556 -0.013091893582973146 0 -0.0016843255645796679 -0.015326434216468263 0 -0.0024561234182073556 -0.013091893582973146 0 -0.0025243652475757552 -0.01291725828306513 0 -0.0023081749158837604 -0.010735670569037941 0 -0.0024730163021685066 -0.0096545397075122729 0 -0.0032469068904011451 -0.010886765624837784 0 -0.0016559782113456773 -0.016907379229505495 0 -0.0016938123613226793 -0.016487764106618542 0 -0.0017314338084304841 -0.016537640115644563 0 -0.0018431925486301032 -0.015501991494526777 0 -0.0019361294670027303 -0.014848165239748938 0 -0.001864061931789715 -0.014749343697062087 0 -0.0016843255645796679 -0.015326434216468263 0 -0.0017417760627851029 -0.016323513932071224 0 -0.0023081749158837604 -0.010735670569037941 0 -0.0032469068904011451 -0.010886765624837784 0 -0.002445719390881845 -0.011490402469038265 0 0.00018973732943154586 -0.020717728557555111 0 0.00028070486178006213 -0.020768337550903796 0 0.0001788764859126864 -0.020808617477049072 0 0.00018973732943154586 -0.020717728557555111 0 0.0001788764859126864 -0.020808617477049072 0 0.00011058773374956218 -0.020745664512555596 0 0.00011860741117812825 -0.020837247936374138 0 0.0001788764859126864 -0.020808617477049072 0 0.00011058773374956218 -0.020745664512555596 0 0.00011860741117812825 -0.020837247936374138 0 0.00011058773374956218 -0.020745664512555596 0 3.2377989413934827e-05 -0.020789273313277241 0 -3.0083151791087786e-05 -0.020713008983726109 0 3.2377989413934827e-05 -0.020789273313277241 0 4.6068151409498613e-05 -0.020694907271482006 0 0.00011058773374956218 -0.020745664512555596 0 3.2377989413934827e-05 -0.020789273313277241 0 4.6068151409498613e-05 -0.020694907271482006 0 -3.0083151791087786e-05 -0.020713008983726109 0 4.6068151409498613e-05 -0.020694907271482006 0 -1.6614348658033895e-05 -0.020646214192909178 0 4.7984212093973406e-05 -0.020620518080633757 0 4.6068151409498613e-05 -0.020694907271482006 0 -1.6614348658033895e-05 -0.020646214192909178 0 4.7984212093973406e-05 -0.020620518080633757 0 4.6068151409498613e-05 -0.020694907271482006 0 0.00012867141408757365 -0.020655883987288952 0 0.00018973732943154586 -0.020717728557555111 0 0.00011058773374956218 -0.020745664512555596 0 0.00012867141408757365 -0.020655883987288952 0 0.00011058773374956218 -0.020745664512555596 0 4.6068151409498613e-05 -0.020694907271482006 0 0.00012867141408757365 -0.020655883987288952 0 1.4417621008924244e-06 -0.034996029534898013 0 0.00018444415690623328 -0.034209808022998292 0 9.4461708261168859e-05 -0.034775986860270856 0 1.4417621008924244e-06 -0.034996029534898013 0 -4.4041409256778427e-07 -0.035000602344318087 0 9.4461708261168859e-05 -0.034775986860270856 0 0.00018444415690623328 -0.034209808022998292 0 -1.4570188472763151e-05 -0.034541654119173884 0 9.4461708261168859e-05 -0.034775986860270856 0 -0.00017957189470094279 -0.03456424143451655 0 -5.9378818836768674e-05 -0.034789648123526286 0 1.4417621008924244e-06 -0.034996029534898013 0 0.00018444415690623328 -0.034209808022998292 0 -2.1473279652625775e-06 -0.031256811207572788 0 0.00018444415690623328 -0.034209808022998292 0 -0.00025735587664840422 -0.033323537451914235 0 -0.00036100762692076427 -0.034075609655267659 0 0.00018444415690623328 -0.034209808022998292 0 -2.1473279652625775e-06 -0.031256811207572788 0 -0.00025735587664840422 -0.033323537451914235 0 -5.1644051669981921e-07 -0.031248942162113966 0 -0.00038072679291992965 -0.031131988083830987 0 -2.1473279652625775e-06 -0.031256811207572788 0 -0.00025735587664840422 -0.033323537451914235 0 -0.001151078422718402 -0.033430695679908709 0 -0.00025735587664840422 -0.033323537451914235 0 -0.00036100762692076427 -0.034075609655267659 0 -0.001151078422718402 -0.033430695679908709 0 -0.00036100762692076427 -0.034075609655267659 0 -0.00048442081144298583 -0.034439248457816832 0 -0.00080924657291579283 -0.034164822943411201 0 -0.00027918160885674376 -0.034426673994162646 0 -0.00017957189470094279 -0.03456424143451655 0 0.00018444415690623328 -0.034209808022998292 0 -0.00036100762692076427 -0.034075609655267659 0 -1.4570188472763151e-05 -0.034541654119173884 0 -0.00017148674765451406 -0.034430502093793648 0 -0.00048442081144298583 -0.034439248457816832 0 -0.00023487231358647743 -0.034699858295393758 0 -0.00036100762692076427 -0.034075609655267659 0 -0.00017148674765451406 -0.034430502093793648 0 -0.00048442081144298583 -0.034439248457816832 0 -0.00048442081144298583 -0.034439248457816832 0 -0.00091580718018820727 -0.034359495275953396 0 -0.00080924657291579283 -0.034164822943411201 0 -0.00048442081144298583 -0.034439248457816832 0 -0.00091580718018820727 -0.034359495275953396 0 -0.00052262360384788017 -0.034743081704324774 0 -0.00091580718018820727 -0.034359495275953396 0 -0.0010646793204003851 -0.034187971589116267 0 -0.00080924657291579283 -0.034164822943411201 0 -0.00067497934465309841 -0.030770984064566135 0 -0.00010192939904629158 -0.028461857552163447 0 -0.00091580718018820727 -0.034359495275953396 0 -0.0010646793204003851 -0.034187971589116267 0 -0.00095922274475908603 -0.034388148899411962 0 3.4156748182396228e-05 -0.029349938399667465 0 4.2757186858534367e-05 -0.029363281336041016 0 3.8435654881089516e-05 -0.029377063393689538 0 3.4156748182396228e-05 -0.029349938399667465 0 4.2757186858534367e-05 -0.029363281336041016 0 9.3665454353606976e-05 -0.029329437160847648 0 -0.00036100762692076427 -0.034075609655267659 0 -0.00080924657291579283 -0.034164822943411201 0 -0.001151078422718402 -0.033430695679908709 0 -0.0010646793204003851 -0.034187971589116267 0 -0.00080924657291579283 -0.034164822943411201 0 -0.001151078422718402 -0.033430695679908709 0 -0.00067497934465309841 -0.030770984064566135 0 -0.00038072679291992965 -0.031131988083830987 0 -1.1200616422597688e-06 -0.03124690796142324 0 3.8435654881089516e-05 -0.029377063393689538 0 1.0876552879117946e-06 -0.029527203715399637 0 1.0876552879117946e-06 -0.029527203715399637 0 0.0001244574575948574 -0.029097883809909041 0 -1.0561022006326261e-06 -0.027807295036490456 0 3.8435654881089516e-05 -0.029377063393689538 0 1.0876552879117946e-06 -0.029527203715399637 0 0.0001244574575948574 -0.029097883809909041 0 4.2757186858534367e-05 -0.029363281336041016 0 3.8435654881089516e-05 -0.029377063393689538 0 0.0001244574575948574 -0.029097883809909041 0 4.2757186858534367e-05 -0.029363281336041016 0 0.0001244574575948574 -0.029097883809909041 0 -0.00022785967187755339 -0.029214640253589334 0 -0.0011207412677646561 -0.024754488664358993 0 -9.8210375087676667e-05 -0.025089403838167421 0 -0.00044321923061927976 -0.024107805504290852 0 -0.0011207412677646561 -0.024754488664358993 0 -3.1262525181728328e-06 -0.027801611697881819 0 -2.8806232278057348e-05 -0.026044706926468722 0 0.0001244574575948574 -0.029097883809909041 0 -0.00022785967187755339 -0.029214640253589334 0 -1.0561022006326261e-06 -0.027807295036490456 0 -0.00019590475156583282 -0.027140311431122912 0 -4.6580638879058888e-07 -0.027803952040067151 0 1.7608563301267972e-06 -0.02592646629967512 0 -3.1262525181728328e-06 -0.027801611697881819 0 -2.8806232278057348e-05 -0.026044706926468722 0 1.7608563301267972e-06 -0.02592646629967512 0 0.00015295401958739463 -0.025402966204896588 0 -2.8806232278057348e-05 -0.026044706926468722 0 0.00015295401958739463 -0.025402966204896588 0 -9.8210375087676667e-05 -0.025089403838167421 0 4.0337512477345896e-05 -0.024357494730344095 0 0.00015295401958739463 -0.025402966204896588 0 -2.8806232278057348e-05 -0.026044706926468722 0 -9.8210375087676667e-05 -0.025089403838167421 0 -0.0011207412677646561 -0.024754488664358993 0 -2.8806232278057348e-05 -0.026044706926468722 0 -9.8210375087676667e-05 -0.025089403838167421 0 -9.8210375087676667e-05 -0.025089403838167421 0 4.0337512477345896e-05 -0.024357494730344095 0 -0.00044321923061927976 -0.024107805504290852 0 -0.00013697271094278244 -0.024051810250093199 0 4.0337512477345896e-05 -0.024357494730344095 0 -0.00044321923061927976 -0.024107805504290852 0 0.00027585675913421995 -0.023539965724792705 0 -0.00013697271094278244 -0.024051810250093199 0 4.0337512477345896e-05 -0.024357494730344095 0 0.00025337978529428492 -0.023008198651300198 0 0.00027585675913421995 -0.023539965724792705 0 -0.00013697271094278244 -0.024051810250093199 0 -0.00026636976009371228 -0.022912923011772196 0 -0.00031549382338490591 -0.023088553140201459 0 -7.4137381385984953e-05 -0.023674222516453111 0 -0.00030923881268412912 -0.023670105791436972 0 -0.00019939140590080826 -0.023547075104424567 0 -7.4137381385984953e-05 -0.023674222516453111 0 -0.00013697271094278244 -0.024051810250093199 0 -0.00030923881268412912 -0.023670105791436972 0 -0.00013697271094278244 -0.024051810250093199 0 -0.00030923881268412912 -0.023670105791436972 0 -0.00044321923061927976 -0.024107805504290852 0 4.2757186858534367e-05 -0.029363281336041016 0 -0.00022785967187755339 -0.029214640253589334 0 -0.00014962069489519783 -0.029542282189366054 0 -0.00019590475156583282 -0.027140311431122912 0 -0.00021803600824646334 -0.026848323942250747 0 -0.0011207412677646561 -0.024754488664358993 0 -0.00044321923061927976 -0.024107805504290852 0 -0.00077998255225386582 -0.023520616367366722 0 -0.00045637384668522593 -0.027352669852214812 0 -0.00021803600824646334 -0.026848323942250747 0 -0.00030923881268412912 -0.023670105791436972 0 -0.00044321923061927976 -0.024107805504290852 0 -0.00077998255225386582 -0.023520616367366722 0 3.4156748182396228e-05 -0.029349938399667465 0 9.3665454353606976e-05 -0.029329437160847648 0 9.4680768223412667e-05 -0.029259524857210454 0 -0.00021803600824646334 -0.026848323942250747 0 -0.00010192939904629158 -0.028461857552163447 0 -5.1510315472112416e-05 -0.024121101573113576 0 -0.0002992600334646014 -0.024347891487327161 0 -2.6300499946206533e-05 -0.024415541086645506 0 -0.00021803600824646334 -0.026848323942250747 0 5.362334902347051e-05 -0.025398841315347545 0 -0.00030923881268412912 -0.023670105791436972 0 -0.00018144321060825918 -0.023416996236865766 0 -0.00019939140590080826 -0.023547075104424567 0 -0.00030923881268412912 -0.023670105791436972 0 -0.00077998255225386582 -0.023520616367366722 0 -0.00018144321060825918 -0.023416996236865766 0 -0.00018144321060825918 -0.023416996236865766 0 -0.00023556994251099363 -0.023505676817322588 0 -0.00019939140590080826 -0.023547075104424567 0 -0.00030507252736651258 -0.024552104748289019 0 -2.6300499946206533e-05 -0.024415541086645506 0 -0.00030820579219450805 -0.024880551358576721 0 -0.00060793006046720244 -0.024575040449205214 0 -0.0002992600334646014 -0.024347891487327161 0 -0.00030507252736651258 -0.024552104748289019 0 -0.00036970690384366238 -0.024016939519369642 0 -0.00018144321060825918 -0.023416996236865766 0 -0.00023556994251099363 -0.023505676817322588 0 -0.0001431366157186441 -0.025040772221126988 0 5.362334902347051e-05 -0.025398841315347545 0 -0.0002992600334646014 -0.024347891487327161 0 -0.00030507252736651258 -0.024552104748289019 0 -2.6300499946206533e-05 -0.024415541086645506 0 -0.00010192939904629158 -0.028461857552163447 0 0.00061674492763489838 -0.026394480924335915 0 -0.00010192939904629158 -0.028461857552163447 0 0.00031648366982747636 -0.029567637658023428 0 7.5365431933855037e-05 -0.02438709291001186 0 0.00012919008434326902 -0.025021944987470821 0 -0.00030820579219450805 -0.024880551358576721 0 -0.00060793006046720244 -0.024575040449205214 0 -0.00030507252736651258 -0.024552104748289019 0 -0.00030820579219450805 -0.024880551358576721 0 -0.00060793006046720244 -0.024575040449205214 0 -0.00060740625292675908 -0.024966290596580593 0 -0.00030820579219450805 -0.024880551358576721 0 -0.00060740625292675908 -0.024966290596580593 0 -0.00058723812885579801 -0.025282128917171097 0 -0.00028060734377227615 -0.025205024030429179 0 0.00012919008434326902 -0.025021944987470821 0 -0.00030820579219450805 -0.024880551358576721 0 -0.00028060734377227615 -0.025205024030429179 0 -0.00060740625292675908 -0.024966290596580593 0 -0.00030820579219450805 -0.024880551358576721 0 -0.00028060734377227615 -0.025205024030429179 0 -0.00058723812885579801 -0.025282128917171097 0 -0.00028060734377227615 -0.025205024030429179 0 -0.00033438301954455049 -0.02552932770981705 0 -0.00028060734377227615 -0.025205024030429179 0 -0.00033438301954455049 -0.02552932770981705 0 0.0001879783021696709 -0.025742262947926121 0 0.00040825355712439417 -0.028559097905778839 0 0.0011935792119856837 -0.030002721436837618 0 -2.4094341354605591e-07 -0.034743687384225591 0 -0.00047568428944873959 -0.034591254063334395 0 -0.00030181616846810302 -0.034381375694610486 0 0.0011935792119856837 -0.030002721436837618 0 0.0011773995582334373 -0.030041023013233935 0 -0.00047599440421320147 -0.034607134944454887 0 -0.00047963378597366412 -0.034530471730176322 0 -0.00060071359370040178 -0.03455391023340447 0 0.0011935792119856837 -0.030002721436837618 0 0.0011901527905757037 -0.030064420028926266 0 0.00012919008434326902 -0.025021944987470821 0 -0.00028060734377227615 -0.025205024030429179 0 0.0001879783021696709 -0.025742262947926121 0 0.00031648366982747636 -0.029567637658023428 0 0.0011935792119856837 -0.030002721436837618 0 -0.00081209869597179368 -0.034518248831068084 0 -0.00067450957554915727 -0.03457760630049804 0 -0.00072272789885328048 -0.034541019799588568 0 -0.00081209869597179368 -0.034518248831068084 0 -0.00062271526870294317 -0.03455538844952568 0 -0.00067450957554915727 -0.03457760630049804 0 -0.00067450957554915727 -0.03457760630049804 0 -0.00067890805122907034 -0.034553619172904171 0 -0.00063687717444747024 -0.034521462342295278 0 -0.00067450957554915727 -0.03457760630049804 0 -0.00060071359370040178 -0.03455391023340447 0 -0.00063687717444747024 -0.034521462342295278 0 -0.00062271526870294317 -0.03455538844952568 0 -0.00067450957554915727 -0.03457760630049804 0 -0.00060071359370040178 -0.03455391023340447 0 -0.00067450957554915727 -0.03457760630049804 0 -0.00065264644697699632 -0.034622916668397043 0 -0.00067890805122907034 -0.034553619172904171 0 -0.00067450957554915727 -0.03457760630049804 0 -0.00072272789885328048 -0.034541019799588568 0 -0.00065264644697699632 -0.034622916668397043 0 -0.00072272789885328048 -0.034541019799588568 0 -0.00082995583309548458 -0.034446786224470685 0 -0.00065886230140116582 -0.03441344815420027 0 -0.00095922274475908603 -0.034388148899411962 0 -0.00081209869597179368 -0.034518248831068084 0 -0.00082995583309548458 -0.034446786224470685 0 -0.00081209869597179368 -0.034518248831068084 0 -0.00072272789885328048 -0.034541019799588568 0 -0.00082995583309548458 -0.034446786224470685 0 -0.00091580718018820727 -0.034359495275953396 0 -0.00095922274475908603 -0.034388148899411962 0 -0.00082995583309548458 -0.034446786224470685 0 -0.00069389158334130893 -0.03448713746344613 0 -0.00056386598354413859 -0.034578148620905434 0 -0.00091580718018820727 -0.034359495275953396 0 -0.00082995583309548458 -0.034446786224470685 0 -0.00065886230140116582 -0.03441344815420027 0 -0.00048442081144298583 -0.034439248457816832 0 -0.00052262360384788017 -0.034743081704324774 0 -0.00023487231358647743 -0.034699858295393758 0 -0.00052262360384788017 -0.034743081704324774 0 -0.00023487231358647743 -0.034699858295393758 0 -0.00018633428374143318 -0.034921186965224574 0 -0.00056386598354413859 -0.034578148620905434 0 -0.00037707610198636245 -0.03470448853019778 0 -0.00065886230140116582 -0.03441344815420027 0 -0.00044658117820124286 -0.03451016668072638 0 -0.0006071683483723061 -0.03455833414085227 0 -0.00072272789885328048 -0.034541019799588568 0 -0.00065886230140116582 -0.03441344815420027 0 -0.0006071683483723061 -0.03455833414085227 0 -0.00072272789885328048 -0.034541019799588568 0 -0.0006071683483723061 -0.03455833414085227 0 -0.00065264644697699632 -0.034622916668397043 0 -0.0006071683483723061 -0.03455833414085227 0 -0.00065264644697699632 -0.034622916668397043 0 -0.00048532312523697624 -0.034718542913979279 0 -0.00065264644697699632 -0.034622916668397043 0 -0.00059324359747829939 -0.034691038429086357 0 -0.00067890805122907034 -0.034553619172904171 0 -0.00065264644697699632 -0.034622916668397043 0 -0.00048532312523697624 -0.034718542913979279 0 -0.00059324359747829939 -0.034691038429086357 0 -0.00048532312523697624 -0.034718542913979279 0 -0.0003385248360153651 -0.034907953335187807 0 -0.00059324359747829939 -0.034691038429086357 0 -0.00044658117820124286 -0.03451016668072638 0 -0.0006071683483723061 -0.03455833414085227 0 -0.00048532312523697624 -0.034718542913979279 0 -0.00037707610198636245 -0.03470448853019778 0 -0.00027734400840763766 -0.034776138118750889 0 -0.00044658117820124286 -0.03451016668072638 0 -0.00048532312523697624 -0.034718542913979279 0 -0.00012291121543004781 -0.034881171103974054 0 -0.00048532312523697624 -0.034718542913979279 0 -0.00012291121543004781 -0.034881171103974054 0 -0.0003385248360153651 -0.034907953335187807 0 -9.4977409633072973e-08 -0.035000007265478673 0 -0.00012291121543004781 -0.034881171103974054 0 -0.0003385248360153651 -0.034907953335187807 0 -9.4977409633072973e-08 -0.035000007265478673 0 -1.2265179428383415e-07 -0.034999844725892675 0 -0.00012291121543004781 -0.034881171103974054 0 -1.2265179428383415e-07 -0.034999844725892675 0 -0.00012291121543004781 -0.034881171103974054 0 6.7126219652353438e-08 -0.034999608991732233 0 -0.00018633428374143318 -0.034921186965224574 0 6.7126219652353438e-08 -0.034999608991732233 0 -5.4198516416402552e-05 -0.034749336645971532 0 -0.00018633428374143318 -0.034921186965224574 0 -0.00012291121543004781 -0.034881171103974054 0 6.7126219652353438e-08 -0.034999608991732233 0 -0.00023487231358647743 -0.034699858295393758 0 -0.00018633428374143318 -0.034921186965224574 0 -5.4198516416402552e-05 -0.034749336645971532 0 -0.00017148674765451406 -0.034430502093793648 0 -0.00023487231358647743 -0.034699858295393758 0 -5.4198516416402552e-05 -0.034749336645971532 0 5.1906449735668214e-08 -0.034999687201414637 0 -5.9378818836768674e-05 -0.034789648123526286 0 -6.7021648268978355e-09 -0.034999958119511142 0 -1.5401104539646339e-05 -0.034959888637922522 0 -9.042253009752554e-06 -0.03496955791089483 0 -1.5401104539646339e-05 -0.034959888637922522 0 -2.2213352940832815e-05 -0.034935062013750462 0 -9.042253009752554e-06 -0.03496955791089483 0 -6.7021648268978355e-09 -0.034999958119511142 0 -1.5401104539646339e-05 -0.034959888637922522 0 -1.2718754388921457e-08 -0.034999957199028021 0 -4.5287601617514522e-10 -0.034999979991620037 0 -1.2718754388921457e-08 -0.034999957199028021 0 -1.3582380605302457e-05 -0.03496816244857965 0 -1.5973331444176952e-07 -0.034999720588568622 0 -0.00013281738115549364 -0.034856404038482544 0 -1.5401104539646339e-05 -0.034959888637922522 0 -1.2718754388921457e-08 -0.034999957199028021 0 -1.3582380605302457e-05 -0.03496816244857965 0 -1.5401104539646339e-05 -0.034959888637922522 0 -1.3582380605302457e-05 -0.03496816244857965 0 -3.0321688024425149e-05 -0.034927396779507645 0 -0.00013281738115549364 -0.034856404038482544 0 -0.00024570568621902418 -0.034670582973362618 0 -0.0003385248360153651 -0.034907953335187807 0 -0.00059324359747829939 -0.034691038429086357 0 -0.00064609901864998826 -0.034652919798012535 0 -0.00059324359747829939 -0.034691038429086357 0 -0.00064609901864998826 -0.034652919798012535 0 -0.00067890805122907034 -0.034553619172904171 0 -3.0321688024425149e-05 -0.034927396779507645 0 -3.2588683862815179e-05 -0.034919365216231291 0 -5.3672689546760542e-05 -0.034888895624678541 0 -1.5401104539646339e-05 -0.034959888637922522 0 -3.0321688024425149e-05 -0.034927396779507645 0 -3.2588683862815179e-05 -0.034919365216231291 0 -1.5401104539646339e-05 -0.034959888637922522 0 -3.2588683862815179e-05 -0.034919365216231291 0 -2.2213352940832815e-05 -0.034935062013750462 0 -3.2588683862815179e-05 -0.034919365216231291 0 -2.2213352940832815e-05 -0.034935062013750462 0 -4.2955665975450789e-05 -0.034882907940860956 0 -2.2213352940832815e-05 -0.034935062013750462 0 -4.2955665975450789e-05 -0.034882907940860956 0 -2.9496986509191916e-05 -0.034907597750410718 0 -4.2955665975450789e-05 -0.034882907940860956 0 -6.7559331598320669e-05 -0.034820989220947805 0 -4.6980400367861139e-05 -0.034841055608469639 0 -6.7559331598320669e-05 -0.034820989220947805 0 -5.3672689546760542e-05 -0.034888895624678541 0 -4.9820558780990033e-05 -0.034867794991148886 0 -0.00026535561029254268 -0.034395343001222413 0 -0.00015291760279657616 -0.033982172097791329 0 -3.2588683862815179e-05 -0.034919365216231291 0 -4.2955665975450789e-05 -0.034882907940860956 0 -5.3672689546760542e-05 -0.034888895624678541 0 -4.2955665975450789e-05 -0.034882907940860956 0 -6.7559331598320669e-05 -0.034820989220947805 0 -5.3672689546760542e-05 -0.034888895624678541 0 -0.00064609901864998826 -0.034652919798012535 0 -0.00069321029522536291 -0.034231127016914276 0 -0.00067890805122907034 -0.034553619172904171 0 -0.00024570568621902418 -0.034670582973362618 0 -0.00026535561029254268 -0.034395343001222413 0 -0.00067890805122907034 -0.034553619172904171 0 -0.00063687717444747024 -0.034521462342295278 0 -0.00056748321837900154 -0.034351638059376237 0 -0.00055415517241654943 -0.034460269705939239 0 -0.00063687717444747024 -0.034521462342295278 0 -0.00056748321837900154 -0.034351638059376237 0 -0.00060071359370040178 -0.03455391023340447 0 -0.00055415517241654943 -0.034460269705939239 0 -0.00063687717444747024 -0.034521462342295278 0 -0.00047963378597366412 -0.034530471730176322 0 -0.00060071359370040178 -0.03455391023340447 0 -0.00055415517241654943 -0.034460269705939239 0 -0.00055415517241654943 -0.034460269705939239 0 -0.00056748321837900154 -0.034351638059376237 0 -0.00047620729076302024 -0.034428926085000422 0 -0.00069321029522536291 -0.034231127016914276 0 -0.00056748321837900154 -0.034351638059376237 0 -0.00038789198109449386 -0.034093231763395154 0 -0.00069321029522536291 -0.034231127016914276 0 -0.00067890805122907034 -0.034553619172904171 0 -0.00056748321837900154 -0.034351638059376237 0 -0.00069321029522536291 -0.034231127016914276 0 -0.00038789198109449386 -0.034093231763395154 0 -0.00034860295436414906 -0.033683156839638184 0 -0.00038789198109449386 -0.034093231763395154 0 -0.00012774737431056851 -0.034042728278618824 0 -0.00034860295436414906 -0.033683156839638184 0 -0.00038789198109449386 -0.034093231763395154 0 -0.00030181616846810302 -0.034381375694610486 0 -0.00012774737431056851 -0.034042728278618824 0 -0.00056748321837900154 -0.034351638059376237 0 -0.00030181616846810302 -0.034381375694610486 0 -0.00047620729076302024 -0.034428926085000422 0 -0.00056748321837900154 -0.034351638059376237 0 -0.00038789198109449386 -0.034093231763395154 0 -0.00030181616846810302 -0.034381375694610486 0 -0.00047963378597366412 -0.034530471730176322 0 -0.00030181616846810302 -0.034381375694610486 0 -0.00047620729076302024 -0.034428926085000422 0 -0.00047568428944873959 -0.034591254063334395 0 -0.00047963378597366412 -0.034530471730176322 0 -0.00030181616846810302 -0.034381375694610486 0 -0.00047963378597366412 -0.034530471730176322 0 -0.00055415517241654943 -0.034460269705939239 0 -0.00047620729076302024 -0.034428926085000422 0 -2.4094341354605591e-07 -0.034743687384225591 0 -0.00030181616846810302 -0.034381375694610486 0 0.00023101396812167592 -0.03433568432490517 0 -0.00030181616846810302 -0.034381375694610486 0 -0.00012774737431056851 -0.034042728278618824 0 0.00023101396812167592 -0.03433568432490517 0 -0.00012774737431056851 -0.034042728278618824 0 -0.00034860295436414906 -0.033683156839638184 0 0.00023799769490633784 -0.033738246935542025 0 -0.00012774737431056851 -0.034042728278618824 0 0.00023101396812167592 -0.03433568432490517 0 0.00023799769490633784 -0.033738246935542025 0 -0.00015291760279657616 -0.033982172097791329 0 6.7867106946355044e-05 -0.033328791653259165 0 -0.00034860295436414906 -0.033683156839638184 0 0.00023799769490633784 -0.033738246935542025 0 0.00025326455650574601 -0.033184081181691055 0 -6.7559331598320669e-05 -0.034820989220947805 0 -4.9820558780990033e-05 -0.034867794991148886 0 -7.6810072049056708e-05 -0.034682202384670145 0 -4.9820558780990033e-05 -0.034867794991148886 0 -7.6810072049056708e-05 -0.034682202384670145 0 0.00012728139965796065 -0.034824921894881337 0 -7.6810072049056708e-05 -0.034682202384670145 0 0.00012728139965796065 -0.034824921894881337 0 0.00016035532504843778 -0.03454039266167596 0 -7.6810072049056708e-05 -0.034682202384670145 0 7.018103741918537e-05 -0.034163810209692787 0 0.00016035532504843778 -0.03454039266167596 0 -6.7559331598320669e-05 -0.034820989220947805 0 -7.6810072049056708e-05 -0.034682202384670145 0 -4.6980400367861139e-05 -0.034841055608469639 0 -7.6810072049056708e-05 -0.034682202384670145 0 -7.0430501958784584e-05 -0.034805926792167916 0 -4.6980400367861139e-05 -0.034841055608469639 0 -7.0430501958784584e-05 -0.034805926792167916 0 -7.8135354983494988e-05 -0.03486315657693264 0 -5.4886536475854892e-05 -0.03485360640972137 0 -7.0430501958784584e-05 -0.034805926792167916 0 -0.00015250282201552807 -0.034805670138066826 0 -0.00010845138157248385 -0.034842602372248899 0 -7.6810072049056708e-05 -0.034682202384670145 0 -7.0430501958784584e-05 -0.034805926792167916 0 -0.00015250282201552807 -0.034805670138066826 0 -0.00019747913825895569 -0.034066321991166972 0 -8.4156680435649881e-05 -0.03376492349551314 0 -0.00015250282201552807 -0.034805670138066826 0 -0.00013627589842692193 -0.034853124574897316 0 -0.00010845138157248385 -0.034842602372248899 0 -0.00013627589842692193 -0.034853124574897316 0 -0.00010845138157248385 -0.034842602372248899 0 -0.00010658671743758512 -0.034872209522286451 0 -0.00013627589842692193 -0.034853124574897316 0 -0.00010658671743758512 -0.034872209522286451 0 -0.00012845345709265878 -0.034881951644320272 0 -0.00010658671743758512 -0.034872209522286451 0 -0.00012845345709265878 -0.034881951644320272 0 -0.00010028005806805532 -0.034903136138485558 0 -0.00012845345709265878 -0.034881951644320272 0 -0.00010028005806805532 -0.034903136138485558 0 -0.00012616764056464042 -0.03491520702426381 0 -8.0620457626928726e-05 -0.03491733977775012 0 -7.9188259649234081e-05 -0.034892627457534832 0 -5.7910664780356014e-05 -0.034916137755378274 0 -0.00010028005806805532 -0.034903136138485558 0 -8.0620457626928726e-05 -0.03491733977775012 0 -8.8177746274249109e-05 -0.034925891534978326 0 -0.00010028005806805532 -0.034903136138485558 0 -8.0620457626928726e-05 -0.03491733977775012 0 -7.9188259649234081e-05 -0.034892627457534832 0 -0.00010658671743758512 -0.034872209522286451 0 -0.00010028005806805532 -0.034903136138485558 0 -7.9188259649234081e-05 -0.034892627457534832 0 -7.9188259649234081e-05 -0.034892627457534832 0 -7.8135354983494988e-05 -0.03486315657693264 0 -5.9430702095601423e-05 -0.034885218132891534 0 -0.00010658671743758512 -0.034872209522286451 0 -7.9188259649234081e-05 -0.034892627457534832 0 -7.8135354983494988e-05 -0.03486315657693264 0 -7.0430501958784584e-05 -0.034805926792167916 0 -0.00010845138157248385 -0.034842602372248899 0 -7.8135354983494988e-05 -0.03486315657693264 0 -0.00010845138157248385 -0.034842602372248899 0 -0.00010658671743758512 -0.034872209522286451 0 -7.8135354983494988e-05 -0.03486315657693264 0 -7.8135354983494988e-05 -0.03486315657693264 0 -5.9430702095601423e-05 -0.034885218132891534 0 -5.4886536475854892e-05 -0.03485360640972137 0 -5.9430702095601423e-05 -0.034885218132891534 0 -5.7910664780356014e-05 -0.034916137755378274 0 -3.9828070873296441e-05 -0.034896606223554776 0 -5.9430702095601423e-05 -0.034885218132891534 0 -3.9828070873296441e-05 -0.034896606223554776 0 -5.4886536475854892e-05 -0.03485360640972137 0 -7.9188259649234081e-05 -0.034892627457534832 0 -5.9430702095601423e-05 -0.034885218132891534 0 -5.7910664780356014e-05 -0.034916137755378274 0 -8.0620457626928726e-05 -0.03491733977775012 0 -5.7910664780356014e-05 -0.034916137755378274 0 -6.7954868908663249e-05 -0.034928297981184908 0 -5.7910664780356014e-05 -0.034916137755378274 0 -3.4913300842961345e-05 -0.034933284031995117 0 -5.0683088847912713e-05 -0.034936898166756186 0 -5.7910664780356014e-05 -0.034916137755378274 0 -3.4913300842961345e-05 -0.034933284031995117 0 -3.9828070873296441e-05 -0.034896606223554776 0 -3.4913300842961345e-05 -0.034933284031995117 0 -3.9828070873296441e-05 -0.034896606223554776 0 -2.0956710442135243e-05 -0.034935240116553953 0 -3.9828070873296441e-05 -0.034896606223554776 0 -4.6980400367861139e-05 -0.034841055608469639 0 -2.6607005092054038e-05 -0.034910557025241741 0 -4.6980400367861139e-05 -0.034841055608469639 0 -2.9496986509191916e-05 -0.034907597750410718 0 -2.6607005092054038e-05 -0.034910557025241741 0 -7.0430501958784584e-05 -0.034805926792167916 0 -5.4886536475854892e-05 -0.03485360640972137 0 -4.6980400367861139e-05 -0.034841055608469639 0 -3.9828070873296441e-05 -0.034896606223554776 0 -5.4886536475854892e-05 -0.03485360640972137 0 -4.6980400367861139e-05 -0.034841055608469639 0 -4.2955665975450789e-05 -0.034882907940860956 0 -4.6980400367861139e-05 -0.034841055608469639 0 -2.9496986509191916e-05 -0.034907597750410718 0 -2.2213352940832815e-05 -0.034935062013750462 0 -2.9496986509191916e-05 -0.034907597750410718 0 -1.3078719288563972e-05 -0.034947696778040896 0 -2.9496986509191916e-05 -0.034907597750410718 0 -1.3078719288563972e-05 -0.034947696778040896 0 -2.6607005092054038e-05 -0.034910557025241741 0 -3.9828070873296441e-05 -0.034896606223554776 0 -2.6607005092054038e-05 -0.034910557025241741 0 -2.0956710442135243e-05 -0.034935240116553953 0 -1.3078719288563972e-05 -0.034947696778040896 0 -2.6607005092054038e-05 -0.034910557025241741 0 -2.0956710442135243e-05 -0.034935240116553953 0 -3.4913300842961345e-05 -0.034933284031995117 0 -2.0956710442135243e-05 -0.034935240116553953 0 -1.8735914823958804e-05 -0.034960663470100295 0 -2.0956710442135243e-05 -0.034935240116553953 0 -8.8883133441916262e-06 -0.034964917300400244 0 -1.8735914823958804e-05 -0.034960663470100295 0 -1.3078719288563972e-05 -0.034947696778040896 0 -2.0956710442135243e-05 -0.034935240116553953 0 -8.8883133441916262e-06 -0.034964917300400244 0 -1.3078719288563972e-05 -0.034947696778040896 0 -8.8883133441916262e-06 -0.034964917300400244 0 -4.242594151257384e-06 -0.034975596499458347 0 -8.8883133441916262e-06 -0.034964917300400244 0 -4.242594151257384e-06 -0.034975596499458347 0 -1.4075991324374266e-06 -0.034985669567735078 0 -8.8883133441916262e-06 -0.034964917300400244 0 -1.4075991324374266e-06 -0.034985669567735078 0 -4.5901391584385075e-06 -0.034982819453189637 0 -1.4075991324374266e-06 -0.034985669567735078 0 -8.2296180529780611e-10 -0.034999968838778588 0 1.1457745156834131e-09 -0.034999980962902244 0 -4.242594151257384e-06 -0.034975596499458347 0 -1.4075991324374266e-06 -0.034985669567735078 0 -8.2296180529780611e-10 -0.034999968838778588 0 -4.242594151257384e-06 -0.034975596499458347 0 -8.2296180529780611e-10 -0.034999968838778588 0 -3.4323115348481582e-09 -0.034999958486737905 0 -1.3078719288563972e-05 -0.034947696778040896 0 -4.242594151257384e-06 -0.034975596499458347 0 -3.4323115348481582e-09 -0.034999958486737905 0 -1.3078719288563972e-05 -0.034947696778040896 0 -3.4323115348481582e-09 -0.034999958486737905 0 -9.042253009752554e-06 -0.03496955791089483 0 -2.2213352940832815e-05 -0.034935062013750462 0 -1.3078719288563972e-05 -0.034947696778040896 0 -9.042253009752554e-06 -0.03496955791089483 0 -6.7021648268978355e-09 -0.034999958119511142 0 -3.4323115348481582e-09 -0.034999958486737905 0 -9.042253009752554e-06 -0.03496955791089483 0 -0.0011236315846417393 -0.030342899413993669 0 0.00053121689426882874 -0.030389962120539026 0 -0.0015282675349673664 -0.027816666524333931 0 -0.0011236315846417393 -0.030342899413993669 0 -0.0014579392930493497 -0.031148421738139118 0 -0.0022658473428606349 -0.027776287220699469 0 -0.0005203176300931638 -0.020660084700105382 0 -0.00027970674743269333 -0.020568958416301662 0 -0.0005203176300931638 -0.020660084700105382 0 -0.00091436410306333605 -0.021252196704248976 0 -0.0011236315846417393 -0.030342899413993669 0 -0.0014579392930493497 -0.031148421738139118 0 -0.00023296470641103015 -0.030615724006771684 0 -0.0010071577827366473 -0.030933836917836105 0 -0.00023296470641103015 -0.030615724006771684 0 -0.00018203739603064582 -0.0314361889579561 0 0.0021036983771540252 -0.033251087616013232 0 0.0021433044951804838 -0.033621858827218028 0 0.0017645123793779631 -0.033562090282577284 0 0.00053121689426882874 -0.030389962120539026 0 -0.00023296470641103015 -0.030615724006771684 0 0.0004619860980261027 -0.03136293809033467 0 -0.0011236315846417393 -0.030342899413993669 0 0.00053121689426882874 -0.030389962120539026 0 -0.00023296470641103015 -0.030615724006771684 0 -0.00018203739603064582 -0.0314361889579561 0 0.0004619860980261027 -0.03136293809033467 0 0.00051930357350683668 -0.031937356076194537 0 0.0004619860980261027 -0.03136293809033467 0 0.00051930357350683668 -0.031937356076194537 0 0.0015152770854748548 -0.032569664587259635 0 0.00053121689426882874 -0.030389962120539026 0 0.0004619860980261027 -0.03136293809033467 0 0.0015152770854748548 -0.032569664587259635 0 -0.00023296470641103015 -0.030615724006771684 0 -0.00018203739603064582 -0.0314361889579561 0 0.0004619860980261027 -0.03136293809033467 0 0.00051930357350683668 -0.031937356076194537 0 -0.00063012503410208166 -0.032272122925152941 0 0.00045541192068302203 -0.032554540810112838 0 -0.00018203739603064582 -0.0314361889579561 0 0.00051930357350683668 -0.031937356076194537 0 -0.00063012503410208166 -0.032272122925152941 0 0.00011913449040118708 -0.013110246647537413 0 0.00025920387360173826 -0.012845484955343663 0 5.5803735438103307e-05 -0.012783286634653668 0 -0.0010071577827366473 -0.030933836917836105 0 -0.00018203739603064582 -0.0314361889579561 0 -0.00063012503410208166 -0.032272122925152941 0 -0.0005203176300931638 -0.020660084700105382 0 0.00031348290633334704 -0.022527971211943339 0 -0.0005203176300931638 -0.020660084700105382 0 0.00075176717618867192 -0.016335641181805048 0 0.00011913449040118708 -0.013110246647537413 0 0.00025920387360173826 -0.012845484955343663 0 0.0004706160941179505 -0.012949779457638273 0 0.00025920387360173826 -0.012845484955343663 0 0.0004706160941179505 -0.012949779457638273 0 0.00038846060700999888 -0.012660920521276755 0 0.0004706160941179505 -0.012949779457638273 0 0.0005896357400148128 -0.012687534625636434 0 0.00038846060700999888 -0.012660920521276755 0 0.00075176717618867192 -0.016335641181805048 0 0.001791025447878445 -0.012659452620361914 0 0.0004706160941179505 -0.012949779457638273 0 0.00079804668473189104 -0.012770346535046577 0 0.0005896357400148128 -0.012687534625636434 0 0.00046651914621526221 -0.016313806257467749 0 0.0021612151142585026 -0.015695613272654931 0 0.00070200171902967006 -0.017384501598597314 0 0.001791025447878445 -0.012659452620361914 0 0.0012461913317172034 -0.015036251524180229 0 -0.00066217007309271657 -0.0073737697945483235 0 -0.00077045469294052696 -0.0073907591685737741 0 -0.00070414310652086229 -0.0074751201303638977 0 -0.00066217007309271657 -0.0073737697945483235 0 -0.00067830147781720363 -0.0072744985287426399 0 -0.00077045469294052696 -0.0073907591685737741 0 -0.0012189877845107321 -0.01692877598742791 0 0.00046651914621526221 -0.016313806257467749 0 0.00070200171902967006 -0.017384501598597314 0 0.0012461913317172034 -0.015036251524180229 0 -0.00027970674743269333 -0.020568958416301662 0 -0.0012189877845107321 -0.01692877598742791 0 0.00070200171902967006 -0.017384501598597314 0 -0.00074968624406777451 -0.01906120136839709 0 -0.00077045469294052696 -0.0073907591685737741 0 -0.00079167067950827632 -0.0075002697772930471 0 -0.00087118506924347599 -0.0075252882189490141 0 -0.00079167067950827632 -0.0075002697772930471 0 -0.00085594238043708217 -0.0075961200744657231 0 -0.00087118506924347599 -0.0075252882189490141 0 -0.0011813628745224955 -0.019189864938963113 0 -0.00027970674743269333 -0.020568958416301662 0 -0.00077045469294052696 -0.0073907591685737741 0 -0.00079167067950827632 -0.0075002697772930471 0 -0.00070414310652086229 -0.0074751201303638977 0 -0.00079167067950827632 -0.0075002697772930471 0 -0.00070414310652086229 -0.0074751201303638977 0 -0.0007795730348161944 -0.007572772203173761 0 -0.00063222183573860341 -0.007587357763655391 0 -0.00079559338698250337 -0.0076572566054413631 0 -0.00071018183250908613 -0.0075576424895714969 0 -0.00064066605033924907 -0.0075026377726883356 0 -0.00070414310652086229 -0.0074751201303638977 0 -0.00071018183250908613 -0.0075576424895714969 0 -0.00070414310652086229 -0.0074751201303638977 0 -0.00071018183250908613 -0.0075576424895714969 0 -0.0007795730348161944 -0.007572772203173761 0 -0.00079559338698250337 -0.0076572566054413631 0 -0.00071018183250908613 -0.0075576424895714969 0 -0.0007795730348161944 -0.007572772203173761 0 -0.0011238557064265869 -0.019969073974723129 0 -0.00093177317259398164 -0.020194277911356882 0 -0.00069445543143034031 -0.021860030063327283 0 -0.0012272342677234144 -0.019022204231782584 0 -0.0012340267717513419 -0.019012297339208548 0 -0.0012232953547745269 -0.019076171698964483 0 -0.0011813628745224955 -0.019189864938963113 0 -0.000970240966777267 -0.019955361779619096 0 -0.00079167067950827632 -0.0075002697772930471 0 -0.00085594238043708217 -0.0075961200744657231 0 -0.0007795730348161944 -0.007572772203173761 0 -0.00079559338698250337 -0.0076572566054413631 0 -0.00085594238043708217 -0.0075961200744657231 0 -0.0007795730348161944 -0.007572772203173761 0 -0.0011813628745224955 -0.019189864938963113 0 -0.0010943909195003602 -0.0185967242964022 0 -0.00083198176389309405 -0.017963813000786453 0 -0.0013486392742187942 -0.017355338912921198 0 -0.0012605892720261305 -0.017761223468766865 0 -0.0021211977967827015 -0.01629574066000895 0 -0.0011813628745224955 -0.019189864938963113 0 -0.000970240966777267 -0.019955361779619096 0 -0.0010943909195003602 -0.0185967242964022 0 -0.00034654868444381701 -0.020855143487985485 0 -0.0001378840897459829 -0.020688908765914688 0 -0.00041747255518275286 -0.020587240324030004 0 0.0025886048491785105 -0.033828657315457873 0 0.0021057181318908671 -0.033845053355952094 0 0.0022435315346466611 -0.034246413874310523 0 -0.00023285114305612398 -0.020388079937369429 0 -0.0001378840897459829 -0.020688908765914688 0 -0.00041747255518275286 -0.020587240324030004 0 -0.0005542105512658089 -0.02077286764477871 0 -0.00034654868444381701 -0.020855143487985485 0 -0.00041747255518275286 -0.020587240324030004 0 -0.0005542105512658089 -0.02077286764477871 0 -0.00041747255518275286 -0.020587240324030004 0 -0.00080869314296460292 -0.020642857230125135 0 -0.00041747255518275286 -0.020587240324030004 0 -0.00040634424566229741 -0.020185120149565139 0 -0.00080869314296460292 -0.020642857230125135 0 -0.00055680656575966391 -0.022770462531284605 0 -0.0009059620409370779 -0.024194367345048033 0 -0.00023285114305612398 -0.020388079937369429 0 -0.00041747255518275286 -0.020587240324030004 0 -0.00040634424566229741 -0.020185120149565139 0 -0.000970240966777267 -0.019955361779619096 0 -0.00055680656575966391 -0.022770462531284605 0 -0.000970240966777267 -0.019955361779619096 0 -0.00049729668148404827 -0.021626156218467894 0 4.2888857740273014e-05 -0.024860954173130202 0 -0.00049729668148404827 -0.021626156218467894 0 -0.0011236315846417393 -0.030342899413993669 0 -0.0020468980048606593 -0.027520802208828587 0 -0.0022658473428606349 -0.027776287220699469 0 -0.00093177317259398164 -0.020194277911356882 0 -0.00047400458953230729 -0.021604271350926362 0 -0.00069445543143034031 -0.021860030063327283 0 0.0020757070636379959 -0.029357201318191303 0 -0.00055680656575966391 -0.022770462531284605 0 -0.00081659460514417925 -0.021650058174355211 0 -0.00043368343305131272 -0.022835462832367176 0 -0.00011903553777182146 -0.022471150065965721 0 -0.0011236315846417393 -0.030342899413993669 0 -0.0018170501943849712 -0.028148211239922154 0 -0.0015282675349673664 -0.027816666524333931 0 -0.00049729668148404827 -0.021626156218467894 0 -0.00055680656575966391 -0.022770462531284605 0 -0.00049729668148404827 -0.021626156218467894 0 -0.00027970674743269333 -0.020568958416301662 0 0.0021057181318908671 -0.033845053355952094 0 0.0018243164602313369 -0.034071325928390191 0 0.0017645123793779631 -0.033562090282577284 0 0.0025886048491785105 -0.033828657315457873 0 0.0021433044951804838 -0.033621858827218028 0 0.0021057181318908671 -0.033845053355952094 0 0.0021036983771540252 -0.033251087616013232 0 0.0025886048491785105 -0.033828657315457873 0 0.0021433044951804838 -0.033621858827218028 0 0.0021433044951804838 -0.033621858827218028 0 0.0021057181318908671 -0.033845053355952094 0 0.0017645123793779631 -0.033562090282577284 0 0.0018892888382590364 -0.034655111124075072 0 0.0022435315346466611 -0.034246413874310523 0 0.0018243164602313369 -0.034071325928390191 0 0.0021057181318908671 -0.033845053355952094 0 0.0022435315346466611 -0.034246413874310523 0 0.0018243164602313369 -0.034071325928390191 0 0.0018892888382590364 -0.034655111124075072 0 0.0018243164602313369 -0.034071325928390191 0 0.0014402571834026291 -0.034247313967600612 0 0.0018243164602313369 -0.034071325928390191 0 0.0014402571834026291 -0.034247313967600612 0 0.0015046499788486688 -0.033858481085209433 0 0.0014402571834026291 -0.034247313967600612 0 0.0010751495883537341 -0.033917919874067053 0 0.0015046499788486688 -0.033858481085209433 0 0.0014402571834026291 -0.034247313967600612 0 0.0010751495883537341 -0.033917919874067053 0 0.00085035812509763609 -0.034400044933432065 0 0.0010751495883537341 -0.033917919874067053 0 0.0008235207969979544 -0.033448257732782781 0 0.0013242341095434282 -0.033452829673051923 0 0.0010751495883537341 -0.033917919874067053 0 0.0015046499788486688 -0.033858481085209433 0 0.0013242341095434282 -0.033452829673051923 0 0.0017645123793779631 -0.033562090282577284 0 0.0015046499788486688 -0.033858481085209433 0 0.0013242341095434282 -0.033452829673051923 0 0.0018243164602313369 -0.034071325928390191 0 0.0017645123793779631 -0.033562090282577284 0 0.0015046499788486688 -0.033858481085209433 0 0.00023101396812167592 -0.03433568432490517 0 0.00085035812509763609 -0.034400044933432065 0 0.0006232584412515942 -0.034002966889370212 0 0.0010751495883537341 -0.033917919874067053 0 0.00085035812509763609 -0.034400044933432065 0 0.0006232584412515942 -0.034002966889370212 0 0.0010751495883537341 -0.033917919874067053 0 0.0006232584412515942 -0.034002966889370212 0 0.0008235207969979544 -0.033448257732782781 0 0.0006232584412515942 -0.034002966889370212 0 0.00023799769490633784 -0.033738246935542025 0 0.0008235207969979544 -0.033448257732782781 0 0.00023101396812167592 -0.03433568432490517 0 0.0006232584412515942 -0.034002966889370212 0 0.00023799769490633784 -0.033738246935542025 0 0.00023799769490633784 -0.033738246935542025 0 0.0008235207969979544 -0.033448257732782781 0 0.00025326455650574601 -0.033184081181691055 0 0.00063384578836042692 -0.03469197751514759 0 0.00012728139965796065 -0.034824921894881337 0 0.00037170090917810073 -0.034551024307599203 0 0.00027224536510412858 -0.032183487452742444 0 6.7867106946355044e-05 -0.033328791653259165 0 0.0008235207969979544 -0.033448257732782781 0 0.00099923400066504386 -0.032724348095408522 0 0.00025326455650574601 -0.033184081181691055 0 0.00012728139965796065 -0.034824921894881337 0 0.00016035532504843778 -0.03454039266167596 0 0.00037170090917810073 -0.034551024307599203 0 0.0017645123793779631 -0.033562090282577284 0 0.0015870660722770212 -0.033151100746437893 0 0.0013242341095434282 -0.033452829673051923 0 0.0021036983771540252 -0.033251087616013232 0 0.0017645123793779631 -0.033562090282577284 0 0.0015870660722770212 -0.033151100746437893 0 0.0008235207969979544 -0.033448257732782781 0 0.0013242341095434282 -0.033452829673051923 0 0.0012550776235931581 -0.033035304072733314 0 0.0015870660722770212 -0.033151100746437893 0 0.0013242341095434282 -0.033452829673051923 0 0.0012550776235931581 -0.033035304072733314 0 0.00099923400066504386 -0.032724348095408522 0 0.0012550776235931581 -0.033035304072733314 0 0.0015152770854748548 -0.032569664587259635 0 0.0008235207969979544 -0.033448257732782781 0 0.00099923400066504386 -0.032724348095408522 0 0.0012550776235931581 -0.033035304072733314 0 0.0015870660722770212 -0.033151100746437893 0 0.0012550776235931581 -0.033035304072733314 0 0.0015152770854748548 -0.032569664587259635 0 0.0020757070636379959 -0.029357201318191303 0 0.0023588764533363157 -0.03067811027368365 0 0.00051930357350683668 -0.031937356076194537 0 0.0015152770854748548 -0.032569664587259635 0 0.0010268253227115492 -0.032424783006263135 0 0.0021036983771540252 -0.033251087616013232 0 0.0015870660722770212 -0.033151100746437893 0 0.0015152770854748548 -0.032569664587259635 0 0.0015152770854748548 -0.032569664587259635 0 0.001499715259025948 -0.032628649042857817 0 0.0010268253227115492 -0.032424783006263135 0 0.001499715259025948 -0.032628649042857817 0 0.0010268253227115492 -0.032424783006263135 0 0.00045541192068302203 -0.032554540810112838 0 0.00063384578836042692 -0.03469197751514759 0 0.0012963745396669714 -0.034369728322569515 0 0.0006296257589675574 -0.034423592692434529 0 0.0012963745396669714 -0.034369728322569515 0 0.0012831530672684653 -0.034144315217586096 0 0.0006296257589675574 -0.034423592692434529 0 0.00099923400066504386 -0.032724348095408522 0 0.0015152770854748548 -0.032569664587259635 0 0.001499715259025948 -0.032628649042857817 0 0.0013699333732347667 -0.028981330509962187 0 0.00087509100106532376 -0.030304301311075539 0 0.00027224536510412858 -0.032183487452742444 0 0.00028811146388477729 -0.029925699435208637 0 0.0033622225388611087 -0.033933599703126649 0 0.0019781802308053847 -0.033553703280226589 0 0.0006296257589675574 -0.034423592692434529 0 0.0019781802308053847 -0.033553703280226589 0 0.0011106891252097865 -0.033729597589483566 0 0.0006296257589675574 -0.034423592692434529 0 0.0019781802308053847 -0.033553703280226589 0 0.0011106891252097865 -0.033729597589483566 0 0.00099782977063210543 -0.032914068455079624 0 0.0011106891252097865 -0.033729597589483566 0 0.00099782977063210543 -0.032914068455079624 0 0.00062748739390237462 -0.034082075858406842 0 0.0019781802308053847 -0.033553703280226589 0 0.00099782977063210543 -0.032914068455079624 0 0.0016495753208640384 -0.031913365776490982 0 0.0019781802308053847 -0.033553703280226589 0 0.0029473574764066856 -0.032778182241159269 0 0.0016495753208640384 -0.031913365776490982 0 0.0029473574764066856 -0.032778182241159269 0 0.0038795493100422474 -0.033067047818180553 0 0.0044220776250576748 -0.032031298005302009 0 0.0033622225388611087 -0.033933599703126649 0 0.0038795493100422474 -0.033067047818180553 0 0.0030390854461884113 -0.033333722062353549 0 0.0019781802308053847 -0.033553703280226589 0 0.0029473574764066856 -0.032778182241159269 0 0.0030390854461884113 -0.033333722062353549 0 0.0033622225388611087 -0.033933599703126649 0 0.0019781802308053847 -0.033553703280226589 0 0.0030390854461884113 -0.033333722062353549 0 0.0029473574764066856 -0.032778182241159269 0 0.0038795493100422474 -0.033067047818180553 0 0.0030390854461884113 -0.033333722062353549 0 0.00016035532504843778 -0.03454039266167596 0 0.00034367885137234018 -0.034359511288741644 0 0.00037170090917810073 -0.034551024307599203 0 0.00016035532504843778 -0.03454039266167596 0 0.00034367885137234018 -0.034359511288741644 0 0.00024075392238592438 -0.034280607231952996 0 0.00045541080531719239 -0.034320288403004488 0 0.00037170090917810073 -0.034551024307599203 0 0.0006296257589675574 -0.034423592692434529 0 0.00045541080531719239 -0.034320288403004488 0 0.00062748739390237462 -0.034082075858406842 0 0.00042668520201547694 -0.034164891881300341 0 0.00034367885137234018 -0.034359511288741644 0 0.00045541080531719239 -0.034320288403004488 0 0.00037170090917810073 -0.034551024307599203 0 0.00034367885137234018 -0.034359511288741644 0 0.00045541080531719239 -0.034320288403004488 0 0.00042668520201547694 -0.034164891881300341 0 0.00063384578836042692 -0.03469197751514759 0 0.00037170090917810073 -0.034551024307599203 0 0.0006296257589675574 -0.034423592692434529 0 0.00045541080531719239 -0.034320288403004488 0 0.0006296257589675574 -0.034423592692434529 0 0.00062748739390237462 -0.034082075858406842 0 0.0011106891252097865 -0.033729597589483566 0 0.0006296257589675574 -0.034423592692434529 0 0.00062748739390237462 -0.034082075858406842 0 0.00062748739390237462 -0.034082075858406842 0 0.00042668520201547694 -0.034164891881300341 0 0.00039549217900586466 -0.034064900844870565 0 0.00099782977063210543 -0.032914068455079624 0 0.00062748739390237462 -0.034082075858406842 0 -0.00062183390961086939 -0.032104124408886318 0 0.00099782977063210543 -0.032914068455079624 0 -0.00062183390961086939 -0.032104124408886318 0 0.0016495753208640384 -0.031913365776490982 0 0.00060911064828345031 -0.032821620623497277 0 0.00040510575246657256 -0.0322740325994431 0 0.00042668520201547694 -0.034164891881300341 0 0.00036596025703856152 -0.0341138344803531 0 0.00039549217900586466 -0.034064900844870565 0 0.00035771305953885476 -0.0323712564293894 0 0.00040510575246657256 -0.0322740325994431 0 7.018103741918537e-05 -0.034163810209692787 0 0.00016035532504843778 -0.03454039266167596 0 0.00024075392238592438 -0.034280607231952996 0 7.018103741918537e-05 -0.034163810209692787 0 0.00036596025703856152 -0.0341138344803531 0 0.00031828619737681989 -0.033789612682041344 0 0.00034449214968664698 -0.034215775479234357 0 0.00036596025703856152 -0.0341138344803531 0 0.00024075392238592438 -0.034280607231952996 0 0.00034367885137234018 -0.034359511288741644 0 0.00034449214968664698 -0.034215775479234357 0 0.00024075392238592438 -0.034280607231952996 0 0.00034367885137234018 -0.034359511288741644 0 0.00042668520201547694 -0.034164891881300341 0 0.00034449214968664698 -0.034215775479234357 0 0.00042668520201547694 -0.034164891881300341 0 0.00034449214968664698 -0.034215775479234357 0 0.00036596025703856152 -0.0341138344803531 0 7.018103741918537e-05 -0.034163810209692787 0 0.00036596025703856152 -0.0341138344803531 0 0.00024075392238592438 -0.034280607231952996 0 -8.4156680435649881e-05 -0.03376492349551314 0 0.00049445470807689537 -0.032507130997947907 0 -0.00015250282201552807 -0.034805670138066826 0 -0.00013627589842692193 -0.034853124574897316 0 -0.00017583767445510014 -0.034861486200673059 0 0.00036596025703856152 -0.0341138344803531 0 0.00031828619737681989 -0.033789612682041344 0 0.00044838798498515622 -0.0340033450876479 0 -0.00013627589842692193 -0.034853124574897316 0 -0.00012845345709265878 -0.034881951644320272 0 -0.00017583767445510014 -0.034861486200673059 0 0.00049445470807689537 -0.032507130997947907 0 0.00040510575246657256 -0.0322740325994431 0 0.00040510575246657256 -0.0322740325994431 0 0.00071670245461970001 -0.02993084478276584 0 0.00069513645911979942 -0.030572717100868681 0 0.00071090696458846821 -0.030603588966196381 0 0.00074947677534764232 -0.030537640430482592 0 -0.00062183390961086939 -0.032104124408886318 0 0.0016495753208640384 -0.031913365776490982 0 0.0010709442878438415 -0.029795809747948848 0 0.00049445470807689537 -0.032507130997947907 0 0.0010095536400437206 -0.031133888323706425 0 0.00069513645911979942 -0.030572717100868681 0 0.00073973922919195534 -0.030522404438574503 0 0.00074947677534764232 -0.030537640430482592 0 0.0010381084969259349 -0.030134349204621665 0 0.00089398074515444558 -0.030330355354014071 0 0.0010300834942476118 -0.030383824335270856 0 -0.00012845345709265878 -0.034881951644320272 0 -0.00017583767445510014 -0.034861486200673059 0 -0.00012616764056464042 -0.03491520702426381 0 0.0010381084969259349 -0.030134349204621665 0 0.0010300834942476118 -0.030383824335270856 0 0.0011742494766758213 -0.030325473325902467 0 0.00049445470807689537 -0.032507130997947907 0 0.00050875010163893217 -0.032658882856995787 0 0.0029473574764066856 -0.032778182241159269 0 0.0033619126410814291 -0.030366381072997994 0 0.0016495753208640384 -0.031913365776490982 0 0.0029473574764066856 -0.032778182241159269 0 0.0033619126410814291 -0.030366381072997994 0 0.0044220776250576748 -0.032031298005302009 0 0.0033619126410814291 -0.030366381072997994 0 0.0016495753208640384 -0.031913365776490982 0 0.0010709442878438415 -0.029795809747948848 0 0.00071670245461970001 -0.02993084478276584 0 0.0010348052558693428 -0.027299727950025294 0 0.0033619126410814291 -0.030366381072997994 0 0.0010709442878438415 -0.029795809747948848 0 0.0027507112109772833 -0.027483188734615797 0 0.00073973922919195534 -0.030522404438574503 0 0.00074947677534764232 -0.030537640430482592 0 0.00074806182809475776 -0.030508121781695104 0 0.0033619126410814291 -0.030366381072997994 0 0.0050555517053238793 -0.027901145308391617 0 0.0027507112109772833 -0.027483188734615797 0 0.0019783780729180881 -0.022096047045996273 0 0.0022064150701404531 -0.020893903293789557 0 0.00075817529920320457 -0.012146827922504877 0 0.00073217485831700573 -0.012195633931714307 0 0.00077639699971870587 -0.012158369616631481 0 0.0033619126410814291 -0.030366381072997994 0 0.0056341488287340313 -0.03062224114142581 0 0.0050555517053238793 -0.027901145308391617 0 0.00075817529920320457 -0.012146827922504877 0 0.00075720400670608841 -0.012168649755400643 0 0.00073217485831700573 -0.012195633931714307 0 0.00075817529920320457 -0.012146827922504877 0 0.00075720400670608841 -0.012168649755400643 0 0.00077065642282802269 -0.012119208528502713 0 0.00075720400670608841 -0.012168649755400643 0 0.00074996883081862641 -0.012214699103994907 0 0.00073217485831700573 -0.012195633931714307 0 0.00074996883081862641 -0.012214699103994907 0 0.00073217485831700573 -0.012195633931714307 0 0.00072463020668865857 -0.012281298635062153 0 0.00075720400670608841 -0.012168649755400643 0 0.00074996883081862641 -0.012214699103994907 0 0.00076411635984374607 -0.012187570864070615 0 0.0033619126410814291 -0.030366381072997994 0 0.0056341488287340313 -0.03062224114142581 0 0.0044220776250576748 -0.032031298005302009 0 0.0056341488287340313 -0.03062224114142581 0 0.0044220776250576748 -0.032031298005302009 0 0.0062123959792422011 -0.033310761049095999 0 0.0019783780729180881 -0.022096047045996273 0 0.0013107898847430877 -0.024609611750843741 0 0.0013699333732347667 -0.028981330509962187 0 0.0013107898847430877 -0.024609611750843741 0 0.0038795493100422474 -0.033067047818180553 0 0.0044220776250576748 -0.032031298005302009 0 0.0062123959792422011 -0.033310761049095999 0 0.0033622225388611087 -0.033933599703126649 0 0.0038795493100422474 -0.033067047818180553 0 0.0062123959792422011 -0.033310761049095999 0 0.0012831530672684653 -0.034144315217586096 0 0.0020912620437106674 -0.033874157683549976 0 0.0021091451945108694 -0.033957039415457468 0 0.00074996883081862641 -0.012214699103994907 0 0.00075252458782388957 -0.012256283277124464 0 0.00072463020668865857 -0.012281298635062153 0 0.00074996883081862641 -0.012214699103994907 0 0.00075252458782388957 -0.012256283277124464 0 0.00076263050294433682 -0.012240146102601646 0 0.0017359609810297431 -0.022943807442645705 0 0.0013295794890482915 -0.024544407032620563 0 0.00020611500058559772 -0.012371083945738236 0 -6.2462503430337735e-06 -0.012480593190330834 0 0.00020457820788575361 -0.012606849675008407 0 0.0016210537579869212 -0.02362359276854524 0 0.0011156341483664369 -0.023729864352649278 0 0.0011392770959276915 -0.023836828549703707 0 0.0017359609810297431 -0.022943807442645705 0 0.0013107898847430877 -0.024609611750843741 0 0.0013107898847430877 -0.024609611750843741 0 0.0013295794890482915 -0.024544407032620563 0 0.0013295794890482915 -0.024544407032620563 0 0.00031348290633334704 -0.022527971211943339 0 -6.2462503430337735e-06 -0.012480593190330834 0 0.00020457820788575361 -0.012606849675008407 0 5.5803735438103307e-05 -0.012783286634653668 0 -0.00028890512068552754 -0.033492294437717458 0 -0.00063012503410208166 -0.032272122925152941 0 0.00045541192068302203 -0.032554540810112838 0 0.00025920387360173826 -0.012845484955343663 0 0.00020457820788575361 -0.012606849675008407 0 5.5803735438103307e-05 -0.012783286634653668 0 0.001499715259025948 -0.032628649042857817 0 -0.00028890512068552754 -0.033492294437717458 0 0.00045541192068302203 -0.032554540810112838 0 0.0012963745396669714 -0.034369728322569515 0 0.0012831530672684653 -0.034144315217586096 0 0.0021091451945108694 -0.033957039415457468 0 0.00028811146388477729 -0.029925699435208637 0 0.0013295794890482915 -0.024544407032620563 0 0.00051930357350683668 -0.031937356076194537 0 0.0010268253227115492 -0.032424783006263135 0 0.00045541192068302203 -0.032554540810112838 0 0.0005454632862889506 -0.012483324374575047 0 0.00074509684310694125 -0.012505439065360776 0 0.0005896357400148128 -0.012687534625636434 0 0.00079804668473189104 -0.012770346535046577 0 0.00074509684310694125 -0.012505439065360776 0 0.0005896357400148128 -0.012687534625636434 0 0.0005454632862889506 -0.012483324374575047 0 0.0005896357400148128 -0.012687534625636434 0 0.00038846060700999888 -0.012660920521276755 0 0.00025920387360173826 -0.012845484955343663 0 0.00020457820788575361 -0.012606849675008407 0 0.00038846060700999888 -0.012660920521276755 0 0.00020611500058559772 -0.012371083945738236 0 0.00020457820788575361 -0.012606849675008407 0 0.00034091402515182018 -0.01249136693368849 0 0.00020457820788575361 -0.012606849675008407 0 0.00038846060700999888 -0.012660920521276755 0 0.00034091402515182018 -0.01249136693368849 0 0.0005454632862889506 -0.012483324374575047 0 0.00038846060700999888 -0.012660920521276755 0 0.00034091402515182018 -0.01249136693368849 0 0.0005454632862889506 -0.012483324374575047 0 0.00034091402515182018 -0.01249136693368849 0 0.00035952280377267399 -0.012326342578113218 0 0.0017359609810297431 -0.022943807442645705 0 0.0018126230085985871 -0.021488920381906709 0 0.00020611500058559772 -0.012371083945738236 0 0.00034091402515182018 -0.01249136693368849 0 0.00035952280377267399 -0.012326342578113218 0 0.0018126230085985871 -0.021488920381906709 0 0.0018730316027758675 -0.020059399849801103 0 0.0005454632862889506 -0.012483324374575047 0 0.00035952280377267399 -0.012326342578113218 0 0.00075848501043646044 -0.012231443707423286 0 0.0005454632862889506 -0.012483324374575047 0 0.00074509684310694125 -0.012505439065360776 0 0.00075848501043646044 -0.012231443707423286 0 0.00076263050294433682 -0.012240146102601646 0 0.00075848501043646044 -0.012231443707423286 0 0.00077354512250434526 -0.012170706724544476 0 0.00075848501043646044 -0.012231443707423286 0 0.00077354512250434526 -0.012170706724544476 0 0.00081775452850575616 -0.012107309857529681 0 0.00077354512250434526 -0.012170706724544476 0 0.00081775452850575616 -0.012107309857529681 0 0.00077851784499111392 -0.012136521637549582 0 0.00075720400670608841 -0.012168649755400643 0 0.00076411635984374607 -0.012187570864070615 0 0.00077851784499111392 -0.012136521637549582 0 0.00076263050294433682 -0.012240146102601646 0 0.00077354512250434526 -0.012170706724544476 0 0.00076411635984374607 -0.012187570864070615 0 0.00074996883081862641 -0.012214699103994907 0 0.00076263050294433682 -0.012240146102601646 0 0.00076411635984374607 -0.012187570864070615 0 0.00077354512250434526 -0.012170706724544476 0 0.00076411635984374607 -0.012187570864070615 0 0.00077851784499111392 -0.012136521637549582 0 0.00075720400670608841 -0.012168649755400643 0 0.00077851784499111392 -0.012136521637549582 0 0.00077065642282802269 -0.012119208528502713 0 0.00077851784499111392 -0.012136521637549582 0 0.00077065642282802269 -0.012119208528502713 0 0.00081542126641883359 -0.012056087403867252 0 0.00087395110076457104 -0.011997932609987844 0 0.00081775452850575616 -0.012107309857529681 0 0.00081542126641883359 -0.012056087403867252 0 0.00081775452850575616 -0.012107309857529681 0 0.00077851784499111392 -0.012136521637549582 0 0.00081542126641883359 -0.012056087403867252 0 0.00087395110076457104 -0.011997932609987844 0 0.00081542126641883359 -0.012056087403867252 0 0.00086272191051288741 -0.01198480479452908 0 0.00081542126641883359 -0.012056087403867252 0 0.00082444355601773522 -0.012020179272661326 0 0.00086272191051288741 -0.01198480479452908 0 0.00081542126641883359 -0.012056087403867252 0 0.00078460113325561488 -0.012080674444685286 0 0.00082444355601773522 -0.012020179272661326 0 0.00077065642282802269 -0.012119208528502713 0 0.00081542126641883359 -0.012056087403867252 0 0.00078460113325561488 -0.012080674444685286 0 0.00077065642282802269 -0.012119208528502713 0 0.00078460113325561488 -0.012080674444685286 0 0.00076227517621456765 -0.012133175193224995 0 0.00079314774609393979 -0.012055782969587562 0 0.00082173110350836347 -0.011998726153732155 0 0.00078703639379255831 -0.012084635811652793 0 0.00078460113325561488 -0.012080674444685286 0 0.00079314774609393979 -0.012055782969587562 0 0.00082444355601773522 -0.012020179272661326 0 0.00079314774609393979 -0.012055782969587562 0 0.00082444355601773522 -0.012020179272661326 0 0.00082173110350836347 -0.011998726153732155 0 0.00082444355601773522 -0.012020179272661326 0 0.00086153903809882903 -0.011981988132378538 0 0.00086272191051288741 -0.01198480479452908 0 0.00082444355601773522 -0.012020179272661326 0 0.00086153903809882903 -0.011981988132378538 0 0.00082173110350836347 -0.011998726153732155 0 0.0013762361793647647 -0.012326677957408981 0 0.0017538181925269589 -0.01210663900249913 0 0.0017087435771276506 -0.012781895082315552 0 0.0014946099331504515 -0.015281035645268169 0 0.0012811890358788249 -0.014712154494635128 0 0.00086153903809882903 -0.011981988132378538 0 0.00082173110350836347 -0.011998726153732155 0 0.00089739741073432044 -0.011961185254055191 0 0.0013762361793647647 -0.012326677957408981 0 0.0017538181925269589 -0.01210663900249913 0 0.0010523078188809732 -0.012045821088299215 0 0.0017538181925269589 -0.01210663900249913 0 0.0010523078188809732 -0.012045821088299215 0 0.00089739741073432044 -0.011961185254055191 0 0.0013762361793647647 -0.012326677957408981 0 0.0017087435771276506 -0.012781895082315552 0 0.00085367100295539479 -0.012305181668337261 0 0.0012779076792351558 -0.016243834412859707 0 0.00066250044497493494 -0.014024217725943066 0 0.0014946099331504515 -0.015281035645268169 0 0.0019493536589153182 -0.017211518460655006 0 0.0017538181925269589 -0.01210663900249913 0 0.0023572720105912259 -0.012430913832816172 0 0.0025880804308713382 -0.012161425482764224 0 0.0017538181925269589 -0.01210663900249913 0 0.0023572720105912259 -0.012430913832816172 0 0.0022354217723590396 -0.012706667168807044 0 0.0017538181925269589 -0.01210663900249913 0 0.0022354217723590396 -0.012706667168807044 0 0.0017087435771276506 -0.012781895082315552 0 0.0012779076792351558 -0.016243834412859707 0 0.0029244995974058371 -0.019645649428875631 0 0.00091710145572672006 -0.016724001291850771 0 0.00098034440617009058 -0.016764046736922448 0 0.00092512359630870589 -0.016766933186705791 0 0.0022354217723590396 -0.012706667168807044 0 0.0017087435771276506 -0.012781895082315552 0 0.0024935004411042847 -0.013199297179570382 0 0.00091710145572672006 -0.016724001291850771 0 0.00085630454718589567 -0.016686004984514322 0 0.00087714471311549857 -0.016735420021243955 0 0.00091710145572672006 -0.016724001291850771 0 0.00089974790282464588 -0.016755207846156424 0 0.00092512359630870589 -0.016766933186705791 0 0.00091710145572672006 -0.016724001291850771 0 0.00089974790282464588 -0.016755207846156424 0 0.00087714471311549857 -0.016735420021243955 0 0.00089974790282464588 -0.016755207846156424 0 0.00087714471311549857 -0.016735420021243955 0 0.00087773574470035296 -0.016760689998567401 0 0.0048157417128357298 -0.024674085684549388 0 0.0055756255451578805 -0.02505663823876032 0 0.0050914091027731779 -0.025290751222501181 0 0.0048157417128357298 -0.024674085684549388 0 0.0050914091027731779 -0.025290751222501181 0 0.004633193916859138 -0.025343496766635675 0 0.0048157417128357298 -0.024674085684549388 0 0.0055756255451578805 -0.02505663823876032 0 0.0055841214079962211 -0.024262864295662989 0 0.0055756255451578805 -0.02505663823876032 0 0.0055841214079962211 -0.024262864295662989 0 0.00611726095068762 -0.02465441721576983 0 0.0055756255451578805 -0.02505663823876032 0 0.0054633582936997761 -0.02564678783130837 0 0.0063743802493177121 -0.025806885763008689 0 0.0055756255451578805 -0.02505663823876032 0 0.0054633582936997761 -0.02564678783130837 0 0.0050914091027731779 -0.025290751222501181 0 0.0054633582936997761 -0.02564678783130837 0 0.0050914091027731779 -0.025290751222501181 0 0.004987772658727645 -0.025806932101784853 0 0.0050914091027731779 -0.025290751222501181 0 0.004679512858145515 -0.025565716826758896 0 0.004633193916859138 -0.025343496766635675 0 0.004987772658727645 -0.025806932101784853 0 0.004679512858145515 -0.025565716826758896 0 0.004591809250196038 -0.025861666961895725 0 0.0050914091027731779 -0.025290751222501181 0 0.004987772658727645 -0.025806932101784853 0 0.004679512858145515 -0.025565716826758896 0 0.0035010678297075458 -0.02009943915330091 0 0.0034278014998841977 -0.020509636840124999 0 0.0048157417128357298 -0.024674085684549388 0 0.004633193916859138 -0.025343496766635675 0 0.0039416242856417302 -0.025842805669834237 0 0.004679512858145515 -0.025565716826758896 0 0.004633193916859138 -0.025343496766635675 0 0.0039416242856417302 -0.025842805669834237 0 0.004679512858145515 -0.025565716826758896 0 0.0039416242856417302 -0.025842805669834237 0 0.004591809250196038 -0.025861666961895725 0 0.0029244995974058371 -0.019645649428875631 0 0.0033422775090831006 -0.018721129336474379 0 0.0024935004411042847 -0.013199297179570382 0 0.0024968382444186927 -0.012868611325413578 0 0.0027452348438920544 -0.012866075781891088 0 0.0024762936861792372 -0.013260472686018706 0 0.0027452348438920544 -0.012866075781891088 0 0.0025679833022371856 -0.013301047319626016 0 0.0029244995974058371 -0.019645649428875631 0 0.0034278014998841977 -0.020509636840124999 0 0.0022354217723590396 -0.012706667168807044 0 0.0024935004411042847 -0.013199297179570382 0 0.0024968382444186927 -0.012868611325413578 0 0.0025111457719007679 -0.012701599709746577 0 0.0027452348438920544 -0.012866075781891088 0 0.0026815694886117868 -0.012543998406607759 0 0.0024968382444186927 -0.012868611325413578 0 0.0025111457719007679 -0.012701599709746577 0 0.0027452348438920544 -0.012866075781891088 0 0.0022354217723590396 -0.012706667168807044 0 0.0024968382444186927 -0.012868611325413578 0 0.0025111457719007679 -0.012701599709746577 0 0.002987957037993808 -0.012679026307240507 0 0.0027452348438920544 -0.012866075781891088 0 0.0025679833022371856 -0.013301047319626016 0 0.002987957037993808 -0.012679026307240507 0 0.0027452348438920544 -0.012866075781891088 0 0.0026815694886117868 -0.012543998406607759 0 0.002987957037993808 -0.012679026307240507 0 0.0026815694886117868 -0.012543998406607759 0 0.0028361686210884572 -0.012442909634315789 0 0.0026815694886117868 -0.012543998406607759 0 0.0028361686210884572 -0.012442909634315789 0 0.0025880804308713382 -0.012161425482764224 0 0.002987957037993808 -0.012679026307240507 0 0.0028361686210884572 -0.012442909634315789 0 0.0029840530803479613 -0.01233421719443363 0 0.0023572720105912259 -0.012430913832816172 0 0.0026815694886117868 -0.012543998406607759 0 0.0025880804308713382 -0.012161425482764224 0 0.0023572720105912259 -0.012430913832816172 0 0.0025111457719007679 -0.012701599709746577 0 0.0026815694886117868 -0.012543998406607759 0 0.0023572720105912259 -0.012430913832816172 0 0.0022354217723590396 -0.012706667168807044 0 0.0025111457719007679 -0.012701599709746577 0 0.0028361686210884572 -0.012442909634315789 0 0.0025880804308713382 -0.012161425482764224 0 0.0029840530803479613 -0.01233421719443363 0 0.0019493536589153182 -0.017211518460655006 0 0.0025692568422946201 -0.021296243089989217 0 0.0025880804308713382 -0.012161425482764224 0 0.0029840530803479613 -0.01233421719443363 0 0.0033700852753777528 -0.012178169899097674 0 0.002987957037993808 -0.012679026307240507 0 0.0029840530803479613 -0.01233421719443363 0 0.0033700852753777528 -0.012178169899097674 0 0.0035010678297075458 -0.02009943915330091 0 0.0025692568422946201 -0.021296243089989217 0 0.0055841214079962211 -0.024262864295662989 0 0.0058532935193262216 -0.02350079131844968 0 0.00611726095068762 -0.02465441721576983 0 0.0048157417128357298 -0.024674085684549388 0 0.0055841214079962211 -0.024262864295662989 0 0.0056657409212338035 -0.02350934405051041 0 0.0055841214079962211 -0.024262864295662989 0 0.0056657409212338035 -0.02350934405051041 0 0.0058532935193262216 -0.02350079131844968 0 0.0025692568422946201 -0.021296243089989217 0 0.0024494293309792535 -0.021952333278035325 0 0.00098386176234986134 -0.021608437006316161 0 0.0015262860084442774 -0.021584835841465495 0 0.0014036794207781561 -0.021054685716296366 0 0.0024063101305219006 -0.021744495385932362 0 0.0022064150701404531 -0.020893903293789557 0 0.00084052009437072888 -0.012147723285479259 0 0.00084669528865733367 -0.012144311106327504 0 0.00079431517713694332 -0.012082915600059653 0 0.0024063101305219006 -0.021744495385932362 0 0.00017167619038678265 -0.017872259189373674 0 0.00082152603613107073 -0.012243751599069565 0 0.00076358355300442597 -0.01217885930230396 0 0.00077639699971870587 -0.012158369616631481 0 0.0024494293309792535 -0.021952333278035325 0 0.0024063101305219006 -0.021744495385932362 0 0.0025692568422946201 -0.021296243089989217 0 0.0024063101305219006 -0.021744495385932362 0 -0.0002269930135047151 -0.016828576157180024 0 0.00017167619038678265 -0.017872259189373674 0 0.00079314774609393979 -0.012055782969587562 0 0.00078703639379255831 -0.012084635811652793 0 0.00079431517713694332 -0.012082915600059653 0 0.00078460113325561488 -0.012080674444685286 0 0.00079314774609393979 -0.012055782969587562 0 0.00079431517713694332 -0.012082915600059653 0 0.00078703639379255831 -0.012084635811652793 0 0.00084052009437072888 -0.012147723285479259 0 0.00079431517713694332 -0.012082915600059653 0 0.00078460113325561488 -0.012080674444685286 0 0.00076358355300442597 -0.01217885930230396 0 0.00076227517621456765 -0.012133175193224995 0 0.00075817529920320457 -0.012146827922504877 0 0.00076227517621456765 -0.012133175193224995 0 0.00077639699971870587 -0.012158369616631481 0 0.00076358355300442597 -0.01217885930230396 0 0.00076227517621456765 -0.012133175193224995 0 0.00077639699971870587 -0.012158369616631481 0 0.00075817529920320457 -0.012146827922504877 0 0.00077065642282802269 -0.012119208528502713 0 0.00076227517621456765 -0.012133175193224995 0 0.0044587480224520734 -0.025156146456510136 0 0.0050555517053238793 -0.027901145308391617 0 0.0027507112109772833 -0.027483188734615797 0 0.0010095536400437206 -0.031133888323706425 0 0.0010466250953730162 -0.030893137193302746 0 0.00073973922919195534 -0.030522404438574503 0 0.00074806182809475776 -0.030508121781695104 0 0.00076208440929616793 -0.03052538187188554 0 0.00074806182809475776 -0.030508121781695104 0 0.00076208440929616793 -0.03052538187188554 0 0.0007317558493770489 -0.030551514843754842 0 0.00076208440929616793 -0.03052538187188554 0 0.00083032546362009167 -0.030604734213907921 0 0.00087713694079668788 -0.030552123003146709 0 0.00076208440929616793 -0.03052538187188554 0 0.00083032546362009167 -0.030604734213907921 0 0.00078035256432384492 -0.030599790746670512 0 0.00083032546362009167 -0.030604734213907921 0 0.00078035256432384492 -0.030599790746670512 0 0.0008388506673887438 -0.030674591811946074 0 0.00078035256432384492 -0.030599790746670512 0 0.0007317558493770489 -0.030551514843754842 0 0.00073204155707715416 -0.03058209055312321 0 0.00076208440929616793 -0.03052538187188554 0 0.00078035256432384492 -0.030599790746670512 0 0.0007317558493770489 -0.030551514843754842 0 0.00068653293628707934 -0.030548680927418401 0 0.00074806182809475776 -0.030508121781695104 0 0.0007317558493770489 -0.030551514843754842 0 0.0024063101305219006 -0.021744495385932362 0 0.0010348052558693428 -0.027299727950025294 0 0.0007317558493770489 -0.030551514843754842 0 0.00070189981541196145 -0.030562829883277791 0 0.00073204155707715416 -0.03058209055312321 0 0.00068653293628707934 -0.030548680927418401 0 0.0007317558493770489 -0.030551514843754842 0 0.00070189981541196145 -0.030562829883277791 0 0.0024063101305219006 -0.021744495385932362 0 0.0022955517621672072 -0.022537416828758008 0 0.0011316349420939743 -0.030486765816076383 0 0.0010300834942476118 -0.030383824335270856 0 0.0011742494766758213 -0.030325473325902467 0 0.0011316349420939743 -0.030486765816076383 0 0.0010300834942476118 -0.030383824335270856 0 0.0010000091884107638 -0.030535221520590867 0 0.00089398074515444558 -0.030330355354014071 0 0.00076208440929616793 -0.03052538187188554 0 0.00090921737397463937 -0.030465619434836663 0 0.0010300834942476118 -0.030383824335270856 0 0.00090921737397463937 -0.030465619434836663 0 0.0010000091884107638 -0.030535221520590867 0 0.00089398074515444558 -0.030330355354014071 0 0.0010300834942476118 -0.030383824335270856 0 0.00090921737397463937 -0.030465619434836663 0 0.00076208440929616793 -0.03052538187188554 0 0.00090921737397463937 -0.030465619434836663 0 0.00087713694079668788 -0.030552123003146709 0 0.00083032546362009167 -0.030604734213907921 0 0.00092407508761611044 -0.030633458526803475 0 0.0008388506673887438 -0.030674591811946074 0 0.00083032546362009167 -0.030604734213907921 0 0.00087713694079668788 -0.030552123003146709 0 0.00092407508761611044 -0.030633458526803475 0 0.00092407508761611044 -0.030633458526803475 0 0.0010458123875311594 -0.030623577508281905 0 0.0010174027824113637 -0.030701493913860962 0 0.00092407508761611044 -0.030633458526803475 0 0.0010000091884107638 -0.030535221520590867 0 0.0010458123875311594 -0.030623577508281905 0 0.00087713694079668788 -0.030552123003146709 0 0.00092407508761611044 -0.030633458526803475 0 0.0010000091884107638 -0.030535221520590867 0 0.00090921737397463937 -0.030465619434836663 0 0.00087713694079668788 -0.030552123003146709 0 0.0010000091884107638 -0.030535221520590867 0 0.0010000091884107638 -0.030535221520590867 0 0.0010458123875311594 -0.030623577508281905 0 0.0011349002449265342 -0.030594685692915791 0 0.0010458123875311594 -0.030623577508281905 0 0.0011349002449265342 -0.030594685692915791 0 0.0011444308967269886 -0.030710440386294374 0 0.0011349002449265342 -0.030594685692915791 0 0.0011444308967269886 -0.030710440386294374 0 0.0012569734413992602 -0.030660566759311881 0 0.0011316349420939743 -0.030486765816076383 0 0.0011349002449265342 -0.030594685692915791 0 0.0011953359562151436 -0.030568408273671417 0 0.0011316349420939743 -0.030486765816076383 0 0.0010000091884107638 -0.030535221520590867 0 0.0011349002449265342 -0.030594685692915791 0 0.0011444308967269886 -0.030710440386294374 0 0.0010718576173298028 -0.030822441619319477 0 0.0011990564598368758 -0.03085090433741329 0 0.0010458123875311594 -0.030623577508281905 0 0.0011444308967269886 -0.030710440386294374 0 0.0010174027824113637 -0.030701493913860962 0 0.0010174027824113637 -0.030701493913860962 0 0.0010718576173298028 -0.030822441619319477 0 0.00093124285671412291 -0.030745970843458519 0 0.0011444308967269886 -0.030710440386294374 0 0.0010174027824113637 -0.030701493913860962 0 0.0010718576173298028 -0.030822441619319477 0 0.0017402082187772539 -0.028842434118698645 0 0.0016731191687092502 -0.027095527692083475 0 0.00093124285671412291 -0.030745970843458519 0 0.00096879904369461119 -0.030904471804878323 0 0.00075046587389957647 -0.030763417639224345 0 0.0010718576173298028 -0.030822441619319477 0 0.00093124285671412291 -0.030745970843458519 0 0.00096879904369461119 -0.030904471804878323 0 0.00092407508761611044 -0.030633458526803475 0 0.0010174027824113637 -0.030701493913860962 0 0.00093124285671412291 -0.030745970843458519 0 0.00093124285671412291 -0.030745970843458519 0 0.0008388506673887438 -0.030674591811946074 0 0.00075046587389957647 -0.030763417639224345 0 0.00092407508761611044 -0.030633458526803475 0 0.00093124285671412291 -0.030745970843458519 0 0.0008388506673887438 -0.030674591811946074 0 0.00094296811508354857 -0.031128745183330093 0 0.0010693082277087179 -0.031105899781366738 0 0.00087300125273437085 -0.031005707536860778 0 0.00094296811508354857 -0.031128745183330093 0 0.0010136503154098435 -0.031233010757628486 0 0.00086032673001841401 -0.031225709225977137 0 0.00094296811508354857 -0.031128745183330093 0 0.0010136503154098435 -0.031233010757628486 0 0.0010693082277087179 -0.031105899781366738 0 0.0010718576173298028 -0.030822441619319477 0 0.0011990564598368758 -0.03085090433741329 0 0.0011831945954610676 -0.031060913984005588 0 0.0010136503154098435 -0.031233010757628486 0 0.0010693082277087179 -0.031105899781366738 0 0.0012615937473765674 -0.031192515327583482 0 0.0017402082187772539 -0.028842434118698645 0 0.0017574517982134399 -0.029691958560472138 0 0.0010718576173298028 -0.030822441619319477 0 0.00096879904369461119 -0.030904471804878323 0 0.0011831945954610676 -0.031060913984005588 0 0.0022955517621672072 -0.022537416828758008 0 0.0016731191687092502 -0.027095527692083475 0 0.0027396440906473384 -0.0254206154213663 0 0.0029675607487423378 -0.025535064186673367 0 0.0027306661354238614 -0.025582235973847064 0 0.00068629268756634134 -0.030562883732761465 0 0.00073204155707715416 -0.03058209055312321 0 0.00079925677134952205 -0.030678621241261656 0 0.0024494293309792535 -0.021952333278035325 0 0.0025724401658623929 -0.025001453169000296 0 0.0026960034830032678 -0.02542065271401444 0 0.0027396440906473384 -0.0254206154213663 0 0.0027306661354238614 -0.025582235973847064 0 0.0024494293309792535 -0.021952333278035325 0 0.0022955517621672072 -0.022537416828758008 0 0.0026415560035086957 -0.022512759144653088 0 0.0027045531719433742 -0.022785766548168988 0 0.002152821066633657 -0.022535224201896846 0 0.0022955517621672072 -0.022537416828758008 0 0.0020813768984804014 -0.022793813115293431 0 0.00078035256432384492 -0.030599790746670512 0 0.00073204155707715416 -0.03058209055312321 0 0.00079925677134952205 -0.030678621241261656 0 0.00078035256432384492 -0.030599790746670512 0 0.0008388506673887438 -0.030674591811946074 0 0.00079925677134952205 -0.030678621241261656 0 0.0014255543777500319 -0.027438810753244804 0 0.0016731191687092502 -0.027095527692083475 0 0.00094296811508354857 -0.031128745183330093 0 0.00087300125273437085 -0.031005707536860778 0 0.00086032673001841401 -0.031225709225977137 0 0.0016731191687092502 -0.027095527692083475 0 0.00227199921876821 -0.027701063238440227 0 0.00087300125273437085 -0.031005707536860778 0 0.00086032673001841401 -0.031225709225977137 0 0.00065253780897983811 -0.031226750067749401 0 0.0029675607487423378 -0.025535064186673367 0 0.0027306661354238614 -0.025582235973847064 0 0.0027649922970888188 -0.025741320636285096 0 0.0025724401658623929 -0.025001453169000296 0 0.00227199921876821 -0.027701063238440227 0 0.0055756255451578805 -0.02505663823876032 0 0.00611726095068762 -0.02465441721576983 0 0.0063743802493177121 -0.025806885763008689 0 0.00065253780897983811 -0.031226750067749401 0 0.00078314314724034116 -0.03133787465713446 0 0.0007143285073199292 -0.031477331984691867 0 0.00068694791909023603 -0.031291689634507791 0 0.0006388579876315081 -0.031452684466068484 0 0.0007143285073199292 -0.031477331984691867 0 0.00227199921876821 -0.027701063238440227 0 0.0022547557112658025 -0.029270402628936463 0 0.00086032673001841401 -0.031225709225977137 0 0.00065253780897983811 -0.031226750067749401 0 0.00078314314724034116 -0.03133787465713446 0 0.0008963470080658759 -0.031416642001656912 0 0.00078314314724034116 -0.03133787465713446 0 0.0007143285073199292 -0.031477331984691867 0 0.0010136503154098435 -0.031233010757628486 0 0.00086032673001841401 -0.031225709225977137 0 0.0008963470080658759 -0.031416642001656912 0 0.00086032673001841401 -0.031225709225977137 0 0.0008963470080658759 -0.031416642001656912 0 0.00078314314724034116 -0.03133787465713446 0 0.0008963470080658759 -0.031416642001656912 0 0.00091582615712261571 -0.031605318597286922 0 0.00075882758932950415 -0.031602591549327881 0 0.0008963470080658759 -0.031416642001656912 0 0.0007143285073199292 -0.031477331984691867 0 0.00075882758932950415 -0.031602591549327881 0 0.0007143285073199292 -0.031477331984691867 0 0.00075882758932950415 -0.031602591549327881 0 0.00062557184657185245 -0.031567493627214095 0 0.0006388579876315081 -0.031452684466068484 0 0.0007143285073199292 -0.031477331984691867 0 0.00062557184657185245 -0.031567493627214095 0 0.0010136503154098435 -0.031233010757628486 0 0.0010751087454173049 -0.031357568384062527 0 0.0012615937473765674 -0.031192515327583482 0 0.0010751087454173049 -0.031357568384062527 0 0.0011879362963784354 -0.031423960329213005 0 0.0012615937473765674 -0.031192515327583482 0 0.0011879362963784354 -0.031423960329213005 0 0.0012615937473765674 -0.031192515327583482 0 0.0013090976508363602 -0.031381806876657835 0 0.0010136503154098435 -0.031233010757628486 0 0.0008963470080658759 -0.031416642001656912 0 0.0010751087454173049 -0.031357568384062527 0 0.0008963470080658759 -0.031416642001656912 0 0.0010751087454173049 -0.031357568384062527 0 0.0010411483687626855 -0.03151431206046279 0 0.0008963470080658759 -0.031416642001656912 0 0.0010411483687626855 -0.03151431206046279 0 0.00091582615712261571 -0.031605318597286922 0 0.0010751087454173049 -0.031357568384062527 0 0.0010411483687626855 -0.03151431206046279 0 0.0011879362963784354 -0.031423960329213005 0 0.0010411483687626855 -0.03151431206046279 0 0.0011803551825489331 -0.031576404956041158 0 0.0011879362963784354 -0.031423960329213005 0 0.0011803551825489331 -0.031576404956041158 0 0.0011879362963784354 -0.031423960329213005 0 0.0012809059906436664 -0.031506360145109664 0 0.0011770148737160276 -0.03170716589512431 0 0.0010474532908999051 -0.031734423639929045 0 0.0012320768711811816 -0.031823584973403991 0 0.0010411483687626855 -0.03151431206046279 0 0.0011803551825489331 -0.031576404956041158 0 0.0010474532908999051 -0.031734423639929045 0 0.0011770148737160276 -0.03170716589512431 0 0.0012320768711811816 -0.031823584973403991 0 0.0013195490358453542 -0.031660748104783622 0 0.0011803551825489331 -0.031576404956041158 0 0.0011770148737160276 -0.03170716589512431 0 0.0013195490358453542 -0.031660748104783622 0 0.0011803551825489331 -0.031576404956041158 0 0.0011770148737160276 -0.03170716589512431 0 0.0010474532908999051 -0.031734423639929045 0 0.00091582615712261571 -0.031605318597286922 0 0.0010474532908999051 -0.031734423639929045 0 0.00084257226746488974 -0.031735479804332556 0 0.0010411483687626855 -0.03151431206046279 0 0.00091582615712261571 -0.031605318597286922 0 0.0010474532908999051 -0.031734423639929045 0 0.00094316347043445561 -0.031820589944989257 0 0.001120352101495954 -0.03190394554737782 0 0.00098609251963390127 -0.031944227338830788 0 0.0010474532908999051 -0.031734423639929045 0 0.00094316347043445561 -0.031820589944989257 0 0.00084257226746488974 -0.031735479804332556 0 0.0010474532908999051 -0.031734423639929045 0 0.00094316347043445561 -0.031820589944989257 0 0.001120352101495954 -0.03190394554737782 0 0.00094316347043445561 -0.031820589944989257 0 0.0008174688391033736 -0.031856119430968291 0 0.00098609251963390127 -0.031944227338830788 0 0.0010474532908999051 -0.031734423639929045 0 0.001120352101495954 -0.03190394554737782 0 0.0012320768711811816 -0.031823584973403991 0 0.001120352101495954 -0.03190394554737782 0 0.0012320768711811816 -0.031823584973403991 0 0.0013532846219177835 -0.031930505575390393 0 0.00064350095998647115 -0.031682485872808135 0 0.00075882758932950415 -0.031602591549327881 0 0.00062557184657185245 -0.031567493627214095 0 0.00071366564997940628 -0.031717208487673947 0 0.00064350095998647115 -0.031682485872808135 0 0.00063091821379899484 -0.031774733894228274 0 0.00071366564997940628 -0.031717208487673947 0 0.00064350095998647115 -0.031682485872808135 0 0.00075882758932950415 -0.031602591549327881 0 0.00091582615712261571 -0.031605318597286922 0 0.00075882758932950415 -0.031602591549327881 0 0.00084257226746488974 -0.031735479804332556 0 0.00071366564997940628 -0.031717208487673947 0 0.00075882758932950415 -0.031602591549327881 0 0.00084257226746488974 -0.031735479804332556 0 0.00071366564997940628 -0.031717208487673947 0 0.00084257226746488974 -0.031735479804332556 0 0.00071478724913277782 -0.031832089681957096 0 0.00084257226746488974 -0.031735479804332556 0 0.0008174688391033736 -0.031856119430968291 0 0.00071478724913277782 -0.031832089681957096 0 0.00094316347043445561 -0.031820589944989257 0 0.00084257226746488974 -0.031735479804332556 0 0.0008174688391033736 -0.031856119430968291 0 0.0008174688391033736 -0.031856119430968291 0 0.00071478724913277782 -0.031832089681957096 0 0.00074731404752425266 -0.031906065710937501 0 0.00071366564997940628 -0.031717208487673947 0 0.00071478724913277782 -0.031832089681957096 0 0.00063091821379899484 -0.031774733894228274 0 0.00071478724913277782 -0.031832089681957096 0 0.00061780543590399175 -0.031874818382432453 0 0.00068292831077334918 -0.031925113392109898 0 0.00071478724913277782 -0.031832089681957096 0 0.00063091821379899484 -0.031774733894228274 0 0.00061780543590399175 -0.031874818382432453 0 0.00061780543590399175 -0.031874818382432453 0 0.00053960496505212139 -0.031828366517781266 0 0.00053915116465292408 -0.031927115698471321 0 0.00053960496505212139 -0.031828366517781266 0 0.00048719946752740921 -0.031905280187892258 0 0.00053915116465292408 -0.031927115698471321 0 0.00063091821379899484 -0.031774733894228274 0 0.00061780543590399175 -0.031874818382432453 0 0.00053960496505212139 -0.031828366517781266 0 0.00063091821379899484 -0.031774733894228274 0 0.00053960496505212139 -0.031828366517781266 0 0.00056838516258757364 -0.031701841897721572 0 0.00064350095998647115 -0.031682485872808135 0 0.00063091821379899484 -0.031774733894228274 0 0.00056838516258757364 -0.031701841897721572 0 0.00056838516258757364 -0.031701841897721572 0 0.00052323114977530054 -0.031636805225125082 0 0.00049872054739396807 -0.031746392186297802 0 0.00053960496505212139 -0.031828366517781266 0 0.00056838516258757364 -0.031701841897721572 0 0.00049872054739396807 -0.031746392186297802 0 0.00056838516258757364 -0.031701841897721572 0 0.00052323114977530054 -0.031636805225125082 0 0.00062557184657185245 -0.031567493627214095 0 0.00064350095998647115 -0.031682485872808135 0 0.00056838516258757364 -0.031701841897721572 0 0.00062557184657185245 -0.031567493627214095 0 0.00052323114977530054 -0.031636805225125082 0 0.00040071057087989162 -0.031676508110407738 0 0.00049872054739396807 -0.031746392186297802 0 0.00040071057087989162 -0.031676508110407738 0 0.00049872054739396807 -0.031746392186297802 0 0.00044750947302758538 -0.031815095899211249 0 0.00053960496505212139 -0.031828366517781266 0 0.00049872054739396807 -0.031746392186297802 0 0.00044750947302758538 -0.031815095899211249 0 0.00053960496505212139 -0.031828366517781266 0 0.00044750947302758538 -0.031815095899211249 0 0.00048719946752740921 -0.031905280187892258 0 0.00044750947302758538 -0.031815095899211249 0 0.00043781772066617735 -0.03192503597166902 0 0.00048719946752740921 -0.031905280187892258 0 0.00040071057087989162 -0.031676508110407738 0 0.00044750947302758538 -0.031815095899211249 0 0.00037369866152362386 -0.031877920778925574 0 0.00057799892200958568 -0.031877281388533595 0 0.00049356157406322762 -0.032018282038577692 0 0.00047507629203664536 -0.031992481253753355 0 0.00044750947302758538 -0.031815095899211249 0 0.00037369866152362386 -0.031877920778925574 0 0.00043781772066617735 -0.03192503597166902 0 0.00049356157406322762 -0.032018282038577692 0 0.00047507629203664536 -0.031992481253753355 0 0.0004658042934740472 -0.032054489433223476 0 0.0026453945269240393 -0.029754884200924023 0 0.0018183338199209659 -0.030100074686986594 0 0.0015626500079363496 -0.03093036091617378 0 0.0014797092821547207 -0.030640059205987311 0 0.0010425601959236756 -0.031211911164781732 0 0.0026453945269240393 -0.029754884200924023 0 0.0018183338199209659 -0.030100074686986594 0 0.0021469950239094405 -0.029282017080461568 0 0.0018183338199209659 -0.030100074686986594 0 0.0014808396316586564 -0.029282606731181469 0 0.0021469950239094405 -0.029282017080461568 0 0.0014553547959406724 -0.023170967342830799 0 0.001890964948379174 -0.021868497393093052 0 0.0014808396316586564 -0.029282606731181469 0 0.0023827081238113942 -0.028618425367195777 0 0.0026756834537493648 -0.027495730414892987 0 0.00088200217670053116 -0.016881574967070941 0 0.00092572607187681622 -0.016822478056376683 0 0.00088310728986065506 -0.016830789894534022 0 0.0014808396316586564 -0.029282606731181469 0 0.0021469950239094405 -0.029282017080461568 0 0.0023827081238113942 -0.028618425367195777 0 0.0026453945269240393 -0.029754884200924023 0 0.0021469950239094405 -0.029282017080461568 0 0.0023827081238113942 -0.028618425367195777 0 0.0037711794546189115 -0.028535782266879757 0 0.0026453945269240393 -0.029754884200924023 0 0.0023827081238113942 -0.028618425367195777 0 0.0037711794546189115 -0.028535782266879757 0 0.0023827081238113942 -0.028618425367195777 0 0.0028624344462347051 -0.028107566596366804 0 0.0020083007172449225 -0.029850240050040912 0 0.0010058705668869411 -0.031461192974042623 0 0.0020083007172449225 -0.029850240050040912 0 0.0014797092821547207 -0.030640059205987311 0 0.0037711794546189115 -0.028535782266879757 0 0.0032315887964786886 -0.027765204522514866 0 0.0038152699022317568 -0.027472351638675584 0 0.0037711794546189115 -0.028535782266879757 0 0.0032315887964786886 -0.027765204522514866 0 0.0028624344462347051 -0.028107566596366804 0 0.0032315887964786886 -0.027765204522514866 0 0.0028624344462347051 -0.028107566596366804 0 0.0026756834537493648 -0.027495730414892987 0 0.0023827081238113942 -0.028618425367195777 0 0.0028624344462347051 -0.028107566596366804 0 0.0026756834537493648 -0.027495730414892987 0 0.0032315887964786886 -0.027765204522514866 0 0.0026756834537493648 -0.027495730414892987 0 0.0031477107853202643 -0.027195742740220501 0 0.0032315887964786886 -0.027765204522514866 0 0.0031477107853202643 -0.027195742740220501 0 0.0038152699022317568 -0.027472351638675584 0 0.0031477107853202643 -0.027195742740220501 0 0.0036936802859599987 -0.027087052158644438 0 0.0038152699022317568 -0.027472351638675584 0 0.00092572607187681622 -0.016822478056376683 0 0.00088310728986065506 -0.016830789894534022 0 0.00090322211140494567 -0.016806229546201798 0 0.00092572607187681622 -0.016822478056376683 0 0.00090322211140494567 -0.016806229546201798 0 0.00092561206808645295 -0.016791438013684504 0 0.00088310728986065506 -0.016830789894534022 0 0.00090322211140494567 -0.016806229546201798 0 0.00088136276612062355 -0.016802154830995692 0 0.00089877724608285593 -0.016785422753474059 0 0.00086685764929204077 -0.016781075079703538 0 0.00087773574470035296 -0.016760689998567401 0 0.00088136276612062355 -0.016802154830995692 0 0.00089877724608285593 -0.016785422753474059 0 0.00086685764929204077 -0.016781075079703538 0 0.00090322211140494567 -0.016806229546201798 0 0.00088136276612062355 -0.016802154830995692 0 0.00089877724608285593 -0.016785422753474059 0 0.00090322211140494567 -0.016806229546201798 0 0.00089877724608285593 -0.016785422753474059 0 0.00092561206808645295 -0.016791438013684504 0 0.00089877724608285593 -0.016785422753474059 0 0.00092561206808645295 -0.016791438013684504 0 0.00092512359630870589 -0.016766933186705791 0 0.00089877724608285593 -0.016785422753474059 0 0.00089974790282464588 -0.016755207846156424 0 0.00092512359630870589 -0.016766933186705791 0 0.00089877724608285593 -0.016785422753474059 0 0.00089974790282464588 -0.016755207846156424 0 0.00087773574470035296 -0.016760689998567401 0 0.00098034440617009058 -0.016764046736922448 0 0.00092561206808645295 -0.016791438013684504 0 0.00092512359630870589 -0.016766933186705791 0 0.0029244995974058371 -0.019645649428875631 0 0.001890964948379174 -0.021868497393093052 0 0.00098034440617009058 -0.016764046736922448 0 0.00092572607187681622 -0.016822478056376683 0 0.00092561206808645295 -0.016791438013684504 0 0.0031477107853202643 -0.027195742740220501 0 0.0040669546777270041 -0.025933558053141927 0 0.0038200490218291013 -0.026728062166799169 0 0.0040601012625016662 -0.025500596636582735 0 0.0026756834537493648 -0.027495730414892987 0 0.0031477107853202643 -0.027195742740220501 0 0.0023917357579131019 -0.023045729690577665 0 0.0034278014998841977 -0.020509636840124999 0 0.0031477107853202643 -0.027195742740220501 0 0.0036936802859599987 -0.027087052158644438 0 0.0038200490218291013 -0.026728062166799169 0 0.0040669546777270041 -0.025933558053141927 0 0.0041628715143324658 -0.026398602569362932 0 0.0038200490218291013 -0.026728062166799169 0 0.0040601012625016662 -0.025500596636582735 0 0.0031477107853202643 -0.027195742740220501 0 0.0042522659320808308 -0.025587938549538766 0 0.0040669546777270041 -0.025933558053141927 0 0.0041628715143324658 -0.026398602569362932 0 0.0043515648441622024 -0.026230873977217833 0 0.0039906702047059258 -0.026955261541993646 0 0.0046064871908720658 -0.026529474438337648 0 0.0038152699022317568 -0.027472351638675584 0 0.0041628715143324658 -0.026398602569362932 0 0.0038200490218291013 -0.026728062166799169 0 0.0041715926399525996 -0.026676986767897492 0 0.0038200490218291013 -0.026728062166799169 0 0.0041715926399525996 -0.026676986767897492 0 0.0039906702047059258 -0.026955261541993646 0 0.0036936802859599987 -0.027087052158644438 0 0.0038200490218291013 -0.026728062166799169 0 0.0039906702047059258 -0.026955261541993646 0 0.0041715926399525996 -0.026676986767897492 0 0.0039906702047059258 -0.026955261541993646 0 0.0046064871908720658 -0.026529474438337648 0 0.0041715926399525996 -0.026676986767897492 0 0.0043349840819141908 -0.026506415895651888 0 0.0046064871908720658 -0.026529474438337648 0 0.0041628715143324658 -0.026398602569362932 0 0.0041715926399525996 -0.026676986767897492 0 0.0043349840819141908 -0.026506415895651888 0 0.0043349840819141908 -0.026506415895651888 0 0.0046064871908720658 -0.026529474438337648 0 0.0044235970181636889 -0.026359300058227446 0 0.0039416242856417302 -0.025842805669834237 0 0.004591809250196038 -0.025861666961895725 0 0.0047544633351266014 -0.026230978720066203 0 0.0040669546777270041 -0.025933558053141927 0 0.0043515648441622024 -0.026230873977217833 0 0.0047544633351266014 -0.026230978720066203 0 0.0044235970181636889 -0.026359300058227446 0 0.0043515648441622024 -0.026230873977217833 0 0.0047544633351266014 -0.026230978720066203 0 0.0046064871908720658 -0.026529474438337648 0 0.0044235970181636889 -0.026359300058227446 0 0.0047544633351266014 -0.026230978720066203 0 0.0034278014998841977 -0.020509636840124999 0 0.0038736459754270141 -0.020965541827840287 0 0.0041628715143324658 -0.026398602569362932 0 0.0044235970181636889 -0.026359300058227446 0 0.0043515648441622024 -0.026230873977217833 0 0.0041628715143324658 -0.026398602569362932 0 0.0043349840819141908 -0.026506415895651888 0 0.0044235970181636889 -0.026359300058227446 0 0.0063743802493177121 -0.025806885763008689 0 0.0053302255768842479 -0.026264848993568179 0 0.0049926904405975447 -0.027233962758820479 0 0.004987772658727645 -0.025806932101784853 0 0.004591809250196038 -0.025861666961895725 0 0.0047544633351266014 -0.026230978720066203 0 0.0054633582936997761 -0.02564678783130837 0 0.004987772658727645 -0.025806932101784853 0 0.0053302255768842479 -0.026264848993568179 0 0.00068694791909023603 -0.031291689634507791 0 0.0006388579876315081 -0.031452684466068484 0 0.00052689074621425143 -0.031478650937198954 0 0.004987772658727645 -0.025806932101784853 0 0.0053302255768842479 -0.026264848993568179 0 0.0047544633351266014 -0.026230978720066203 0 0.00227199921876821 -0.027701063238440227 0 0.0022864759645167773 -0.028900271984678802 0 0.0046064871908720658 -0.026529474438337648 0 0.0047544633351266014 -0.026230978720066203 0 0.0049190783497667498 -0.026561913172373653 0 0.0053302255768842479 -0.026264848993568179 0 0.0047544633351266014 -0.026230978720066203 0 0.0049190783497667498 -0.026561913172373653 0 0.0054633582936997761 -0.02564678783130837 0 0.0063743802493177121 -0.025806885763008689 0 0.0053302255768842479 -0.026264848993568179 0 0.0053302255768842479 -0.026264848993568179 0 0.0049190783497667498 -0.026561913172373653 0 0.0049926904405975447 -0.027233962758820479 0 0.0046064871908720658 -0.026529474438337648 0 0.0049190783497667498 -0.026561913172373653 0 0.0049926904405975447 -0.027233962758820479 0 0.0006388579876315081 -0.031452684466068484 0 0.00052689074621425143 -0.031478650937198954 0 0.00062557184657185245 -0.031567493627214095 0 0.00052323114977530054 -0.031636805225125082 0 0.00052689074621425143 -0.031478650937198954 0 0.00062557184657185245 -0.031567493627214095 0 0.0034797406383854121 -0.028723466932067156 0 0.0046064871908720658 -0.026529474438337648 0 0.0049926904405975447 -0.027233962758820479 0 0.0020083007172449225 -0.029850240050040912 0 0.0022864759645167773 -0.028900271984678802 0 0.00052323114977530054 -0.031636805225125082 0 0.00040071057087989162 -0.031676508110407738 0 0.00052689074621425143 -0.031478650937198954 0 0.0020083007172449225 -0.029850240050040912 0 0.003317251327862107 -0.027776947482139519 0 0.0037711794546189115 -0.028535782266879757 0 0.0046064871908720658 -0.026529474438337648 0 0.0038152699022317568 -0.027472351638675584 0 0.0036936802859599987 -0.027087052158644438 0 0.0039906702047059258 -0.026955261541993646 0 0.0038152699022317568 -0.027472351638675584 0 2.3745523199567437e-09 -0.034999999972375816 0 1.812663167717516e-06 -0.034998022096186049 0 1.7467127949996373e-09 -0.034999994023193821 0 1.9509480629421055e-06 -0.034997614482670553 0 1.812663167717516e-06 -0.034998022096186049 0 1.7467127949996373e-09 -0.034999994023193821 0 1.9509480629421055e-06 -0.034997614482670553 0 5.9170063734482367e-06 -0.034996245693977628 0 1.0136292853208493e-05 -0.034993390284918213 0 1.9509480629421055e-06 -0.034997614482670553 0 5.9170063734482367e-06 -0.034996245693977628 0 1.812663167717516e-06 -0.034998022096186049 0 4.0779154843844177e-06 -0.034996340815024916 0 1.812663167717516e-06 -0.034998022096186049 0 1.5447228425735802e-07 -0.034996621169488693 0 5.9170063734482367e-06 -0.034996245693977628 0 4.0779154843844177e-06 -0.034996340815024916 0 1.812663167717516e-06 -0.034998022096186049 0 2.3745523199567437e-09 -0.034999999972375816 0 1.812663167717516e-06 -0.034998022096186049 0 1.5447228425735802e-07 -0.034996621169488693 0 2.3745523199567437e-09 -0.034999999972375816 0 -9.8110925260670025e-08 -0.034993228214102078 0 1.1457745156834131e-09 -0.034999980962902244 0 2.3745523199567437e-09 -0.034999999972375816 0 -9.8110925260670025e-08 -0.034993228214102078 0 1.5447228425735802e-07 -0.034996621169488693 0 -1.4075991324374266e-06 -0.034985669567735078 0 -9.8110925260670025e-08 -0.034993228214102078 0 1.1457745156834131e-09 -0.034999980962902244 0 -1.4075991324374266e-06 -0.034985669567735078 0 -9.8110925260670025e-08 -0.034993228214102078 0 -4.5901391584385075e-06 -0.034982819453189637 0 -4.5901391584385075e-06 -0.034982819453189637 0 1.5447228425735802e-07 -0.034996621169488693 0 -1.1851045066238319e-05 -0.034983725072558883 0 4.0779154843844177e-06 -0.034996340815024916 0 1.5447228425735802e-07 -0.034996621169488693 0 8.9925320925514411e-06 -0.034997299108004087 0 -9.8110925260670025e-08 -0.034993228214102078 0 -4.5901391584385075e-06 -0.034982819453189637 0 1.5447228425735802e-07 -0.034996621169488693 0 5.8105803238739015e-06 -0.034959040561580827 0 5.9447426793483969e-06 -0.034950137656157725 0 4.0779154843844177e-06 -0.034996340815024916 0 8.9925320925514411e-06 -0.034997299108004087 0 1.6498588629714202e-05 -0.034990912682766426 0 -8.8883133441916262e-06 -0.034964917300400244 0 -4.5901391584385075e-06 -0.034982819453189637 0 -1.1157006741678635e-05 -0.034973070369521825 0 -1.1851045066238319e-05 -0.034983725072558883 0 -1.1157006741678635e-05 -0.034973070369521825 0 -1.8735914823958804e-05 -0.034960663470100295 0 -8.8883133441916262e-06 -0.034964917300400244 0 -1.1157006741678635e-05 -0.034973070369521825 0 -1.8735914823958804e-05 -0.034960663470100295 0 -4.5901391584385075e-06 -0.034982819453189637 0 -1.1851045066238319e-05 -0.034983725072558883 0 -1.1157006741678635e-05 -0.034973070369521825 0 -1.8735914823958804e-05 -0.034960663470100295 0 -3.1299998377271405e-05 -0.034969175641796087 0 -3.5772001715872347e-05 -0.034950271150404444 0 -3.4913300842961345e-05 -0.034933284031995117 0 -1.8735914823958804e-05 -0.034960663470100295 0 -3.5772001715872347e-05 -0.034950271150404444 0 5.9447426793483969e-06 -0.034950137656157725 0 9.3053153858564281e-06 -0.034921448806739613 0 1.6498588629714202e-05 -0.034990912682766426 0 2.7500711114469485e-05 -0.034984496921141743 0 2.3811792431579942e-05 -0.034996029803919818 0 8.9925320925514411e-06 -0.034997299108004087 0 1.6498588629714202e-05 -0.034990912682766426 0 2.3811792431579942e-05 -0.034996029803919818 0 -1.1851045066238319e-05 -0.034983725072558883 0 -1.8735914823958804e-05 -0.034960663470100295 0 -3.1299998377271405e-05 -0.034969175641796087 0 1.7473637567180603e-05 -0.034979601481395894 0 1.6498588629714202e-05 -0.034990912682766426 0 2.7500711114469485e-05 -0.034984496921141743 0 -8.7552672241589168e-05 -0.034739793227167221 0 -7.8461807371804727e-05 -0.034617000878191966 0 4.0779154843844177e-06 -0.034996340815024916 0 1.7473637567180603e-05 -0.034979601481395894 0 1.6498588629714202e-05 -0.034990912682766426 0 5.9170063734482367e-06 -0.034996245693977628 0 4.0779154843844177e-06 -0.034996340815024916 0 1.955889472672751e-05 -0.034997693526846521 0 5.9170063734482367e-06 -0.034996245693977628 0 1.955889472672751e-05 -0.034997693526846521 0 1.0136292853208493e-05 -0.034993390284918213 0 1.955889472672751e-05 -0.034997693526846521 0 3.2447895255833499e-05 -0.034984962080828234 0 2.4588756239604168e-05 -0.034986999087907228 0 1.955889472672751e-05 -0.034997693526846521 0 1.7959147333283491e-05 -0.034990001551676496 0 2.4588756239604168e-05 -0.034986999087907228 0 1.955889472672751e-05 -0.034997693526846521 0 1.0136292853208493e-05 -0.034993390284918213 0 1.7959147333283491e-05 -0.034990001551676496 0 1.7473637567180603e-05 -0.034979601481395894 0 3.7230456031069218e-05 -0.034964620849640901 0 3.0298719508480584e-05 -0.034977738371951152 0 -7.8461807371804727e-05 -0.034617000878191966 0 0.00015247753352256501 -0.034053893853857181 0 1.955889472672751e-05 -0.034997693526846521 0 4.0578752884346037e-05 -0.034987804441534535 0 3.2447895255833499e-05 -0.034984962080828234 0 3.7230456031069218e-05 -0.034964620849640901 0 3.9256439415510128e-05 -0.034982296769727743 0 3.0298719508480584e-05 -0.034977738371951152 0 0.00041780628719338849 -0.033538670850541116 0 0.00052479711762765059 -0.033138389020086916 0 0.00015247753352256501 -0.034053893853857181 0 9.3032982221242437e-05 -0.034659817301111444 0 -0.00012708321826861941 -0.034812394369521611 0 -0.00010941044449809066 -0.034803484148358772 0 -0.00011873137591860748 -0.034880776656054546 0 -0.00010941044449809066 -0.034803484148358772 0 -0.00011873137591860748 -0.034880776656054546 0 -7.5804287707216918e-05 -0.03487665761528775 0 0.00015247753352256501 -0.034053893853857181 0 0.00041780628719338849 -0.033538670850541116 0 -0.00011873137591860748 -0.034880776656054546 0 -8.8890186219825202e-05 -0.034910898675246264 0 -7.5804287707216918e-05 -0.03487665761528775 0 3.9256439415510128e-05 -0.034982296769727743 0 3.0298719508480584e-05 -0.034977738371951152 0 2.7500711114469485e-05 -0.034984496921141743 0 3.9256439415510128e-05 -0.034982296769727743 0 2.7500711114469485e-05 -0.034984496921141743 0 3.3031725339868974e-05 -0.034989319123561825 0 1.7473637567180603e-05 -0.034979601481395894 0 3.0298719508480584e-05 -0.034977738371951152 0 2.7500711114469485e-05 -0.034984496921141743 0 2.7500711114469485e-05 -0.034984496921141743 0 3.3031725339868974e-05 -0.034989319123561825 0 2.3811792431579942e-05 -0.034996029803919818 0 -3.1299998377271405e-05 -0.034969175641796087 0 -4.8104746183125379e-05 -0.034951640987083359 0 -6.6637028743648784e-05 -0.0349550047971579 0 9.3053153858564281e-06 -0.034921448806739613 0 2.8934571180874524e-05 -0.034863542276736589 0 3.3031725339868974e-05 -0.034989319123561825 0 2.3811792431579942e-05 -0.034996029803919818 0 4.1134224963557456e-05 -0.03499704523623548 0 -3.1299998377271405e-05 -0.034969175641796087 0 -3.5772001715872347e-05 -0.034950271150404444 0 -4.8104746183125379e-05 -0.034951640987083359 0 -3.5772001715872347e-05 -0.034950271150404444 0 -4.8104746183125379e-05 -0.034951640987083359 0 -5.0683088847912713e-05 -0.034936898166756186 0 -3.4913300842961345e-05 -0.034933284031995117 0 -3.5772001715872347e-05 -0.034950271150404444 0 -5.0683088847912713e-05 -0.034936898166756186 0 -5.7910664780356014e-05 -0.034916137755378274 0 -5.0683088847912713e-05 -0.034936898166756186 0 -6.7954868908663249e-05 -0.034928297981184908 0 -5.0683088847912713e-05 -0.034936898166756186 0 -6.7954868908663249e-05 -0.034928297981184908 0 -6.9386309578221446e-05 -0.034940490522367355 0 -4.8104746183125379e-05 -0.034951640987083359 0 -6.9386309578221446e-05 -0.034940490522367355 0 -6.6637028743648784e-05 -0.0349550047971579 0 -4.8104746183125379e-05 -0.034951640987083359 0 -5.0683088847912713e-05 -0.034936898166756186 0 -6.9386309578221446e-05 -0.034940490522367355 0 -6.7954868908663249e-05 -0.034928297981184908 0 -6.9386309578221446e-05 -0.034940490522367355 0 -7.9810717277549635e-05 -0.034929319745482884 0 9.3032982221242437e-05 -0.034659817301111444 0 2.8934571180874524e-05 -0.034863542276736589 0 -6.9386309578221446e-05 -0.034940490522367355 0 -7.0111423857268206e-05 -0.034943331769780921 0 -8.3518189875778588e-05 -0.034934623784125145 0 -0.00010744355006355123 -0.034933655232905564 0 -8.8890186219825202e-05 -0.034910898675246264 0 -8.3518189875778588e-05 -0.034934623784125145 0 2.8934571180874524e-05 -0.034863542276736589 0 1.6600925843139015e-05 -0.03486488480764597 0 -0.00011873137591860748 -0.034880776656054546 0 -0.00010744355006355123 -0.034933655232905564 0 -8.8890186219825202e-05 -0.034910898675246264 0 3.9256439415510128e-05 -0.034982296769727743 0 3.3031725339868974e-05 -0.034989319123561825 0 4.1134224963557456e-05 -0.03499704523623548 0 2.7902718602886016e-05 -0.034867278676967241 0 2.8934571180874524e-05 -0.034863542276736589 0 -8.8890186219825202e-05 -0.034910898675246264 0 -7.9514498609804457e-05 -0.03493121962670024 0 -7.5804287707216918e-05 -0.03487665761528775 0 -8.8890186219825202e-05 -0.034910898675246264 0 -8.3518189875778588e-05 -0.034934623784125145 0 -7.9514498609804457e-05 -0.03493121962670024 0 0.0005347783364248761 -0.032862576470713341 0 0.00052479711762765059 -0.033138389020086916 0 -8.3518189875778588e-05 -0.034934623784125145 0 -8.8177746274249109e-05 -0.034925891534978326 0 -7.9810717277549635e-05 -0.034929319745482884 0 -6.9386309578221446e-05 -0.034940490522367355 0 -8.3518189875778588e-05 -0.034934623784125145 0 -7.9810717277549635e-05 -0.034929319745482884 0 -8.3518189875778588e-05 -0.034934623784125145 0 -8.8177746274249109e-05 -0.034925891534978326 0 -7.9514498609804457e-05 -0.03493121962670024 0 -8.0620457626928726e-05 -0.03491733977775012 0 -6.7954868908663249e-05 -0.034928297981184908 0 -7.9810717277549635e-05 -0.034929319745482884 0 -8.0620457626928726e-05 -0.03491733977775012 0 -8.8177746274249109e-05 -0.034925891534978326 0 -7.9810717277549635e-05 -0.034929319745482884 0 0.00050875010163893217 -0.032658882856995787 0 0.0005347783364248761 -0.032862576470713341 0 -8.8177746274249109e-05 -0.034925891534978326 0 -0.00012616764056464042 -0.03491520702426381 0 -7.9514498609804457e-05 -0.03493121962670024 0 0.0011742494766758213 -0.030325473325902467 0 0.0012557643460416044 -0.030529092430542751 0 0.0013762142555289361 -0.03062862835742227 0 -0.00010028005806805532 -0.034903136138485558 0 -8.8177746274249109e-05 -0.034925891534978326 0 -0.00012616764056464042 -0.03491520702426381 0 0.0011316349420939743 -0.030486765816076383 0 0.0011742494766758213 -0.030325473325902467 0 0.0012557643460416044 -0.030529092430542751 0 0.0012557643460416044 -0.030529092430542751 0 0.0011953359562151436 -0.030568408273671417 0 0.0012569734413992602 -0.030660566759311881 0 0.0012557643460416044 -0.030529092430542751 0 0.0012569734413992602 -0.030660566759311881 0 0.0014383683054054938 -0.030797322805536674 0 0.0012557643460416044 -0.030529092430542751 0 0.0013762142555289361 -0.03062862835742227 0 0.0014492860100491069 -0.031047517563778416 0 0.0011316349420939743 -0.030486765816076383 0 0.0012557643460416044 -0.030529092430542751 0 0.0011953359562151436 -0.030568408273671417 0 0.00085945818468200733 -0.031100673272009566 0 0.00083146833533975155 -0.031525221292178107 0 0.0011349002449265342 -0.030594685692915791 0 0.0011953359562151436 -0.030568408273671417 0 0.0012569734413992602 -0.030660566759311881 0 0.0011444308967269886 -0.030710440386294374 0 0.0012569734413992602 -0.030660566759311881 0 0.0012734165631357796 -0.030783441692629601 0 0.0011444308967269886 -0.030710440386294374 0 0.0012734165631357796 -0.030783441692629601 0 0.0011990564598368758 -0.03085090433741329 0 0.0012734165631357796 -0.030783441692629601 0 0.0011990564598368758 -0.03085090433741329 0 0.0013357126666995092 -0.030908603469103884 0 0.0012734165631357796 -0.030783441692629601 0 0.0014383683054054938 -0.030797322805536674 0 0.0013357126666995092 -0.030908603469103884 0 0.0012569734413992602 -0.030660566759311881 0 0.0012734165631357796 -0.030783441692629601 0 0.0014383683054054938 -0.030797322805536674 0 0.0013762142555289361 -0.03062862835742227 0 0.0016182826708633774 -0.03106673098117713 0 0.0014492860100491069 -0.031047517563778416 0 0.00083146833533975155 -0.031525221292178107 0 0.00073407151256346464 -0.033104084240154784 0 0.0014383683054054938 -0.030797322805536674 0 0.0015582431764315854 -0.031079889597833733 0 0.0013357126666995092 -0.030908603469103884 0 0.0019021586314244762 -0.031559903686099886 0 0.0014492860100491069 -0.031047517563778416 0 0.0017172167148293829 -0.031654022223633907 0 0.0015582431764315854 -0.031079889597833733 0 0.0013629265414748309 -0.031055874171895547 0 0.0013357126666995092 -0.030908603469103884 0 0.0014383683054054938 -0.030797322805536674 0 0.0015582431764315854 -0.031079889597833733 0 0.001664421940086522 -0.031217096957382725 0 0.0019021586314244762 -0.031559903686099886 0 0.0016182826708633774 -0.03106673098117713 0 0.0014492860100491069 -0.031047517563778416 0 0.0015582431764315854 -0.031079889597833733 0 0.001458808763319684 -0.031127430996599748 0 0.0013629265414748309 -0.031055874171895547 0 0.0015582431764315854 -0.031079889597833733 0 0.001458808763319684 -0.031127430996599748 0 0.0015889756645207447 -0.031264389868985845 0 0.001458808763319684 -0.031127430996599748 0 0.0013629265414748309 -0.031055874171895547 0 0.0014644069852641081 -0.031258663622047468 0 0.0013629265414748309 -0.031055874171895547 0 0.0011831945954610676 -0.031060913984005588 0 0.0014644069852641081 -0.031258663622047468 0 0.0011990564598368758 -0.03085090433741329 0 0.0011831945954610676 -0.031060913984005588 0 0.0013357126666995092 -0.030908603469103884 0 0.0013629265414748309 -0.031055874171895547 0 0.0011831945954610676 -0.031060913984005588 0 0.0013357126666995092 -0.030908603469103884 0 0.0012615937473765674 -0.031192515327583482 0 0.0013827860530090765 -0.031325399530791539 0 0.0013090976508363602 -0.031381806876657835 0 0.0017574517982134399 -0.029691958560472138 0 0.0017934924620089238 -0.029961061358628159 0 0.0012615937473765674 -0.031192515327583482 0 0.0013827860530090765 -0.031325399530791539 0 0.0014644069852641081 -0.031258663622047468 0 0.0013827860530090765 -0.031325399530791539 0 0.0014825057972782875 -0.031315689912333931 0 0.0014110100574240508 -0.031489169853553871 0 0.0013827860530090765 -0.031325399530791539 0 0.0013090976508363602 -0.031381806876657835 0 0.0014110100574240508 -0.031489169853553871 0 0.0013827860530090765 -0.031325399530791539 0 0.0014644069852641081 -0.031258663622047468 0 0.0014825057972782875 -0.031315689912333931 0 0.0015543235615372896 -0.031280922541946324 0 0.0014825057972782875 -0.031315689912333931 0 0.0015919607403940717 -0.031569411143941857 0 0.001458808763319684 -0.031127430996599748 0 0.0014644069852641081 -0.031258663622047468 0 0.0015889756645207447 -0.031264389868985845 0 0.0014644069852641081 -0.031258663622047468 0 0.0015889756645207447 -0.031264389868985845 0 0.0014825057972782875 -0.031315689912333931 0 0.00074705663014379496 -0.033049770787572208 0 0.00083221980049072225 -0.03298108305957103 0 0.00075398843456992771 -0.032765222161056852 0 0.00074705663014379496 -0.033049770787572208 0 0.0015582431764315854 -0.031079889597833733 0 0.001664421940086522 -0.031217096957382725 0 0.0015851832642141696 -0.031258811464920405 0 0.00073407151256346464 -0.033104084240154784 0 0.00074705663014379496 -0.033049770787572208 0 0.0014825057972782875 -0.031315689912333931 0 0.0015919607403940717 -0.031569411143941857 0 0.0014110100574240508 -0.031489169853553871 0 0.00074705663014379496 -0.033049770787572208 0 0.00074722242013641001 -0.033242853205998138 0 0.0015919607403940717 -0.031569411143941857 0 0.0014110100574240508 -0.031489169853553871 0 0.0014735272910418535 -0.031695383662779152 0 0.0013090976508363602 -0.031381806876657835 0 0.0014110100574240508 -0.031489169853553871 0 0.0012809059906436664 -0.031506360145109664 0 0.0011879362963784354 -0.031423960329213005 0 0.0013090976508363602 -0.031381806876657835 0 0.0012809059906436664 -0.031506360145109664 0 0.0011803551825489331 -0.031576404956041158 0 0.0012809059906436664 -0.031506360145109664 0 0.0013195490358453542 -0.031660748104783622 0 0.0014110100574240508 -0.031489169853553871 0 0.0012809059906436664 -0.031506360145109664 0 0.0013195490358453542 -0.031660748104783622 0 0.0014110100574240508 -0.031489169853553871 0 0.0013195490358453542 -0.031660748104783622 0 0.0014735272910418535 -0.031695383662779152 0 0.0013195490358453542 -0.031660748104783622 0 0.0013635934945952274 -0.031801522154216624 0 0.0014735272910418535 -0.031695383662779152 0 0.0012320768711811816 -0.031823584973403991 0 0.0013195490358453542 -0.031660748104783622 0 0.0013635934945952274 -0.031801522154216624 0 0.0012320768711811816 -0.031823584973403991 0 0.0013635934945952274 -0.031801522154216624 0 0.0013532846219177835 -0.031930505575390393 0 0.0013635934945952274 -0.031801522154216624 0 0.0013532846219177835 -0.031930505575390393 0 0.0014854376277094821 -0.031828032463876374 0 0.0014980559108591206 -0.031930243199683198 0 0.0014854376277094821 -0.031828032463876374 0 0.0016152622252857622 -0.031852412307273724 0 0.0014980559108591206 -0.031930243199683198 0 0.0016152622252857622 -0.031852412307273724 0 0.0016286071488366631 -0.03194857842797396 0 0.0013532846219177835 -0.031930505575390393 0 0.0014980559108591206 -0.031930243199683198 0 0.0014854376277094821 -0.031828032463876374 0 0.0013635934945952274 -0.031801522154216624 0 0.0014854376277094821 -0.031828032463876374 0 0.0014735272910418535 -0.031695383662779152 0 0.0014854376277094821 -0.031828032463876374 0 0.0014735272910418535 -0.031695383662779152 0 0.0016265367226098297 -0.031852706540557739 0 0.00090024211756014 -0.033561608820637752 0 0.00078598358166596103 -0.033658121035152574 0 0.0015919607403940717 -0.031569411143941857 0 0.0014735272910418535 -0.031695383662779152 0 0.0016265367226098297 -0.031852706540557739 0 0.00074722242013641001 -0.033242853205998138 0 0.00078598358166596103 -0.033658121035152574 0 -0.00014882583149026146 -0.034783929481075213 0 -5.4064614280379529e-05 -0.034823973657035795 0 -5.0577111080998566e-05 -0.034906092888422467 0 -0.00014882583149026146 -0.034783929481075213 0 -5.0577111080998566e-05 -0.034906092888422467 0 -9.1980656349012504e-05 -0.034991602673384227 0 -5.4064614280379529e-05 -0.034823973657035795 0 -8.7111150633124142e-06 -0.034861075327967984 0 -5.0577111080998566e-05 -0.034906092888422467 0 -8.7111150633124142e-06 -0.034861075327967984 0 6.1579396453789761e-05 -0.03474780548122669 0 -6.1661340635072352e-06 -0.034797636731417982 0 -5.4064614280379529e-05 -0.034823973657035795 0 -8.7111150633124142e-06 -0.034861075327967984 0 -6.1661340635072352e-06 -0.034797636731417982 0 -8.7111150633124142e-06 -0.034861075327967984 0 -5.0577111080998566e-05 -0.034906092888422467 0 2.7663368737426558e-05 -0.034950270079493508 0 -5.0577111080998566e-05 -0.034906092888422467 0 -9.1980656349012504e-05 -0.034991602673384227 0 8.1097977761226201e-06 -0.034986122147840804 0 -5.0577111080998566e-05 -0.034906092888422467 0 8.1097977761226201e-06 -0.034986122147840804 0 2.7663368737426558e-05 -0.034950270079493508 0 0.00078598358166596103 -0.033658121035152574 0 0.00039522338514446937 -0.034055342360709603 0 0.00019066548843184645 -0.03483935146364589 0 0.00026144521474677712 -0.034797366150256415 0 0.00022019168772349808 -0.03475308942172467 0 0.00039522338514446937 -0.034055342360709603 0 0.00077830003086130689 -0.033753066334855447 0 0.00074574594358506059 -0.033836922664422522 0 0.00086275312695032521 -0.033854816888263591 0 0.00075795368758195764 -0.033923400159150525 0 0.00078598358166596103 -0.033658121035152574 0 0.00077830003086130689 -0.033753066334855447 0 8.1097977761226201e-06 -0.034986122147840804 0 2.7663368737426558e-05 -0.034950270079493508 0 3.4736889889407023e-05 -0.034959990697958486 0 0.00039522338514446937 -0.034055342360709603 0 0.00012767867384408092 -0.034535843385199931 0 0.00019066548843184645 -0.03483935146364589 0 4.5495252194839689e-05 -0.034824707828491168 0 0.00010677243700346151 -0.034752961359515666 0 0.00039522338514446937 -0.034055342360709603 0 4.9910336086729995e-05 -0.034429201190868626 0 4.0638632698450956e-05 -0.034953291910423526 0 3.4736889889407023e-05 -0.034959990697958486 0 2.9465493232366909e-05 -0.034959245884585252 0 -8.7111150633124142e-06 -0.034861075327967984 0 2.7663368737426558e-05 -0.034950270079493508 0 6.1579396453789761e-05 -0.03474780548122669 0 0.00027565285383323186 -0.034638852450663622 0 0.00028960725546780831 -0.03452505682677913 0 2.7663368737426558e-05 -0.034950270079493508 0 3.2163625302387828e-05 -0.034962642249068025 0 3.4736889889407023e-05 -0.034959990697958486 0 2.7663368737426558e-05 -0.034950270079493508 0 3.2163625302387828e-05 -0.034962642249068025 0 3.9105318924813973e-05 -0.034966952708337697 0 3.2163625302387828e-05 -0.034962642249068025 0 3.3323062771229735e-05 -0.034968759932282767 0 2.6092056265670536e-05 -0.034975469039903104 0 3.8139855297914655e-05 -0.034975002110989944 0 3.9105318924813973e-05 -0.034966952708337697 0 4.0199101563875188e-05 -0.034977701154537924 0 3.2163625302387828e-05 -0.034962642249068025 0 3.3323062771229735e-05 -0.034968759932282767 0 3.9105318924813973e-05 -0.034966952708337697 0 0.00028960725546780831 -0.03452505682677913 0 0.00032622271921546375 -0.034133188599616525 0 3.3772804638927341e-05 -0.034972764289705298 0 3.0986036008856722e-05 -0.034979405127406861 0 2.6092056265670536e-05 -0.034975469039903104 0 3.3323062771229735e-05 -0.034968759932282767 0 3.3772804638927341e-05 -0.034972764289705298 0 2.6092056265670536e-05 -0.034975469039903104 0 3.3772804638927341e-05 -0.034972764289705298 0 3.8139855297914655e-05 -0.034975002110989944 0 3.0986036008856722e-05 -0.034979405127406861 0 3.3772804638927341e-05 -0.034972764289705298 0 3.8139855297914655e-05 -0.034975002110989944 0 3.9105318924813973e-05 -0.034966952708337697 0 3.3323062771229735e-05 -0.034968759932282767 0 3.3772804638927341e-05 -0.034972764289705298 0 3.9105318924813973e-05 -0.034966952708337697 0 -6.1661340635072352e-06 -0.034797636731417982 0 -6.6388261770087379e-05 -0.034739015152247192 0 -6.1226878084134171e-05 -0.034641473195244826 0 -0.00019236142827089916 -0.034498246385506921 0 -0.00014882583149026146 -0.034783929481075213 0 -6.1226878084134171e-05 -0.034641473195244826 0 6.1579396453789761e-05 -0.03474780548122669 0 -6.1661340635072352e-06 -0.034797636731417982 0 -0.00013153673827762173 -0.03455298361771203 0 0.00067584769941393718 -0.033940610924654682 0 0.00068890389624814117 -0.033739488740686628 0 6.1579396453789761e-05 -0.03474780548122669 0 -0.00013153673827762173 -0.03455298361771203 0 2.7680273505332588e-05 -0.034449340893763371 0 -5.4064614280379529e-05 -0.034823973657035795 0 -6.1661340635072352e-06 -0.034797636731417982 0 -6.6388261770087379e-05 -0.034739015152247192 0 -0.00014882583149026146 -0.034783929481075213 0 -5.4064614280379529e-05 -0.034823973657035795 0 -6.6388261770087379e-05 -0.034739015152247192 0 -0.00014882583149026146 -0.034783929481075213 0 -6.6388261770087379e-05 -0.034739015152247192 0 -6.1226878084134171e-05 -0.034641473195244826 0 -0.00013153673827762173 -0.03455298361771203 0 2.7680273505332588e-05 -0.034449340893763371 0 -0.00011844523063730936 -0.034375508937662246 0 0.00073407151256346464 -0.033104084240154784 0 0.00068890389624814117 -0.033739488740686628 0 -0.0001386764552165514 -0.034470496125524053 0 -0.00019236142827089916 -0.034498246385506921 0 -6.1226878084134171e-05 -0.034641473195244826 0 -0.00025984839148398425 -0.034286756958081713 0 -0.00013153673827762173 -0.03455298361771203 0 -0.00011844523063730936 -0.034375508937662246 0 0.00041780628719338849 -0.033538670850541116 0 0.00073407151256346464 -0.033104084240154784 0 -0.00011102239350277836 -0.03421223033295593 0 -0.00025984839148398425 -0.034286756958081713 0 -0.00011844523063730936 -0.034375508937662246 0 0.00041780628719338849 -0.033538670850541116 0 0.00032622271921546375 -0.034133188599616525 0 0.00015247753352256501 -0.034053893853857181 0 0.00032622271921546375 -0.034133188599616525 0 -0.00011102239350277836 -0.03421223033295593 0 2.7680273505332588e-05 -0.034449340893763371 0 -0.00011844523063730936 -0.034375508937662246 0 0.00039441278384380417 -0.033345126878634258 0 0.00014513740213216615 -0.033470916747250924 0 0.000508875195585726 -0.034062648801430437 0 4.0578752884346037e-05 -0.034987804441534535 0 3.9493638731731903e-05 -0.034978076862142014 0 3.2447895255833499e-05 -0.034984962080828234 0 3.2447895255833499e-05 -0.034984962080828234 0 3.0986036008856722e-05 -0.034979405127406861 0 2.4588756239604168e-05 -0.034986999087907228 0 3.2447895255833499e-05 -0.034984962080828234 0 3.0986036008856722e-05 -0.034979405127406861 0 3.5196444513476673e-05 -0.034979290860316772 0 3.8139855297914655e-05 -0.034975002110989944 0 3.0986036008856722e-05 -0.034979405127406861 0 3.5196444513476673e-05 -0.034979290860316772 0 3.9493638731731903e-05 -0.034978076862142014 0 3.2447895255833499e-05 -0.034984962080828234 0 3.5196444513476673e-05 -0.034979290860316772 0 3.8139855297914655e-05 -0.034975002110989944 0 3.9493638731731903e-05 -0.034978076862142014 0 3.5196444513476673e-05 -0.034979290860316772 0 0.00033297498338893928 -0.034159583517056676 0 0.00032622271921546375 -0.034133188599616525 0 2.2473151467519865e-05 -0.034983605728135504 0 1.4053163430106119e-05 -0.034985620911355438 0 2.6092056265670536e-05 -0.034975469039903104 0 3.0986036008856722e-05 -0.034979405127406861 0 2.2473151467519865e-05 -0.034983605728135504 0 2.4588756239604168e-05 -0.034986999087907228 0 3.0986036008856722e-05 -0.034979405127406861 0 2.2473151467519865e-05 -0.034983605728135504 0 2.6092056265670536e-05 -0.034975469039903104 0 1.7959147333283491e-05 -0.034990001551676496 0 2.2473151467519865e-05 -0.034983605728135504 0 2.4588756239604168e-05 -0.034986999087907228 0 1.7959147333283491e-05 -0.034990001551676496 0 2.2473151467519865e-05 -0.034983605728135504 0 1.4053163430106119e-05 -0.034985620911355438 0 1.0136292853208493e-05 -0.034993390284918213 0 1.7959147333283491e-05 -0.034990001551676496 0 1.4053163430106119e-05 -0.034985620911355438 0 1.0136292853208493e-05 -0.034993390284918213 0 1.4053163430106119e-05 -0.034985620911355438 0 6.4109454850714807e-06 -0.03499136300675456 0 1.4053163430106119e-05 -0.034985620911355438 0 2.2470087077473473e-05 -0.034974327465524806 0 1.212888293396202e-05 -0.034982625663013418 0 1.4053163430106119e-05 -0.034985620911355438 0 2.6092056265670536e-05 -0.034975469039903104 0 2.2470087077473473e-05 -0.034974327465524806 0 3.2163625302387828e-05 -0.034962642249068025 0 2.6092056265670536e-05 -0.034975469039903104 0 2.2470087077473473e-05 -0.034974327465524806 0 3.2163625302387828e-05 -0.034962642249068025 0 2.2470087077473473e-05 -0.034974327465524806 0 3.4736889889407023e-05 -0.034959990697958486 0 2.2470087077473473e-05 -0.034974327465524806 0 3.4736889889407023e-05 -0.034959990697958486 0 2.0878030506045687e-05 -0.034970555368753729 0 3.4736889889407023e-05 -0.034959990697958486 0 2.9465493232366909e-05 -0.034959245884585252 0 2.0878030506045687e-05 -0.034970555368753729 0 0.00012767867384408092 -0.034535843385199931 0 2.027602126388552e-05 -0.034801521146230731 0 2.9465493232366909e-05 -0.034959245884585252 0 2.0878030506045687e-05 -0.034970555368753729 0 9.4024555184211625e-06 -0.034977522283457053 0 1.212888293396202e-05 -0.034982625663013418 0 2.0878030506045687e-05 -0.034970555368753729 0 9.4024555184211625e-06 -0.034977522283457053 0 2.2470087077473473e-05 -0.034974327465524806 0 1.212888293396202e-05 -0.034982625663013418 0 2.0878030506045687e-05 -0.034970555368753729 0 1.212888293396202e-05 -0.034982625663013418 0 5.0728328635814291e-06 -0.034991253029131635 0 9.4024555184211625e-06 -0.034977522283457053 0 -1.1730745891937387e-10 -0.034999991290391358 0 5.0728328635814291e-06 -0.034991253029131635 0 9.4024555184211625e-06 -0.034977522283457053 0 -1.1730745891937387e-10 -0.034999991290391358 0 4.319844372721538e-09 -0.034999976690008289 0 9.4024555184211625e-06 -0.034977522283457053 0 -1.1730745891937387e-10 -0.034999991290391358 0 5.0728328635814291e-06 -0.034991253029131635 0 7.9853724953587405e-09 -0.03499997889041824 0 3.5305558309954652e-09 -0.03499999349318695 0 2.5565360875519484e-06 -0.034997912571792682 0 5.0728328635814291e-06 -0.034991253029131635 0 7.9853724953587405e-09 -0.03499997889041824 0 6.4109454850714807e-06 -0.03499136300675456 0 1.4053163430106119e-05 -0.034985620911355438 0 1.212888293396202e-05 -0.034982625663013418 0 6.4109454850714807e-06 -0.03499136300675456 0 1.212888293396202e-05 -0.034982625663013418 0 5.0728328635814291e-06 -0.034991253029131635 0 6.4109454850714807e-06 -0.03499136300675456 0 4.9227293854893026e-06 -0.03499809934789995 0 2.5565360875519484e-06 -0.034997912571792682 0 1.9509480629421055e-06 -0.034997614482670553 0 1.0136292853208493e-05 -0.034993390284918213 0 1.9245527590404488e-06 -0.034997252491117306 0 -6.2889005408590493e-11 -0.03499999924336291 0 1.9245527590404488e-06 -0.034997252491117306 0 1.7467127949996373e-09 -0.034999994023193821 0 1.9509480629421055e-06 -0.034997614482670553 0 1.9245527590404488e-06 -0.034997252491117306 0 1.7467127949996373e-09 -0.034999994023193821 0 3.0635054669446061e-05 -0.034973746228183958 0 1.7012290267060681e-08 -0.034999935609385642 0 2.0272019559963951e-05 -0.034998897072532287 0 3.0635054669446061e-05 -0.034973746228183958 0 6.4263781006223145e-05 -0.034991657568552867 0 2.0272019559963951e-05 -0.034998897072532287 0 3.0635054669446061e-05 -0.034973746228183958 0 2.4400055558475474e-05 -0.034965373533071914 0 4.7520669319455246e-05 -0.034938444090485576 0 3.0635054669446061e-05 -0.034973746228183958 0 1.7012290267060681e-08 -0.034999935609385642 0 2.4400055558475474e-05 -0.034965373533071914 0 0.00013174320252129805 -0.034950990495426111 0 6.4263781006223145e-05 -0.034991657568552867 0 0.00020689915924952738 -0.035032758264634388 0 0.00030380577442502122 -0.034823332625626688 0 5.3689009321362449e-05 -0.03487838079348185 0 6.3646054246016567e-05 -0.034901946584347997 0 3.0635054669446061e-05 -0.034973746228183958 0 4.7520669319455246e-05 -0.034938444090485576 0 6.5493391771667182e-05 -0.034950884516336961 0 4.7520669319455246e-05 -0.034938444090485576 0 7.0173590325917713e-05 -0.034925714736769635 0 6.3646054246016567e-05 -0.034901946584347997 0 4.7520669319455246e-05 -0.034938444090485576 0 7.0173590325917713e-05 -0.034925714736769635 0 6.5493391771667182e-05 -0.034950884516336961 0 7.0173590325917713e-05 -0.034925714736769635 0 0.00011529460312783286 -0.034915769273579304 0 6.3646054246016567e-05 -0.034901946584347997 0 7.0173590325917713e-05 -0.034925714736769635 0 0.00011529460312783286 -0.034915769273579304 0 6.5493391771667182e-05 -0.034950884516336961 0 0.00011529460312783286 -0.034915769273579304 0 0.00013174320252129805 -0.034950990495426111 0 6.5493391771667182e-05 -0.034950884516336961 0 0.00013174320252129805 -0.034950990495426111 0 6.5493391771667182e-05 -0.034950884516336961 0 6.4263781006223145e-05 -0.034991657568552867 0 3.0635054669446061e-05 -0.034973746228183958 0 6.5493391771667182e-05 -0.034950884516336961 0 6.4263781006223145e-05 -0.034991657568552867 0 6.4140227775101805e-05 -0.034867501338431944 0 0.00014301587388483231 -0.034727807598362088 0 -6.2273396894030328e-05 -0.034774602821023737 0 -2.3713178966171416e-05 -0.034700041879356436 0 -3.5033514467750405e-05 -0.034583484499701785 0 6.4263781006223145e-05 -0.034991657568552867 0 2.0272019559963951e-05 -0.034998897072532287 0 3.7780898641092984e-05 -0.035038552202483572 0 6.4263781006223145e-05 -0.034991657568552867 0 3.7780898641092984e-05 -0.035038552202483572 0 0.00020689915924952738 -0.035032758264634388 0 1.5613345100856712e-08 -0.035000039502720723 0 2.0272019559963951e-05 -0.034998897072532287 0 3.7780898641092984e-05 -0.035038552202483572 0 1.7012290267060681e-08 -0.034999935609385642 0 1.5613345100856712e-08 -0.035000039502720723 0 2.0272019559963951e-05 -0.034998897072532287 0 -9.2344106790911665e-08 -0.034999830384686598 0 -3.3137598890350213e-05 -0.034886176873556579 0 -6.2273396894030328e-05 -0.034774602821023737 0 1.5613345100856712e-08 -0.035000039502720723 0 1.1492863614670739e-09 -0.035000026553273896 0 3.7780898641092984e-05 -0.035038552202483572 0 5.3898552293632767e-08 -0.03499978943331937 0 6.4140227775101805e-05 -0.034867501338431944 0 -9.2344106790911665e-08 -0.034999830384686598 0 -5.9495672875289244e-09 -0.03499992178280191 0 -3.3137598890350213e-05 -0.034886176873556579 0 -5.9495672875289244e-09 -0.03499992178280191 0 -3.3137598890350213e-05 -0.034886176873556579 0 -3.5084670107789589e-05 -0.034848221680703263 0 6.7960536991159812e-09 -0.034999647705337741 0 2.027602126388552e-05 -0.034801521146230731 0 -3.3137598890350213e-05 -0.034886176873556579 0 -3.5084670107789589e-05 -0.034848221680703263 0 -1.3353707360777758e-05 -0.034775397013505252 0 -6.2273396894030328e-05 -0.034774602821023737 0 -2.3713178966171416e-05 -0.034700041879356436 0 -1.3353707360777758e-05 -0.034775397013505252 0 -3.3137598890350213e-05 -0.034886176873556579 0 -6.2273396894030328e-05 -0.034774602821023737 0 -1.3353707360777758e-05 -0.034775397013505252 0 -2.3713178966171416e-05 -0.034700041879356436 0 -1.3353707360777758e-05 -0.034775397013505252 0 2.9441761815734202e-05 -0.034658627148168704 0 4.5495252194839689e-05 -0.034824707828491168 0 -3.5084670107789589e-05 -0.034848221680703263 0 -1.3353707360777758e-05 -0.034775397013505252 0 4.5495252194839689e-05 -0.034824707828491168 0 6.5232532021892566e-05 -0.034717579438313328 0 0.00010677243700346151 -0.034752961359515666 0 4.5495252194839689e-05 -0.034824707828491168 0 -1.3353707360777758e-05 -0.034775397013505252 0 6.5232532021892566e-05 -0.034717579438313328 0 -1.3353707360777758e-05 -0.034775397013505252 0 6.5232532021892566e-05 -0.034717579438313328 0 2.9441761815734202e-05 -0.034658627148168704 0 6.5232532021892566e-05 -0.034717579438313328 0 8.5432346528286512e-05 -0.03460433785879987 0 0.0001187199253973463 -0.034635895803983588 0 6.5232532021892566e-05 -0.034717579438313328 0 2.9441761815734202e-05 -0.034658627148168704 0 8.5432346528286512e-05 -0.03460433785879987 0 2.9441761815734202e-05 -0.034658627148168704 0 8.5432346528286512e-05 -0.03460433785879987 0 4.7726849702754511e-05 -0.034549586259686321 0 2.9441761815734202e-05 -0.034658627148168704 0 4.7726849702754511e-05 -0.034549586259686321 0 -3.5033514467750405e-05 -0.034583484499701785 0 8.5432346528286512e-05 -0.03460433785879987 0 4.7726849702754511e-05 -0.034549586259686321 0 0.00010911673671282237 -0.034487488914740655 0 -2.3713178966171416e-05 -0.034700041879356436 0 2.9441761815734202e-05 -0.034658627148168704 0 -3.5033514467750405e-05 -0.034583484499701785 0 0.00030380577442502122 -0.034823332625626688 0 0.00057763491985763195 -0.03478690600453218 0 0.0002705125393796476 -0.03460339401838064 0 0.00012999179385288003 -0.034888494732083344 0 3.4780382697929596e-05 -0.034869136083396195 0 0.00011529460312783286 -0.034915769273579304 0 0.00030380577442502122 -0.034823332625626688 0 6.3646054246016567e-05 -0.034901946584347997 0 0.00020689915924952738 -0.035032758264634388 0 0.00030380577442502122 -0.034823332625626688 0 0.00057763491985763195 -0.03478690600453218 0 0.00013174320252129805 -0.034950990495426111 0 0.00020689915924952738 -0.035032758264634388 0 0.00030380577442502122 -0.034823332625626688 0 0.00011529460312783286 -0.034915769273579304 0 0.00013174320252129805 -0.034950990495426111 0 0.00030380577442502122 -0.034823332625626688 0 0.00014301587388483231 -0.034727807598362088 0 0.00025945333297112499 -0.034540412762622687 0 4.7726849702754511e-05 -0.034549586259686321 0 -3.5033514467750405e-05 -0.034583484499701785 0 5.145453036234089e-05 -0.034405221608631527 0 4.7726849702754511e-05 -0.034549586259686321 0 5.145453036234089e-05 -0.034405221608631527 0 0.00010911673671282237 -0.034487488914740655 0 0.00013939647683961623 -0.03438062600013235 0 0.00018012665938775663 -0.034423710707598268 0 0.00010911673671282237 -0.034487488914740655 0 5.145453036234089e-05 -0.034405221608631527 0 0.00013939647683961623 -0.03438062600013235 0 0.00010911673671282237 -0.034487488914740655 0 0.00018012665938775663 -0.034423710707598268 0 0.00025772709392516492 -0.034350806370613315 0 0.00019503137587692084 -0.034323745005505508 0 0.00013939647683961623 -0.03438062600013235 0 0.00018012665938775663 -0.034423710707598268 0 0.00019503137587692084 -0.034323745005505508 0 0.00018012665938775663 -0.034423710707598268 0 0.00023105810287391199 -0.034500254915425535 0 0.00025772709392516492 -0.034350806370613315 0 0.00018012665938775663 -0.034423710707598268 0 0.00023105810287391199 -0.034500254915425535 0 0.00015547188317693606 -0.034548145549493536 0 0.00023105810287391199 -0.034500254915425535 0 0.00019912170478928067 -0.034568357685272152 0 0.00023075257852265039 -0.034601089754268344 0 0.00023105810287391199 -0.034500254915425535 0 0.00015547188317693606 -0.034548145549493536 0 0.00019912170478928067 -0.034568357685272152 0 0.00015547188317693606 -0.034548145549493536 0 0.00016211344621270749 -0.034612519451847061 0 0.00019912170478928067 -0.034568357685272152 0 0.00018012665938775663 -0.034423710707598268 0 0.00015547188317693606 -0.034548145549493536 0 0.00010911673671282237 -0.034487488914740655 0 8.5432346528286512e-05 -0.03460433785879987 0 0.00015547188317693606 -0.034548145549493536 0 0.00010911673671282237 -0.034487488914740655 0 8.5432346528286512e-05 -0.03460433785879987 0 0.00015547188317693606 -0.034548145549493536 0 0.0001187199253973463 -0.034635895803983588 0 0.0001187199253973463 -0.034635895803983588 0 0.00016211344621270749 -0.034612519451847061 0 0.00013122689752632157 -0.034686012968705431 0 0.00015547188317693606 -0.034548145549493536 0 0.0001187199253973463 -0.034635895803983588 0 0.00016211344621270749 -0.034612519451847061 0 0.00013122689752632157 -0.034686012968705431 0 0.00015871429284542622 -0.034715759463635427 0 0.00018569161337945341 -0.034658181435388888 0 0.00016211344621270749 -0.034612519451847061 0 0.00013122689752632157 -0.034686012968705431 0 0.00018569161337945341 -0.034658181435388888 0 6.5232532021892566e-05 -0.034717579438313328 0 0.0001187199253973463 -0.034635895803983588 0 0.00013122689752632157 -0.034686012968705431 0 0.00013122689752632157 -0.034686012968705431 0 0.00010677243700346151 -0.034752961359515666 0 0.00015871429284542622 -0.034715759463635427 0 0.00019066548843184645 -0.03483935146364589 0 0.00010677243700346151 -0.034752961359515666 0 0.00017607374893907743 -0.034759886991403484 0 6.5232532021892566e-05 -0.034717579438313328 0 0.00013122689752632157 -0.034686012968705431 0 0.00010677243700346151 -0.034752961359515666 0 0.00010677243700346151 -0.034752961359515666 0 0.00015871429284542622 -0.034715759463635427 0 0.00017607374893907743 -0.034759886991403484 0 0.00015871429284542622 -0.034715759463635427 0 0.00017607374893907743 -0.034759886991403484 0 0.00019899659950458714 -0.034716718286536212 0 0.00026144521474677712 -0.034797366150256415 0 0.00022019168772349808 -0.03475308942172467 0 0.00025264272783314496 -0.034695993951793375 0 0.00077830003086130689 -0.033753066334855447 0 0.00077178432472119771 -0.033959545292490213 0 0.00019066548843184645 -0.03483935146364589 0 0.00017607374893907743 -0.034759886991403484 0 0.00022019168772349808 -0.03475308942172467 0 0.00022019168772349808 -0.03475308942172467 0 0.00019899659950458714 -0.034716718286536212 0 0.00025264272783314496 -0.034695993951793375 0 0.00017607374893907743 -0.034759886991403484 0 0.00022019168772349808 -0.03475308942172467 0 0.00019899659950458714 -0.034716718286536212 0 0.00015871429284542622 -0.034715759463635427 0 0.00019899659950458714 -0.034716718286536212 0 0.00018569161337945341 -0.034658181435388888 0 0.00019899659950458714 -0.034716718286536212 0 0.00025264272783314496 -0.034695993951793375 0 0.00021487720521321107 -0.034669390749254639 0 0.00025264272783314496 -0.034695993951793375 0 0.00021487720521321107 -0.034669390749254639 0 0.00023075257852265039 -0.034601089754268344 0 0.00077178432472119771 -0.033959545292490213 0 0.00075951151281103153 -0.034047697625073634 0 0.00023312722820396426 -0.034642003533902954 0 0.00023075257852265039 -0.034601089754268344 0 0.00028091078579232015 -0.034610465737938613 0 0.00019899659950458714 -0.034716718286536212 0 0.00021487720521321107 -0.034669390749254639 0 0.00018569161337945341 -0.034658181435388888 0 0.00021487720521321107 -0.034669390749254639 0 0.00018569161337945341 -0.034658181435388888 0 0.00023075257852265039 -0.034601089754268344 0 0.00018569161337945341 -0.034658181435388888 0 0.00019912170478928067 -0.034568357685272152 0 0.00023075257852265039 -0.034601089754268344 0 0.00016211344621270749 -0.034612519451847061 0 0.00018569161337945341 -0.034658181435388888 0 0.00019912170478928067 -0.034568357685272152 0 0.00023105810287391199 -0.034500254915425535 0 0.00023075257852265039 -0.034601089754268344 0 0.00030235225056056826 -0.034548984138427746 0 0.00030235225056056826 -0.034548984138427746 0 0.00028091078579232015 -0.034610465737938613 0 0.00037167348968416522 -0.03465996235306916 0 0.00023075257852265039 -0.034601089754268344 0 0.00030235225056056826 -0.034548984138427746 0 0.00028091078579232015 -0.034610465737938613 0 0.00023312722820396426 -0.034642003533902954 0 0.00028091078579232015 -0.034610465737938613 0 0.00037167348968416522 -0.03465996235306916 0 0.00077830003086130689 -0.033753066334855447 0 0.00080318427867848651 -0.033841194883158947 0 0.00077178432472119771 -0.033959545292490213 0 0.00080318427867848651 -0.033841194883158947 0 0.00071746116230520852 -0.03390244185427653 0 0.00070868822391111086 -0.03383987018818467 0 0.00080180992528564878 -0.033847744151721371 0 0.0014980559108591206 -0.031930243199683198 0 0.0016286071488366631 -0.03194857842797396 0 0.0014041106168235272 -0.032094084163461281 0 0.0013532846219177835 -0.031930505575390393 0 0.0014041106168235272 -0.032094084163461281 0 0.0011226452689941956 -0.032065476369267286 0 0.00080318427867848651 -0.033841194883158947 0 0.00076474059528310663 -0.033430805714402045 0 0.0013532846219177835 -0.031930505575390393 0 0.0014980559108591206 -0.031930243199683198 0 0.0014041106168235272 -0.032094084163461281 0 0.00080318427867848651 -0.033841194883158947 0 0.00049512681054964132 -0.034180527199679754 0 0.00037167348968416522 -0.03465996235306916 0 0.00040458836493439178 -0.03448765465746019 0 0.00056575653732840166 -0.034536137003361785 0 0.00030235225056056826 -0.034548984138427746 0 0.00037167348968416522 -0.03465996235306916 0 0.00040458836493439178 -0.03448765465746019 0 0.00040458836493439178 -0.03448765465746019 0 0.0003086174646709493 -0.034445163178945311 0 0.0003648705691117814 -0.034338839872766168 0 0.00040458836493439178 -0.03448765465746019 0 0.0003648705691117814 -0.034338839872766168 0 0.00048852229333611508 -0.034347377834890808 0 0.00030235225056056826 -0.034548984138427746 0 0.00040458836493439178 -0.03448765465746019 0 0.0003086174646709493 -0.034445163178945311 0 0.00023105810287391199 -0.034500254915425535 0 0.0003086174646709493 -0.034445163178945311 0 0.00025772709392516492 -0.034350806370613315 0 0.00023105810287391199 -0.034500254915425535 0 0.00030235225056056826 -0.034548984138427746 0 0.0003086174646709493 -0.034445163178945311 0 0.00025772709392516492 -0.034350806370613315 0 0.0003648705691117814 -0.034338839872766168 0 0.00032484332196943593 -0.034191721919092505 0 0.0003086174646709493 -0.034445163178945311 0 0.00025772709392516492 -0.034350806370613315 0 0.0003648705691117814 -0.034338839872766168 0 0.0003648705691117814 -0.034338839872766168 0 0.00043377889601022257 -0.034172821199952755 0 0.00032484332196943593 -0.034191721919092505 0 0.0003648705691117814 -0.034338839872766168 0 0.00043377889601022257 -0.034172821199952755 0 0.00048852229333611508 -0.034347377834890808 0 0.00043377889601022257 -0.034172821199952755 0 0.00034103895288212601 -0.033992588332685751 0 0.000449821579396234 -0.033888584087654848 0 0.00043377889601022257 -0.034172821199952755 0 0.00032484332196943593 -0.034191721919092505 0 0.00034103895288212601 -0.033992588332685751 0 0.00032484332196943593 -0.034191721919092505 0 0.00026170649366021899 -0.034049411860026219 0 0.00019840327279541282 -0.03410712081138683 0 0.00025772709392516492 -0.034350806370613315 0 0.00032484332196943593 -0.034191721919092505 0 0.0002475909078707675 -0.034261172625793243 0 0.00028563266858478001 -0.034312806534684298 0 0.00026764679999365353 -0.03432358721613113 0 0.00026170649366021899 -0.034049411860026219 0 0.00020807472250345776 -0.034032375472924849 0 0.00019840327279541282 -0.03410712081138683 0 0.00032484332196943593 -0.034191721919092505 0 0.00026170649366021899 -0.034049411860026219 0 0.00034103895288212601 -0.033992588332685751 0 0.00026170649366021899 -0.034049411860026219 0 0.00026563276320531467 -0.033944925367920986 0 0.00034103895288212601 -0.033992588332685751 0 0.00026170649366021899 -0.034049411860026219 0 0.00026563276320531467 -0.033944925367920986 0 0.00020807472250345776 -0.034032375472924849 0 0.00026563276320531467 -0.033944925367920986 0 0.00034103895288212601 -0.033992588332685751 0 0.00034179178445012019 -0.033842505796651927 0 0.00034103895288212601 -0.033992588332685751 0 0.00034179178445012019 -0.033842505796651927 0 0.000449821579396234 -0.033888584087654848 0 0.00034179178445012019 -0.033842505796651927 0 0.00030182997034266775 -0.033867656067315025 0 0.00045364260488131277 -0.033642208437192817 0 0.00035606108963673756 -0.033775470387820729 0 0.00030182997034266775 -0.033867656067315025 0 0.00045364260488131277 -0.033642208437192817 0 0.00026563276320531467 -0.033944925367920986 0 0.00030182997034266775 -0.033867656067315025 0 0.00018113798375399769 -0.033998040166154236 0 0.00026563276320531467 -0.033944925367920986 0 0.00034179178445012019 -0.033842505796651927 0 0.00030182997034266775 -0.033867656067315025 0 0.00030182997034266775 -0.033867656067315025 0 0.00018113798375399769 -0.033998040166154236 0 0.00015834529352288533 -0.033946812096984594 0 0.00025397687433489257 -0.03400796795597813 0 0.00030182997034266775 -0.033867656067315025 0 0.00017754122603675735 -0.034161594431475185 0 0.00019902742208416518 -0.034026241499761002 0 0.00015351806673958337 -0.034064842788260649 0 0.00015351806673958337 -0.034064842788260649 0 0.0001152307292195447 -0.03411800840176199 0 0.00018113798375399769 -0.033998040166154236 0 0.00015834529352288533 -0.033946812096984594 0 0.00010650982411309934 -0.034055407231832646 0 0.00015834529352288533 -0.033946812096984594 0 0.00010650982411309934 -0.034055407231832646 0 7.0377133757477256e-05 -0.034065387764096358 0 0.00018113798375399769 -0.033998040166154236 0 0.00010650982411309934 -0.034055407231832646 0 0.00013109579901574085 -0.034066768960126365 0 0.00013109579901574085 -0.034066768960126365 0 0.0001464331889114593 -0.03408437825606471 0 8.0687867498603614e-05 -0.034113525715496348 0 0.00013109579901574085 -0.034066768960126365 0 0.00016017636859281268 -0.034069515350023595 0 0.0001464331889114593 -0.03408437825606471 0 0.00026563276320531467 -0.033944925367920986 0 0.00018113798375399769 -0.033998040166154236 0 0.00020807472250345776 -0.034032375472924849 0 0.00018113798375399769 -0.033998040166154236 0 0.00013109579901574085 -0.034066768960126365 0 0.00016017636859281268 -0.034069515350023595 0 0.00018113798375399769 -0.033998040166154236 0 0.00020807472250345776 -0.034032375472924849 0 0.00016017636859281268 -0.034069515350023595 0 0.00026764679999365353 -0.03432358721613113 0 0.00028408622164980579 -0.034373980475461273 0 0.00016017636859281268 -0.034069515350023595 0 0.00019840327279541282 -0.03410712081138683 0 0.00014279917649307909 -0.034083424796379706 0 0.0002475909078707675 -0.034261172625793243 0 0.00019503137587692084 -0.034323745005505508 0 0.00015972601848645264 -0.034266706945613408 0 0.00028498573870726037 -0.03436701245930697 0 0.00028408622164980579 -0.034373980475461273 0 0.00020807472250345776 -0.034032375472924849 0 0.00016017636859281268 -0.034069515350023595 0 0.00019840327279541282 -0.03410712081138683 0 0.00025772709392516492 -0.034350806370613315 0 0.0002475909078707675 -0.034261172625793243 0 0.00019503137587692084 -0.034323745005505508 0 0.00028408622164980579 -0.034373980475461273 0 0.00022295534609784493 -0.034299455420924392 0 0.00025945333297112499 -0.034540412762622687 0 0.00028408622164980579 -0.034373980475461273 0 5.145453036234089e-05 -0.034405221608631527 0 0.00013939647683961623 -0.03438062600013235 0 0.00015972601848645264 -0.034266706945613408 0 0.00013939647683961623 -0.03438062600013235 0 0.00019503137587692084 -0.034323745005505508 0 0.00015972601848645264 -0.034266706945613408 0 0.00057763491985763195 -0.03478690600453218 0 0.00093381811911978489 -0.034496910152082172 0 0.00044144728593500655 -0.034373884816940883 0 0.00057763491985763195 -0.03478690600453218 0 0.0002705125393796476 -0.03460339401838064 0 0.00044144728593500655 -0.034373884816940883 0 0.0002705125393796476 -0.03460339401838064 0 0.00017811851345864702 -0.034420060216199921 0 0.00044144728593500655 -0.034373884816940883 0 0.00030380577442502122 -0.034823332625626688 0 0.0002705125393796476 -0.03460339401838064 0 -6.3894785045068556e-06 -0.034605250580721336 0 0.0002705125393796476 -0.03460339401838064 0 0.00017811851345864702 -0.034420060216199921 0 0.00010347027535935479 -0.034501684262680583 0 0.00022295534609784493 -0.034299455420924392 0 0.0001167874382509134 -0.034259644245648216 0 0.00017811851345864702 -0.034420060216199921 0 0.00044144728593500655 -0.034373884816940883 0 3.6364428944298957e-05 -0.034202142655482159 0 8.0687867498603614e-05 -0.034113525715496348 0 6.8544556649963984e-05 -0.034118530102664302 0 3.6364428944298957e-05 -0.034202142655482159 0 0.00010650982411309934 -0.034055407231832646 0 0.00013109579901574085 -0.034066768960126365 0 8.0687867498603614e-05 -0.034113525715496348 0 0.00010650982411309934 -0.034055407231832646 0 8.0687867498603614e-05 -0.034113525715496348 0 6.8544556649963984e-05 -0.034118530102664302 0 0.00010650982411309934 -0.034055407231832646 0 7.0377133757477256e-05 -0.034065387764096358 0 6.8544556649963984e-05 -0.034118530102664302 0 8.2468802618732134e-05 -0.034286305674884811 0 0.00017754122603675735 -0.034161594431475185 0 6.5933239131319124e-05 -0.034281618745663135 0 6.5933239131319124e-05 -0.034281618745663135 0 7.9686257049884127e-05 -0.034207164541968732 0 7.2459382810469337e-05 -0.034272388995737174 0 5.5892007434846141e-05 -0.034332391372464813 0 6.5933239131319124e-05 -0.034281618745663135 0 7.2459382810469337e-05 -0.034272388995737174 0 8.2468802618732134e-05 -0.034286305674884811 0 5.5892007434846141e-05 -0.034332391372464813 0 6.5933239131319124e-05 -0.034281618745663135 0 0.0001152307292195447 -0.03411800840176199 0 0.0001171881058385655 -0.034138289767696783 0 7.0377133757477256e-05 -0.034065387764096358 0 6.8544556649963984e-05 -0.034118530102664302 0 5.4174883766533466e-05 -0.034166571103258263 0 7.0377133757477256e-05 -0.034065387764096358 0 5.4174883766533466e-05 -0.034166571103258263 0 7.9686257049884127e-05 -0.034207164541968732 0 7.9686257049884127e-05 -0.034207164541968732 0 0.00012430588819113502 -0.034226440835882027 0 4.7290296599099422e-06 -0.034170860051718495 0 4.4543886564617716e-05 -0.034673507015787225 0 2.7158663337951533e-05 -0.034705614785703692 0 5.4174883766533466e-05 -0.034166571103258263 0 7.9686257049884127e-05 -0.034207164541968732 0 4.7290296599099422e-06 -0.034170860051718495 0 7.9686257049884127e-05 -0.034207164541968732 0 7.2459382810469337e-05 -0.034272388995737174 0 0.00012430588819113502 -0.034226440835882027 0 0.00010567253131566273 -0.034337340724532005 0 7.2459382810469337e-05 -0.034272388995737174 0 0.00012430588819113502 -0.034226440835882027 0 5.5892007434846141e-05 -0.034332391372464813 0 0.00010567253131566273 -0.034337340724532005 0 7.2459382810469337e-05 -0.034272388995737174 0 0.00020709428407311541 -0.034431892842275137 0 0.00010567253131566273 -0.034337340724532005 0 0.00012430588819113502 -0.034226440835882027 0 6.1509848023591233e-05 -0.034704739534340501 0 4.4543886564617716e-05 -0.034673507015787225 0 -4.7261538709062867e-10 -0.035000056080350776 0 4.7130836047917438e-06 -0.035001534822595833 0 5.3131178917379717e-09 -0.034999988806381353 0 5.3131178917379717e-09 -0.034999988806381353 0 1.7147358467832127e-06 -0.035000549451593227 0 -3.4402628401680143e-11 -0.035000005489315186 0 4.7130836047917438e-06 -0.035001534822595833 0 1.7147358467832127e-06 -0.035000549451593227 0 2.1327991413374957e-07 -0.034999647669005859 0 4.7130836047917438e-06 -0.035001534822595833 0 5.3131178917379717e-09 -0.034999988806381353 0 1.7147358467832127e-06 -0.035000549451593227 0 1.7147358467832127e-06 -0.035000549451593227 0 2.1327991413374957e-07 -0.034999647669005859 0 -3.4402628401680143e-11 -0.035000005489315186 0 6.8544556649963984e-05 -0.034118530102664302 0 5.4174883766533466e-05 -0.034166571103258263 0 3.6364428944298957e-05 -0.034202142655482159 0 5.4174883766533466e-05 -0.034166571103258263 0 3.6364428944298957e-05 -0.034202142655482159 0 4.7290296599099422e-06 -0.034170860051718495 0 0.00017811851345864702 -0.034420060216199921 0 3.6364428944298957e-05 -0.034202142655482159 0 5.6242990797386838e-05 -0.034375189360832642 0 4.7290296599099422e-06 -0.034170860051718495 0 5.6242990797386838e-05 -0.034375189360832642 0 3.2858363139856567e-05 -0.034439420115048545 0 3.6364428944298957e-05 -0.034202142655482159 0 4.7290296599099422e-06 -0.034170860051718495 0 5.6242990797386838e-05 -0.034375189360832642 0 0.0002705125393796476 -0.03460339401838064 0 0.00010347027535935479 -0.034501684262680583 0 -6.3894785045068556e-06 -0.034605250580721336 0 4.7290296599099422e-06 -0.034170860051718495 0 3.2858363139856567e-05 -0.034439420115048545 0 -6.3894785045068556e-06 -0.034605250580721336 0 2.7158663337951533e-05 -0.034705614785703692 0 3.4780382697929596e-05 -0.034869136083396195 0 0.00017811851345864702 -0.034420060216199921 0 5.6242990797386838e-05 -0.034375189360832642 0 0.00010347027535935479 -0.034501684262680583 0 3.2858363139856567e-05 -0.034439420115048545 0 0.00010347027535935479 -0.034501684262680583 0 -6.3894785045068556e-06 -0.034605250580721336 0 5.6242990797386838e-05 -0.034375189360832642 0 3.2858363139856567e-05 -0.034439420115048545 0 0.00010347027535935479 -0.034501684262680583 0 3.4780382697929596e-05 -0.034869136083396195 0 3.5000081560116574e-05 -0.034869824266494848 0 2.4400055558475474e-05 -0.034965373533071914 0 4.7520669319455246e-05 -0.034938444090485576 0 5.7909448217808677e-05 -0.034916352524076974 0 4.7520669319455246e-05 -0.034938444090485576 0 5.7909448217808677e-05 -0.034916352524076974 0 6.3646054246016567e-05 -0.034901946584347997 0 1.7012290267060681e-08 -0.034999935609385642 0 2.4400055558475474e-05 -0.034965373533071914 0 6.7956996827476539e-09 -0.034999937059865802 0 3.4780382697929596e-05 -0.034869136083396195 0 1.1376329950556371e-07 -0.034999786547133233 0 2.1327991413374957e-07 -0.034999647669005859 0 -2.749924953447062e-07 -0.034998926878843976 0 -3.4402628401680143e-11 -0.035000005489315186 0 2.4400055558475474e-05 -0.034965373533071914 0 5.7909448217808677e-05 -0.034916352524076974 0 6.7956996827476539e-09 -0.034999937059865802 0 0.00047878764859113603 -0.032089609042113852 0 0.00047752079123705531 -0.032202993491223138 0 0.00041738617155440198 -0.032150040910782544 0 0.00047878764859113603 -0.032089609042113852 0 0.00042124464081821352 -0.032091325739081945 0 0.000452738475504665 -0.032038221435500801 0 0.00047878764859113603 -0.032089609042113852 0 0.00041738617155440198 -0.032150040910782544 0 0.00042124464081821352 -0.032091325739081945 0 0.00047878764859113603 -0.032089609042113852 0 0.00056305615942759345 -0.032109394425029053 0 0.00047752079123705531 -0.032202993491223138 0 0.00047878764859113603 -0.032089609042113852 0 0.00056305615942759345 -0.032109394425029053 0 0.00057876076834231446 -0.032033634877136716 0 0.00047752079123705531 -0.032202993491223138 0 0.00041738617155440198 -0.032150040910782544 0 0.00037473310685362797 -0.0322248566097059 0 0.00041738617155440198 -0.032150040910782544 0 0.00037194632260554043 -0.032148385616879958 0 0.00037473310685362797 -0.0322248566097059 0 0.00037194632260554043 -0.032148385616879958 0 0.00040405467900542902 -0.032125010685112192 0 0.00042015378215296527 -0.032108443619468609 0 0.00041738617155440198 -0.032150040910782544 0 0.00037194632260554043 -0.032148385616879958 0 0.00040405467900542902 -0.032125010685112192 0 0.00037194632260554043 -0.032148385616879958 0 0.00041771364825404799 -0.032110198853617482 0 0.00042015378215296527 -0.032108443619468609 0 0.00041771364825404799 -0.032110198853617482 0 0.00043389737727746468 -0.032082809670098945 0 0.00046863193872443462 -0.032087427931374771 0 0.00037194632260554043 -0.032148385616879958 0 0.00041771364825404799 -0.032110198853617482 0 0.00039095515744893932 -0.032116449836170048 0 0.00041771364825404799 -0.032110198853617482 0 0.00043389737727746468 -0.032082809670098945 0 0.00039095515744893932 -0.032116449836170048 0 0.00041771364825404799 -0.032110198853617482 0 0.0004580460734553156 -0.032107779955934876 0 0.00042015378215296527 -0.032108443619468609 0 0.00041771364825404799 -0.032110198853617482 0 0.0004580460734553156 -0.032107779955934876 0 0.00046863193872443462 -0.032087427931374771 0 0.0004580460734553156 -0.032107779955934876 0 0.00042015378215296527 -0.032108443619468609 0 0.00046805018666312611 -0.032093233482349555 0 0.00042015378215296527 -0.032108443619468609 0 0.00046805018666312611 -0.032093233482349555 0 0.0004429684575762897 -0.032070724874791061 0 0.00041738617155440198 -0.032150040910782544 0 0.00040405467900542902 -0.032125010685112192 0 0.00042124464081821352 -0.032091325739081945 0 0.00040405467900542902 -0.032125010685112192 0 0.00042015378215296527 -0.032108443619468609 0 0.00042124464081821352 -0.032091325739081945 0 0.00042015378215296527 -0.032108443619468609 0 0.00042124464081821352 -0.032091325739081945 0 0.0004429684575762897 -0.032070724874791061 0 0.00042124464081821352 -0.032091325739081945 0 0.00043218508686303681 -0.032046454432722249 0 0.000452738475504665 -0.032038221435500801 0 0.00042124464081821352 -0.032091325739081945 0 0.00043218508686303681 -0.032046454432722249 0 0.0004429684575762897 -0.032070724874791061 0 0.00043218508686303681 -0.032046454432722249 0 0.00044113723402394961 -0.032033193488345102 0 0.00043123413247364605 -0.031995355652322505 0 0.00043218508686303681 -0.032046454432722249 0 0.00043123413247364605 -0.031995355652322505 0 0.000452738475504665 -0.032038221435500801 0 0.00046805018666312611 -0.032093233482349555 0 0.00048021000491729412 -0.032055564664927247 0 0.0004429684575762897 -0.032070724874791061 0 0.00043218508686303681 -0.032046454432722249 0 0.0004429684575762897 -0.032070724874791061 0 0.00044113723402394961 -0.032033193488345102 0 0.00048021000491729412 -0.032055564664927247 0 0.0004429684575762897 -0.032070724874791061 0 0.00044113723402394961 -0.032033193488345102 0 0.00048021000491729412 -0.032055564664927247 0 0.00044113723402394961 -0.032033193488345102 0 0.00049600148096929828 -0.032016127763500477 0 0.00049356157406322762 -0.032018282038577692 0 0.00044113723402394961 -0.032033193488345102 0 0.0004658042934740472 -0.032054489433223476 0 0.00044113723402394961 -0.032033193488345102 0 0.0004658042934740472 -0.032054489433223476 0 0.00049600148096929828 -0.032016127763500477 0 0.0010058705668869411 -0.031461192974042623 0 0.00079476848375343537 -0.031775732979528265 0 0.00037369866152362386 -0.031877920778925574 0 0.00044113723402394961 -0.032033193488345102 0 0.0004167477753576124 -0.03196051666042158 0 0.00044113723402394961 -0.032033193488345102 0 0.00043123413247364605 -0.031995355652322505 0 0.0004167477753576124 -0.03196051666042158 0 0.00043123413247364605 -0.031995355652322505 0 0.0004167477753576124 -0.03196051666042158 0 0.00043781772066617735 -0.03192503597166902 0 0.00037369866152362386 -0.031877920778925574 0 0.0004167477753576124 -0.03196051666042158 0 0.00043781772066617735 -0.03192503597166902 0 0.00043781772066617735 -0.03192503597166902 0 0.00048719946752740921 -0.031905280187892258 0 0.00047383931807772897 -0.031972735189327001 0 0.00048719946752740921 -0.031905280187892258 0 0.00047383931807772897 -0.031972735189327001 0 0.00053915116465292408 -0.031927115698471321 0 0.00047383931807772897 -0.031972735189327001 0 0.00051683684816696939 -0.03200851640202125 0 0.00053915116465292408 -0.031927115698471321 0 0.00043123413247364605 -0.031995355652322505 0 0.00043781772066617735 -0.03192503597166902 0 0.00047383931807772897 -0.031972735189327001 0 0.00043123413247364605 -0.031995355652322505 0 0.00047383931807772897 -0.031972735189327001 0 0.000452738475504665 -0.032038221435500801 0 0.00047878764859113603 -0.032089609042113852 0 0.000452738475504665 -0.032038221435500801 0 0.00051683684816696939 -0.03200851640202125 0 0.00047383931807772897 -0.031972735189327001 0 0.000452738475504665 -0.032038221435500801 0 0.00051683684816696939 -0.03200851640202125 0 0.00047878764859113603 -0.032089609042113852 0 0.00057876076834231446 -0.032033634877136716 0 0.00051683684816696939 -0.03200851640202125 0 0.00057876076834231446 -0.032033634877136716 0 0.00051683684816696939 -0.03200851640202125 0 0.00059578397134568749 -0.031962149804678389 0 0.00051683684816696939 -0.03200851640202125 0 0.00059578397134568749 -0.031962149804678389 0 0.00053915116465292408 -0.031927115698471321 0 0.00061780543590399175 -0.031874818382432453 0 0.00059578397134568749 -0.031962149804678389 0 0.00053915116465292408 -0.031927115698471321 0 0.00061780543590399175 -0.031874818382432453 0 0.00059578397134568749 -0.031962149804678389 0 0.00068292831077334918 -0.031925113392109898 0 0.00059578397134568749 -0.031962149804678389 0 0.00068292831077334918 -0.031925113392109898 0 0.00064703875226055794 -0.031989341610185906 0 0.00068292831077334918 -0.031925113392109898 0 0.00071899081822940911 -0.031981818016142825 0 0.00064703875226055794 -0.031989341610185906 0 0.00068292831077334918 -0.031925113392109898 0 0.0007283271461847959 -0.031940599780208259 0 0.00071899081822940911 -0.031981818016142825 0 0.00068292831077334918 -0.031925113392109898 0 0.00074731404752425266 -0.031906065710937501 0 0.0007283271461847959 -0.031940599780208259 0 0.00071478724913277782 -0.031832089681957096 0 0.00068292831077334918 -0.031925113392109898 0 0.00074731404752425266 -0.031906065710937501 0 0.0008174688391033736 -0.031856119430968291 0 0.00074731404752425266 -0.031906065710937501 0 0.00077720312298129493 -0.031949224002158973 0 0.00074731404752425266 -0.031906065710937501 0 0.00077720312298129493 -0.031949224002158973 0 0.00076160648675319229 -0.031947125605256664 0 0.00074731404752425266 -0.031906065710937501 0 0.0007283271461847959 -0.031940599780208259 0 0.00076160648675319229 -0.031947125605256664 0 0.00046095133385458962 -0.032717809821167537 0 0.00044335731052177183 -0.033033324799662367 0 0.0008174688391033736 -0.031856119430968291 0 0.00082616631274438218 -0.032039197152154558 0 0.00098609251963390127 -0.031944227338830788 0 0.00044335731052177183 -0.033033324799662367 0 0.00044562650781831276 -0.033031029619919904 0 0.0007283271461847959 -0.031940599780208259 0 0.00076160648675319229 -0.031947125605256664 0 0.00071899081822940911 -0.031981818016142825 0 0.00077191463347832476 -0.031947599533372714 0 0.00076160648675319229 -0.031947125605256664 0 0.00071899081822940911 -0.031981818016142825 0 0.00044335731052177183 -0.033033324799662367 0 0.000621296266142249 -0.033222840583717238 0 0.00077191463347832476 -0.031947599533372714 0 0.00071899081822940911 -0.031981818016142825 0 0.00075791870056202495 -0.032072212027901344 0 0.00071899081822940911 -0.031981818016142825 0 0.00066427865059036036 -0.032052837708918584 0 0.00075791870056202495 -0.032072212027901344 0 0.00081710322666360955 -0.03470274309263368 0 0.0006994239882867889 -0.034583805472869961 0 0.00081497961717469066 -0.034495403922318167 0 0.00056305615942759345 -0.032109394425029053 0 0.00057876076834231446 -0.032033634877136716 0 0.00066427865059036036 -0.032052837708918584 0 0.00057876076834231446 -0.032033634877136716 0 0.00059578397134568749 -0.031962149804678389 0 0.00064703875226055794 -0.031989341610185906 0 0.00057876076834231446 -0.032033634877136716 0 0.00066427865059036036 -0.032052837708918584 0 0.00064703875226055794 -0.031989341610185906 0 0.00071899081822940911 -0.031981818016142825 0 0.00066427865059036036 -0.032052837708918584 0 0.00064703875226055794 -0.031989341610185906 0 0.001120352101495954 -0.03190394554737782 0 0.0013532846219177835 -0.031930505575390393 0 0.0011226452689941956 -0.032065476369267286 0 0.00082616631274438218 -0.032039197152154558 0 0.0011226452689941956 -0.032065476369267286 0 0.00098609251963390127 -0.031944227338830788 0 0.00044335731052177183 -0.033033324799662367 0 0.00076474059528310663 -0.033430805714402045 0 0.00081710322666360955 -0.03470274309263368 0 0.00058834851663256413 -0.034682573215977536 0 0.0006994239882867889 -0.034583805472869961 0 0.001120352101495954 -0.03190394554737782 0 0.0011226452689941956 -0.032065476369267286 0 0.00098609251963390127 -0.031944227338830788 0 0.00037788451362662354 -0.034658267413572669 0 0.00058834851663256413 -0.034682573215977536 0 0.00056575653732840166 -0.034536137003361785 0 0.00058834851663256413 -0.034682573215977536 0 0.0006994239882867889 -0.034583805472869961 0 0.00056575653732840166 -0.034536137003361785 0 0.00040458836493439178 -0.03448765465746019 0 0.00056575653732840166 -0.034536137003361785 0 0.00048852229333611508 -0.034347377834890808 0 0.00056575653732840166 -0.034536137003361785 0 0.0006657660684118589 -0.034402369668235816 0 0.00048852229333611508 -0.034347377834890808 0 0.0006994239882867889 -0.034583805472869961 0 0.00056575653732840166 -0.034536137003361785 0 0.0006657660684118589 -0.034402369668235816 0 0.0006657660684118589 -0.034402369668235816 0 0.00081497961717469066 -0.034495403922318167 0 0.00082896580395663843 -0.034257825989709896 0 0.0006994239882867889 -0.034583805472869961 0 0.0006657660684118589 -0.034402369668235816 0 0.00081497961717469066 -0.034495403922318167 0 0.0006657660684118589 -0.034402369668235816 0 0.00082896580395663843 -0.034257825989709896 0 0.00059388835606412295 -0.034125910904827264 0 0.0006657660684118589 -0.034402369668235816 0 0.00048852229333611508 -0.034347377834890808 0 0.00059388835606412295 -0.034125910904827264 0 0.00043377889601022257 -0.034172821199952755 0 0.00048852229333611508 -0.034347377834890808 0 0.00059388835606412295 -0.034125910904827264 0 0.00056305615942759345 -0.032109394425029053 0 0.00066427865059036036 -0.032052837708918584 0 0.00064241035606243024 -0.032160566866801424 0 0.00075791870056202495 -0.032072212027901344 0 0.00078884910466083468 -0.032235712707452124 0 0.00064241035606243024 -0.032160566866801424 0 0.000621296266142249 -0.033222840583717238 0 0.0007098043262255292 -0.033248520048220341 0 0.00066427865059036036 -0.032052837708918584 0 0.00075791870056202495 -0.032072212027901344 0 0.00064241035606243024 -0.032160566866801424 0 0.00078884910466083468 -0.032235712707452124 0 0.00064241035606243024 -0.032160566866801424 0 0.00058762401960366821 -0.032386400726113797 0 0.00047752079123705531 -0.032202993491223138 0 0.00064241035606243024 -0.032160566866801424 0 0.00058762401960366821 -0.032386400726113797 0 0.00056305615942759345 -0.032109394425029053 0 0.00047752079123705531 -0.032202993491223138 0 0.00064241035606243024 -0.032160566866801424 0 0.0007098043262255292 -0.033248520048220341 0 0.00074795861826407509 -0.033249805862169995 0 0.00078884910466083468 -0.032235712707452124 0 0.00058762401960366821 -0.032386400726113797 0 0.00085337652258986058 -0.032545133593318433 0 0.00058762401960366821 -0.032386400726113797 0 0.00061617525420422023 -0.032775872571380718 0 0.00085337652258986058 -0.032545133593318433 0 0.00061617525420422023 -0.032775872571380718 0 0.00085337652258986058 -0.032545133593318433 0 0.00072473966319234117 -0.033308234133919631 0 0.00074795861826407509 -0.033249805862169995 0 0.000751445283968293 -0.033257442581480702 0 0.00058762401960366821 -0.032386400726113797 0 0.00061617525420422023 -0.032775872571380718 0 0.00048985077311143393 -0.03262765618366055 0 0.00058762401960366821 -0.032386400726113797 0 0.00048985077311143393 -0.03262765618366055 0 0.00042035873165943108 -0.032372460821827258 0 0.00043377889601022257 -0.034172821199952755 0 0.00059388835606412295 -0.034125910904827264 0 0.000449821579396234 -0.033888584087654848 0 0.00082896580395663843 -0.034257825989709896 0 0.00084203855428153162 -0.033937482185328792 0 0.00059388835606412295 -0.034125910904827264 0 0.00084203855428153162 -0.033937482185328792 0 0.00059258359270594372 -0.033731670864278189 0 0.00072473966319234117 -0.033308234133919631 0 0.00084203855428153162 -0.033937482185328792 0 0.00059388835606412295 -0.034125910904827264 0 0.00059258359270594372 -0.033731670864278189 0 0.00059388835606412295 -0.034125910904827264 0 0.00059258359270594372 -0.033731670864278189 0 0.000449821579396234 -0.033888584087654848 0 0.00034179178445012019 -0.033842505796651927 0 0.000449821579396234 -0.033888584087654848 0 0.00045364260488131277 -0.033642208437192817 0 0.00059258359270594372 -0.033731670864278189 0 0.000449821579396234 -0.033888584087654848 0 0.00045364260488131277 -0.033642208437192817 0 0.00059258359270594372 -0.033731670864278189 0 0.00045364260488131277 -0.033642208437192817 0 0.00072473966319234117 -0.033308234133919631 0 0.00047855820315485434 -0.033543181533918352 0 0.00045364260488131277 -0.033642208437192817 0 0.00072473966319234117 -0.033308234133919631 0 0.00052887932288529771 -0.033337802681154834 0 0.00047855820315485434 -0.033543181533918352 0 0.00072473966319234117 -0.033308234133919631 0 0.00047855820315485434 -0.033543181533918352 0 0.00035606108963673756 -0.033775470387820729 0 0.00045364260488131277 -0.033642208437192817 0 0.00048985077311143393 -0.03262765618366055 0 0.00054346640605878115 -0.033004645909588085 0 0.00038387937664551149 -0.032575524182210297 0 0.00061617525420422023 -0.032775872571380718 0 0.00048985077311143393 -0.03262765618366055 0 0.00054346640605878115 -0.033004645909588085 0 0.00054346640605878115 -0.033004645909588085 0 0.00045439888249492009 -0.032937414888728929 0 0.00038387937664551149 -0.032575524182210297 0 0.00061617525420422023 -0.032775872571380718 0 0.00054346640605878115 -0.033004645909588085 0 0.00072473966319234117 -0.033308234133919631 0 0.00052887932288529771 -0.033337802681154834 0 0.00054346640605878115 -0.033004645909588085 0 0.00072473966319234117 -0.033308234133919631 0 0.00052887932288529771 -0.033337802681154834 0 0.00054346640605878115 -0.033004645909588085 0 0.00045439888249492009 -0.032937414888728929 0 0.00045151412760681409 -0.033179012266370607 0 0.00045439888249492009 -0.032937414888728929 0 0.00037805623288470288 -0.032904881818988214 0 0.00045439888249492009 -0.032937414888728929 0 0.00037805623288470288 -0.032904881818988214 0 0.00030989861358537556 -0.03256734985120633 0 0.00037805623288470288 -0.032904881818988214 0 0.00024914075272009851 -0.032620505512915676 0 0.00030989861358537556 -0.03256734985120633 0 0.00029696009756764778 -0.033013847711162891 0 0.00037805623288470288 -0.032904881818988214 0 0.00024914075272009851 -0.032620505512915676 0 0.00024914075272009851 -0.032620505512915676 0 0.00030989861358537556 -0.03256734985120633 0 0.00018594568392776069 -0.032326778356625022 0 0.00030989861358537556 -0.03256734985120633 0 0.0002734845573312932 -0.032366759436490755 0 0.00038387937664551149 -0.032575524182210297 0 0.00030989861358537556 -0.03256734985120633 0 0.0002734845573312932 -0.032366759436490755 0 0.00018594568392776069 -0.032326778356625022 0 0.00045439888249492009 -0.032937414888728929 0 0.00030989861358537556 -0.03256734985120633 0 0.00038387937664551149 -0.032575524182210297 0 0.00048985077311143393 -0.03262765618366055 0 0.00038387937664551149 -0.032575524182210297 0 0.00042035873165943108 -0.032372460821827258 0 0.00038387937664551149 -0.032575524182210297 0 0.00032426326780763624 -0.032311204274771951 0 0.00042035873165943108 -0.032372460821827258 0 0.0002734845573312932 -0.032366759436490755 0 0.00038387937664551149 -0.032575524182210297 0 0.00032426326780763624 -0.032311204274771951 0 0.0002734845573312932 -0.032366759436490755 0 0.00032426326780763624 -0.032311204274771951 0 0.00028615022799566899 -0.03225058339814358 0 0.00032426326780763624 -0.032311204274771951 0 0.00033368472319772788 -0.032202398292892058 0 0.00028615022799566899 -0.03225058339814358 0 0.00032426326780763624 -0.032311204274771951 0 0.00037473310685362797 -0.0322248566097059 0 0.00033368472319772788 -0.032202398292892058 0 0.00032426326780763624 -0.032311204274771951 0 0.00037473310685362797 -0.0322248566097059 0 0.00042035873165943108 -0.032372460821827258 0 0.00047752079123705531 -0.032202993491223138 0 0.00037473310685362797 -0.0322248566097059 0 0.00042035873165943108 -0.032372460821827258 0 0.00047752079123705531 -0.032202993491223138 0 0.00058762401960366821 -0.032386400726113797 0 0.00042035873165943108 -0.032372460821827258 0 0.00039823932346952758 -0.032090071391242973 0 0.00035863678281719856 -0.032104167154412187 0 0.00042252261853146611 -0.032040096187561713 0 0.00039823932346952758 -0.032090071391242973 0 0.00035485426365284596 -0.032143041496445035 0 0.00035863678281719856 -0.032104167154412187 0 0.00039823932346952758 -0.032090071391242973 0 0.00042252261853146611 -0.032040096187561713 0 0.00046578790136699732 -0.032029046031017826 0 0.00039823932346952758 -0.032090071391242973 0 0.00043389737727746468 -0.032082809670098945 0 0.00046578790136699732 -0.032029046031017826 0 0.00039823932346952758 -0.032090071391242973 0 0.00039095515744893932 -0.032116449836170048 0 0.00035485426365284596 -0.032143041496445035 0 0.00039823932346952758 -0.032090071391242973 0 0.00043389737727746468 -0.032082809670098945 0 0.00039095515744893932 -0.032116449836170048 0 0.00037194632260554043 -0.032148385616879958 0 0.00039095515744893932 -0.032116449836170048 0 0.00035485426365284596 -0.032143041496445035 0 0.00037194632260554043 -0.032148385616879958 0 0.00037473310685362797 -0.0322248566097059 0 0.00033368472319772788 -0.032202398292892058 0 0.00037194632260554043 -0.032148385616879958 0 0.00033368472319772788 -0.032202398292892058 0 0.00035485426365284596 -0.032143041496445035 0 0.00035485426365284596 -0.032143041496445035 0 0.00031539814375883989 -0.032178109931091152 0 0.00035863678281719856 -0.032104167154412187 0 0.00033368472319772788 -0.032202398292892058 0 0.00035485426365284596 -0.032143041496445035 0 0.00031539814375883989 -0.032178109931091152 0 0.00031539814375883989 -0.032178109931091152 0 0.00030670101549269696 -0.032111707867873353 0 0.00035863678281719856 -0.032104167154412187 0 0.00033368472319772788 -0.032202398292892058 0 0.00031539814375883989 -0.032178109931091152 0 0.00028615022799566899 -0.03225058339814358 0 0.00031539814375883989 -0.032178109931091152 0 0.00028615022799566899 -0.03225058339814358 0 0.00024410549748314679 -0.032222197058176832 0 0.0002734845573312932 -0.032366759436490755 0 0.00028615022799566899 -0.03225058339814358 0 0.00024410549748314679 -0.032222197058176832 0 0.00031539814375883989 -0.032178109931091152 0 0.00030670101549269696 -0.032111707867873353 0 0.00024410549748314679 -0.032222197058176832 0 0.00037675130578727396 -0.032053976624537482 0 0.00030670101549269696 -0.032111707867873353 0 0.00035863678281719856 -0.032104167154412187 0 0.00037675130578727396 -0.032053976624537482 0 0.00030670101549269696 -0.032111707867873353 0 0.00044468129493388254 -0.031950622820086101 0 0.00037675130578727396 -0.032053976624537482 0 0.00035863678281719856 -0.032104167154412187 0 0.00042252261853146611 -0.032040096187561713 0 0.00042252261853146611 -0.032040096187561713 0 0.00044468129493388254 -0.031950622820086101 0 0.00051306151417280556 -0.03194443846150781 0 0.00037675130578727396 -0.032053976624537482 0 0.00042252261853146611 -0.032040096187561713 0 0.00044468129493388254 -0.031950622820086101 0 0.00030670101549269696 -0.032111707867873353 0 0.00032843294395499233 -0.032019493167641452 0 0.00018402516866707341 -0.03218387255397042 0 0.00030670101549269696 -0.032111707867873353 0 0.00044468129493388254 -0.031950622820086101 0 0.00032843294395499233 -0.032019493167641452 0 0.00044468129493388254 -0.031950622820086101 0 0.00032843294395499233 -0.032019493167641452 0 0.00045759933861035194 -0.031816306885423543 0 0.0002734845573312932 -0.032366759436490755 0 0.00024410549748314679 -0.032222197058176832 0 0.00018594568392776069 -0.032326778356625022 0 0.00030670101549269696 -0.032111707867873353 0 0.00024410549748314679 -0.032222197058176832 0 0.00018402516866707341 -0.03218387255397042 0 0.00018402516866707341 -0.03218387255397042 0 0.00018594568392776069 -0.032326778356625022 0 5.1814585565656445e-05 -0.032241302873097476 0 0.00024410549748314679 -0.032222197058176832 0 0.00018402516866707341 -0.03218387255397042 0 0.00018594568392776069 -0.032326778356625022 0 0.00015994006842729165 -0.031072410485002457 0 5.1814585565656445e-05 -0.032241302873097476 0 0.0002998551245892035 -0.03182823968525611 0 0.00024914075272009851 -0.032620505512915676 0 0.00018594568392776069 -0.032326778356625022 0 5.1814585565656445e-05 -0.032241302873097476 0 0.00018402516866707341 -0.03218387255397042 0 5.1814585565656445e-05 -0.032241302873097476 0 0.0002998551245892035 -0.03182823968525611 0 0.00010998491774134759 -0.032805277506261672 0 0.00024914075272009851 -0.032620505512915676 0 5.1814585565656445e-05 -0.032241302873097476 0 0.00045759933861035194 -0.031816306885423543 0 0.0002998551245892035 -0.03182823968525611 0 0.00048972421291370043 -0.031618659838477656 0 0.00032843294395499233 -0.032019493167641452 0 0.00018402516866707341 -0.03218387255397042 0 0.0002998551245892035 -0.03182823968525611 0 0.00032843294395499233 -0.032019493167641452 0 0.00045759933861035194 -0.031816306885423543 0 0.0002998551245892035 -0.03182823968525611 0 0.00042014383196862148 -0.031518611177588043 0 0.0002998551245892035 -0.03182823968525611 0 0.00048972421291370043 -0.031618659838477656 0 0.00042014383196862148 -0.031518611177588043 0 0.00052604156587965714 -0.031406804280971042 0 0.00048972421291370043 -0.031618659838477656 0 0.00048972421291370043 -0.031618659838477656 0 0.00061207095760209629 -0.031474978605472499 0 0.0006240123189327723 -0.031605025962905459 0 0.00052604156587965714 -0.031406804280971042 0 0.00048972421291370043 -0.031618659838477656 0 0.00061207095760209629 -0.031474978605472499 0 0.00045759933861035194 -0.031816306885423543 0 0.00048972421291370043 -0.031618659838477656 0 0.0006240123189327723 -0.031605025962905459 0 0.0006240123189327723 -0.031605025962905459 0 0.00083199691899959463 -0.031439925817813581 0 0.00068966208255361863 -0.031645980425920608 0 0.00061207095760209629 -0.031474978605472499 0 0.0006240123189327723 -0.031605025962905459 0 0.00075622116457902842 -0.031373427337576185 0 0.00096030037095389301 -0.031233370332128925 0 0.00083199691899959463 -0.031439925817813581 0 0.0010984339925999538 -0.031272278181846795 0 0.00096030037095389301 -0.031233370332128925 0 0.00075622116457902842 -0.031373427337576185 0 0.00083199691899959463 -0.031439925817813581 0 0.00083199691899959463 -0.031439925817813581 0 0.00088604580772119713 -0.031500616377286482 0 0.0010984339925999538 -0.031272278181846795 0 0.0006240123189327723 -0.031605025962905459 0 0.00075622116457902842 -0.031373427337576185 0 0.00083199691899959463 -0.031439925817813581 0 0.00083199691899959463 -0.031439925817813581 0 0.00088604580772119713 -0.031500616377286482 0 0.00068966208255361863 -0.031645980425920608 0 0.00088604580772119713 -0.031500616377286482 0 0.00074263557534599172 -0.031667315643275205 0 0.00080274836765791599 -0.031672665241915934 0 0.00088604580772119713 -0.031500616377286482 0 0.00074263557534599172 -0.031667315643275205 0 0.00068966208255361863 -0.031645980425920608 0 0.00074263557534599172 -0.031667315643275205 0 0.00068966208255361863 -0.031645980425920608 0 0.00058357586164716033 -0.031826226470629798 0 0.00055370569689696856 -0.031778327109754846 0 0.00068966208255361863 -0.031645980425920608 0 0.00058357586164716033 -0.031826226470629798 0 0.00044468129493388254 -0.031950622820086101 0 0.00055370569689696856 -0.031778327109754846 0 0.00058357586164716033 -0.031826226470629798 0 0.00044468129493388254 -0.031950622820086101 0 0.00045759933861035194 -0.031816306885423543 0 0.00055370569689696856 -0.031778327109754846 0 0.00045759933861035194 -0.031816306885423543 0 0.0006240123189327723 -0.031605025962905459 0 0.00055370569689696856 -0.031778327109754846 0 0.0006240123189327723 -0.031605025962905459 0 0.00055370569689696856 -0.031778327109754846 0 0.00068966208255361863 -0.031645980425920608 0 0.0012821635074957655 -0.03111782540788105 0 0.0012961618736233446 -0.031192163007078961 0 0.0010984339925999538 -0.031272278181846795 0 0.0012961618736233446 -0.031192163007078961 0 0.0010984339925999538 -0.031272278181846795 0 0.0012166787373662526 -0.031233120299636506 0 0.00088604580772119713 -0.031500616377286482 0 0.0010984339925999538 -0.031272278181846795 0 0.0010572580871855231 -0.031401337666173444 0 0.0010984339925999538 -0.031272278181846795 0 0.0010572580871855231 -0.031401337666173444 0 0.0012166787373662526 -0.031233120299636506 0 0.00088604580772119713 -0.031500616377286482 0 0.0010572580871855231 -0.031401337666173444 0 0.00080274836765791599 -0.031672665241915934 0 0.0010572580871855231 -0.031401337666173444 0 0.0012166787373662526 -0.031233120299636506 0 0.0013468519082844113 -0.031116311738839331 0 0.0012961618736233446 -0.031192163007078961 0 0.0012166787373662526 -0.031233120299636506 0 0.0013468519082844113 -0.031116311738839331 0 0.0012961618736233446 -0.031192163007078961 0 0.0013468519082844113 -0.031116311738839331 0 0.0013861752426746075 -0.031153920823714022 0 0.0013468519082844113 -0.031116311738839331 0 0.0011853365738589126 -0.031434165804912102 0 0.0016718357952827162 -0.030738517919369806 0 0.0010572580871855231 -0.031401337666173444 0 0.0013468519082844113 -0.031116311738839331 0 0.0011853365738589126 -0.031434165804912102 0 0.0011853365738589126 -0.031434165804912102 0 0.00091225136487107941 -0.031643122076435749 0 0.00095602256065103184 -0.031788751465528779 0 0.0010572580871855231 -0.031401337666173444 0 0.0011853365738589126 -0.031434165804912102 0 0.00091225136487107941 -0.031643122076435749 0 0.0010572580871855231 -0.031401337666173444 0 0.00091225136487107941 -0.031643122076435749 0 0.00080274836765791599 -0.031672665241915934 0 0.00091225136487107941 -0.031643122076435749 0 0.00095602256065103184 -0.031788751465528779 0 0.00079446810563690764 -0.0318270416150205 0 0.0007952001628755668 -0.031919508077012479 0 0.00095602256065103184 -0.031788751465528779 0 0.00079446810563690764 -0.0318270416150205 0 0.0007952001628755668 -0.031919508077012479 0 0.00095602256065103184 -0.031788751465528779 0 0.00099869343910000824 -0.031949873524568094 0 0.00095602256065103184 -0.031788751465528779 0 0.0011894939494495015 -0.031745896732241007 0 0.00099869343910000824 -0.031949873524568094 0 0.0011853365738589126 -0.031434165804912102 0 0.0011894939494495015 -0.031745896732241007 0 0.001652810657296214 -0.03160802514060191 0 0.0011853365738589126 -0.031434165804912102 0 0.00095602256065103184 -0.031788751465528779 0 0.0011894939494495015 -0.031745896732241007 0 0.00062513037140231808 -0.031841586809578465 0 0.00051306151417280556 -0.03194443846150781 0 0.0005614003400295659 -0.031956578656602751 0 0.00062513037140231808 -0.031841586809578465 0 0.00069122069615075422 -0.031826800795929214 0 0.0005614003400295659 -0.031956578656602751 0 0.00044468129493388254 -0.031950622820086101 0 0.00051306151417280556 -0.03194443846150781 0 0.00058357586164716033 -0.031826226470629798 0 0.00062513037140231808 -0.031841586809578465 0 0.00051306151417280556 -0.03194443846150781 0 0.00058357586164716033 -0.031826226470629798 0 0.00074263557534599172 -0.031667315643275205 0 0.00062513037140231808 -0.031841586809578465 0 0.00058357586164716033 -0.031826226470629798 0 0.00074263557534599172 -0.031667315643275205 0 0.00062513037140231808 -0.031841586809578465 0 0.00080274836765791599 -0.031672665241915934 0 0.00091225136487107941 -0.031643122076435749 0 0.00080274836765791599 -0.031672665241915934 0 0.00069122069615075422 -0.031826800795929214 0 0.00062513037140231808 -0.031841586809578465 0 0.00080274836765791599 -0.031672665241915934 0 0.00069122069615075422 -0.031826800795929214 0 0.00069122069615075422 -0.031826800795929214 0 0.00065155444431229598 -0.031944846345549137 0 0.0005614003400295659 -0.031956578656602751 0 0.00069122069615075422 -0.031826800795929214 0 0.00079446810563690764 -0.0318270416150205 0 0.00065155444431229598 -0.031944846345549137 0 0.00091225136487107941 -0.031643122076435749 0 0.00069122069615075422 -0.031826800795929214 0 0.00079446810563690764 -0.0318270416150205 0 0.0007952001628755668 -0.031919508077012479 0 0.00065155444431229598 -0.031944846345549137 0 0.00069032613868091127 -0.031982771441900482 0 0.0007952001628755668 -0.031919508077012479 0 0.00079446810563690764 -0.0318270416150205 0 0.00065155444431229598 -0.031944846345549137 0 0.00065155444431229598 -0.031944846345549137 0 0.0005650864265714133 -0.032009130071386088 0 0.0005614003400295659 -0.031956578656602751 0 0.0005650864265714133 -0.032009130071386088 0 0.0005614003400295659 -0.031956578656602751 0 0.00049785319270116083 -0.032040882220110152 0 0.00042252261853146611 -0.032040096187561713 0 0.00051306151417280556 -0.03194443846150781 0 0.00046578790136699732 -0.032029046031017826 0 0.00051306151417280556 -0.03194443846150781 0 0.0005614003400295659 -0.031956578656602751 0 0.00046578790136699732 -0.032029046031017826 0 0.00043389737727746468 -0.032082809670098945 0 0.00046578790136699732 -0.032029046031017826 0 0.00049785319270116083 -0.032040882220110152 0 0.0005614003400295659 -0.031956578656602751 0 0.00046578790136699732 -0.032029046031017826 0 0.00049785319270116083 -0.032040882220110152 0 0.00043389737727746468 -0.032082809670098945 0 0.00049785319270116083 -0.032040882220110152 0 0.00046863193872443462 -0.032087427931374771 0 0.00049785319270116083 -0.032040882220110152 0 0.00046863193872443462 -0.032087427931374771 0 0.00053099049625892172 -0.03206278562994986 0 0.0005650864265714133 -0.032009130071386088 0 0.00049785319270116083 -0.032040882220110152 0 0.00053099049625892172 -0.03206278562994986 0 0.0005650864265714133 -0.032009130071386088 0 0.00053099049625892172 -0.03206278562994986 0 0.00060894459994699393 -0.032020807430431529 0 0.00053099049625892172 -0.03206278562994986 0 0.00050042851257050647 -0.032103512010987954 0 0.00057520361868370728 -0.032090670196211986 0 0.0004580460734553156 -0.032107779955934876 0 0.00046863193872443462 -0.032087427931374771 0 0.00050042851257050647 -0.032103512010987954 0 0.00046863193872443462 -0.032087427931374771 0 0.00053099049625892172 -0.03206278562994986 0 0.00050042851257050647 -0.032103512010987954 0 0.0004580460734553156 -0.032107779955934876 0 0.00046805018666312611 -0.032093233482349555 0 0.00049131293142610176 -0.032118615935418357 0 0.0004580460734553156 -0.032107779955934876 0 0.00050042851257050647 -0.032103512010987954 0 0.00049131293142610176 -0.032118615935418357 0 0.00050042851257050647 -0.032103512010987954 0 0.00049131293142610176 -0.032118615935418357 0 0.00052261983698632735 -0.032128087983388537 0 0.00050042851257050647 -0.032103512010987954 0 0.00052261983698632735 -0.032128087983388537 0 0.00057520361868370728 -0.032090670196211986 0 0.00049131293142610176 -0.032118615935418357 0 0.00050778363157736044 -0.03214285184217635 0 0.00050278400682946737 -0.032104828514534015 0 0.00049131293142610176 -0.032118615935418357 0 0.00052261983698632735 -0.032128087983388537 0 0.00050778363157736044 -0.03214285184217635 0 0.00052261983698632735 -0.032128087983388537 0 0.00050778363157736044 -0.03214285184217635 0 0.00051483781238969044 -0.032173874640832968 0 0.00050778363157736044 -0.03214285184217635 0 0.00051483781238969044 -0.032173874640832968 0 0.00050533697151133883 -0.03214649016281667 0 0.00050778363157736044 -0.03214285184217635 0 0.00050278400682946737 -0.032104828514534015 0 0.00050533697151133883 -0.03214649016281667 0 0.00046805018666312611 -0.032093233482349555 0 0.00049131293142610176 -0.032118615935418357 0 0.00050278400682946737 -0.032104828514534015 0 0.00062064983722203326 -0.032163873607965361 0 0.00060396787657480272 -0.032207486649204774 0 0.00051483781238969044 -0.032173874640832968 0 0.00062064983722203326 -0.032163873607965361 0 0.00060396787657480272 -0.032207486649204774 0 0.00071664881620623656 -0.032180303194402342 0 0.00060396787657480272 -0.032207486649204774 0 0.00071664881620623656 -0.032180303194402342 0 0.00070609854420725429 -0.032228143390603828 0 0.00060396787657480272 -0.032207486649204774 0 0.00070609854420725429 -0.032228143390603828 0 0.00064400986157597297 -0.032261160573943445 0 0.00060396787657480272 -0.032207486649204774 0 0.00051483781238969044 -0.032173874640832968 0 0.00040223051668091702 -0.032214761122954759 0 0.00062064983722203326 -0.032163873607965361 0 0.00051483781238969044 -0.032173874640832968 0 0.00058717178263225874 -0.032131730046749379 0 0.00052261983698632735 -0.032128087983388537 0 0.00058717178263225874 -0.032131730046749379 0 0.00057520361868370728 -0.032090670196211986 0 0.00052261983698632735 -0.032128087983388537 0 0.00051483781238969044 -0.032173874640832968 0 0.00058717178263225874 -0.032131730046749379 0 0.00058717178263225874 -0.032131730046749379 0 0.00064591222659459531 -0.032091204603818882 0 0.00057520361868370728 -0.032090670196211986 0 0.00058717178263225874 -0.032131730046749379 0 0.00070285509042273707 -0.032120890840892528 0 0.00064591222659459531 -0.032091204603818882 0 0.00062064983722203326 -0.032163873607965361 0 0.00058717178263225874 -0.032131730046749379 0 0.00070285509042273707 -0.032120890840892528 0 0.00062064983722203326 -0.032163873607965361 0 0.00070285509042273707 -0.032120890840892528 0 0.00071664881620623656 -0.032180303194402342 0 0.00070285509042273707 -0.032120890840892528 0 0.00064591222659459531 -0.032091204603818882 0 0.00076606976266288453 -0.032042809458963872 0 0.00065939398343695262 -0.032044839045946835 0 0.00069032613868091127 -0.031982771441900482 0 0.00076606976266288453 -0.032042809458963872 0 0.00064591222659459531 -0.032091204603818882 0 0.00065939398343695262 -0.032044839045946835 0 0.00076606976266288453 -0.032042809458963872 0 0.00053099049625892172 -0.03206278562994986 0 0.00057520361868370728 -0.032090670196211986 0 0.00060894459994699393 -0.032020807430431529 0 0.00065939398343695262 -0.032044839045946835 0 0.00057520361868370728 -0.032090670196211986 0 0.00060894459994699393 -0.032020807430431529 0 0.00064591222659459531 -0.032091204603818882 0 0.00065939398343695262 -0.032044839045946835 0 0.00057520361868370728 -0.032090670196211986 0 0.00065155444431229598 -0.031944846345549137 0 0.0005650864265714133 -0.032009130071386088 0 0.00060894459994699393 -0.032020807430431529 0 0.00065155444431229598 -0.031944846345549137 0 0.00060894459994699393 -0.032020807430431529 0 0.00069032613868091127 -0.031982771441900482 0 0.00065939398343695262 -0.032044839045946835 0 0.00060894459994699393 -0.032020807430431529 0 0.00069032613868091127 -0.031982771441900482 0 0.0007952001628755668 -0.031919508077012479 0 0.00069032613868091127 -0.031982771441900482 0 0.00076606976266288453 -0.032042809458963872 0 0.0007952001628755668 -0.031919508077012479 0 0.00099869343910000824 -0.031949873524568094 0 0.00076606976266288453 -0.032042809458963872 0 0.00099869343910000824 -0.031949873524568094 0 0.00076606976266288453 -0.032042809458963872 0 0.00091001239959146048 -0.032100529762834035 0 0.00099869343910000824 -0.031949873524568094 0 0.001174882552268233 -0.032142044499663659 0 0.00091001239959146048 -0.032100529762834035 0 0.0011894939494495015 -0.031745896732241007 0 0.00099869343910000824 -0.031949873524568094 0 0.0013038391155778138 -0.031904397014916402 0 0.00099869343910000824 -0.031949873524568094 0 0.0013038391155778138 -0.031904397014916402 0 0.001174882552268233 -0.032142044499663659 0 0.001174882552268233 -0.032142044499663659 0 0.0011850110313725737 -0.032370841099843249 0 0.0015756638274055529 -0.03233168861389276 0 0.001174882552268233 -0.032142044499663659 0 0.00087743935549572003 -0.032223279635719852 0 0.0011850110313725737 -0.032370841099843249 0 0.00087743935549572003 -0.032223279635719852 0 0.0007670950773890203 -0.032362366737386537 0 0.0011850110313725737 -0.032370841099843249 0 0.00070285509042273707 -0.032120890840892528 0 0.00076606976266288453 -0.032042809458963872 0 0.0007958200727323009 -0.032142560880713308 0 0.0007958200727323009 -0.032142560880713308 0 0.00091001239959146048 -0.032100529762834035 0 0.00087743935549572003 -0.032223279635719852 0 0.00076606976266288453 -0.032042809458963872 0 0.0007958200727323009 -0.032142560880713308 0 0.00091001239959146048 -0.032100529762834035 0 0.00070285509042273707 -0.032120890840892528 0 0.0007958200727323009 -0.032142560880713308 0 0.00071664881620623656 -0.032180303194402342 0 0.001174882552268233 -0.032142044499663659 0 0.00091001239959146048 -0.032100529762834035 0 0.00087743935549572003 -0.032223279635719852 0 0.0007958200727323009 -0.032142560880713308 0 0.00087743935549572003 -0.032223279635719852 0 0.00071664881620623656 -0.032180303194402342 0 0.00087743935549572003 -0.032223279635719852 0 0.00071664881620623656 -0.032180303194402342 0 0.00070609854420725429 -0.032228143390603828 0 0.00087743935549572003 -0.032223279635719852 0 0.00070609854420725429 -0.032228143390603828 0 0.00077415727820276457 -0.032267414770747876 0 0.00087743935549572003 -0.032223279635719852 0 0.00077415727820276457 -0.032267414770747876 0 0.0007670950773890203 -0.032362366737386537 0 0.00070609854420725429 -0.032228143390603828 0 0.00074168704745181308 -0.032297693888313141 0 0.00064400986157597297 -0.032261160573943445 0 0.00070609854420725429 -0.032228143390603828 0 0.00077415727820276457 -0.032267414770747876 0 0.00074168704745181308 -0.032297693888313141 0 0.00074168704745181308 -0.032297693888313141 0 0.0007670950773890203 -0.032362366737386537 0 0.00064400986157597297 -0.032261160573943445 0 0.00077415727820276457 -0.032267414770747876 0 0.00074168704745181308 -0.032297693888313141 0 0.0007670950773890203 -0.032362366737386537 0 0.001692677197234479 -0.025893655301027253 0 0.00073661053251615819 -0.024509241885475472 0 0.00080177388544395393 -0.017075770463221354 0 0.00074390346187261684 -0.017024003681220694 0 0.00069279795352061727 -0.017101530148555821 0 0.00080177388544395393 -0.017075770463221354 0 0.00078260397593912204 -0.017008184249665124 0 0.00080573776549015417 -0.01697929504005035 0 0.00080177388544395393 -0.017075770463221354 0 0.00074390346187261684 -0.017024003681220694 0 0.00078260397593912204 -0.017008184249665124 0 0.00069279795352061727 -0.017101530148555821 0 0.00068314912668930388 -0.016971323130281192 0 0.00059031745618500268 -0.017015618242784157 0 0.00074390346187261684 -0.017024003681220694 0 0.00069279795352061727 -0.017101530148555821 0 0.00068314912668930388 -0.016971323130281192 0 0.00068314912668930388 -0.016971323130281192 0 0.00070537776280611491 -0.016894886940554122 0 0.00076119636253555681 -0.016950059212648375 0 0.00074390346187261684 -0.017024003681220694 0 0.00068314912668930388 -0.016971323130281192 0 0.00076119636253555681 -0.016950059212648375 0 0.00068314912668930388 -0.016971323130281192 0 0.00070537776280611491 -0.016894886940554122 0 0.00063042742481800383 -0.016854625354774267 0 0.00078260397593912204 -0.017008184249665124 0 0.00076119636253555681 -0.016950059212648375 0 0.00080573776549015417 -0.01697929504005035 0 0.00074390346187261684 -0.017024003681220694 0 0.00078260397593912204 -0.017008184249665124 0 0.00076119636253555681 -0.016950059212648375 0 0.00076119636253555681 -0.016950059212648375 0 0.00080573776549015417 -0.01697929504005035 0 0.00080685809922868617 -0.016911066301180968 0 0.00080573776549015417 -0.01697929504005035 0 0.00084908256225490054 -0.016955069464314375 0 0.00080685809922868617 -0.016911066301180968 0 0.00080177388544395393 -0.017075770463221354 0 0.00080573776549015417 -0.01697929504005035 0 0.00084908256225490054 -0.016955069464314375 0 0.0015626500079363496 -0.03093036091617378 0 0.00040304136307855483 -0.03107074981808949 0 0.00057343176290730808 -0.031933053014869234 0 0.0018183338199209659 -0.030100074686986594 0 0.0015626500079363496 -0.03093036091617378 0 0.00040304136307855483 -0.03107074981808949 0 0.0004658042934740472 -0.032054489433223476 0 0.00057343176290730808 -0.031933053014869234 0 0.00049600148096929828 -0.032016127763500477 0 0.0010425601959236756 -0.031211911164781732 0 0.00083493013514094174 -0.031460060525084432 0 0.00048021000491729412 -0.032055564664927247 0 0.00049600148096929828 -0.032016127763500477 0 0.00052755595766778456 -0.032040428873299755 0 0.00057343176290730808 -0.031933053014869234 0 0.00049600148096929828 -0.032016127763500477 0 0.00052755595766778456 -0.032040428873299755 0 0.00048021000491729412 -0.032055564664927247 0 0.00052755595766778456 -0.032040428873299755 0 0.00050278400682946737 -0.032104828514534015 0 0.00046805018666312611 -0.032093233482349555 0 0.00048021000491729412 -0.032055564664927247 0 0.00050278400682946737 -0.032104828514534015 0 0.00057343176290730808 -0.031933053014869234 0 0.00052755595766778456 -0.032040428873299755 0 0.00050533697151133883 -0.03214649016281667 0 0.00052755595766778456 -0.032040428873299755 0 0.00050278400682946737 -0.032104828514534015 0 0.00050533697151133883 -0.03214649016281667 0 0.00057343176290730808 -0.031933053014869234 0 0.00050533697151133883 -0.03214649016281667 0 0.00040223051668091702 -0.032214761122954759 0 0.00051483781238969044 -0.032173874640832968 0 0.00050533697151133883 -0.03214649016281667 0 0.00040223051668091702 -0.032214761122954759 0 0.001692677197234479 -0.025893655301027253 0 0.0013218896874342126 -0.024392362202814082 0 -0.00023266211732422479 -0.032306920135978731 0 0.00040304136307855483 -0.03107074981808949 0 0.00057343176290730808 -0.031933053014869234 0 -0.00023266211732422479 -0.032306920135978731 0 0.00057343176290730808 -0.031933053014869234 0 0.00040223051668091702 -0.032214761122954759 0 0.00060396787657480272 -0.032207486649204774 0 0.00040223051668091702 -0.032214761122954759 0 0.00064400986157597297 -0.032261160573943445 0 0.0007670950773890203 -0.032362366737386537 0 0.00040223051668091702 -0.032214761122954759 0 0.00064400986157597297 -0.032261160573943445 0 0.001692677197234479 -0.025893655301027253 0 0.0012631895697697302 -0.026392199486575261 0 -0.0022591931381823168 -0.017429280100086899 0 -0.00098112564595271494 -0.018041960458843678 0 -0.0029181790360794106 -0.018725767161963773 0 -0.0022591931381823168 -0.017429280100086899 0 -0.00098112564595271494 -0.018041960458843678 0 -0.0014565539607628143 -0.016635157971488762 0 -0.00098112564595271494 -0.018041960458843678 0 -0.0029181790360794106 -0.018725767161963773 0 -0.0011751746858457805 -0.019572484298487958 0 -0.0029181790360794106 -0.018725767161963773 0 -0.004155075281637389 -0.018686634562498871 0 -0.0045798171243859173 -0.020405535746614252 0 -0.004155075281637389 -0.018686634562498871 0 -0.0052478420037414975 -0.018692918678109863 0 -0.0045798171243859173 -0.020405535746614252 0 -0.0052478420037414975 -0.018692918678109863 0 -0.0038843525822162875 -0.017025351485944935 0 -0.0058915888482535261 -0.016622718243587024 0 -0.004155075281637389 -0.018686634562498871 0 -0.0052478420037414975 -0.018692918678109863 0 -0.0038843525822162875 -0.017025351485944935 0 -0.0029181790360794106 -0.018725767161963773 0 -0.004155075281637389 -0.018686634562498871 0 -0.0038843525822162875 -0.017025351485944935 0 -0.0022591931381823168 -0.017429280100086899 0 -0.0029181790360794106 -0.018725767161963773 0 -0.0038843525822162875 -0.017025351485944935 0 -0.0038843525822162875 -0.017025351485944935 0 -0.0022229726134748631 -0.016114565513867331 0 -0.0034140326783788518 -0.014562710791026487 0 -0.0038843525822162875 -0.017025351485944935 0 -0.0048880963782929896 -0.015383712735217296 0 -0.0034140326783788518 -0.014562710791026487 0 -0.0038843525822162875 -0.017025351485944935 0 -0.0048880963782929896 -0.015383712735217296 0 -0.0058915888482535261 -0.016622718243587024 0 -0.0016636768446063525 -0.015171586263870379 0 -0.0022229726134748631 -0.016114565513867331 0 -0.0034140326783788518 -0.014562710791026487 0 -0.0016636768446063525 -0.015171586263870379 0 -0.0022229726134748631 -0.016114565513867331 0 -0.0013072333485215496 -0.015739766865857052 0 -0.0022591931381823168 -0.017429280100086899 0 -0.0022229726134748631 -0.016114565513867331 0 -0.0014565539607628143 -0.016635157971488762 0 -0.0022591931381823168 -0.017429280100086899 0 -0.0038843525822162875 -0.017025351485944935 0 -0.0022229726134748631 -0.016114565513867331 0 -0.00098112564595271494 -0.018041960458843678 0 -0.0014565539607628143 -0.016635157971488762 0 -0.00074721124272625046 -0.015883702772181488 0 -0.0022229726134748631 -0.016114565513867331 0 -0.0014565539607628143 -0.016635157971488762 0 -0.0013072333485215496 -0.015739766865857052 0 -0.0014565539607628143 -0.016635157971488762 0 -0.00074721124272625046 -0.015883702772181488 0 -0.0013072333485215496 -0.015739766865857052 0 -0.00074721124272625046 -0.015883702772181488 0 -0.0013072333485215496 -0.015739766865857052 0 -0.0008700217747009501 -0.01493794111330383 0 -0.0016636768446063525 -0.015171586263870379 0 -0.0013072333485215496 -0.015739766865857052 0 -0.0008700217747009501 -0.01493794111330383 0 -0.0016636768446063525 -0.015171586263870379 0 -0.0008700217747009501 -0.01493794111330383 0 -0.0013890066194971421 -0.014185736292500863 0 -0.00044414973344880643 -0.01689537257096806 0 0.00018327985567059124 -0.016036808289809704 0 -0.00043954827242651765 -0.015015221188960454 0 -0.00011235071009082819 -0.015224776062909255 0 -0.00019604762410057404 -0.014267300640048263 0 -0.00098112564595271494 -0.018041960458843678 0 0.00052895818883235063 -0.016724619779540595 0 0.00051375746941018877 -0.016910892631578477 0 -0.00098112564595271494 -0.018041960458843678 0 -0.00011235071009082819 -0.015224776062909255 0 0.00081890804521757136 -0.014589332267688099 0 -0.00098112564595271494 -0.018041960458843678 0 -0.00074721124272625046 -0.015883702772181488 0 -0.00011235071009082819 -0.015224776062909255 0 -0.00074721124272625046 -0.015883702772181488 0 -0.00043954827242651765 -0.015015221188960454 0 -0.00011235071009082819 -0.015224776062909255 0 -0.00074721124272625046 -0.015883702772181488 0 -0.0008700217747009501 -0.01493794111330383 0 -0.00043954827242651765 -0.015015221188960454 0 -0.00011235071009082819 -0.015224776062909255 0 0.00081890804521757136 -0.014589332267688099 0 0.00029315638665478489 -0.014433421151880023 0 0.00068314912668930388 -0.016971323130281192 0 0.00063042742481800383 -0.016854625354774267 0 0.00060014570327313348 -0.016943963222272214 0 0.00051375746941018877 -0.016910892631578477 0 0.00063042742481800383 -0.016854625354774267 0 0.00060014570327313348 -0.016943963222272214 0 0.00052895818883235063 -0.016724619779540595 0 0.00051375746941018877 -0.016910892631578477 0 0.00063042742481800383 -0.016854625354774267 0 0.00051375746941018877 -0.016910892631578477 0 0.00060014570327313348 -0.016943963222272214 0 0.00059031745618500268 -0.017015618242784157 0 0.00068314912668930388 -0.016971323130281192 0 0.00060014570327313348 -0.016943963222272214 0 0.00059031745618500268 -0.017015618242784157 0 0.00069279795352061727 -0.017101530148555821 0 0.00059031745618500268 -0.017015618242784157 0 0.000538877508567888 -0.01713720116264101 0 -0.00045447673117755279 -0.019298607617856144 0 -0.00056882123637754629 -0.023062193179504295 0 0.00073661053251615819 -0.024509241885475472 0 -0.00056882123637754629 -0.023062193179504295 0 0.00051375746941018877 -0.016910892631578477 0 0.00059031745618500268 -0.017015618242784157 0 0.000538877508567888 -0.01713720116264101 0 -0.00098112564595271494 -0.018041960458843678 0 0.0008505564546033126 -0.019085275278941601 0 -0.0011751746858457805 -0.019572484298487958 0 -0.00098112564595271494 -0.018041960458843678 0 0.00051375746941018877 -0.016910892631578477 0 0.0008505564546033126 -0.019085275278941601 0 -0.00051721026846815823 -0.022582429715800531 0 0.0020621112406585497 -0.020121233486645511 0 -0.0013477316914192745 -0.0204036030678705 0 -0.00051721026846815823 -0.022582429715800531 0 0.0020621112406585497 -0.020121233486645511 0 0.0023157077854179839 -0.023573294083602536 0 -0.00056882123637754629 -0.023062193179504295 0 -0.0014609594526616191 -0.022034901527949784 0 0.001174882552268233 -0.032142044499663659 0 0.0015756638274055529 -0.03233168861389276 0 0.0015728414839123789 -0.031993768514223149 0 -0.00056882123637754629 -0.023062193179504295 0 0.00057755739993226669 -0.026788843794076925 0 0.0013038391155778138 -0.031904397014916402 0 0.0015728414839123789 -0.031993768514223149 0 0.001652810657296214 -0.03160802514060191 0 0.0013038391155778138 -0.031904397014916402 0 0.001174882552268233 -0.032142044499663659 0 0.0015728414839123789 -0.031993768514223149 0 -0.00051721026846815823 -0.022582429715800531 0 0.0023157077854179839 -0.023573294083602536 0 0.00053460944525498828 -0.025027046819627093 0 0.0023157077854179839 -0.023573294083602536 0 0.00053460944525498828 -0.025027046819627093 0 0.0023594736803319036 -0.027201641457493795 0 -0.00051721026846815823 -0.022582429715800531 0 0.00053460944525498828 -0.025027046819627093 0 -0.0011867202365550534 -0.024740107892888115 0 -0.0011867202365550534 -0.024740107892888115 0 -0.0029579634613348537 -0.023974471931180293 0 -0.0022506565054394678 -0.022988531910982921 0 -0.0011867202365550534 -0.024740107892888115 0 -0.0029579634613348537 -0.023974471931180293 0 -0.0018859319742675206 -0.02601997236659306 0 -0.0029579634613348537 -0.023974471931180293 0 -0.0022506565054394678 -0.022988531910982921 0 -0.0035252796312030955 -0.022164764074269806 0 -0.00051721026846815823 -0.022582429715800531 0 -0.0011867202365550534 -0.024740107892888115 0 -0.0022506565054394678 -0.022988531910982921 0 -0.0029181790360794106 -0.018725767161963773 0 -0.0011751746858457805 -0.019572484298487958 0 -0.0045798171243859173 -0.020405535746614252 0 -0.00051721026846815823 -0.022582429715800531 0 -0.002468806485382051 -0.021589030643230974 0 -0.0013477316914192745 -0.0204036030678705 0 -0.0014609594526616191 -0.022034901527949784 0 -0.0025081132525687001 -0.021812588204841332 0 -0.00051721026846815823 -0.022582429715800531 0 -0.0022506565054394678 -0.022988531910982921 0 -0.002468806485382051 -0.021589030643230974 0 -0.002468806485382051 -0.021589030643230974 0 -0.0013477316914192745 -0.0204036030678705 0 -0.0045798171243859173 -0.020405535746614252 0 -0.0022506565054394678 -0.022988531910982921 0 -0.002468806485382051 -0.021589030643230974 0 -0.0035252796312030955 -0.022164764074269806 0 -0.0052478420037414975 -0.018692918678109863 0 -0.0045798171243859173 -0.020405535746614252 0 -0.0054323198976240676 -0.02170967597202119 0 -0.002468806485382051 -0.021589030643230974 0 -0.0045798171243859173 -0.020405535746614252 0 -0.0035252796312030955 -0.022164764074269806 0 -0.0045798171243859173 -0.020405535746614252 0 -0.0035252796312030955 -0.022164764074269806 0 -0.0054323198976240676 -0.02170967597202119 0 0.0078545708903463522 0.016602181570758764 0 0.008310937514204109 0.015369011345749311 0 0.0090298471876961977 0.014785268638524347 0 0.00092332763479615406 -0.0030410408807011865 0 0.0030469706356652344 -0.005313221500177984 0 -0.0029579634613348537 -0.023974471931180293 0 -0.0054323198976240676 -0.02170967597202119 0 -0.0034196512719482531 -0.02593347978634479 0 0.0078545708903463522 0.016602181570758764 0 0.0079008719047258032 0.01556933989792054 0 0.008310937514204109 0.015369011345749311 0 -0.0029579634613348537 -0.023974471931180293 0 -0.0035252796312030955 -0.022164764074269806 0 -0.0054323198976240676 -0.02170967597202119 0 0.0079008719047258032 0.01556933989792054 0 0.008310937514204109 0.015369011345749311 0 0.0084717551907903931 0.014530134004283705 0 0.0084717551907903931 0.014530134004283705 0 0.0090298471876961977 0.014785268638524347 0 0.010088275779891199 0.013630922601643621 0 0.008242429966512704 0.01539255480981153 0 0.0078716599614158007 0.014666923857256582 0 0.0070953744631030123 0.015194816675311135 0 0.008310937514204109 0.015369011345749311 0 0.0084717551907903931 0.014530134004283705 0 0.0090298471876961977 0.014785268638524347 0 -0.0029579634613348537 -0.023974471931180293 0 -0.0034196512719482531 -0.02593347978634479 0 -0.0018859319742675206 -0.02601997236659306 0 -0.0011867202365550534 -0.024740107892888115 0 -0.0018859319742675206 -0.02601997236659306 0 -0.00031393653641236034 -0.02700553016826155 0 -0.0016032124549181898 -0.027808520181771001 0 -0.00031393653641236034 -0.02700553016826155 0 -0.0005357115538205978 -0.028481395854716748 0 -0.0018859319742675206 -0.02601997236659306 0 -0.0016032124549181898 -0.027808520181771001 0 -0.00031393653641236034 -0.02700553016826155 0 -0.0034196512719482531 -0.02593347978634479 0 -0.0018859319742675206 -0.02601997236659306 0 -0.0016032124549181898 -0.027808520181771001 0 -0.0034196512719482531 -0.02593347978634479 0 -0.0016032124549181898 -0.027808520181771001 0 -0.00096512290585050182 -0.029910617547283955 0 0.0090298471876961977 0.014785268638524347 0 0.010088275779891199 0.013630922601643621 0 0.01031229938027494 0.013586759474796739 0 0.008242429966512704 0.01539255480981153 0 0.010088275779891199 0.013630922601643621 0 0.0091032364728780464 0.014009408648948892 0 0.0082260747684182508 0.015074799988575447 0 0.0089520759344684595 0.014400249538868357 0 0.0030469706356652344 -0.005313221500177984 0 0.0050009229443358236 -0.00692583839108639 0 -0.0016032124549181898 -0.027808520181771001 0 -0.0008532243923725486 -0.028904795187122568 0 -0.00096512290585050182 -0.029910617547283955 0 -0.0016032124549181898 -0.027808520181771001 0 -0.0008532243923725486 -0.028904795187122568 0 -0.0005357115538205978 -0.028481395854716748 0 -0.0008532243923725486 -0.028904795187122568 0 -0.00096512290585050182 -0.029910617547283955 0 -0.00035361775759476321 -0.029392199854683616 0 0.010088275779891199 0.013630922601643621 0 0.0096241730735531546 0.013383495111448577 0 0.010088433624796738 0.013226889068500558 0 0.010088275779891199 0.013630922601643621 0 0.01031229938027494 0.013586759474796739 0 0.010088433624796738 0.013226889068500558 0 0.010088275779891199 0.013630922601643621 0 0.0096241730735531546 0.013383495111448577 0 0.0091032364728780464 0.014009408648948892 0 0.0096241730735531546 0.013383495111448577 0 0.0091032364728780464 0.014009408648948892 0 0.0090063304841377697 0.013322923982283158 0 0.008242429966512704 0.01539255480981153 0 0.0091032364728780464 0.014009408648948892 0 0.0085098766960744858 0.014230461158089151 0 0.0091032364728780464 0.014009408648948892 0 0.0085098766960744858 0.014230461158089151 0 0.0090063304841377697 0.013322923982283158 0 0.0077036412837814781 0.013839033128306614 0 0.0085098766960744858 0.014230461158089151 0 0.0090063304841377697 0.013322923982283158 0 0.0077036412837814781 0.013839033128306614 0 0.0078716599614158007 0.014666923857256582 0 0.0085098766960744858 0.014230461158089151 0 0.008242429966512704 0.01539255480981153 0 0.0078716599614158007 0.014666923857256582 0 0.0085098766960744858 0.014230461158089151 0 0.00057755739993226669 -0.026788843794076925 0 0.0010976662233402852 -0.028598482429210745 0 0.0011894939494495015 -0.031745896732241007 0 0.0013038391155778138 -0.031904397014916402 0 0.001652810657296214 -0.03160802514060191 0 0.00053460944525498828 -0.025027046819627093 0 0.0023594736803319036 -0.027201641457493795 0 -0.00031393653641236034 -0.02700553016826155 0 0.0023594736803319036 -0.027201641457493795 0 -0.00031393653641236034 -0.02700553016826155 0 0.00068617771719989599 -0.028977963957507631 0 0.00053460944525498828 -0.025027046819627093 0 -0.0011867202365550534 -0.024740107892888115 0 -0.00031393653641236034 -0.02700553016826155 0 -0.0005357115538205978 -0.028481395854716748 0 -0.00035361775759476321 -0.029392199854683616 0 0.00068617771719989599 -0.028977963957507631 0 -0.00031393653641236034 -0.02700553016826155 0 -0.0005357115538205978 -0.028481395854716748 0 0.00068617771719989599 -0.028977963957507631 0 -0.0008532243923725486 -0.028904795187122568 0 -0.0005357115538205978 -0.028481395854716748 0 -0.00035361775759476321 -0.029392199854683616 0 -0.00096512290585050182 -0.029910617547283955 0 -0.00027720333073933751 -0.029873185010544194 0 0.00026594295411096734 -0.030420788583635505 0 -0.00035361775759476321 -0.029392199854683616 0 0.00016419301364252288 -0.029820937599842813 0 0.00068617771719989599 -0.028977963957507631 0 -0.00096512290585050182 -0.029910617547283955 0 -0.00035361775759476321 -0.029392199854683616 0 -0.00027720333073933751 -0.029873185010544194 0 -0.00035361775759476321 -0.029392199854683616 0 -0.00027720333073933751 -0.029873185010544194 0 0.00016419301364252288 -0.029820937599842813 0 -0.00027720333073933751 -0.029873185010544194 0 0.00016419301364252288 -0.029820937599842813 0 0.00026594295411096734 -0.030420788583635505 0 0.00091048340358023674 -0.030239875041475631 0 0.00068617771719989599 -0.028977963957507631 0 0.0016718357952827162 -0.030738517919369806 0 0.00016419301364252288 -0.029820937599842813 0 0.00091048340358023674 -0.030239875041475631 0 0.00068617771719989599 -0.028977963957507631 0 0.0023594736803319036 -0.027201641457493795 0 0.00068617771719989599 -0.028977963957507631 0 0.0016718357952827162 -0.030738517919369806 0 0.0011853365738589126 -0.031434165804912102 0 0.001652810657296214 -0.03160802514060191 0 0.0016718357952827162 -0.030738517919369806 0 0.0010976662233402852 -0.028598482429210745 0 0.0012373291507374443 -0.029283071400459559 0 0.0013468519082844113 -0.031116311738839331 0 0.0013861752426746075 -0.031153920823714022 0 0.0016718357952827162 -0.030738517919369806 0 0.00091048340358023674 -0.030239875041475631 0 0.0016718357952827162 -0.030738517919369806 0 0.0012711252828667952 -0.03098908023964413 0 0.0013861752426746075 -0.031153920823714022 0 0.0012711252828667952 -0.03098908023964413 0 0.0011731968434442585 -0.031356439662281556 0 0.0013861752426746075 -0.031153920823714022 0 0.0016718357952827162 -0.030738517919369806 0 0.0012711252828667952 -0.03098908023964413 0 0.01031229938027494 0.013586759474796739 0 0.011844975217576253 0.011258792139118399 0 0.010519042258482235 0.012540108471239637 0 -0.00096512290585050182 -0.029910617547283955 0 0.00026594295411096734 -0.030420788583635505 0 0.0010355192688825485 -0.031646041687570702 0 0.00087691177554726667 -0.03099081080232188 0 0.00026594295411096734 -0.030420788583635505 0 0.0010355192688825485 -0.031646041687570702 0 0.0050009229443358236 -0.00692583839108639 0 0.0058697345340129941 -0.0054478106390008453 0 0.0012711252828667952 -0.03098908023964413 0 0.00087691177554726667 -0.03099081080232188 0 0.0011731968434442585 -0.031356439662281556 0 0.0012711252828667952 -0.03098908023964413 0 0.00087691177554726667 -0.03099081080232188 0 0.00079771759645659807 -0.030632698406516088 0 0.00091048340358023674 -0.030239875041475631 0 0.0012711252828667952 -0.03098908023964413 0 0.00079771759645659807 -0.030632698406516088 0 0.00087691177554726667 -0.03099081080232188 0 0.00079771759645659807 -0.030632698406516088 0 0.00026594295411096734 -0.030420788583635505 0 0.00016419301364252288 -0.029820937599842813 0 0.00091048340358023674 -0.030239875041475631 0 0.00026594295411096734 -0.030420788583635505 0 0.00091048340358023674 -0.030239875041475631 0 0.00079771759645659807 -0.030632698406516088 0 0.00026594295411096734 -0.030420788583635505 0 0.011844975217576253 0.011258792139118399 0 0.010546524578243812 0.011919653693559094 0 0.010519042258482235 0.012540108471239637 0 0.011844975217576253 0.011258792139118399 0 0.010546524578243812 0.011919653693559094 0 0.010545702743867045 0.010962468203120737 0 0.00087691177554726667 -0.03099081080232188 0 0.0010355192688825485 -0.031646041687570702 0 0.0011731968434442585 -0.031356439662281556 0 0.0012438374276105247 -0.031293003358791892 0 0.0011731968434442585 -0.031356439662281556 0 0.001318379500327749 -0.031199526710095179 0 0.0058697345340129941 -0.0054478106390008453 0 0.0056097366353039229 -0.005854006306885976 0 0.0065385159663547427 -0.010360076155306545 0 0.0058697345340129941 -0.0054478106390008453 0 0.0013926830712355585 -0.031054729724573592 0 0.0012438374276105247 -0.031293003358791892 0 0.001318379500327749 -0.031199526710095179 0 0.0013861752426746075 -0.031153920823714022 0 0.0011731968434442585 -0.031356439662281556 0 0.001318379500327749 -0.031199526710095179 0 0.0012821635074957655 -0.03111782540788105 0 0.0012961618736233446 -0.031192163007078961 0 0.001318379500327749 -0.031199526710095179 0 0.0012961618736233446 -0.031192163007078961 0 0.0013861752426746075 -0.031153920823714022 0 0.001318379500327749 -0.031199526710095179 0 0.0091502884455537704 0.012479687651635329 0 0.0081758551587195298 0.012307955608028566 0 0.0096377289168043459 0.011555482202816644 0 0.0077036412837814781 0.013839033128306614 0 0.0081758551587195298 0.012307955608028566 0 0.0090063304841377697 0.013322923982283158 0 0.0091502884455537704 0.012479687651635329 0 0.0081758551587195298 0.012307955608028566 0 0.0090063304841377697 0.013322923982283158 0 0.0096241730735531546 0.013383495111448577 0 0.0090063304841377697 0.013322923982283158 0 0.0098263199664444922 0.012703380967095786 0 0.0091502884455537704 0.012479687651635329 0 0.0090063304841377697 0.013322923982283158 0 0.0098263199664444922 0.012703380967095786 0 0.0096241730735531546 0.013383495111448577 0 0.0098263199664444922 0.012703380967095786 0 0.010088433624796738 0.013226889068500558 0 0.01031229938027494 0.013586759474796739 0 0.010088433624796738 0.013226889068500558 0 0.010519042258482235 0.012540108471239637 0 0.0098263199664444922 0.012703380967095786 0 0.010088433624796738 0.013226889068500558 0 0.010519042258482235 0.012540108471239637 0 0.0098263199664444922 0.012703380967095786 0 0.010546524578243812 0.011919653693559094 0 0.0096377289168043459 0.011555482202816644 0 0.0098263199664444922 0.012703380967095786 0 0.010546524578243812 0.011919653693559094 0 0.010519042258482235 0.012540108471239637 0 0.0091502884455537704 0.012479687651635329 0 0.0098263199664444922 0.012703380967095786 0 0.0096377289168043459 0.011555482202816644 0 0.010151624821719102 0.009093592427152861 0 0.0096377289168043459 0.011555482202816644 0 0.010545702743867045 0.010962468203120737 0 0.010151624821719102 0.009093592427152861 0 0.011844975217576253 0.011258792139118399 0 0.010545702743867045 0.010962468203120737 0 0.010151624821719102 0.009093592427152861 0 0.0096377289168043459 0.011555482202816644 0 0.0084288434499129958 0.010609727077454494 0 0.010546524578243812 0.011919653693559094 0 0.0096377289168043459 0.011555482202816644 0 0.010545702743867045 0.010962468203120737 0 0.0081758551587195298 0.012307955608028566 0 0.0096377289168043459 0.011555482202816644 0 0.0084288434499129958 0.010609727077454494 0 0.0081758551587195298 0.012307955608028566 0 0.0084288434499129958 0.010609727077454494 0 0.0067002535303972242 0.010968597207074451 0 0.0081758551587195298 0.012307955608028566 0 0.0067002535303972242 0.010968597207074451 0 0.0060740073219037755 0.012921328009202683 0 0.0077036412837814781 0.013839033128306614 0 0.0081758551587195298 0.012307955608028566 0 0.0060740073219037755 0.012921328009202683 0 0.0060740073219037755 0.012921328009202683 0 0.0046353225166094695 0.012060051144791301 0 0.003861764979110404 0.013823666410340777 0 0.0052392636175302501 0.010460816835466605 0 0.0067002535303972242 0.010968597207074451 0 0.0046353225166094695 0.012060051144791301 0 0.0067002535303972242 0.010968597207074451 0 0.0060740073219037755 0.012921328009202683 0 0.0046353225166094695 0.012060051144791301 0 0.0046353225166094695 0.012060051144791301 0 0.0033491079082963097 0.0111192163494918 0 0.0027767697493008532 0.013166257159567922 0 0.0052392636175302501 0.010460816835466605 0 0.0046353225166094695 0.012060051144791301 0 0.0033491079082963097 0.0111192163494918 0 0.0033491079082963097 0.0111192163494918 0 0.0015518626039673546 0.011255488504782812 0 0.0027767697493008532 0.013166257159567922 0 0.0023106754445092349 0.010177237587246672 0 0.0033491079082963097 0.0111192163494918 0 0.0015518626039673546 0.011255488504782812 0 0.0019007001132376629 0.011903786769552227 0 0.00208859212615836 0.012236982818041614 0 0.0025996197563346638 0.013170267183047308 0 0.0027767697493008532 0.013166257159567922 0 0.0024605639980935516 0.013461979970307666 0 0.0027767697493008532 0.013166257159567922 0 0.0024605639980935516 0.013461979970307666 0 0.0025150716708381847 0.01426858979215568 0 0.0027767697493008532 0.013166257159567922 0 0.003861764979110404 0.013823666410340777 0 0.0025150716708381847 0.01426858979215568 0 0.0046353225166094695 0.012060051144791301 0 0.0027767697493008532 0.013166257159567922 0 0.003861764979110404 0.013823666410340777 0 0.003861764979110404 0.013823666410340777 0 0.003256789596307898 0.015102293427896853 0 0.0051347304955358386 0.014713699255341916 0 0.0040307129266422635 0.015137455300431922 0 0.005513903832908249 0.014641003999995083 0 0.003861764979110404 0.013823666410340777 0 0.003256789596307898 0.015102293427896853 0 0.0025150716708381847 0.01426858979215568 0 0.0044194648156666043 0.015161228624756388 0 0.0029958003402997002 0.015724034443020677 0 0.0039583510884826159 0.01647650164669744 0 0.0044194648156666043 0.015161228624756388 0 0.0059314034714904561 0.014568878028792403 0 0.0052940815276982418 0.016294578927009942 0 0.0062649707252337835 0.015665967616711338 0 0.0070953744631030123 0.015194816675311135 0 0.0059314034714904561 0.014568878028792403 0 0.0062649707252337835 0.015665967616711338 0 0.0059314034714904561 0.014568878028792403 0 0.0052940815276982418 0.016294578927009942 0 0.008242429966512704 0.01539255480981153 0 0.0070953744631030123 0.015194816675311135 0 0.0067623769393977996 0.016571161789570608 0 0.0062649707252337835 0.015665967616711338 0 0.0070953744631030123 0.015194816675311135 0 0.0067623769393977996 0.016571161789570608 0 0.0077036412837814781 0.013839033128306614 0 0.0078716599614158007 0.014666923857256582 0 0.0070953744631030123 0.015194816675311135 0 0.0077036412837814781 0.013839033128306614 0 0.0070953744631030123 0.015194816675311135 0 0.0059314034714904561 0.014568878028792403 0 0.0077036412837814781 0.013839033128306614 0 0.0060740073219037755 0.012921328009202683 0 0.0051347304955358386 0.014713699255341916 0 0.0064719084391632415 0.014322446755354058 0 0.005513903832908249 0.014641003999995083 0 0.0060740073219037755 0.012921328009202683 0 0.003861764979110404 0.013823666410340777 0 0.0051347304955358386 0.014713699255341916 0 6.6962643652553059e-06 0.014768568974931572 0 0.00068770858426659353 0.013651814967324405 0 0.00084493321766690866 0.015060654123387232 0 0.00076845526807628201 0.013117256331012144 0 0.00026738512050907855 0.013210852052983068 0 0.00068770858426659353 0.013651814967324405 0 0.00068770858426659353 0.013651814967324405 0 0.0014076695635790528 0.014082541498582429 0 0.0016534305905661457 0.013102375557662549 0 0.00089815576031225942 0.012672959153550503 0 0.0012117886237570622 0.012274519244340023 0 0.00076845526807628201 0.013117256331012144 0 0.00068770858426659353 0.013651814967324405 0 0.0014734209891917266 0.013193516029205017 0 0.00068770858426659353 0.013651814967324405 0 0.0014076695635790528 0.014082541498582429 0 0.00084493321766690866 0.015060654123387232 0 0.0014076695635790528 0.014082541498582429 0 0.0020244927247860503 0.013834604796532372 0 0.0017679382784161113 0.014857902194786317 0 0.0014076695635790528 0.014082541498582429 0 0.0020244927247860503 0.013834604796532372 0 0.0016534305905661457 0.013102375557662549 0 0.0020244927247860503 0.013834604796532372 0 0.0016534305905661457 0.013102375557662549 0 0.0022592907742606449 0.013253392901843694 0 0.0024088687869983721 0.012734857533731372 0 0.0025996197563346638 0.013170267183047308 0 0.0022592907742606449 0.013253392901843694 0 0.0025996197563346638 0.013170267183047308 0 0.0022592907742606449 0.013253392901843694 0 0.0024605639980935516 0.013461979970307666 0 0.0020244927247860503 0.013834604796532372 0 0.0024605639980935516 0.013461979970307666 0 0.0025150716708381847 0.01426858979215568 0 0.0020244927247860503 0.013834604796532372 0 0.0022592907742606449 0.013253392901843694 0 0.0024605639980935516 0.013461979970307666 0 0.0025150716708381847 0.01426858979215568 0 0.0022618521604241405 0.0155105840360378 0 0.0017679382784161113 0.014857902194786317 0 0.0040307129266422635 0.015137455300431922 0 0.0027771358836135018 0.015587110598443312 0 0.003256789596307898 0.015102293427896853 0 0.0025150716708381847 0.01426858979215568 0 0.0022618521604241405 0.0155105840360378 0 0.0027771358836135018 0.015587110598443312 0 0.0021426347277490728 0.015831207826895226 0 0.0022618521604241405 0.0155105840360378 0 0.0017679382784161113 0.014857902194786317 0 0.001554366289734227 0.016265043435837255 0 0.0020244927247860503 0.013834604796532372 0 0.0025150716708381847 0.01426858979215568 0 0.0017679382784161113 0.014857902194786317 0 0.0014076695635790528 0.014082541498582429 0 0.0017679382784161113 0.014857902194786317 0 0.00084493321766690866 0.015060654123387232 0 0.0017679382784161113 0.014857902194786317 0 0.00084493321766690866 0.015060654123387232 0 0.001554366289734227 0.016265043435837255 0 -7.9931717629814166e-05 0.015756221812685104 0 0.00084493321766690866 0.015060654123387232 0 0.0005143907914367899 0.016523853667891716 0 0.00084493321766690866 0.015060654123387232 0 0.0005143907914367899 0.016523853667891716 0 0.001554366289734227 0.016265043435837255 0 0.00097189731117330728 0.017651749608602853 0 0.001554366289734227 0.016265043435837255 0 0.0018986775299214176 0.018160044158408006 0 0.00021901806655809521 0.017586470898202554 0 0.00097189731117330728 0.017651749608602853 0 0.0005143907914367899 0.016523853667891716 0 0.00021901806655809521 0.017586470898202554 0 0.0004832994355299897 0.018445264812381797 0 0.00097189731117330728 0.017651749608602853 0 0.00097189731117330728 0.017651749608602853 0 0.0005143907914367899 0.016523853667891716 0 0.001554366289734227 0.016265043435837255 0 0.001554366289734227 0.016265043435837255 0 0.0026187743776765601 0.017062541989939988 0 0.0018986775299214176 0.018160044158408006 0 0.0026187743776765601 0.017062541989939988 0 0.0027273460266693584 0.018093756031555396 0 0.0018986775299214176 0.018160044158408006 0 0.0029958003402997002 0.015724034443020677 0 0.001554366289734227 0.016265043435837255 0 0.0026187743776765601 0.017062541989939988 0 0.0029958003402997002 0.015724034443020677 0 0.0026187743776765601 0.017062541989939988 0 0.0039583510884826159 0.01647650164669744 0 0.0026187743776765601 0.017062541989939988 0 0.0035277197141273314 0.017621097048329749 0 0.0039583510884826159 0.01647650164669744 0 0.0026187743776765601 0.017062541989939988 0 0.0035277197141273314 0.017621097048329749 0 0.0027273460266693584 0.018093756031555396 0 0.0035277197141273314 0.017621097048329749 0 0.0033136658389250934 0.01857402238157015 0 0.0027273460266693584 0.018093756031555396 0 0.0033136658389250934 0.01857402238157015 0 0.0039915812255766278 0.018968360768585425 0 0.0031271518593193131 0.019430100966358506 0 0.0033136658389250934 0.01857402238157015 0 0.0023298263618120527 0.018956960564866256 0 0.0031271518593193131 0.019430100966358506 0 0.0023298263618120527 0.018956960564866256 0 0.0024648206979332866 0.019534876219702894 0 0.0031271518593193131 0.019430100966358506 0 0.0023298263618120527 0.018956960564866256 0 0.0016540099406364519 0.019582998851932591 0 0.0024648206979332866 0.019534876219702894 0 0.0033136658389250934 0.01857402238157015 0 0.0023298263618120527 0.018956960564866256 0 0.0027273460266693584 0.018093756031555396 0 0.0023298263618120527 0.018956960564866256 0 0.0027273460266693584 0.018093756031555396 0 0.0018986775299214176 0.018160044158408006 0 0.0023298263618120527 0.018956960564866256 0 0.0018986775299214176 0.018160044158408006 0 0.0011954371047872569 0.018998717361246888 0 0.00097189731117330728 0.017651749608602853 0 0.0018986775299214176 0.018160044158408006 0 0.0011954371047872569 0.018998717361246888 0 0.0023298263618120527 0.018956960564866256 0 0.0011954371047872569 0.018998717361246888 0 0.0016540099406364519 0.019582998851932591 0 0.00053055627773806611 0.019487195804087972 0 0.00080623247270444215 0.019856161285523793 0 0.0011954371047872569 0.018998717361246888 0 0.0004832994355299897 0.018445264812381797 0 0.00097189731117330728 0.017651749608602853 0 0.0011954371047872569 0.018998717361246888 0 0.00053055627773806611 0.019487195804087972 0 0.0004832994355299897 0.018445264812381797 0 0.0011954371047872569 0.018998717361246888 0 0.0055626820005833131 0.017550192527717539 0 0.0067142587255552885 0.017132593628553478 0 0.0068542935940553787 0.015983916655062779 0 0.0055626820005833131 0.017550192527717539 0 0.0067623769393977996 0.016571161789570608 0 0.0052940815276982418 0.016294578927009942 0 0.0064288366962562552 0.01678981941350877 0 0.0070743756518347944 0.016159606729280896 0 0.0078545708903463522 0.016602181570758764 0 0.0067142587255552885 0.017132593628553478 0 0.0068189807475224681 0.01747049280059788 0 0.0078545708903463522 0.016602181570758764 0 0.0072358976742346497 0.016455768288299814 0 0.0075140805874559175 0.016094531771780891 0 0.0078545708903463522 0.016602181570758764 0 0.0067142587255552885 0.017132593628553478 0 0.0072358976742346497 0.016455768288299814 0 0.0067142587255552885 0.017132593628553478 0 0.0072358976742346497 0.016455768288299814 0 0.0068542935940553787 0.015983916655062779 0 0.0079008719047258032 0.01556933989792054 0 0.0084717551907903931 0.014530134004283705 0 0.0068542935940553787 0.015983916655062779 0 0.0082260747684182508 0.015074799988575447 0 0.0070743756518347944 0.016159606729280896 0 0.0079008719047258032 0.01556933989792054 0 0.0068542935940553787 0.015983916655062779 0 0.0075140805874559175 0.016094531771780891 0 0.0072358976742346497 0.016455768288299814 0 0.0068542935940553787 0.015983916655062779 0 0.0075140805874559175 0.016094531771780891 0 0.0078545708903463522 0.016602181570758764 0 0.0079008719047258032 0.01556933989792054 0 0.0075140805874559175 0.016094531771780891 0 0.0062649707252337835 0.015665967616711338 0 0.0067623769393977996 0.016571161789570608 0 0.0052940815276982418 0.016294578927009942 0 0.0044194648156666043 0.015161228624756388 0 0.0052940815276982418 0.016294578927009942 0 0.0039583510884826159 0.01647650164669744 0 0.0052940815276982418 0.016294578927009942 0 0.0039583510884826159 0.01647650164669744 0 0.0046177492752874361 0.01741673049839567 0 0.0035277197141273314 0.017621097048329749 0 0.0039583510884826159 0.01647650164669744 0 0.0046177492752874361 0.01741673049839567 0 0.0055626820005833131 0.017550192527717539 0 0.0052940815276982418 0.016294578927009942 0 0.0046177492752874361 0.01741673049839567 0 0.0055626820005833131 0.017550192527717539 0 0.0046177492752874361 0.01741673049839567 0 0.0052804697810273377 0.018212252285325466 0 0.0046177492752874361 0.01741673049839567 0 0.0052804697810273377 0.018212252285325466 0 0.0042494066760459361 0.018317394613985773 0 0.0052804697810273377 0.018212252285325466 0 0.0042494066760459361 0.018317394613985773 0 0.0047200345300719426 0.018866583746795271 0 0.0035277197141273314 0.017621097048329749 0 0.0046177492752874361 0.01741673049839567 0 0.0042494066760459361 0.018317394613985773 0 0.0035277197141273314 0.017621097048329749 0 0.0033136658389250934 0.01857402238157015 0 0.0042494066760459361 0.018317394613985773 0 0.0039915812255766278 0.018968360768585425 0 0.0046043718514226194 0.01963462933732437 0 0.0031271518593193131 0.019430100966358506 0 0.0033136658389250934 0.01857402238157015 0 0.0042494066760459361 0.018317394613985773 0 0.0039915812255766278 0.018968360768585425 0 0.0042494066760459361 0.018317394613985773 0 0.0039915812255766278 0.018968360768585425 0 0.0047200345300719426 0.018866583746795271 0 0.0039915812255766278 0.018968360768585425 0 0.0047200345300719426 0.018866583746795271 0 0.0046043718514226194 0.01963462933732437 0 0.0052804697810273377 0.018212252285325466 0 0.0047200345300719426 0.018866583746795271 0 0.0054532189226372107 0.019069887861692555 0 0.0022605628455581663 0.010822870273301905 0 0.0025394568127669308 0.0072953312034691967 0 0.0047200345300719426 0.018866583746795271 0 0.0054532189226372107 0.019069887861692555 0 0.0046043718514226194 0.01963462933732437 0 -0.0074402266251695683 -0.01761186737197502 0 -0.0075850609663475751 -0.015301764449477043 0 -0.0095938807638611782 -0.01371969958147147 0 -0.0011726633082434069 -0.0014716237196767366 0 -0.0021592892659656315 -0.0039631905801580545 0 0.0052804697810273377 0.018212252285325466 0 0.0054532189226372107 0.019069887861692555 0 0.0063377908251842675 0.018403876724624017 0 0.0063377908251842675 0.018403876724624017 0 0.0066346559093067121 0.018273691473838193 0 0.0059610607345426713 0.018980076342005096 0 0.0057848606879418799 0.018636930233120449 0 0.0063377908251842675 0.018403876724624017 0 0.0059610607345426713 0.018980076342005096 0 0.0022605628455581663 0.010822870273301905 0 0.0023938557251632032 0.011768601161325783 0 0.0055626820005833131 0.017550192527717539 0 0.0067142587255552885 0.017132593628553478 0 0.0061572508627495389 0.017862172994590739 0 0.0052804697810273377 0.018212252285325466 0 0.0063377908251842675 0.018403876724624017 0 0.0061572508627495389 0.017862172994590739 0 0.0063377908251842675 0.018403876724624017 0 0.0061572508627495389 0.017862172994590739 0 0.0066346559093067121 0.018273691473838193 0 0.0067142587255552885 0.017132593628553478 0 0.0061572508627495389 0.017862172994590739 0 0.0068189807475224681 0.01747049280059788 0 0.0055626820005833131 0.017550192527717539 0 0.0052804697810273377 0.018212252285325466 0 0.0061572508627495389 0.017862172994590739 0 0.00092332763479615406 -0.0030410408807011865 0 -0.0011726633082434069 -0.0014716237196767366 0 -0.0052478420037414975 -0.018692918678109863 0 -0.0054323198976240676 -0.02170967597202119 0 -0.0074402266251695683 -0.01761186737197502 0 0.0078545708903463522 0.016602181570758764 0 0.0068189807475224681 0.01747049280059788 0 0.0066346559093067121 0.018273691473838193 0 0.0061572508627495389 0.017862172994590739 0 0.0068189807475224681 0.01747049280059788 0 0.0066346559093067121 0.018273691473838193 0 -0.0052478420037414975 -0.018692918678109863 0 -0.0074402266251695683 -0.01761186737197502 0 -0.0058915888482535261 -0.016622718243587024 0 -0.0074402266251695683 -0.01761186737197502 0 -0.0058915888482535261 -0.016622718243587024 0 -0.0075850609663475751 -0.015301764449477043 0 -0.0048880963782929896 -0.015383712735217296 0 -0.0058859326856930275 -0.015190671597838705 0 -0.0051789436111346499 -0.013446912044365251 0 -0.0075850609663475751 -0.015301764449477043 0 -0.0058859326856930275 -0.015190671597838705 0 -0.0051789436111346499 -0.013446912044365251 0 -0.0048880963782929896 -0.015383712735217296 0 -0.0058915888482535261 -0.016622718243587024 0 -0.0058859326856930275 -0.015190671597838705 0 -0.0058915888482535261 -0.016622718243587024 0 -0.0075850609663475751 -0.015301764449477043 0 -0.0058859326856930275 -0.015190671597838705 0 -0.0075850609663475751 -0.015301764449477043 0 -0.0095938807638611782 -0.01371969958147147 0 -0.0051789436111346499 -0.013446912044365251 0 -0.0021592892659656315 -0.0039631905801580545 0 -0.0030742266058696689 -0.0084541779590139657 0 -0.0014071958671414925 -0.012607138048748157 0 -0.0014505629566140062 -0.012664245867694454 0 -0.0011696642192994481 -0.013023996580952867 0 -0.0012071848986686541 -0.012823277318453181 0 -0.0014071958671414925 -0.012607138048748157 0 -0.0011696642192994481 -0.013023996580952867 0 -0.0014071958671414925 -0.012607138048748157 0 -0.0012816136154970574 -0.012651438867577844 0 -0.0014071191732828421 -0.012530944486151266 0 -0.0012071848986686541 -0.012823277318453181 0 -0.0012816136154970574 -0.012651438867577844 0 -0.0011196478590160958 -0.012726076213711553 0 -0.0012071848986686541 -0.012823277318453181 0 -0.0014071958671414925 -0.012607138048748157 0 -0.0012816136154970574 -0.012651438867577844 0 -0.0014071958671414925 -0.012607138048748157 0 -0.0016119405984397447 -0.012264246471601374 0 -0.0015314073383707421 -0.01247999304566396 0 -0.0015648420833987637 -0.011884133357955901 0 -0.0015366529577658008 -0.011712807837267804 0 -0.0014071958671414925 -0.012607138048748157 0 -0.0014505629566140062 -0.012664245867694454 0 -0.0016119405984397447 -0.012264246471601374 0 -0.0014505629566140062 -0.012664245867694454 0 -0.0015405987120303884 -0.013014411846958914 0 -0.0011696642192994481 -0.013023996580952867 0 -0.0014505629566140062 -0.012664245867694454 0 -0.0015405987120303884 -0.013014411846958914 0 -0.0016119405984397447 -0.012264246471601374 0 -0.0016897743719069894 -0.011710874688692027 0 -0.0018845084770870808 -0.011765817017186873 0 -0.0019196312060723746 -0.011597638476196345 0 0.0057848606879418799 0.018636930233120449 0 0.0059610607345426713 0.018980076342005096 0 0.0053385499300186851 0.018891033235550928 0 -0.0021592892659656315 -0.0039631905801580545 0 0.0025394568127669308 0.0072953312034691967 0 0.0025394568127669308 0.0072953312034691967 0 0.0034309717010383559 0.0096757539724401515 0 0.0039920862009394254 0.019428535959102503 0 0.0031271518593193131 0.019430100966358506 0 0.0030335164920489883 0.020096951116472785 0 -0.0018845084770870808 -0.011765817017186873 0 -0.0019196312060723746 -0.011597638476196345 0 -0.0023641914859744949 -0.011562787292652746 0 0.0025394568127669308 0.0072953312034691967 0 0.0010534211519917071 0.0057809324861887619 0 -0.0019196312060723746 -0.011597638476196345 0 -0.0021373638786598747 -0.011212191642514779 0 -0.0023641914859744949 -0.011562787292652746 0 -0.0019196312060723746 -0.011597638476196345 0 -0.0018188293672004889 -0.011544706489674655 0 -0.0021373638786598747 -0.011212191642514779 0 -0.0021592892659656315 -0.0039631905801580545 0 -0.00052385179669615564 -0.0087252787858310143 0 -0.0015405987120303884 -0.013014411846958914 0 -0.0016119405984397447 -0.012264246471601374 0 -0.0018188293672004889 -0.011544706489674655 0 -0.0016119405984397447 -0.012264246471601374 0 -0.0018188293672004889 -0.011544706489674655 0 -0.0012643265402452011 -0.011227975176821135 0 -0.0016897743719069894 -0.011710874688692027 0 -0.0019196312060723746 -0.011597638476196345 0 -0.0018188293672004889 -0.011544706489674655 0 -0.0018188293672004889 -0.011544706489674655 0 -0.0015893110161885526 -0.011024744711042471 0 -0.0012643265402452011 -0.011227975176821135 0 -0.0018188293672004889 -0.011544706489674655 0 -0.0015893110161885526 -0.011024744711042471 0 -0.0019628221351364029 -0.011116717633136692 0 -0.0015893110161885526 -0.011024744711042471 0 -0.0019628221351364029 -0.011116717633136692 0 -0.0017327749665445921 -0.01074098217016399 0 -0.0018188293672004889 -0.011544706489674655 0 -0.0021373638786598747 -0.011212191642514779 0 -0.0019628221351364029 -0.011116717633136692 0 -0.0019628221351364029 -0.011116717633136692 0 -0.0021795464844399574 -0.010829644230212047 0 -0.0017327749665445921 -0.01074098217016399 0 -0.0021373638786598747 -0.011212191642514779 0 -0.0019628221351364029 -0.011116717633136692 0 -0.0021795464844399574 -0.010829644230212047 0 -0.0021373638786598747 -0.011212191642514779 0 -0.0021795464844399574 -0.010829644230212047 0 -0.0024716011769985208 -0.010749017253654569 0 -0.0017601506962471904 -0.01104463035578976 0 -0.0016285630430821442 -0.01117445145752805 0 -0.0019751161861724484 -0.010420875954173946 0 -0.0020555360927026409 -0.0099519939069492892 0 -0.0013090428029868884 -0.010010748831587448 0 -0.0020555360927026409 -0.0099519939069492892 0 -0.0013090428029868884 -0.010010748831587448 0 -0.0019177306365635537 -0.0094960859431066566 0 -0.0017601506962471904 -0.01104463035578976 0 -0.0014958569996664107 -0.010900933487075326 0 -0.0019751161861724484 -0.010420875954173946 0 -0.0020555360927026409 -0.0099519939069492892 0 -0.0023609080461445358 -0.010321184633245445 0 -0.0016227759877442765 -0.011077362212439183 0 -0.0016224630182020074 -0.011075922910078957 0 -0.001628876941433979 -0.011076833223118518 0 -0.0016285630430821442 -0.01117445145752805 0 -0.0015155502971984996 -0.011383997072281368 0 -0.0015893110161885526 -0.011024744711042471 0 -0.0017327749665445921 -0.01074098217016399 0 -0.0011351073612585899 -0.010568841971061624 0 -0.0016183051040750223 -0.011075339392446331 0 -0.0016227759877442765 -0.011077362212439183 0 -0.0016224630182020074 -0.011075922910078957 0 -0.0014958569996664107 -0.010900933487075326 0 -0.0014534744390751325 -0.010998730245393634 0 -0.0016227759877442765 -0.011077362212439183 0 -0.001628876941433979 -0.011076833223118518 0 -0.0016298521457168435 -0.011080270385189692 0 -0.001530889568452857 -0.012244625741039742 0 -0.0012994442655911095 -0.012317724298717561 0 -0.0014279540067308383 -0.01241074710131195 0 -0.0015155502971984996 -0.011383997072281368 0 -0.0014534744390751325 -0.010998730245393634 0 -0.001530889568452857 -0.012244625741039742 0 -0.0011668312205475135 -0.012085622548548856 0 -0.0012994442655911095 -0.012317724298717561 0 -0.0017795898569082174 -0.012249160408242723 0 -0.0011938943062415061 -0.012108633285777661 0 -0.0017152551257608253 -0.011976101217754817 0 -0.0015155502971984996 -0.011383997072281368 0 -0.0012544619129193743 -0.011633880294336084 0 -0.0011668312205475135 -0.012085622548548856 0 -0.0012994442655911095 -0.012317724298717561 0 -0.0010024912038835104 -0.012365559131254214 0 -0.0012994442655911095 -0.012317724298717561 0 -0.0012485708507175861 -0.012506818545686443 0 -0.0014279540067308383 -0.01241074710131195 0 -0.0012485708507175861 -0.012506818545686443 0 -0.0014071191732828421 -0.012530944486151266 0 -0.0014279540067308383 -0.01241074710131195 0 -0.0012994442655911095 -0.012317724298717561 0 -0.0012485708507175861 -0.012506818545686443 0 -0.0010024912038835104 -0.012365559131254214 0 -0.0012816136154970574 -0.012651438867577844 0 -0.0012485708507175861 -0.012506818545686443 0 -0.0011196478590160958 -0.012726076213711553 0 -0.0012816136154970574 -0.012651438867577844 0 -0.0012485708507175861 -0.012506818545686443 0 -0.0014071191732828421 -0.012530944486151266 0 -0.0015155502971984996 -0.011383997072281368 0 -0.0015366529577658008 -0.011712807837267804 0 -0.0015893110161885526 -0.011024744711042471 0 -0.0011351073612585899 -0.010568841971061624 0 -0.0012643265402452011 -0.011227975176821135 0 -0.0014071958671414925 -0.012607138048748157 0 -0.0014071191732828421 -0.012530944486151266 0 -0.0015314073383707421 -0.01247999304566396 0 -0.0014071191732828421 -0.012530944486151266 0 -0.0015314073383707421 -0.01247999304566396 0 -0.0014279540067308383 -0.01241074710131195 0 -0.001530889568452857 -0.012244625741039742 0 -0.0015314073383707421 -0.01247999304566396 0 -0.0014279540067308383 -0.01241074710131195 0 0.00080623247270444215 0.019856161285523793 0 0.00094739536338973201 0.020279502466280318 0 0.0014459333613461361 0.020186849022477579 0 0.00080623247270444215 0.019856161285523793 0 0.0016540099406364519 0.019582998851932591 0 0.0014459333613461361 0.020186849022477579 0 0.00080623247270444215 0.019856161285523793 0 0.0011954371047872569 0.018998717361246888 0 0.0016540099406364519 0.019582998851932591 0 0.0016540099406364519 0.019582998851932591 0 0.0014459333613461361 0.020186849022477579 0 0.0021894920694923987 0.019997979073392007 0 0.0014459333613461361 0.020186849022477579 0 0.0021894920694923987 0.019997979073392007 0 0.0018993707826102976 0.020546121952391874 0 0.0021894920694923987 0.019997979073392007 0 0.0030335164920489883 0.020096951116472785 0 0.0018993707826102976 0.020546121952391874 0 -0.0023641914859744949 -0.011562787292652746 0 -0.0025753922007850328 -0.011082031140394811 0 -0.0037323323343374554 -0.010762636083526133 0 0.0010534211519917071 0.0057809324861887619 0 -0.00041909541416247685 0.0057661940765478268 0 0.0021894920694923987 0.019997979073392007 0 0.0024648206979332866 0.019534876219702894 0 0.0030335164920489883 0.020096951116472785 0 0.0016540099406364519 0.019582998851932591 0 0.0021894920694923987 0.019997979073392007 0 0.0024648206979332866 0.019534876219702894 0 0.0024648206979332866 0.019534876219702894 0 0.0031271518593193131 0.019430100966358506 0 0.0030335164920489883 0.020096951116472785 0 -0.0021373638786598747 -0.011212191642514779 0 -0.0023641914859744949 -0.011562787292652746 0 -0.0025753922007850328 -0.011082031140394811 0 -0.0021373638786598747 -0.011212191642514779 0 -0.0025753922007850328 -0.011082031140394811 0 -0.0024716011769985208 -0.010749017253654569 0 -0.0025753922007850328 -0.011082031140394811 0 -0.0024716011769985208 -0.010749017253654569 0 -0.0029466720875935895 -0.010741583164634277 0 -0.0024716011769985208 -0.010749017253654569 0 -0.0023609080461445358 -0.010321184633245445 0 -0.0029466720875935895 -0.010741583164634277 0 -0.0017601506962471904 -0.01104463035578976 0 -0.001891353095970929 -0.011064528426770023 0 -0.0019751161861724484 -0.010420875954173946 0 -0.0024716011769985208 -0.010749017253654569 0 -0.0023609080461445358 -0.010321184633245445 0 -0.0023609080461445358 -0.010321184633245445 0 -0.0026483310045035072 -0.0099829059974835769 0 -0.0029466720875935895 -0.010741583164634277 0 -0.0020555360927026409 -0.0099519939069492892 0 -0.0023609080461445358 -0.010321184633245445 0 -0.0026483310045035072 -0.0099829059974835769 0 -0.0020555360927026409 -0.0099519939069492892 0 -0.0026483310045035072 -0.0099829059974835769 0 -0.0023753663489795326 -0.0096160707314145132 0 -0.0022287822062841077 -0.0091746388336307882 0 -0.0022214776136474028 -0.0079758324027591216 0 -0.0026483310045035072 -0.0099829059974835769 0 -0.0029466720875935895 -0.010741583164634277 0 -0.0033085725492879138 -0.0097592833110396651 0 -0.0025753922007850328 -0.011082031140394811 0 -0.0037323323343374554 -0.010762636083526133 0 -0.0029466720875935895 -0.010741583164634277 0 -0.0037323323343374554 -0.010762636083526133 0 -0.0029466720875935895 -0.010741583164634277 0 -0.0034694529656722943 -0.0079698866221608097 0 -0.00041909541416247685 0.0057661940765478268 0 -0.0017751677693147823 0.0065576176614415005 0 0.0014459333613461361 0.020186849022477579 0 0.0018993707826102976 0.020546121952391874 0 0.0010750590082780108 0.02072267397132321 0 -0.0037323323343374554 -0.010762636083526133 0 -0.0060369470880139451 -0.0090205632864934302 0 -0.0034694529656722943 -0.0079698866221608097 0 0.00075841413045994927 0.020453724455115528 0 0.00094739536338973201 0.020279502466280318 0 0.0010750590082780108 0.02072267397132321 0 0.00094739536338973201 0.020279502466280318 0 0.0014459333613461361 0.020186849022477579 0 0.0010750590082780108 0.02072267397132321 0 -0.0065798779905663447 -0.005309660254013907 0 -0.0055285200576759225 -0.0055799419779315566 0 -0.0058560718855643398 -0.0043745237183585193 0 -0.0055285200576759225 -0.0055799419779315566 0 -0.0052170591248159827 -0.0047562638891147343 0 -0.0058560718855643398 -0.0043745237183585193 0 -0.0065798779905663447 -0.005309660254013907 0 -0.0055285200576759225 -0.0055799419779315566 0 -0.0057951734624760226 -0.0068741563568749881 0 -0.0071338879875834345 -0.0066860855822631956 0 -0.0065798779905663447 -0.005309660254013907 0 -0.0057951734624760226 -0.0068741563568749881 0 -0.0071338879875834345 -0.0066860855822631956 0 -0.0060369470880139451 -0.0090205632864934302 0 -0.0057951734624760226 -0.0068741563568749881 0 -0.0060369470880139451 -0.0090205632864934302 0 -0.0057951734624760226 -0.0068741563568749881 0 -0.0034694529656722943 -0.0079698866221608097 0 -0.0055285200576759225 -0.0055799419779315566 0 -0.0057951734624760226 -0.0068741563568749881 0 -0.0034694529656722943 -0.0079698866221608097 0 -0.0017699052972480406 -0.0049464597436545896 0 -0.0022214776136474028 -0.0079758324027591216 0 -0.0055285200576759225 -0.0055799419779315566 0 -0.0043548277328155759 -0.0051509436199413117 0 -0.0034694529656722943 -0.0079698866221608097 0 -0.0037799298476603434 -0.0086047631412031964 0 -0.0034428313090926013 -0.0088865005032588984 0 -0.0033085725492879138 -0.0097592833110396651 0 -0.0055285200576759225 -0.0055799419779315566 0 -0.0043548277328155759 -0.0051509436199413117 0 -0.0052170591248159827 -0.0047562638891147343 0 -0.0037799298476603434 -0.0086047631412031964 0 -0.0036422912566937042 -0.0085798265100860745 0 -0.0035808661568431069 -0.0086779013628780419 0 -0.0037799298476603434 -0.0086047631412031964 0 -0.0036422912566937042 -0.0085798265100860745 0 -0.0035540851817218288 -0.0083890363499567848 0 -0.0036422912566937042 -0.0085798265100860745 0 -0.0034770366941193624 -0.008615033877061147 0 -0.0035540851817218288 -0.0083890363499567848 0 -0.0036422912566937042 -0.0085798265100860745 0 -0.0034770366941193624 -0.008615033877061147 0 -0.0035808661568431069 -0.0086779013628780419 0 -0.0037799298476603434 -0.0086047631412031964 0 -0.0035808661568431069 -0.0086779013628780419 0 -0.0034428313090926013 -0.0088865005032588984 0 -0.0034770366941193624 -0.008615033877061147 0 -0.0035808661568431069 -0.0086779013628780419 0 -0.0034428313090926013 -0.0088865005032588984 0 -0.0032881693492608447 -0.0087164196893762067 0 -0.0032882361280280976 -0.0084822214158329443 0 -0.0028968818550024716 -0.0085533146064575086 0 -0.0034770366941193624 -0.008615033877061147 0 -0.0032881693492608447 -0.0087164196893762067 0 -0.0034428313090926013 -0.0088865005032588984 0 -0.0034770366941193624 -0.008615033877061147 0 -0.0032881693492608447 -0.0087164196893762067 0 -0.0032882361280280976 -0.0084822214158329443 0 -0.0034770366941193624 -0.008615033877061147 0 -0.0032882361280280976 -0.0084822214158329443 0 -0.0035540851817218288 -0.0083890363499567848 0 -0.0028968818550024716 -0.0085533146064575086 0 -0.0030392577601458474 -0.0088928334743527248 0 -0.0026313517930106 -0.0089012608961086277 0 -0.0032881693492608447 -0.0087164196893762067 0 -0.0028968818550024716 -0.0085533146064575086 0 -0.0030392577601458474 -0.0088928334743527248 0 -0.0030392577601458474 -0.0088928334743527248 0 -0.0029012016143962877 -0.0094262617365912498 0 -0.0026313517930106 -0.0089012608961086277 0 -0.0032881693492608447 -0.0087164196893762067 0 -0.0030392577601458474 -0.0088928334743527248 0 -0.0034428313090926013 -0.0088865005032588984 0 -0.0030392577601458474 -0.0088928334743527248 0 -0.0034428313090926013 -0.0088865005032588984 0 -0.0029012016143962877 -0.0094262617365912498 0 -0.0026483310045035072 -0.0099829059974835769 0 -0.0033085725492879138 -0.0097592833110396651 0 -0.0029012016143962877 -0.0094262617365912498 0 -0.0034428313090926013 -0.0088865005032588984 0 -0.0033085725492879138 -0.0097592833110396651 0 -0.0029012016143962877 -0.0094262617365912498 0 -0.0029012016143962877 -0.0094262617365912498 0 -0.0023911135248594205 -0.0092262053394306636 0 -0.0026313517930106 -0.0089012608961086277 0 -0.0029012016143962877 -0.0094262617365912498 0 -0.0023753663489795326 -0.0096160707314145132 0 -0.0023911135248594205 -0.0092262053394306636 0 -0.0026483310045035072 -0.0099829059974835769 0 -0.0029012016143962877 -0.0094262617365912498 0 -0.0023753663489795326 -0.0096160707314145132 0 -0.0023753663489795326 -0.0096160707314145132 0 -0.0023911135248594205 -0.0092262053394306636 0 -0.0019177306365635537 -0.0094960859431066566 0 -0.0021629635675754003 -0.008721561710420182 0 -0.0019640266385656828 -0.0082753946794951374 0 -0.0023911135248594205 -0.0092262053394306636 0 -0.002347297168805872 -0.0086281149162130821 0 -0.0019689656045107163 -0.0082097829786491761 0 -0.0023911135248594205 -0.0092262053394306636 0 -0.0026313517930106 -0.0089012608961086277 0 -0.002347297168805872 -0.0086281149162130821 0 -0.0028968818550024716 -0.0085533146064575086 0 -0.0026313517930106 -0.0089012608961086277 0 -0.002347297168805872 -0.0086281149162130821 0 -0.002347297168805872 -0.0086281149162130821 0 -0.0021628805604321922 -0.0078829451232495743 0 -0.0019689656045107163 -0.0082097829786491761 0 -0.002347297168805872 -0.0086281149162130821 0 -0.0026532334935077898 -0.0081033531457130985 0 -0.002049380802756828 -0.0075942463278264949 0 -0.0021237769887911761 -0.0078902922161480041 0 -0.0020170948614360007 -0.0074527467651798246 0 -0.0028968818550024716 -0.0085533146064575086 0 -0.002347297168805872 -0.0086281149162130821 0 -0.0026532334935077898 -0.0081033531457130985 0 -0.0026532334935077898 -0.0081033531457130985 0 -0.002049380802756828 -0.0075942463278264949 0 -0.002786340700015807 -0.0075825055201724856 0 -0.0017955487387669492 -0.0065386176937452479 0 -0.002049380802756828 -0.0075942463278264949 0 -0.0024587778097159784 -0.0070116773877652236 0 -0.002049380802756828 -0.0075942463278264949 0 -0.0024587778097159784 -0.0070116773877652236 0 -0.002786340700015807 -0.0075825055201724856 0 -0.0024587778097159784 -0.0070116773877652236 0 -0.002786340700015807 -0.0075825055201724856 0 -0.0032703121616176473 -0.0070899639095839137 0 -0.002786340700015807 -0.0075825055201724856 0 -0.0032703121616176473 -0.0070899639095839137 0 -0.0033838492296944921 -0.0077568289093023534 0 -0.0033838492296944921 -0.0077568289093023534 0 -0.0031517283834004402 -0.0081229017263806068 0 -0.0036425938333056449 -0.0081304091939040472 0 -0.0026532334935077898 -0.0081033531457130985 0 -0.002786340700015807 -0.0075825055201724856 0 -0.0031517283834004402 -0.0081229017263806068 0 -0.002786340700015807 -0.0075825055201724856 0 -0.0033838492296944921 -0.0077568289093023534 0 -0.0031517283834004402 -0.0081229017263806068 0 -0.0032882361280280976 -0.0084822214158329443 0 -0.0028968818550024716 -0.0085533146064575086 0 -0.0031517283834004402 -0.0081229017263806068 0 -0.0028968818550024716 -0.0085533146064575086 0 -0.0026532334935077898 -0.0081033531457130985 0 -0.0031517283834004402 -0.0081229017263806068 0 -0.0032882361280280976 -0.0084822214158329443 0 -0.0031517283834004402 -0.0081229017263806068 0 -0.0035540851817218288 -0.0083890363499567848 0 -0.0031517283834004402 -0.0081229017263806068 0 -0.0036425938333056449 -0.0081304091939040472 0 -0.0035540851817218288 -0.0083890363499567848 0 -0.0015977793743297162 -0.0043148331580063273 0 -0.0016398125371099384 -0.0041912636266696873 0 -0.0016645695133190722 -0.0042141849913814112 0 -0.0017699052972480406 -0.0049464597436545896 0 -0.0013596120955687498 -0.0036472110421330423 0 -0.0037799298476603434 -0.0086047631412031964 0 -0.0036425938333056449 -0.0081304091939040472 0 -0.0040617262872634941 -0.0078530725835681079 0 -0.0037799298476603434 -0.0086047631412031964 0 -0.0036425938333056449 -0.0081304091939040472 0 -0.0035540851817218288 -0.0083890363499567848 0 -0.0017699052972480406 -0.0049464597436545896 0 -0.0016074624284758692 -0.0037284858130032577 0 -0.0043548277328155759 -0.0051509436199413117 0 -0.0052170591248159827 -0.0047562638891147343 0 -0.0052562332537242585 -0.0038267938997273319 0 -0.0013596120955687498 -0.0036472110421330423 0 -0.0016074624284758692 -0.0037284858130032577 0 -0.0033838492296944921 -0.0077568289093023534 0 -0.0036425938333056449 -0.0081304091939040472 0 -0.0040617262872634941 -0.0078530725835681079 0 0.0022538285359801624 0.00020710869424149189 0 0.0020255036766072009 0.00096220305570014699 0 0.0019358873184866716 0.00046752533622326206 0 0.0015082223731785586 0.00055884227443961832 0 0.0020255036766072009 0.00096220305570014699 0 0.0019358873184866716 0.00046752533622326206 0 -0.0032703121616176473 -0.0070899639095839137 0 -0.0033838492296944921 -0.0077568289093023534 0 -0.0040617262872634941 -0.0078530725835681079 0 -0.00097771819806261756 -0.0034698387829280829 0 -0.0013596120955687498 -0.0036472110421330423 0 0.0022538285359801624 0.00020710869424149189 0 0.0021091518527777292 0.00054718659216408943 0 0.0023066932336068689 0.00041054491436405891 0 -0.00093114876763270883 -0.0018037302836841436 0 -0.0013596120955687498 -0.0036472110421330423 0 -0.0020341836690142634 -0.0012403292966803054 0 -0.0016074624284758692 -0.0037284858130032577 0 0.0025096513998847884 0.00018622328779885813 0 0.0023703911452298242 0.0001930291221450688 0 0.0023066932336068689 0.00041054491436405891 0 -0.002451937993680306 0.0011590592954173287 0 -0.0020341836690142634 -0.0012403292966803054 0 -0.0071550971406121175 -0.0036404033329167111 0 -0.0061519322142365206 -0.0024981083706039743 0 -0.0061293701145575131 -0.0034541617563833512 0 -0.0071550971406121175 -0.0036404033329167111 0 -0.0061293701145575131 -0.0034541617563833512 0 -0.0058560718855643398 -0.0043745237183585193 0 -0.0071550971406121175 -0.0036404033329167111 0 -0.0065798779905663447 -0.005309660254013907 0 -0.0058560718855643398 -0.0043745237183585193 0 -0.0061293701145575131 -0.0034541617563833512 0 -0.0052432841500696789 -0.0038185946496771296 0 -0.0058560718855643398 -0.0043745237183585193 0 0.0021091518527777292 0.00054718659216408943 0 0.0023066932336068689 0.00041054491436405891 0 0.0021575566292217022 0.00059110194334527041 0 -0.0061519322142365206 -0.0024981083706039743 0 -0.0061293701145575131 -0.0034541617563833512 0 -0.0052432841500696789 -0.0038185946496771296 0 -0.0052170591248159827 -0.0047562638891147343 0 -0.0052562332537242585 -0.0038267938997273319 0 -0.0058560718855643398 -0.0043745237183585193 0 -0.0016074624284758692 -0.0037284858130032577 0 -0.0018874089749712441 -0.0039012629222852945 0 -0.00092262928227481984 -0.009096734767765324 0 -0.00054081196947762479 -0.0088162744746877412 0 -0.00084086924681592572 -0.0085038378944279052 0 -0.0012527936104346311 -0.0098961981901669518 0 -0.0014534744390751325 -0.010998730245393634 0 -0.00092262928227481984 -0.009096734767765324 0 -0.0013528859754304891 -0.0089942927951906174 0 -0.00084086924681592572 -0.0085038378944279052 0 -0.00092262928227481984 -0.009096734767765324 0 -0.00054081196947762479 -0.0088162744746877412 0 -0.00071556682412161313 -0.0096624788979989985 0 -0.0023924301496424114 -0.011095431650358844 0 -0.0016160699784218671 -0.011330277335816675 0 -0.0017807262730402897 -0.011997048383928925 0 -0.0023924301496424114 -0.011095431650358844 0 -0.0016160699784218671 -0.011330277335816675 0 -0.0014760594855630265 -0.010757264876759697 0 -0.0011938943062415061 -0.012108633285777661 0 -0.0012415970841252316 -0.011728848736347674 0 -0.0017152551257608253 -0.011976101217754817 0 -0.0023924301496424114 -0.011095431650358844 0 -0.0017807262730402897 -0.011997048383928925 0 -0.0027038959754887354 -0.012472884526767968 0 -0.0015387001209625521 -0.011314441989611261 0 -0.0014534744390751325 -0.010998730245393634 0 -0.00092262928227481984 -0.009096734767765324 0 -0.00071556682412161313 -0.0096624788979989985 0 -0.0011996468522202492 -0.0094902925733530239 0 -0.0013090428029868884 -0.010010748831587448 0 -0.00071556682412161313 -0.0096624788979989985 0 -0.0011996468522202492 -0.0094902925733530239 0 -0.0011996468522202492 -0.0094902925733530239 0 -0.0019177306365635537 -0.0094960859431066566 0 -0.0013528859754304891 -0.0089942927951906174 0 -0.0013090428029868884 -0.010010748831587448 0 -0.0011996468522202492 -0.0094902925733530239 0 -0.0019177306365635537 -0.0094960859431066566 0 -0.0023911135248594205 -0.0092262053394306636 0 -0.0019177306365635537 -0.0094960859431066566 0 -0.001839408831632004 -0.0089018168643099239 0 -0.0020555360927026409 -0.0099519939069492892 0 -0.0023753663489795326 -0.0096160707314145132 0 -0.0019177306365635537 -0.0094960859431066566 0 -0.0015453975769391445 -0.0091363579185050909 0 -0.0013178714278401259 -0.0089095405829301821 0 -0.0023911135248594205 -0.0092262053394306636 0 -0.001839408831632004 -0.0089018168643099239 0 -0.001958388990769006 -0.0083955015383306662 0 -0.0019177306365635537 -0.0094960859431066566 0 -0.001839408831632004 -0.0089018168643099239 0 -0.001375353987357774 -0.0089052677171079595 0 -0.00092262928227481984 -0.009096734767765324 0 -0.0011996468522202492 -0.0094902925733530239 0 -0.0013528859754304891 -0.0089942927951906174 0 -0.001839408831632004 -0.0089018168643099239 0 -0.001375353987357774 -0.0089052677171079595 0 -0.0015625451015446117 -0.0085288933306598667 0 -0.0013178714278401259 -0.0089095405829301821 0 -0.00095481066036780889 -0.008548864515871479 0 -0.0015625451015446117 -0.0085288933306598667 0 -0.0014130556384641015 -0.0081481033111809962 0 -0.00085125165441394895 -0.0083758528746865381 0 -0.001375353987357774 -0.0089052677171079595 0 -0.0015625451015446117 -0.0085288933306598667 0 -0.00085125165441394895 -0.0083758528746865381 0 -0.0015625451015446117 -0.0085288933306598667 0 -0.001958388990769006 -0.0083955015383306662 0 -0.0014130556384641015 -0.0081481033111809962 0 -0.001839408831632004 -0.0089018168643099239 0 -0.0015625451015446117 -0.0085288933306598667 0 -0.001958388990769006 -0.0083955015383306662 0 -0.0016870189484398121 -0.007449563963914798 0 -0.0020562863713822887 -0.0072669968589588515 0 -0.0021628805604321922 -0.0078829451232495743 0 -0.0016508381591291029 -0.0075650794375323217 0 -0.0019640266385656828 -0.0082753946794951374 0 -0.0015891173250677368 -0.0075842408335548318 0 -0.001958388990769006 -0.0083955015383306662 0 -0.0014130556384641015 -0.0081481033111809962 0 -0.0016870189484398121 -0.007449563963914798 0 -0.0021628805604321922 -0.0078829451232495743 0 -0.0019689656045107163 -0.0082097829786491761 0 -0.0017681767805258124 -0.0064383837392729274 0 -0.0020170948614360007 -0.0074527467651798246 0 -0.0015891173250677368 -0.0075842408335548318 0 -0.0014130556384641015 -0.0081481033111809962 0 -0.001305690656025088 -0.0077668162028530739 0 -0.0014130556384641015 -0.0081481033111809962 0 -0.00098062979824318727 -0.007871959909576844 0 -0.00085125165441394895 -0.0083758528746865381 0 -0.0014130556384641015 -0.0081481033111809962 0 -0.001305690656025088 -0.0077668162028530739 0 -0.00098062979824318727 -0.007871959909576844 0 -0.0011745197053460372 -0.0075420361236593859 0 -0.001305690656025088 -0.0077668162028530739 0 -0.00098062979824318727 -0.007871959909576844 0 -0.00095481066036780889 -0.008548864515871479 0 -0.00083424296656226091 -0.0084335720852890105 0 -0.00098062979824318727 -0.007871959909576844 0 -0.00085125165441394895 -0.0083758528746865381 0 -0.00031793047101681806 -0.0078352060756587821 0 -0.0008680510930670017 -0.0073850710485214499 0 -0.00098062979824318727 -0.007871959909576844 0 -0.00031793047101681806 -0.0078352060756587821 0 -0.00054081196947762479 -0.0088162744746877412 0 -0.00084086924681592572 -0.0085038378944279052 0 -0.00036276236260834242 -0.0080187765371850482 0 -0.0023924301496424114 -0.011095431650358844 0 -0.0021281379183972601 -0.0096807549706467207 0 -0.0014760594855630265 -0.010757264876759697 0 -0.0012527936104346311 -0.0098961981901669518 0 -0.00083424296656226091 -0.0084335720852890105 0 -0.0021281379183972601 -0.0096807549706467207 0 -0.00087727141672481763 -0.010176508843567614 0 -0.0006329945177997678 -0.0093374742715416417 0 -0.00087727141672481763 -0.010176508843567614 0 -0.0006329945177997678 -0.0093374742715416417 0 8.9143961085520355e-05 -0.010138892689928132 0 0.00046362067402987649 -0.0089961582415990816 0 -0.0006329945177997678 -0.0093374742715416417 0 8.9143961085520355e-05 -0.010138892689928132 0 -0.00087727141672481763 -0.010176508843567614 0 -0.00045218365536997209 -0.010931950569235375 0 8.9143961085520355e-05 -0.010138892689928132 0 -0.0021281379183972601 -0.0096807549706467207 0 -0.00087727141672481763 -0.010176508843567614 0 -0.0014760594855630265 -0.010757264876759697 0 -0.00087727141672481763 -0.010176508843567614 0 -0.00045218365536997209 -0.010931950569235375 0 -0.0014760594855630265 -0.010757264876759697 0 -0.0015387001209625521 -0.011314441989611261 0 -0.0013797355503291397 -0.011312721405495961 0 -0.00045218365536997209 -0.010931950569235375 0 -0.0014760594855630265 -0.010757264876759697 0 -0.00079467416288610119 -0.011483098428234889 0 -0.0016160699784218671 -0.011330277335816675 0 -0.0017807262730402897 -0.011997048383928925 0 -0.00079467416288610119 -0.011483098428234889 0 -0.0016160699784218671 -0.011330277335816675 0 -0.0014760594855630265 -0.010757264876759697 0 -0.00079467416288610119 -0.011483098428234889 0 -0.00045218365536997209 -0.010931950569235375 0 -0.00079467416288610119 -0.011483098428234889 0 -0.00020496723010647645 -0.0115681460497363 0 -0.00079467416288610119 -0.011483098428234889 0 -0.00020496723010647645 -0.0115681460497363 0 -0.00053959581755997721 -0.011956199655137549 0 -0.00020496723010647645 -0.0115681460497363 0 -0.00053959581755997721 -0.011956199655137549 0 6.3957095497882074e-05 -0.01194970954277105 0 -0.0011938943062415061 -0.012108633285777661 0 -0.00053959581755997721 -0.011956199655137549 0 -0.00093126214113318758 -0.011809456301138851 0 -0.0012415970841252316 -0.011728848736347674 0 -0.00079467416288610119 -0.011483098428234889 0 -0.00093126214113318758 -0.011809456301138851 0 -0.00079467416288610119 -0.011483098428234889 0 -0.00053959581755997721 -0.011956199655137549 0 -0.00093126214113318758 -0.011809456301138851 0 -0.0012544619129193743 -0.011633880294336084 0 -0.001027399251174929 -0.01166836463728438 0 -0.0011938943062415061 -0.012108633285777661 0 -0.0012415970841252316 -0.011728848736347674 0 -0.00093126214113318758 -0.011809456301138851 0 0.00055470776341296228 -0.011869931031693507 0 6.3957095497882074e-05 -0.01194970954277105 0 0.00033800773548754286 -0.012216976803284329 0 0.00055470776341296228 -0.011869931031693507 0 6.3957095497882074e-05 -0.01194970954277105 0 0.00049354768570617998 -0.011248189329835425 0 -0.00020496723010647645 -0.0115681460497363 0 6.3957095497882074e-05 -0.01194970954277105 0 0.00049354768570617998 -0.011248189329835425 0 -0.00045218365536997209 -0.010931950569235375 0 -0.00020496723010647645 -0.0115681460497363 0 0.00049354768570617998 -0.011248189329835425 0 0.00055470776341296228 -0.011869931031693507 0 0.00049354768570617998 -0.011248189329835425 0 0.00074691542858947577 -0.011607470810637547 0 0.00093154141984547547 -0.011124882465553369 0 0.0012100829924214893 -0.01088222253040144 0 0.00049354768570617998 -0.011248189329835425 0 0.00083723139439520499 -0.011595235586617538 0 0.00074691542858947577 -0.011607470810637547 0 0.00049354768570617998 -0.011248189329835425 0 8.9143961085520355e-05 -0.010138892689928132 0 0.0015831746052357442 -0.0098627258223928059 0 -0.00045218365536997209 -0.010931950569235375 0 0.00049354768570617998 -0.011248189329835425 0 8.9143961085520355e-05 -0.010138892689928132 0 0.00046362067402987649 -0.0089961582415990816 0 8.9143961085520355e-05 -0.010138892689928132 0 0.0015831746052357442 -0.0098627258223928059 0 0.0016570148370586518 -0.010552855220661879 0 0.0012100829924214893 -0.01088222253040144 0 0.00097682276095973231 -0.011866429489232879 0 0.00083723139439520499 -0.011595235586617538 0 0.00093572119243435831 -0.011800120566824735 0 0.00093572119243435831 -0.011800120566824735 0 0.00088744207681624955 -0.011702652601126969 0 0.00098890293582116237 -0.011819135981361979 0 0.00083723139439520499 -0.011595235586617538 0 0.00088744207681624955 -0.011702652601126969 0 0.00074691542858947577 -0.011607470810637547 0 0.00083723139439520499 -0.011595235586617538 0 0.00093572119243435831 -0.011800120566824735 0 0.00088744207681624955 -0.011702652601126969 0 0.00087395110076457104 -0.011997932609987844 0 0.00091588166748567026 -0.01191427203973062 0 0.00086272191051288741 -0.01198480479452908 0 0.00094122913335147474 -0.011949503165705082 0 0.00093572119243435831 -0.011800120566824735 0 0.00091763326178458332 -0.011910876127701239 0 0.00087395110076457104 -0.011997932609987844 0 0.00091763326178458332 -0.011910876127701239 0 0.00091588166748567026 -0.01191427203973062 0 0.00093572119243435831 -0.011800120566824735 0 0.00091763326178458332 -0.011910876127701239 0 0.00091588166748567026 -0.01191427203973062 0 0.00093572119243435831 -0.011800120566824735 0 0.00091588166748567026 -0.01191427203973062 0 0.00098890293582116237 -0.011819135981361979 0 0.00091588166748567026 -0.01191427203973062 0 0.00091445242840703918 -0.011916780021282195 0 0.00098890293582116237 -0.011819135981361979 0 0.00091588166748567026 -0.01191427203973062 0 0.00089126273021219245 -0.011945322128361392 0 0.00086272191051288741 -0.01198480479452908 0 0.00091445242840703918 -0.011916780021282195 0 0.00089126273021219245 -0.011945322128361392 0 0.00089739741073432044 -0.011961185254055191 0 0.00091588166748567026 -0.01191427203973062 0 0.00091445242840703918 -0.011916780021282195 0 0.00089126273021219245 -0.011945322128361392 0 0.00086153903809882903 -0.011981988132378538 0 0.00089126273021219245 -0.011945322128361392 0 0.00089739741073432044 -0.011961185254055191 0 0.00086153903809882903 -0.011981988132378538 0 0.00089126273021219245 -0.011945322128361392 0 0.00086272191051288741 -0.01198480479452908 0 0.0013762361793647647 -0.012326677957408981 0 0.00085367100295539479 -0.012305181668337261 0 0.0010523078188809732 -0.012045821088299215 0 0.00066250044497493494 -0.014024217725943066 0 0.00073606486921689489 -0.013908322605365887 0 0.00089265216883050889 -0.011998599961495647 0 0.0010523078188809732 -0.012045821088299215 0 0.00089739741073432044 -0.011961185254055191 0 0.00091445242840703918 -0.011916780021282195 0 0.00089265216883050889 -0.011998599961495647 0 0.00089739741073432044 -0.011961185254055191 0 0.00098890293582116237 -0.011819135981361979 0 0.0010841895993176259 -0.011917357269249324 0 0.0010308140549076465 -0.011922867198144805 0 0.00066250044497493494 -0.014024217725943066 0 0.00057056613307920217 -0.013589786885765696 0 0.00091445242840703918 -0.011916780021282195 0 0.00089265216883050889 -0.011998599961495647 0 0.00098890293582116237 -0.011819135981361979 0 0.0011982286958604471 -0.011875635441683576 0 0.00098890293582116237 -0.011819135981361979 0 0.0010841895993176259 -0.011917357269249324 0 0.00066250044497493494 -0.014024217725943066 0 0.00082232561864957455 -0.01435758629023786 0 0.0011982286958604471 -0.011875635441683576 0 0.0010841895993176259 -0.011917357269249324 0 0.0011325911162701119 -0.012058809122184507 0 0.0010841895993176259 -0.011917357269249324 0 0.0010308140549076465 -0.011922867198144805 0 0.0011325911162701119 -0.012058809122184507 0 0.00085630454718589567 -0.016686004984514322 0 0.00087714471311549857 -0.016735420021243955 0 0.0008496806158905249 -0.016748696721882748 0 0.00085630454718589567 -0.016686004984514322 0 0.0008496806158905249 -0.016748696721882748 0 0.00080852288664532259 -0.016742216479934787 0 0.00087714471311549857 -0.016735420021243955 0 0.00087773574470035296 -0.016760689998567401 0 0.0008496806158905249 -0.016748696721882748 0 0.00074691542858947577 -0.011607470810637547 0 0.00091366249672334939 -0.011780777703270745 0 0.00084896535905255887 -0.011936537258506043 0 0.00088744207681624955 -0.011702652601126969 0 0.00074691542858947577 -0.011607470810637547 0 0.00091366249672334939 -0.011780777703270745 0 0.00088744207681624955 -0.011702652601126969 0 0.00098890293582116237 -0.011819135981361979 0 0.00091366249672334939 -0.011780777703270745 0 0.00098890293582116237 -0.011819135981361979 0 0.00091366249672334939 -0.011780777703270745 0 0.0010308140549076465 -0.011922867198144805 0 0.0010308140549076465 -0.011922867198144805 0 0.00084896535905255887 -0.011936537258506043 0 0.001054031110900184 -0.01215025595743149 0 0.00091366249672334939 -0.011780777703270745 0 0.0010308140549076465 -0.011922867198144805 0 0.00084896535905255887 -0.011936537258506043 0 0.0010308140549076465 -0.011922867198144805 0 0.001054031110900184 -0.01215025595743149 0 0.0011325911162701119 -0.012058809122184507 0 0.00055470776341296228 -0.011869931031693507 0 0.00084896535905255887 -0.011936537258506043 0 0.00068295367344376097 -0.012130169340513124 0 0.00055470776341296228 -0.011869931031693507 0 0.00074691542858947577 -0.011607470810637547 0 0.00084896535905255887 -0.011936537258506043 0 0.00084896535905255887 -0.011936537258506043 0 0.00068295367344376097 -0.012130169340513124 0 0.001054031110900184 -0.01215025595743149 0 0.00068295367344376097 -0.012130169340513124 0 0.001054031110900184 -0.01215025595743149 0 0.00060260495472144759 -0.012555935383366376 0 0.00091056987642292009 -0.012360508651760051 0 0.00068544683117006565 -0.012580145223066058 0 0.001054031110900184 -0.01215025595743149 0 0.0011861423675070895 -0.012396548439336142 0 0.0011325911162701119 -0.012058809122184507 0 0.00084360677613415694 -0.014691862924560569 0 0.00082232561864957455 -0.01435758629023786 0 0.00075747979353665157 -0.016787118962203432 0 0.00080852288664532259 -0.016742216479934787 0 0.00079979374438236155 -0.016786826117991996 0 0.00075747979353665157 -0.016787118962203432 0 0.00078512404487514559 -0.01681620135682315 0 0.00075111804705250312 -0.016826016790506181 0 0.00075747979353665157 -0.016787118962203432 0 0.00078512404487514559 -0.01681620135682315 0 0.00079979374438236155 -0.016786826117991996 0 0.001054031110900184 -0.01215025595743149 0 0.0011861423675070895 -0.012396548439336142 0 0.0010655957677780598 -0.012482421804019504 0 0.0011861423675070895 -0.012396548439336142 0 0.0010655957677780598 -0.012482421804019504 0 0.001235209204643886 -0.013032560638423858 0 0.00086685764929204077 -0.016781075079703538 0 0.00087773574470035296 -0.016760689998567401 0 0.0008496806158905249 -0.016748696721882748 0 0.00086685764929204077 -0.016781075079703538 0 0.0008300634919980156 -0.016778911830929916 0 0.00085502467124009814 -0.016807185226321634 0 0.00086685764929204077 -0.016781075079703538 0 0.0008496806158905249 -0.016748696721882748 0 0.0008300634919980156 -0.016778911830929916 0 0.0008300634919980156 -0.016778911830929916 0 0.00080852288664532259 -0.016742216479934787 0 0.00079979374438236155 -0.016786826117991996 0 0.0008496806158905249 -0.016748696721882748 0 0.0008300634919980156 -0.016778911830929916 0 0.00080852288664532259 -0.016742216479934787 0 0.00078512404487514559 -0.01681620135682315 0 0.00081850893533923067 -0.016809335125447165 0 0.00081489987849364621 -0.016840236050624811 0 0.00078512404487514559 -0.01681620135682315 0 0.00079979374438236155 -0.016786826117991996 0 0.00081850893533923067 -0.016809335125447165 0 0.0008300634919980156 -0.016778911830929916 0 0.00081850893533923067 -0.016809335125447165 0 0.00085502467124009814 -0.016807185226321634 0 0.0008300634919980156 -0.016778911830929916 0 0.00079979374438236155 -0.016786826117991996 0 0.00081850893533923067 -0.016809335125447165 0 0.00081850893533923067 -0.016809335125447165 0 0.00085502467124009814 -0.016807185226321634 0 0.00084823903677578888 -0.016843806060687798 0 0.00088310728986065506 -0.016830789894534022 0 0.00085502467124009814 -0.016807185226321634 0 0.00084823903677578888 -0.016843806060687798 0 0.00088136276612062355 -0.016802154830995692 0 0.00086685764929204077 -0.016781075079703538 0 0.00085502467124009814 -0.016807185226321634 0 0.00088310728986065506 -0.016830789894534022 0 0.00088136276612062355 -0.016802154830995692 0 0.00085502467124009814 -0.016807185226321634 0 0.00088200217670053116 -0.016881574967070941 0 0.00088310728986065506 -0.016830789894534022 0 0.00084823903677578888 -0.016843806060687798 0 0.00088200217670053116 -0.016881574967070941 0 0.00084823903677578888 -0.016843806060687798 0 0.00083305526128949988 -0.016879458828523788 0 0.00084823903677578888 -0.016843806060687798 0 0.00081489987849364621 -0.016840236050624811 0 0.00083305526128949988 -0.016879458828523788 0 0.00081850893533923067 -0.016809335125447165 0 0.00084823903677578888 -0.016843806060687798 0 0.00081489987849364621 -0.016840236050624811 0 0.00078512404487514559 -0.01681620135682315 0 0.00081489987849364621 -0.016840236050624811 0 0.00079016282262755978 -0.016855857050553858 0 0.00081489987849364621 -0.016840236050624811 0 0.00083305526128949988 -0.016879458828523788 0 0.00079016282262755978 -0.016855857050553858 0 0.00084908256225490054 -0.016955069464314375 0 0.00080685809922868617 -0.016911066301180968 0 0.00083305526128949988 -0.016879458828523788 0 0.00080685809922868617 -0.016911066301180968 0 0.00083305526128949988 -0.016879458828523788 0 0.00079016282262755978 -0.016855857050553858 0 0.0014553547959406724 -0.023170967342830799 0 0.0013218896874342126 -0.024392362202814082 0 0.00088200217670053116 -0.016881574967070941 0 0.00084908256225490054 -0.016955069464314375 0 0.00083305526128949988 -0.016879458828523788 0 0.0018183338199209659 -0.030100074686986594 0 0.0014808396316586564 -0.029282606731181469 0 0.00040304136307855483 -0.03107074981808949 0 0.00084360677613415694 -0.014691862924560569 0 0.00069591992976392094 -0.015175636087258313 0 0.00075747979353665157 -0.016787118962203432 0 0.00069215498672787763 -0.016816594689754327 0 0.00075111804705250312 -0.016826016790506181 0 0.00069215498672787763 -0.016816594689754327 0 0.00075111804705250312 -0.016826016790506181 0 0.00073588108465791281 -0.016860011520876912 0 0.00078512404487514559 -0.01681620135682315 0 0.00075111804705250312 -0.016826016790506181 0 0.00079016282262755978 -0.016855857050553858 0 0.00075111804705250312 -0.016826016790506181 0 0.00079016282262755978 -0.016855857050553858 0 0.00073588108465791281 -0.016860011520876912 0 0.00076119636253555681 -0.016950059212648375 0 0.00080685809922868617 -0.016911066301180968 0 0.00073588108465791281 -0.016860011520876912 0 0.00080685809922868617 -0.016911066301180968 0 0.00079016282262755978 -0.016855857050553858 0 0.00073588108465791281 -0.016860011520876912 0 0.00069215498672787763 -0.016816594689754327 0 0.00073588108465791281 -0.016860011520876912 0 0.00066804097851987131 -0.016829063749031866 0 0.00070537776280611491 -0.016894886940554122 0 0.00076119636253555681 -0.016950059212648375 0 0.00073588108465791281 -0.016860011520876912 0 0.00070537776280611491 -0.016894886940554122 0 0.00073588108465791281 -0.016860011520876912 0 0.00066804097851987131 -0.016829063749031866 0 0.00070537776280611491 -0.016894886940554122 0 0.00063042742481800383 -0.016854625354774267 0 0.00066804097851987131 -0.016829063749031866 0 0.00018327985567059124 -0.016036808289809704 0 0.00069591992976392094 -0.015175636087258313 0 0.00052895818883235063 -0.016724619779540595 0 0.00063042742481800383 -0.016854625354774267 0 0.00066804097851987131 -0.016829063749031866 0 0.00052895818883235063 -0.016724619779540595 0 0.00069215498672787763 -0.016816594689754327 0 0.00066804097851987131 -0.016829063749031866 0 0.00081890804521757136 -0.014589332267688099 0 0.001235209204643886 -0.013032560638423858 0 0.00048566884476409903 -0.013781953970537879 0 0.001235209204643886 -0.013032560638423858 0 0.00048362942271500879 -0.013022316988701533 0 0.00048566884476409903 -0.013781953970537879 0 0.00068544683117006565 -0.012580145223066058 0 9.3950091758522418e-05 -0.013114028941322509 0 0.0010655957677780598 -0.012482421804019504 0 0.001235209204643886 -0.013032560638423858 0 0.00048362942271500879 -0.013022316988701533 0 0.00016889950993898836 -0.012968329458867363 0 -0.0010238994194447029 -0.013695401078420886 0 -0.00062951234658254688 -0.012948187675110688 0 0.00016889950993898836 -0.012968329458867363 0 -0.00062951234658254688 -0.012948187675110688 0 -0.00030245585434806731 -0.012597335717077806 0 0.00016889950993898836 -0.012968329458867363 0 -0.0010238994194447029 -0.013695401078420886 0 -0.0013890066194971421 -0.014185736292500863 0 9.3950091758522418e-05 -0.013114028941322509 0 -0.00048360957572355132 -0.013616138904349975 0 0.00048362942271500879 -0.013022316988701533 0 0.00048566884476409903 -0.013781953970537879 0 -0.00019604762410057404 -0.014267300640048263 0 0.00048362942271500879 -0.013022316988701533 0 -0.00019604762410057404 -0.014267300640048263 0 -0.0013890066194971421 -0.014185736292500863 0 0.00048566884476409903 -0.013781953970537879 0 0.00029315638665478489 -0.014433421151880023 0 -0.00019604762410057404 -0.014267300640048263 0 0.00081890804521757136 -0.014589332267688099 0 0.00048566884476409903 -0.013781953970537879 0 0.00029315638665478489 -0.014433421151880023 0 -0.00011235071009082819 -0.015224776062909255 0 0.00029315638665478489 -0.014433421151880023 0 -0.00019604762410057404 -0.014267300640048263 0 -0.0008700217747009501 -0.01493794111330383 0 -0.00043954827242651765 -0.015015221188960454 0 -0.00019604762410057404 -0.014267300640048263 0 -0.0010238994194447029 -0.013695401078420886 0 -0.0013890066194971421 -0.014185736292500863 0 -0.0034140326783788518 -0.014562710791026487 0 -0.0008700217747009501 -0.01493794111330383 0 -0.00019604762410057404 -0.014267300640048263 0 -0.0013890066194971421 -0.014185736292500863 0 -0.0016636768446063525 -0.015171586263870379 0 -0.0013890066194971421 -0.014185736292500863 0 -0.0034140326783788518 -0.014562710791026487 0 -0.0023392479655062158 -0.0096680110001008002 0 -0.0030742266058696689 -0.0084541779590139657 0 -0.0010238994194447029 -0.013695401078420886 0 -0.0011696642192994481 -0.013023996580952867 0 -0.0010676425156267576 -0.013064321644668482 0 -0.0010238994194447029 -0.013695401078420886 0 -0.0051789436111346499 -0.013446912044365251 0 -0.0034140326783788518 -0.014562710791026487 0 -0.0048880963782929896 -0.015383712735217296 0 -0.0051789436111346499 -0.013446912044365251 0 -0.0034140326783788518 -0.014562710791026487 0 -0.0010676425156267576 -0.013064321644668482 0 -0.0011196478590160958 -0.012726076213711553 0 -0.00080975951764320874 -0.012608287921794886 0 -0.0012071848986686541 -0.012823277318453181 0 -0.0011696642192994481 -0.013023996580952867 0 -0.0010676425156267576 -0.013064321644668482 0 -0.0012071848986686541 -0.012823277318453181 0 -0.0010676425156267576 -0.013064321644668482 0 -0.0011196478590160958 -0.012726076213711553 0 -0.0010238994194447029 -0.013695401078420886 0 -0.0010676425156267576 -0.013064321644668482 0 -0.00062951234658254688 -0.012948187675110688 0 -0.0010676425156267576 -0.013064321644668482 0 -0.00062951234658254688 -0.012948187675110688 0 -0.00080975951764320874 -0.012608287921794886 0 -0.00080975951764320874 -0.012608287921794886 0 -0.0010024912038835104 -0.012365559131254214 0 -0.00052394664068125985 -0.012291043986521885 0 -0.00062951234658254688 -0.012948187675110688 0 -0.00080975951764320874 -0.012608287921794886 0 -0.00030245585434806731 -0.012597335717077806 0 -0.00080975951764320874 -0.012608287921794886 0 -0.00052394664068125985 -0.012291043986521885 0 -0.00030245585434806731 -0.012597335717077806 0 -0.0012485708507175861 -0.012506818545686443 0 -0.0011196478590160958 -0.012726076213711553 0 -0.0010517291410944863 -0.012550097972460929 0 -0.0011196478590160958 -0.012726076213711553 0 -0.00080975951764320874 -0.012608287921794886 0 -0.0010517291410944863 -0.012550097972460929 0 -0.00080975951764320874 -0.012608287921794886 0 -0.0010517291410944863 -0.012550097972460929 0 -0.0010024912038835104 -0.012365559131254214 0 -0.0012485708507175861 -0.012506818545686443 0 -0.0010517291410944863 -0.012550097972460929 0 -0.0010024912038835104 -0.012365559131254214 0 -0.0011668312205475135 -0.012085622548548856 0 -0.00053959581755997721 -0.011956199655137549 0 -0.0010024912038835104 -0.012365559131254214 0 -0.00053959581755997721 -0.011956199655137549 0 -0.0010024912038835104 -0.012365559131254214 0 -0.00052394664068125985 -0.012291043986521885 0 -0.00053959581755997721 -0.011956199655137549 0 6.3957095497882074e-05 -0.01194970954277105 0 -0.00052394664068125985 -0.012291043986521885 0 6.3957095497882074e-05 -0.01194970954277105 0 -6.4566125090084048e-05 -0.0123107726935752 0 0.00033800773548754286 -0.012216976803284329 0 6.3957095497882074e-05 -0.01194970954277105 0 -0.00052394664068125985 -0.012291043986521885 0 -6.4566125090084048e-05 -0.0123107726935752 0 -6.4566125090084048e-05 -0.0123107726935752 0 0.00033800773548754286 -0.012216976803284329 0 0.00016059063470779151 -0.012512609389685637 0 0.00068295367344376097 -0.012130169340513124 0 0.00060260495472144759 -0.012555935383366376 0 0.00033800773548754286 -0.012216976803284329 0 0.00055470776341296228 -0.011869931031693507 0 0.00068295367344376097 -0.012130169340513124 0 0.00033800773548754286 -0.012216976803284329 0 0.00060260495472144759 -0.012555935383366376 0 0.00016889950993898836 -0.012968329458867363 0 0.00016059063470779151 -0.012512609389685637 0 0.00060260495472144759 -0.012555935383366376 0 0.00033800773548754286 -0.012216976803284329 0 0.00016059063470779151 -0.012512609389685637 0 0.00016889950993898836 -0.012968329458867363 0 -0.00030245585434806731 -0.012597335717077806 0 0.00016059063470779151 -0.012512609389685637 0 -6.4566125090084048e-05 -0.0123107726935752 0 -0.00030245585434806731 -0.012597335717077806 0 0.00016059063470779151 -0.012512609389685637 0 -0.00052394664068125985 -0.012291043986521885 0 -6.4566125090084048e-05 -0.0123107726935752 0 -0.00030245585434806731 -0.012597335717077806 0 
</DataArray>
</PointData>
<CellData Scalars="region_id,cross_section_updated," Vectors="" Tensors="stress,">
<DataArray type="Float64" Name="region_id" format="ascii">
5 5 5 5 5 6 5 5 5 5 5 5 5 6 5 5 5 5 6 5 5 6 5 5 5 5 6 5 5 5 5 6 5 5 5 5 5 5 5 5 5 5 5 5 5 6 5 5 6 5 5 5 5 5 6 5 5 5 5 5 5 5 6 5 5 5 5 6 5 5 5 5 5 5 5 5 5 6 5 5 6 5 5 6 5 5 5 5 6 5 5 5 5 5 5 5 6 6 6 5 5 6 5 5 5 5 5 6 5 5 5 5 5 5 5 5 5 5 5 5 5 6 5 5 5 6 5 5 5 5 5 5 6 5 5 5 5 5 5 5 5 5 5 5 5 5 5 5 5 5 5 5 5 5 5 5 5 5 6 5 5 5 6 5 5 6 5 5 5 5 5 5 5 5 5 5 5 6 5 5 5 5 5 5 5 5 6 5 5 5 5 5 5 5 5 6 5 5 5 5 5 5 5 5 5 6 5 5 5 5 5 5 5 5 5 5 5 5 5 5 5 5 5 5 5 5 5 5 5 6 5 5 5 6 5 6 5 6 5 5 6 5 5 5 6 5 6 5 6 5 6 6 5 6 5 5 6 5 6 5 5 5 6 5 6 6 5 5 6 5 5 5 6 5 6 6 6 5 6 5 5 5 6 5 6 6 6 5 5 6 6 5 5 5 5 6 5 6 5 5 6 5 5 5 6 5 6 6 6 5 5 5 6 5 6 6 6 6 5 5 5 6 6 5 5 6 6 6 5 6 5 5 5 5 6 5 5 5 5 5 5 5 6 5 5 5 5 5 5 6 6 5 5 5 6 5 5 5 6 5 6 5 6 6 5 5 5 5 6 5 5 6 5 5 5 5 6 5 6 5 5 5 5 5 6 6 5 5 5 5 5 5 5 5 6 5 5 5 6 5 5 6 5 6 5 5 5 5 5 5 5 5 5 5 5 6 5 6 5 6 5 5 5 6 5 6 5 6 5 5 5 5 5 5 6 5 6 5 5 5 6 5 5 5 6 5 6 6 5 5 5 5 6 5 5 5 5 6 6 5 5 6 5 6 5 6 6 5 5 5 6 5 5 5 5 6 5 5 5 5 5 5 5 5 5 5 5 6 5 5 5 5 6 5 5 5 6 5 6 6 6 5 5 5 6 6 5 6 5 5 6 5 5 5 5 6 5 5 5 5 5 5 5 5 5 5 5 6 6 5 5 6 5 5 5 6 5 5 5 5 5 5 6 5 5 5 6 5 5 5 6 5 5 5 5 5 5 5 5 5 5 5 6 5 5 5 6 5 5 5 5 5 5 5 6 5 5 5 5 5 6 5 5 5 5 5 5 5 5 5 5 5 5 5 5 5 5 5 5 5 6 5 5 5 5 6 5 5 6 5 5 5 5 5 5 5 6 5 5 5 5 5 5 5 5 6 5 6 5 5 6 5 5 5 6 5 5 6 5 5 5 6 5 6 5 5 6 5 6 5 5 5 5 5 5 5 5 5 5 5 5 5 5 5 5 5 5 5 5 5 5 6 5 6 5 6 5 5 5 5 5 5 5 5 5 5 5 5 5 5 5 6 5 5 5 5 5 5 5 5 5 6 5 5 5 5 5 5 5 5 5 5 5 5 5 5 5 5 5 5 5 5 5 5 5 5 5 5 5 5 5 6 5 5 6 5 5 5 6 6 5 6 5 5 5 5 5 6 5 5 5 5 5 6 5 5 5 5 5 5 5 5 5 5 5 5 5 5 5 5 5 5 5 5 5 5 5 5 5 5 5 5 5 5 5 5 5 5 5 5 5 5 5 5 5 5 5 5 5 5 5 5 5 6 5 5 5 5 5 5 5 5 5 5 5 5 5 5 5 6 5 5 5 5 6 5 5 5 5 5 5 5 5 5 5 5 5 5 5 5 5 5 5 5 5 5 5 5 5 5 5 5 6 5 5 6 5 6 6 6 6 5 5 6 5 5 5 5 5 5 5 5 5 5 5 5 5 5 5 5 5 6 5 5 6 5 6 5 5 5 5 6 5 6 5 5 5 5 6 5 5 5 6 5 5 5 5 5 6 5 6 5 5 6 6 5 6 5 5 5 5 5 5 5 5 5 5 5 6 5 5 5 6 5 5 5 6 5 5 6 6 6 5 5 5 5 5 5 5 5 5 5 5 6 5 5 5 5 5 5 5 5 6 6 6 5 5 5 5 5 5 5 5 6 6 5 5 5 6 5 5 6 5 5 5 5 5 5 5 5 5 5 5 6 5 5 5 5 5 5 5 5 6 5 5 5 5 5 5 5 5 5 5 6 5 6 6 6 5 5 5 5 5 5 5 6 6 5 6 5 5 5 5 5 6 5 6 6 5 5 5 6 5 6 5 5 5 5 6 5 5 5 5 5 5 5 5 5 5 5 5 5 5 5 5 5 6 5 5 5 6 5 5 5 5 5 6 5 5 5 5 5 5 6 5 6 5 5 5 5 5 5 5 5 6 5 5 5 6 5 5 5 5 5 5 5 5 5 5 5 5 5 5 5 5 5 5 5 5 5 5 5 5 5 6 6 6 5 5 5 5 6 5 5 5 5 6 5 5 5 5 5 5 5 6 5 5 5 5 5 5 5 5 6 5 5 5 5 5 5 5 5 5 5 5 5 6 5 5 5 5 5 5 6 5 5 5 5 5 5 5 5 6 5 5 5 6 5 5 5 5 5 5 5 5 5 5 5 5 6 5 5 5 5 5 5 5 5 5 5 5 5 5 5 5 5 5 5 5 5 5 5 5 5 5 5 5 5 5 5 5 5 5 5 5 5 5 5 5 5 5 5 5 5 5 5 5 6 5 5 5 5 5 5 5 5 5 5 5 5 5 5 5 5 5 5 5 5 5 5 5 5 6 5 5 5 5 5 5 5 5 5 5 6 5 5 6 5 5 5 5 5 5 5 5 5 6 5 6 5 5 5 5 6 5 5 6 5 6 5 5 5 5 5 6 5 5 5 5 5 5 5 5 6 5 5 5 5 5 5 5 5 5 5 5 5 5 5 6 5 6 6 5 5 5 5 5 6 5 5 5 5 5 5 5 5 5 5 5 5 5 5 5 6 5 5 5 5 5 5 5 5 5 5 5 5 5 5 5 5 6 5 5 5 5 5 6 6 5 5 6 5 5 5 5 5 5 5 5 5 5 6 5 5 5 5 5 5 5 5 5 6 5 6 5 5 5 5 5 6 5 5 5 5 6 5 5 5 6 5 5 5 6 5 5 6 5 5 5 5 5 5 5 5 5 5 5 5 5 5 5 5 6 5 5 5 5 5 5 5 6 5 5 5 5 5 5 5 5 5 5 5 5 5 5 5 5 5 5 5 5 5 5 5 5 5 5 5 6 5 5 5 5 6 5 5 5 6 5 5 5 5 5 5 5 5 5 6 5 6 5 5 5 5 5 5 5 5 5 5 5 5 5 5 5 5 5 5 6 6 5 5 5 6 5 5 6 5 5 6 5 5 5 6 5 5 6 5 5 5 5 5 5 5 5 5 5 5 5 5 5 5 5 5 5 5 5 6 5 6 5 5 5 5 5 5 5 5 5 5 5 6 5 6 5 5 5 6 5 5 5 5 5 6 5 5 5 5 5 5 6 5 5 5 5 5 5 5 5 5 5 5 6 5 5 5 5 5 5 5 5 6 5 5 5 6 5 5 6 5 5 5 5 5 6 5 5 5 5 5 5 5 5 5 6 5 5 6 5 6 5 6 6 6 5 6 5 5 5 5 5 5 6 5 5 5 5 5 5 6 5 5 5 5 5 5 5 6 5 5 5 5 6 5 5 5 5 5 6 5 6 5 5 5 5 5 5 5 5 5 5 6 5 5 5 5 5 5 5 6 5 5 5 5 5 5 5 6 5 6 5 5 5 5 5 5 5 5 6 5 5 5 6 6 5 5 5 5 5 6 6 5 6 5 5 6 5 5 6 5 5 5 5 5 5 5 5 6 5 5 5 5 5 6 5 5 5 5 6 5 5 6 5 5 5 5 5 5 5 5 5 5 5 5 5 5 5 5 5 5 5 5 5 5 5 5 5 5 5 5 5 5 5 5 5 5 5 5 5 5 5 5 5 6 5 5 6 5 5 5 5 5 6 5 5 5 5 6 5 5 5 5 5 5 5 5 5 5 5 5 5 5 5 5 5 5 5 5 5 5 5 5 6 5 5 5 6 5 5 5 5 5 5 6 5 5 5 5 5 5 5 5 5 5 5 6 5 6 6 5 5 6 5 5 5 5 5 5 5 5 5 5 5 6 5 5 6 5 5 5 5 5 5 5 5 5 5 5 5 5 5 5 6 5 5 5 5 5 5 5 6 5 6 5 5 5 5 6 5 6 5 5 5 5 5 5 5 5 5 6 5 5 5 5 5 5 5 5 5 5 5 5 5 5 5 5 5 6 5 5 5 5 5 5 5 5 5 5 5 5 5 5 5 5 5 5 5 5 5 5 5 5 5 6 6 5 5 5 5 5 5 5 5 5 5 5 6 5 5 5 5 6 5 5 5 5 6 5 5 5 5 5 5 5 5 6 5 5 5 5 5 5 5 5 5 6 5 5 5 5 5 5 5 5 5 5 5 5 5 5 5 5 5 5 5 5 6 5 5 5 5 5 5 5 5 5 5 5 5 5 5 6 5 6 5 5 5 5 5 5 5 5 6 5 5 6 5 5 5 5 5 5 5 5 5 5 5 5 5 5 5 5 5 5 5 5 5 5 5 5 5 5 5 5 5 5 5 5 5 5 5 5 6 5 5 6 5 5 5 5 6 5 6 5 5 6 5 6 5 5 5 5 5 6 5 5 5 5 5 5 5 5 5 5 5 5 6 5 5 5 6 5 5 5 5 5 5 5 5 5 6 5 5 5 5 6 6 5 5 5 5 5 5 5 5 6 5 5 5 5 5 6 5 5 5 6 5 5 5 6 5 5 5 5 6 5 5 5 5 5 5 5 5 5 5 5 5 5 5 6 5 5 5 5 5 5 6 5 6 6 5 6 5 6 5 5 5 5 6 5 5 5 5 6 5 5 5 5 5 5 5 5 5 6 5 5 5 5 5 5 5 5 5 5 5 5 5 5 6 5 5 5 6 5 5 5 6 5 6 5 5 5 5 5 5 5 5 5 5 5 5 5 5 5 5 6 5 5 5 5 5 5 6 5 5 5 5 5 5 5 5 5 5 5 5 5 5 5 5 5 5 6 5 5 5 5 5 5 5 5 5 5 5 5 5 5 5 5 5 5 5 5 5 5 5 5 5 5 5 5 5 5 5 5 5 5 6 5 5 5 5 6 5 5 5 5 5 5 5 6 5 5 5 5 5 5 5 5 5 6 5 5 6 5 5 5 5 5 6 5 5 5 6 5 5 6 5 5 5 5 5 5 5 5 5 5 5 5 5 5 5 5 5 5 5 5 6 5 5 5 5 5 5 5 5 5 5 6 6 5 6 5 5 5 5 5 6 5 5 5 5 6 5 5 5 5 5 6 5 6 5 5 6 5 5 5 5 5 5 5 5 6 5 5 5 5 5 5 6 5 5 5 5 5 5 6 5 5 5 5 6 5 5 6 5 6 5 5 6 5 5 5 5 5 5 6 5 5 5 5 6 5 5 5 5 5 5 5 5 6 6 5 5 5 5 5 5 5 5 6 5 5 5 5 5 5 6 5 5 5 5 5 5 5 6 5 5 5 6 5 5 5 5 5 5 5 5 5 5 5 5 6 5 5 5 5 6 5 5 6 5 5 5 5 6 5 5 5 6 6 5 5 5 6 5 5 5 6 5 5 5 5 5 5 5 5 5 6 5 5 5 6 5 5 5 5 5 5 5 5 5 5 5 5 6 5 6 5 5 6 5 5 6 5 5 5 5 5 5 5 6 5 5 5 5 5 6 5 6 5 5 5 6 6 5 6 6 5 6 5 5 5 5 5 5 6 5 6 5 5 5 5 5 5 5 5 5 5 5 5 5 6 5 5 6 5 6 5 5 6 5 5 5 6 6 5 5 6 5 5 5 5 5 5 5 5 5 5 5 5 5 5 5 5 5 5 5 5 5 5 5 6 6 5 6 5 6 5 5 6 6 5 5 6 5 5 6 5 5 6 5 6 5 5 5 5 6 5 5 5 5 6 5 6 6 5 6 5 5 6 6 5 5 5 6 5 5 5 5 6 6 5 5 5 5 5 6 5 5 5 5 5 5 5 5 5 5 5 6 5 6 5 6 5 5 6 5 6 5 5 5 5 5 5 5 5 6 5 5 6 5 5 5 5 6 5 5 5 5 5 5 5 5 5 5 5 5 6 5 5 5 5 5 5 5 5 5 5 5 6 5 5 5 5 5 5 6 5 6 5 5 6 5 5 5 5 5 5 5 5 5 5 5 5 5 5 5 5 5 6 6 5 5 5 6 5 5 6 5 5 5 5 5 5 5 5 5 5 5 5 5 5 5 5 5 5 5 5 5 5 5 5 5 6 6 5 5 5 5 5 5 5 5 5 5 5 6 5 5 5 5 5 5 5 5 5 5 5 5 5 5 5 5 5 5 5 5 5 5 5 5 5 5 5 5 5 5 5 5 5 6 5 5 5 5 5 6 5 5 6 5 5 6 6 5 5 5 5 5 5 5 5 5 5 5 5 5 6 5 5 6 5 5 5 5 5 5 6 5 5 6 5 5 5 5 5 5 5 5 5 5 5 5 5 6 5 5 5 5 5 5 5 6 5 5 5 5 5 5 5 5 5 5 5 5 6 5 5 6 5 5 5 5 5 5 5 5 5 5 5 5 5 5 5 5 5 5 5 5 6 5 5 6 5 6 5 5 5 6 5 5 6 5 6 5 5 5 6 5 5 5 5 6 5 5 5 5 5 5 5 6 5 5 5 6 5 5 5 5 5 5 5 5 5 5 5 5 6 5 5 5 5 5 5 5 5 6 5 5 5 5 5 5 5 5 5 5 5 6 5 5 5 5 5 5 5 5 5 5 5 5 5 5 5 5 5 5 5 6 6 5 5 5 6 5 5 5 5 5 5 5 5 5 5 5 5 6 5 5 5 5 5 5 5 5 5 6 5 5 5 5 5 5 5 5 5 5 5 5 5 5 5 5 6 5 6 5 5 5 5 5 6 5 5 5 5 6 5 5 5 6 5 5 5 6 5 5 5 5 5 5 5 5 5 6 5 5 5 6 5 5 6 5 5 5 5 5 5 6 5 5 5 5 5 5 5 5 6 5 5 5 6 5 5 5 5 5 5 5 5 5 5 5 5 5 5 5 5 5 5 5 5 5 5 5 5 5 5 5 6 5 5 5 5 5 5 5 6 5 5 5 5 5 5 5 5 5 5 5 5 5 5 5 5 5 5 5 5 5 5 5 5 5 6 5 6 5 5 5 5 5 5 6 5 5 5 6 5 5 6 5 5 5 5 5 5 5 5 5 5 5 5 6 5 5 5 5 5 6 5 5 5 5 5 5 5 5 5 5 5 5 5 6 5 5 5 6 5 5 5 5 5 5 5 5 5 5 5 5 6 6 5 5 5 5 6 5 5 5 5 5 5 5 5 5 6 6 5 5 5 5 5 6 5 5 5 5 5 6 5 5 5 5 5 6 5 6 5 5 5 5 6 5 6 5 6 6 5 5 5 5 5 5 5 6 6 5 5 5 5 5 5 6 6 6 5 6 6 5 5 5 6 5 5 5 5 5 6 6 6 5 6 5 5 5 6 5 6 6 5 5 5 5 5 5 5 6 6 5 5 6 6 6 5 5 5 5 5 5 5 5 5 5 5 5 5 5 5 5 5 5 5 5 5 5 5 5 5 5 5 5 5 5 5 5 5 5 5 5 5 5 5 5 6 5 5 5 5 5 5 5 5 5 5 6 5 5 5 5 5 5 6 5 5 6 5 5 5 5 5 5 5 5 5 5 5 5 5 6 5 6 5 5 5 5 6 5 5 5 6 5 5 6 5 5 5 6 5 5 6 5 5 5 5 5 6 5 5 5 5 5 5 5 6 5 5 5 5 5 5 5 6 5 5 6 5 5 5 5 6 5 6 5 5 5 5 5 6 5 5 5 5 6 5 5 5 5 5 5 6 6 5 5 5 5 5 6 5 5 6 5 5 5 5 5 5 5 5 5 5 6 5 5 5 5 5 5 5 5 5 5 5 5 5 5 5 5 5 5 6 5 5 5 5 5 5 6 5 5 5 5 5 5 5 6 6 5 5 5 5 6 5 5 5 5 5 5 5 6 5 5 6 5 6 6 6 5 5 5 5 5 5 6 5 5 5 5 5 6 5 5 5 5 6 5 5 5 6 5 5 5 6 5 5 5 5 5 5 5 5 5 5 5 5 5 5 5 5 5 5 5 5 5 5 5 5 5 6 5 5 5 5 5 5 5 6 5 6 5 5 5 5 5 5 6 5 5 6 5 5 5 6 5 5 6 5 5 5 5 5 6 5 5 5 6 6 5 5 5 5 5 5 5 5 5 5 5 5 6 5 5 5 5 5 5 5 5 5 6 5 5 5 5 5 6 6 5 5 5 5 5 5 5 5 5 6 5 5 5 5 5 5 5 5 6 5 5 5 5 5 5 5 5 5 5 5 5 5 5 5 5 5 5 6 5 5 5 5 6 5 6 5 6 5 5 5 5 5 5 5 5 5 5 5 5 5 5 5 5 5 6 5 5 5 5 5 6 5 5 5 6 6 5 5 5 5 5 6 5 5 5 5 6 5 5 5 5 5 5 5 5 6 5 5 5 5 5 5 5 6 5 5 5 5 5 5 5 5 5 6 5 5 5 5 5 5 5 5 5 5 5 5 5 5 5 5 5 5 6 5 5 5 5 5 5 5 5 5 5 5 5 5 6 5 5 5 5 5 5 6 5 5 6 5 5 6 5 5 5 5 5 5 5 5 5 5 5 5 5 5 5 5 5 5 5 5 5 5 5 5 5 5 6 5 6 5 6 6 5 5 5 6 5 5 5 5 5 5 5 5 5 6 6 5 6 5 5 5 5 5 5 5 5 5 5 5 5 5 5 6 5 6 6 5 6 5 5 5 5 5 5 5 5 5 6 6 5 5 5 5 5 5 5 5 5 5 5 5 5 5 5 5 5 5 5 5 5 5 6 5 5 5 5 5 6 5 5 5 5 5 6 5 5 5 6 5 5 5 5 5 5 5 5 5 6 5 5 5 5 6 5 5 5 5 5 5 6 5 5 5 5 5 5 5 6 5 5 5 5 6 5 5 5 5 5 5 5 5 5 5 6 5 5 5 5 6 5 5 5 6 5 5 5 5 5 6 5 5 5 5 5 5 5 5 5 5 5 5 5 5 6 6 5 5 6 5 5 5 5 5 5 5 6 5 5 5 5 5 5 6 5 5 5 5 5 5 5 5 5 5 5 5 5 5 5 5 5 5 5 5 5 5 5 6 5 5 5 5 5 5 5 5 6 5 5 5 5 6 5 5 5 5 5 6 5 6 5 6 5 5 5 5 5 5 5 6 5 5 5 6 5 5 5 5 5 6 5 5 5 5 5 6 5 6 5 5 6 5 6 5 5 5 5 5 6 5 5 5 6 5 5 5 5 5 5 5 5 5 5 6 5 5 5 5 5 5 5 5 5 5 5 5 5 5 5 5 5 5 5 5 5 5 6 5 5 5 5 5 5 5 5 5 5 5 5 5 5 5 5 5 5 6 5 5 5 6 5 5 5 5 5 5 6 5 5 5 6 6 5 6 5 6 6 5 6 5 5 6 5 5 6 6 5 5 5 5 5 5 5 5 6 5 6 5 5 5 5 5 5 5 5 5 5 5 5 5 5 5 5 5 5 5 5 5 5 6 5 5 5 5 5 5 5 5 6 5 5 6 5 5 6 6 5 5 6 5 5 5 5 5 5 5 5 5 5 5 5 5 5 5 5 5 5 5 5 5 5 5 5 5 5 5 5 5 5 5 5 5 5 5 5 5 5 5 6 5 6 5 5 5 5 5 5 5 5 5 5 5 5 5 5 5 5 5 5 5 5 5 5 5 5 5 5 5 5 5 5 5 5 5 5 5 5 5 5 5 5 6 5 5 6 5 5 5 5 5 6 5 6 5 5 6 5 5 5 5 5 5 6 5 5 5 5 5 5 5 5 5 5 5 6 5 5 6 6 5 6 5 5 6 5 5 5 5 6 5 5 5 5 5 5 5 5 5 6 5 6 5 5 5 5 5 5 5 6 5 6 5 5 5 5 5 5 5 5 5 6 5 6 5 5 5 5 5 5 5 5 5 5 6 5 5 5 6 5 5 6 5 5 6 5 5 5 5 6 5 5 5 6 5 5 5 5 5 5 5 5 5 5 5 5 5 5 6 5 5 5 5 5 5 6 5 6 5 6 5 5 5 6 5 5 5 5 5 5 5 5 6 5 5 5 5 5 6 5 5 6 5 5 5 5 5 5 5 5 5 6 5 5 5 6 5 5 5 5 5 5 6 5 5 5 5 5 5 5 5 5 5 5 5 5 5 5 5 5 5 5 5 5 5 5 5 5 5 5 5 5 5 5 6 5 5 5 5 5 6 5 5 6 6 5 5 5 5 6 5 5 5 5 5 6 5 5 5 5 5 5 5 5 5 5 5 5 5 5 5 5 6 5 5 5 5 5 5 5 5 6 6 5 5 5 5 5 5 6 5 5 5 5 6 5 5 5 5 5 5 5 5 5 5 5 5 5 5 5 5 5 5 5 5 5 5 5 5 6 5 5 6 5 5 5 5 5 5 5 5 5 5 5 5 5 5 5 5 5 5 5 5 5 5 5 5 5 5 5 6 5 6 5 5 5 5 5 6 5 5 5 5 5 5 5 5 5 5 5 5 5 5 5 5 5 5 5 5 6 6 5 6 5 5 5 5 5 5 5 5 5 5 5 5 5 5 5 5 6 5 5 5 6 5 5 5 5 5 5 5 5 5 5 5 5 5 6 5 5 5 5 5 5 5 5 5 5 5 5 5 5 5 5 5 5 5 5 5 5 6 5 5 5 5 5 5 5 5 5 5 5 5 5 6 5 6 5 5 6 6 5 5 5 5 5 5 5 5 5 5 5 5 5 5 5 5 5 5 5 5 6 5 5 6 5 5 5 6 5 5 5 5 5 5 6 5 5 5 6 5 5 5 5 5 5 5 5 6 5 5 6 5 5 6 5 6 5 5 5 5 6 6 5 5 6 6 5 5 6 5 5 5 5 6 5 5 6 6 5 6 5 5 5 5 5 5 5 5 5 5 5 5 5 5 5 5 5 5 5 5 6 5 5 5 5 6 5 5 5 5 6 6 5 5 5 5 5 5 5 5 5 5 5 5 6 5 5 5 6 5 5 5 5 5 5 5 6 5 5 5 6 5 5 6 6 5 5 5 6 5 5 5 6 5 5 5 5 5 5 5 5 5 5 5 5 5 5 5 5 5 5 6 5 5 5 5 5 5 5 5 5 5 5 5 5 5 5 5 5 5 6 6 5 5 5 5 5 6 6 5 6 5 5 5 5 5 5 5 5 5 6 5 5 5 6 5 5 5 5 5 5 5 5 5 5 5 5 5 5 6 5 5 5 5 5 5 5 6 5 5 6 5 5 5 5 5 5 6 5 5 5 5 6 5 5 5 5 5 5 6 5 5 5 5 5 5 5 5 6 6 5 5 5 6 6 5 5 5 5 5 6 5 5 5 5 5 5 6 5 5 5 5 6 5 5 5 5 5 6 5 5 5 5 6 5 5 5 5 5 5 5 5 5 5 5 5 5 5 5 5 5 5 5 5 5 5 5 5 5 6 5 5 5 5 6 5 6 5 6 5 5 6 5 5 6 5 5 6 5 5 5 5 5 5 6 5 5 6 5 6 6 6 5 5 6 5 6 6 5 5 5 6 5 6 5 5 5 5 5 5 6 5 5 5 6 5 5 5 5 5 5 5 6 5 5 5 6 5 6 6 5 5 5 5 5 5 5 6 5 5 5 5 5 5 5 5 6 6 5 5 5 5 6 5 5 6 5 5 5 6 5 5 5 6 6 5 5 5 5 6 5 5 5 5 5 6 6 5 5 5 5 5 5 5 5 5 5 5 5 5 5 5 5 5 5 5 5 5 5 5 5 5 5 5 5 5 5 5 6 5 5 5 6 5 5 5 5 5 5 5 5 5 5 5 5 5 5 5 6 5 6 6 5 5 6 5 5 5 5 5 5 5 5 5 5 5 5 5 5 5 5 5 5 5 5 5 5 5 6 5 5 6 6 5 5 5 5 5 5 5 6 5 5 5 6 5 5 5 5 6 6 5 5 5 5 5 5 5 6 5 5 5 5 6 5 5 5 5 6 5 5 5 5 5 5 5 5 5 5 5 5 5 5 5 5 5 5 5 6 5 5 5 5 5 5 5 5 5 5 5 5 5 5 5 5 6 5 5 5 6 5 5 5 5 5 5 5 5 5 6 5 5 5 5 5 5 5 5 5 5 5 5 5 5 5 5 5 5 5 5 5 6 5 5 5 5 5 5 5 5 5 5 5 5 5 5 5 5 5 6 5 5 5 5 5 6 5 5 5 5 5 5 5 5 5 5 5 5 5 5 5 5 5 5 5 5 5 5 5 5 5 5 5 6 5 5 6 5 5 5 6 5 5 5 5 5 5 5 5 5 5 5 5 5 5 5 6 5 6 5 5 5 5 5 5 5 5 5 6 5 5 5 5 5 5 5 5 5 6 6 5 5 5 5 5 5 5 5 5 5 5 5 5 5 5 5 5 5 5 5 5 5 5 5 5 5 5 5 5 5 5 5 5 5 5 5 5 5 5 5 5 5 5 5 5 5 5 5 5 5 5 5 5 5 5 5 5 5 5 5 5 5 5 5 5 5 5 5 5 5 5 6 5 5 5 5 5 5 6 5 5 5 5 5 5 5 5 5 6 5 6 5 5 5 5 5 5 5 5 5 5 5 5 5 5 5 5 5 5 5 5 5 5 5 5 5 5 5 5 5 5 5 5 5 5 6 5 5 5 6 6 5 5 5 5 5 5 5 5 5 5 5 5 5 5 5 5 5 5 5 5 5 5 6 6 5 5 5 5 5 5 5 5 6 5 5 5 5 5 5 6 5 5 5 5 5 6 5 5 5 5 6 5 5 5 6 5 5 5 6 5 5 6 5 5 5 5 5 5 5 5 5 5 5 5 5 6 5 5 5 5 5 5 5 5 6 5 5 5 5 5 5 5 5 5 5 5 6 5 5 5 6 5 5 5 5 6 5 5 5 5 5 5 5 5 6 5 6 5 5 6 5 5 5 5 5 6 5 5 5 5 5 5 5 5 5 5 5 5 6 5 5 5 5 5 5 5 5 5 6 5 5 5 5 5 5 6 5 5 5 5 5 5 5 6 5 5 5 5 5 6 5 5 5 5 5 5 5 5 5 5 5 5 5 5 5 5 5 5 5 5 5 5 5 5 5 5 5 5 5 5 5 5 5 5 5 5 5 5 5 5 5 5 5 5 5 5 5 6 5 6 5 5 5 5 5 5 5 5 5 5 5 5 5 5 6 5 5 5 5 5 5 5 5 5 5 5 5 5 5 5 6 5 5 6 5 6 5 5 5 5 5 6 5 5 5 5 5 5 5 5 5 5 5 5 5 5 5 5 5 5 5 5 6 5 5 5 5 5 5 5 5 5 5 5 6 5 6 5 5 6 5 6 5 5 5 5 5 5 5 6 5 6 5 5 5 5 6 5 5 5 5 6 6 5 5 6 5 5 5 5 5 5 5 5 5 5 5 5 5 5 5 5 6 5 5 5 5 5 5 5 5 5 5 5 5 5 5 6 5 6 5 5 5 5 5 5 5 6 5 6 5 5 5 5 5 5 5 5 5 6 6 5 5 5 6 5 5 5 5 6 5 6 5 5 6 5 6 6 6 5 5 6 5 5 5 6 6 6 5 5 5 5 5 5 5 5 5 5 5 6 5 5 5 5 5 5 6 5 5 5 6 5 5 5 5 5 5 5 5 6 5 5 5 6 5 5 5 5 5 5 5 5 5 5 5 5 5 5 5 5 5 5 5 5 5 5 5 5 5 5 5 5 5 5 5 5 5 5 5 5 5 5 5 5 5 5 5 5 5 5 5 5 5 5 5 5 5 5 5 5 5 5 5 5 6 5 5 5 5 5 6 5 5 5 5 6 5 5 5 6 5 5 5 5 5 5 5 5 5 5 5 5 5 5 5 5 5 5 5 5 5 5 5 5 5 5 5 5 5 5 5 5 5 5 5 5 5 5 5 5 6 5 5 6 5 5 5 5 5 5 5 6 5 5 5 5 5 5 5 5 5 5 5 6 5 5 6 5 6 5 5 5 6 5 5 5 5 5 5 5 5 6 5 5 5 5 6 5 5 5 5 6 5 6 5 5 5 5 5 5 5 5 5 5 5 5 6 5 6 5 5 5 5 5 5 5 5 5 5 5 5 5 6 5 5 5 5 5 5 5 5 5 6 5 5 5 6 5 5 5 5 5 5 5 5 5 5 5 5 5 5 5 5 5 5 5 5 5 5 5 5 5 5 5 5 5 5 5 5 5 5 5 6 5 5 6 5 5 5 5 6 5 5 5 5 5 5 5 5 5 5 5 5 5 5 5 6 5 5 5 5 5 5 5 5 5 6 5 6 5 5 5 5 5 5 5 6 5 5 5 5 5 5 5 5 5 5 5 5 5 5 6 5 5 5 5 5 5 5 5 5 5 5 6 5 5 5 5 5 5 5 5 5 5 5 5 5 5 5 5 5 5 5 5 5 5 5 6 5 6 5 5 5 5 5 5 6 5 6 5 5 5 6 5 5 5 6 5 5 5 6 5 5 6 5 5 5 5 5 5 5 6 5 5 5 5 5 5 5 6 5 5 5 5 5 5 5 5 5 5 5 5 5 6 5 5 5 5 5 5 5 5 6 5 5 5 5 5 5 5 5 5 5 5 5 5 5 5 5 5 5 5 5 6 5 5 5 5 5 5 5 5 5 5 5 5 5 5 5 5 5 5 5 5 5 5 5 5 5 5 5 5 5 5 5 5 5 5 5 5 5 5 5 5 5 5 5 5 5 5 5 5 5 5 6 5 6 5 5 5 6 5 5 6 6 5 6 5 5 5 5 5 5 5 5 5 5 5 5 5 5 5 5 5 5 5 5 5 5 5 5 5 5 5 5 5 5 5 5 5 5 5 6 5 5 5 5 6 5 5 6 5 5 5 6 5 5 5 5 6 5 6 6 5 5 5 5 6 5 5 5 6 5 5 5 6 5 5 5 5 5 5 6 5 5 5 5 5 5 5 5 5 5 5 5 5 5 5 5 5 5 5 5 6 5 5 5 5 5 5 5 5 5 5 5 5 5 5 5 5 5 5 6 5 5 6 5 5 6 5 5 5 5 5 5 5 5 5 5 5 6 5 5 5 5 6 5 5 5 5 6 5 5 5 6 5 5 5 5 5 5 5 5 5 5 5 5 5 5 5 5 5 5 5 5 5 5 5 5 5 6 5 5 5 5 5 5 5 5 6 5 5 5 6 5 5 5 5 5 5 5 5 5 5 5 5 5 5 5 5 5 5 5 5 5 5 5 5 6 5 5 5 6 5 5 5 5 5 5 5 5 6 5 5 6 5 5 5 5 6 5 5 5 5 5 5 5 6 5 6 5 5 6 5 5 6 6 5 5 5 5 5 5 5 5 5 5 5 5 5 5 5 5 5 5 5 5 5 6 5 5 5 5 6 5 5 5 5 5 5 5 5 5 5 5 5 5 6 5 5 6 5 5 5 5 5 5 5 5 5 5 5 5 5 5 5 5 5 5 5 5 5 5 5 5 5 5 5 5 5 5 5 5 5 5 5 5 5 5 5 5 5 5 5 5 5 5 5 5 5 5 5 5 5 5 5 5 5 5 5 5 5 5 5 5 5 5 5 5 5 5 5 5 5 5 5 5 5 5 5 5 5 5 5 5 5 5 5 5 5 5 5 5 5 5 5 5 5 5 5 5 5 5 5 5 5 5 5 5 5 5 5 5 5 5 5 5 5 5 5 5 5 5 5 5 5 5 5 5 6 5 5 5 5 5 5 5 6 5 5 5 5 5 5 5 5 5 6 5 6 5 5 5 6 5 5 6 5 5 5 5 5 5 5 5 5 5 5 5 5 5 5 5 5 5 5 5 5 5 5 5 5 5 5 5 5 5 5 5 5 5 5 5 5 6 5 5 6 6 5 5 6 5 5 6 5 5 5 6 5 5 5 5 5 5 5 5 5 6 5 5 5 5 5 5 6 5 5 5 5 5 5 5 5 5 5 5 5 5 5 5 5 5 5 5 5 5 5 5 5 5 5 5 5 5 5 5 6 5 5 5 5 5 5 5 5 5 5 5 5 5 5 5 5 5 5 5 5 5 5 5 5 5 5 5 5 5 5 5 5 5 5 5 5 5 5 5 5 5 5 5 5 5 5 6 5 6 5 5 5 5 6 5 5 5 5 6 5 5 5 5 6 5 5 5 5 5 5 5 5 6 5 5 6 5 6 5 5 5 5 6 5 5 6 6 5 5 5 5 5 5 6 5 5 5 5 5 5 5 5 5 5 6 6 5 5 5 5 5 6 5 5 6 5 5 5 5 6 5 5 6 5 5 5 5 5 5 5 5 5 5 5 5 5 5 5 5 5 5 5 5 5 5 5 5 5 5 5 5 5 6 5 6 5 5 5 5 5 5 5 5 5 5 5 5 5 6 5 5 5 5 6 6 5 5 5 5 5 5 5 5 5 5 5 5 5 5 5 5 5 5 5 5 5 5 5 5 5 5 5 5 5 5 5 5 5 5 5 5 5 5 5 5 5 5 6 5 5 5 6 5 5 5 5 5 5 5 5 5 5 5 5 5 5 5 5 5 5 5 5 6 5 5 6 5 5 5 5 5 5 5 5 5 6 5 5 5 5 5 6 5 5 5 5 5 6 5 6 5 5 5 5 5 5 5 5 5 5 5 5 5 6 5 5 5 6 6 5 5 5 5 5 5 5 5 6 5 5 6 5 5 6 6 5 5 5 5 5 6 5 5 5 5 5 5 5 6 5 5 6 6 5 5 5 5 5 5 6 6 5 5 5 6 5 5 5 5 5 5 5 6 5 5 5 5 5 5 5 5 5 5 5 5 5 5 5 5 5 5 5 5 5 5 5 5 5 5 6 5 5 5 5 5 5 5 6 5 5 5 5 5 5 5 5 5 5 5 6 5 5 5 5 5 5 5 5 6 5 5 5 5 5 5 5 5 5 5 5 5 5 5 5 5 6 5 5 5 6 5 5 5 5 5 6 5 5 5 5 5 5 5 5 5 5 5 5 5 5 6 5 5 5 5 6 5 5 6 5 5 5 5 5 6 5 5 5 5 5 5 5 5 5 5 5 5 5 5 6 5 6 5 5 5 6 5 6 5 6 5 5 5 5 5 5 6 6 5 5 5 5 5 5 6 5 6 5 5 5 5 5 5 5 5 5 5 5 5 5 5 5 5 5 6 5 5 5 6 6 5 5 5 5 5 6 5 5 6 6 5 5 5 5 5 5 5 5 5 5 5 5 5 5 5 5 5 5 5 5 5 5 5 5 5 5 5 5 5 5 5 5 5 5 5 5 5 5 5 5 5 5 5 5 6 5 5 6 6 6 5 5 5 5 5 5 6 5 5 5 5 5 5 5 5 5 6 5 5 5 6 5 5 5 5 5 5 5 5 5 5 5 5 5 5 5 5 5 5 5 5 6 5 5 5 5 6 5 5 5 5 5 5 5 5 5 5 5 5 5 5 5 5 5 5 5 5 5 5 5 5 5 5 5 5 5 5 5 5 5 5 6 5 6 5 5 5 5 5 5 5 5 6 5 5 5 6 5 6 5 5 5 5 5 5 5 5 6 5 5 5 5 6 5 5 5 5 6 5 5 5 5 5 5 5 6 5 5 5 5 6 5 5 5 5 5 5 5 5 5 5 5 5 5 5 5 5 5 5 5 5 5 5 5 5 5 5 5 5 5 5 5 5 5 5 5 5 5 5 5 5 5 5 5 5 5 5 6 5 5 5 5 6 6 5 5 6 6 5 5 5 5 5 5 5 5 5 5 5 5 5 5 5 5 5 5 5 6 5 5 5 6 6 5 5 5 5 5 5 5 5 5 5 5 5 5 5 5 5 5 5 5 5 5 5 5 5 5 5 5 6 5 5 5 5 5 5 5 6 5 5 5 5 5 5 5 5 5 5 5 5 5 5 5 6 5 5 5 5 5 5 5 5 6 5 6 6 5 5 5 5 5 5 5 5 5 5 5 5 6 5 5 5 5 5 5 5 5 5 5 5 5 5 5 5 5 5 5 6 5 5 5 6 5 5 5 5 5 5 5 5 6 5 5 5 5 5 5 5 5 5 5 5 5 5 5 5 6 5 5 5 6 5 5 5 5 5 5 5 5 5 5 5 5 5 5 5 5 5 5 5 5 5 5 5 5 5 5 5 5 5 5 5 5 5 6 5 6 5 5 5 5 5 5 5 5 6 5 5 5 5 5 5 5 5 5 6 5 5 6 5 5 5 5 5 6 5 5 5 5 6 5 5 5 5 6 5 5 5 6 5 6 5 5 6 5 5 5 5 5 5 5 5 5 5 5 5 5 5 6 5 5 6 5 6 5 5 5 6 5 5 6 5 5 5 5 6 5 6 5 5 5 5 5 5 6 5 6 5 5 5 5 5 6 5 5 5 5 6 5 5 5 5 5 5 6 5 5 5 5 5 5 5 5 5 5 5 5 5 5 5 5 5 5 5 5 5 5 5 5 5 5 5 5 5 5 5 5 5 6 6 5 5 5 5 5 5 5 5 5 5 6 5 5 6 6 5 6 5 5 5 5 5 5 5 6 5 5 5 5 5 5 5 5 5 5 5 5 6 5 5 5 5 6 5 5 5 5 5 5 5 5 5 5 5 5 6 5 5 5 5 5 5 5 5 5 5 5 5 5 5 5 5 5 6 5 5 5 5 5 6 5 5 5 6 5 5 5 5 5 5 6 5 6 5 5 5 6 5 5 5 5 5 5 5 5 5 6 5 5 6 5 5 5 5 5 5 5 6 5 5 5 5 5 5 5 5 5 5 5 5 5 6 5 5 6 5 5 5 5 5 5 6 5 5 5 5 5 5 6 5 5 5 5 5 5 5 6 5 5 5 5 5 5 5 5 5 5 5 5 5 5 5 5 5 5 5 5 5 5 6 5 5 5 5 5 5 5 5 5 5 6 5 5 5 5 6 6 5 5 5 5 6 5 5 5 5 5 5 5 5 5 6 5 5 5 5 5 5 5 5 5 5 5 6 5 5 5 6 5 5 5 6 5 5 5 5 5 5 5 5 5 5 5 5 6 5 5 5 5 5 6 5 5 6 5 5 5 5 5 5 5 5 5 5 5 5 5 5 6 5 5 5 5 5 5 5 6 5 5 5 6 5 5 5 5 5 6 5 5 5 5 5 5 5 5 5 6 5 5 5 5 5 5 5 5 6 5 5 5 5 5 6 5 5 5 5 5 5 5 6 5 5 5 5 5 5 5 5 5 5 5 5 5 5 5 5 5 5 5 5 5 5 5 5 5 5 5 5 5 5 5 5 5 5 5 5 5 5 5 5 5 5 5 5 5 5 5 5 6 5 5 5 5 5 5 5 6 5 5 5 5 5 5 5 5 5 5 5 5 5 5 5 5 5 5 5 5 5 5 6 6 5 5 6 6 5 5 5 5 5 5 5 6 5 5 5 5 5 5 5 5 5 5 5 5 5 5 6 5 5 5 5 5 5 5 5 6 5 5 6 5 5 5 6 5 5 5 5 5 5 5 5 5 5 5 5 5 5 5 5 5 5 5 5 5 5 5 5 5 5 5 5 6 5 5 5 5 5 5 5 5 6 5 5 5 5 5 5 6 6 5 5 5 5 6 5 5 6 5 5 6 5 5 5 5 5 5 6 5 5 5 5 5 5 5 5 6 5 5 5 5 5 5 5 5 5 5 5 6 5 5 6 5 5 5 5 5 5 5 6 5 5 5 6 5 6 5 6 5 5 5 5 5 5 5 5 5 5 5 5 5 5 5 5 5 6 5 6 5 5 5 5 5 5 5 5 5 5 6 5 5 5 5 5 5 5 6 5 5 5 6 5 6 6 5 5 6 5 5 5 5 6 5 5 5 6 5 5 5 6 5 6 6 5 5 5 5 5 5 6 5 5 5 5 5 5 5 5 6 6 6 5 6 5 5 6 6 5 5 6 5 5 5 5 5 5 5 5 5 5 5 6 5 5 5 5 5 5 5 5 5 5 5 5 5 6 6 5 5 5 5 6 5 5 5 6 5 5 5 5 5 6 6 5 5 5 6 5 5 5 5 5 5 5 5 5 5 5 5 5 5 5 6 5 5 5 6 5 5 5 6 5 5 5 5 5 5 6 5 5 5 5 5 6 5 5 5 5 5 5 5 5 6 5 5 5 5 5 5 5 5 5 6 5 5 5 5 6 5 6 5 5 6 5 6 5 5 5 5 5 5 6 5 6 6 5 5 5 5 5 5 5 5 6 5 6 5 6 5 6 5 5 5 5 5 5 5 5 5 5 5 6 5 5 5 6 5 5 5 5 5 5 5 5 6 5 5 5 5 5 5 5 5 5 6 5 5 5 5 6 5 5 6 5 5 5 5 5 5 5 5 5 6 5 5 5 6 5 5 5 5 5 5 5 5 5 5 5 5 5 5 5 5 5 5 5 6 5 5 5 5 5 5 5 5 5 5 6 5 5 5 5 5 5 5 5 5 5 5 5 5 5 5 5 5 5 5 5 5 5 5 5 5 5 5 5 5 5 5 5 5 5 5 5 5 5 5 5 5 5 5 5 5 6 6 5 5 5 5 5 5 5 5 5 5 5 5 5 6 6 5 5 5 6 5 5 6 5 5 5 6 5 5 5 6 5 5 5 5 5 5 5 5 6 5 5 6 5 6 6 5 5 5 5 5 5 6 5 6 6 6 5 5 6 5 5 6 6 5 5 5 5 5 5 5 5 5 5 5 5 5 5 5 5 5 5 5 5 5 6 5 5 5 5 5 5 5 5 5 6 5 5 5 5 5 5 5 6 6 5 5 5 5 5 5 5 5 5 5 5 5 5 5 5 5 5 5 5 5 5 5 5 6 5 6 5 5 5 5 5 5 5 6 5 5 5 6 6 5 5 6 5 5 5 5 6 5 5 5 6 5 5 5 6 5 5 5 5 5 5 5 5 5 6 6 5 5 5 5 5 6 5 5 6 6 6 5 5 5 5 5 6 5 5 5 5 5 5 5 5 5 6 5 6 5 5 5 5 5 5 5 5 5 5 5 5 5 5 5 5 5 5 5 5 5 5 5 5 6 5 5 5 5 6 6 5 5 5 6 5 5 5 5 5 5 5 5 5 5 5 5 5 5 5 5 6 5 5 5 6 5 5 6 5 5 5 5 5 5 5 5 5 5 5 5 5 6 5 5 6 5 5 5 6 5 6 5 6 5 6 6 6 5 5 5 5 5 5 5 5 6 5 5 5 5 5 5 5 5 6 5 5 6 5 5 5 5 5 5 5 5 5 5 5 5 5 5 5 5 5 5 5 5 5 6 5 5 5 5 5 5 5 5 5 5 6 5 6 5 5 6 5 6 5 6 5 5 6 5 6 5 5 6 5 5 5 6 5 5 5 5 5 5 5 5 5 5 5 5 5 5 5 5 5 5 5 5 5 5 5 5 5 5 5 5 5 5 5 5 5 5 5 5 5 5 5 5 5 5 5 5 5 5 5 5 5 5 5 5 5 5 5 5 5 5 5 5 5 6 5 5 6 5 5 5 5 5 5 6 6 5 5 5 5 5 5 5 5 5 5 5 5 5 5 5 5 5 5 6 5 5 5 6 5 5 5 5 5 5 5 5 5 5 5 5 5 5 5 5 6 5 5 5 5 5 5 5 6 5 5 5 5 5 5 5 5 6 5 6 5 5 5 5 5 5 5 5 5 5 5 5 5 5 5 5 6 5 5 5 5 5 5 5 6 5 5 5 5 6 5 5 5 5 5 5 5 6 5 5 6 6 5 5 6 5 5 5 5 5 5 6 5 5 5 5 5 5 5 5 5 6 5 5 6 5 5 6 5 5 6 5 5 5 5 5 6 5 5 5 5 5 5 5 5 6 5 5 5 5 5 5 5 6 5 5 5 5 5 5 5 5 5 5 5 5 6 5 5 5 5 5 5 5 6 6 5 6 5 6 5 5 5 5 5 5 5 5 5 5 5 5 5 5 5 6 5 6 5 5 5 5 5 5 5 5 6 5 6 5 6 5 6 5 6 5 5 6 5 5 5 5 5 6 5 5 5 5 5 5 5 5 6 5 5 5 5 5 6 5 5 6 5 6 6 5 5 5 5 5 5 5 5 6 5 5 5 5 5 5 5 5 5 5 5 5 5 6 5 5 5 5 5 5 5 6 5 5 5 6 5 5 5 5 5 5 5 5 5 5 5 5 5 5 5 5 5 6 5 5 5 5 5 5 5 6 5 5 6 5 5 5 5 5 5 5 5 5 5 5 5 5 5 5 6 5 5 5 5 6 5 5 5 5 5 5 5 5 5 5 5 5 5 5 5 5 5 5 5 5 5 5 5 5 5 6 5 5 5 5 5 5 6 5 5 5 5 5 5 5 5 5 6 6 5 5 5 6 5 6 5 5 5 5 5 5 5 5 5 5 5 5 5 5 5 6 5 5 5 5 5 5 5 5 5 5 5 5 6 6 5 5 5 5 5 5 5 5 6 5 5 6 5 5 6 6 5 5 5 5 5 5 5 6 5 5 5 5 5 5 5 5 5 6 5 5 5 6 5 5 5 5 5 6 5 5 5 5 5 5 5 5 5 5 5 5 6 5 5 5 6 5 5 5 6 5 5 5 5 5 5 5 5 5 5 5 5 5 5 5 5 5 5 5 5 5 5 5 5 5 5 5 5 5 5 5 5 6 5 5 5 5 5 5 5 5 5 5 5 5 5 5 5 5 5 5 5 5 5 5 5 5 6 5 6 5 5 6 5 5 5 5 5 5 5 5 5 6 5 5 5 5 5 5 5 5 5 5 5 5 5 5 6 5 5 5 5 6 5 5 5 6 5 5 5 5 5 5 5 5 5 5 5 5 5 5 5 5 5 5 5 5 5 5 5 5 5 5 5 5 5 5 5 5 5 5 5 5 5 5 5 5 5 5 5 5 5 5 5 5 5 5 5 5 5 5 5 5 5 5 5 5 5 5 5 5 5 5 5 5 5 5 5 5 5 5 5 5 5 5 5 5 5 5 5 5 5 5 5 5 5 5 5 5 5 5 5 5 5 5 5 5 5 5 5 5 5 5 5 5 5 5 5 5 5 5 5 5 5 5 5 5 5 5 5 5 5 5 5 5 5 5 5 5 5 5 5 5 5 5 5 5 5 5 5 5 5 5 5 5 5 5 5 5 5 5 5 5 5 5 5 5 5 5 5 5 5 5 5 5 5 5 5 5 5 5 5 5 5 5 5 5 5 5 5 5 5 5 5 5 5 6 5 5 5 5 5 5 5 5 5 5 5 5 5 5 5 5 6 5 5 5 5 5 5 5 5 6 5 5 5 5 6 5 5 5 5 5 5 5 5 5 5 5 5 5 5 5 5 5 5 5 5 5 5 6 5 5 5 5 5 5 5 5 5 5 5 5 5 6 6 5 5 5 5 5 6 5 6 5 5 5 5 5 5 5 5 5 5 5 6 5 5 5 5 5 5 5 6 5 5 5 5 5 5 5 5 5 5 5 5 5 5 5 6 6 5 5 5 5 5 5 5 5 5 5 5 5 6 5 5 5 5 5 5 5 5 5 5 5 5 5 5 5 5 6 5 5 5 5 5 5 5 6 5 5 5 5 5 5 5 5 5 5 6 6 5 5 5 5 5 5 5 5 5 5 5 5 5 5 5 5 5 5 5 5 5 5 5 5 5 5 5 5 5 5 6 5 5 5 5 5 6 5 5 5 5 5 5 5 5 5 5 6 5 5 5 5 6 5 5 5 5 5 5 5 5 5 5 6 5 6 5 5 5 5 5 5 5 5 5 5 5 5 5 5 5 5 5 5 5 5 5 5 5 5 5 5 5 5 5 5 5 6 5 5 5 5 5 6 5 5 5 5 5 5 5 5 5 5 5 5 5 5 5 5 5 5 6 5 5 6 5 5 5 6 5 5 5 5 5 6 5 5 5 5 5 5 5 5 5 5 6 5 5 5 5 5 5 6 5 5 5 5 5 6 6 5 5 6 5 5 6 5 5 5 5 5 5 5 5 5 5 6 5 5 6 5 5 6 5 5 6 5 5 6 5 5 6 5 5 5 5 5 5 6 5 5 5 5 5 5 5 5 5 5 5 6 5 5 5 5 5 5 5 6 5 5 5 5 6 5 5 5 6 5 5 5 5 5 5 5 5 5 5 5 6 5 5 5 5 5 5 5 5 5 5 5 5 5 5 5 5 5 5 5 5 5 5 5 5 6 5 5 5 5 5 6 5 5 5 5 5 5 5 5 5 5 5 5 5 5 6 5 5 6 5 6 5 5 5 5 6 5 6 6 5 6 5 5 5 5 5 5 5 6 5 6 5 5 5 5 5 5 6 5 5 5 5 5 5 6 5 5 5 5 6 5 5 5 5 5 6 5 5 6 5 5 5 5 6 5 5 5 5 6 5 5 5 5 5 5 6 5 5 5 5 5 5 5 5 5 6 5 5 5 5 5 5 6 5 5 5 5 6 5 5 5 5 5 5 5 5 5 5 5 5 5 5 5 5 6 5 5 5 6 5 5 6 5 5 5 5 5 5 5 5 5 5 5 5 5 5 5 5 6 5 6 5 5 5 5 5 5 5 5 5 5 5 5 5 5 5 5 5 5 5 5 5 5 5 5 5 5 6 5 5 6 5 5 5 5 5 5 5 5 5 5 6 5 5 5 5 6 5 5 5 5 6 5 5 5 5 5 5 5 5 5 6 5 5 5 5 5 5 5 5 5 5 5 5 5 5 5 5 5 5 5 5 5 5 5 5 5 5 5 5 
</DataArray>
<DataArray type="Float64" Name="stress" NumberOfComponents="9" format="ascii">
-226904811.1765542 -810892283.31116295 0 -810892283.31116295 2200460029.7782555 0 0 0 0 -143603476.40973991 -135058608.5267334 0 -135058608.5267334 1541339548.4644089 0 0 0 0 1041203.3945338731 -118887620.65560913 0 -118887620.65560913 1223099901.472908 0 0 0 0 157055391.67758363 -308437657.01527596 0 -308437657.01527596 606600860.17975235 0 0 0 0 -33744975.718063191 -175078452.13476181 0 -175078452.13476181 609676719.40790665 0 0 0 0 -480954.31470707379 -302019.62140856683 0 -302019.62140856683 2898176.6584679075 0 0 0 0 -7222203.4589842558 102571135.56850815 0 102571135.56850815 -41146428.299297333 0 0 0 0 73548694.245671481 -27959790.707855225 0 -27959790.707855225 37273204.80361557 0 0 0 0 98190413.827342838 -639594898.22274399 0 -639594898.22274399 1378530351.016098 0 0 0 0 359026461.5808503 -347070755.8996172 0 -347070755.8996172 554398058.71827698 0 0 0 0 4494093.9342858791 -234356464.03569794 0 -234356464.03569794 683673929.09490585 0 0 0 0 1407436194.9533405 -1188271722.3722916 0 -1188271722.3722916 428043379.39468384 0 0 0 0 497227984.41305548 1284437324.519125 0 1284437324.519125 2201518115.813488 0 0 0 0 2426410.7555665099 -24208.190416254103 0 -24208.190416254103 5223666.3973020613 0 0 0 0 -81337719.570058644 553214448.39122295 0 553214448.39122295 1601357156.9797974 0 0 0 0 -332855487.33398771 208659191.53571701 0 208659191.53571701 2205267440.7801027 0 0 0 0 -5619010.5064540952 422575376.08314133 0 422575376.08314133 896246436.6649704 0 0 0 0 42923216.916578203 246961429.63971329 0 246961429.63971329 937025495.05939102 0 0 0 0 2154111.7876713141 -1828738.3559966907 0 -1828738.3559966907 12413709.893957801 0 0 0 0 139778898.68489316 183874233.00976181 0 183874233.00976181 485002557.37118149 0 0 0 0 -130308167.64076832 -115053657.39291382 0 -115053657.39291382 1195056740.8685646 0 0 0 0 157394.45991143398 3899342.4313991591 0 3899342.4313991591 13480163.25706034 0 0 0 0 -40651513.392145157 16945777.145528793 0 16945777.145528793 28090422.748092651 0 0 0 0 -85245550.315724611 3584701.3584365845 0 3584701.3584365845 52458513.430740356 0 0 0 0 -23753069.889404088 7135916.6367988586 0 7135916.6367988586 33285283.084091187 0 0 0 0 -117001196.14538401 -107407782.41019058 0 -107407782.41019058 -32683184.006202698 0 0 0 0 -269792.0784823912 -7038244.6534103844 0 -7038244.6534103844 24901964.852776662 0 0 0 0 91166119.027766228 -86560486.694297791 0 -86560486.694297791 -51423057.164054871 0 0 0 0 -13497851.375636578 -30384915.144210815 0 -30384915.144210815 24575693.918563843 0 0 0 0 -34158300.438648373 -16648046.670259476 0 -16648046.670259476 58639193.389785767 0 0 0 0 116246444.23331785 6908513.1205215454 0 6908513.1205215454 -151284662.33506393 0 0 0 0 -2423447.3451724844 -1523471.2580607682 0 -1523471.2580607682 10426750.49492522 0 0 0 0 289576252.11627191 -218239631.74799919 0 -218239631.74799919 184797162.86903381 0 0 0 0 138098915.26637697 75913729.576858521 0 75913729.576858521 88639314.794998169 0 0 0 0 27966117.956308424 -82380234.498247147 0 -82380234.498247147 145372199.64294434 0 0 0 0 36942755.819133759 -83638529.705089569 0 -83638529.705089569 -52389480.568527222 0 0 0 0 -61130184.581155181 2961599.4161762297 0 2961599.4161762297 171071969.35865784 0 0 0 0 -17128917.489084572 -30058216.508534431 0 -30058216.508534431 168977839.51231384 0 0 0 0 -23298752.704936504 -95538384.822280884 0 -95538384.822280884 209565246.3690567 0 0 0 0 -8742745.2865586281 -68943909.86138916 0 -68943909.86138916 204566654.17706299 0 0 0 0 -61235929.572471887 -22048926.487304389 0 -22048926.487304389 270870399.72711182 0 0 0 0 62063904.667943954 -7191146.4175720215 0 -7191146.4175720215 115233730.68227386 0 0 0 0 230600312.21773648 192435082.72708893 0 192435082.72708893 351286265.01905823 0 0 0 0 330954228.86679888 -87590243.996210098 0 -87590243.996210098 136190517.09257507 0 0 0 0 37184911.905964136 39166582.997283936 0 39166582.997283936 417300597.54550171 0 0 0 0 110571.28506347453 486695.39405022748 0 486695.39405022748 787211.10363411903 0 0 0 0 194261448.75734591 -160438943.7705307 0 -160438943.7705307 160373625.00627136 0 0 0 0 315359806.06530547 215661817.62444878 0 215661817.62444878 171839030.00453186 0 0 0 0 -87426.275044803857 357797.72404420376 0 357797.72404420376 310265.3000946641 0 0 0 0 60993345.001019239 -150021695.72619629 0 -150021695.72619629 40602116.090820312 0 0 0 0 -54998.796492099762 -49241707.315822601 0 -49241707.315822601 237722077.06726074 0 0 0 0 -92388388.282064438 -149049367.77734375 0 -149049367.77734375 582231709.54098511 0 0 0 0 -20349940.832450867 -80130397.699111938 0 -80130397.699111938 236515228.90007114 0 0 0 0 -2556830.0684082508 4570513.7909698486 0 4570513.7909698486 13740826.409044266 0 0 0 0 -1156684.2840060911 1022080.7711540181 0 1022080.7711540181 4200589.2103880346 0 0 0 0 -43800415.141538143 -5348409.8348846436 0 -5348409.8348846436 50137351.747894287 0 0 0 0 3277314.5273550749 9098700.2764854431 0 9098700.2764854431 41972827.467128754 0 0 0 0 4794862.5423881188 -7347293.0601742268 0 -7347293.0601742268 99200038.168212891 0 0 0 0 8433903.9440838993 -45117254.404571533 0 -45117254.404571533 100457840.95016479 0 0 0 0 -22427493.406964779 -48344662.662239075 0 -48344662.662239075 109559967.82089233 0 0 0 0 -199682828.42997873 -113202749.64793015 0 -113202749.64793015 79721137.849945068 0 0 0 0 -18273872.25260359 -30245593.05761528 0 -30245593.05761528 24572953.940368652 0 0 0 0 73761.026461089205 -5978217.096717732 0 -5978217.096717732 23051115.920063205 0 0 0 0 -44364832.649351537 30114101.207305908 0 30114101.207305908 21812562.156459808 0 0 0 0 -123991944.11405447 33740536.163234711 0 33740536.163234711 131847438.09721375 0 0 0 0 36862881.717354774 -20399309.477760315 0 -20399309.477760315 108232899.90481567 0 0 0 0 86739017.838092685 105997611.01623917 0 105997611.01623917 39559451.166309357 0 0 0 0 831837.20936423331 1713560.3711744025 0 1713560.3711744025 529589.80140952766 0 0 0 0 28226359.762526631 122590661.33447266 0 122590661.33447266 144695349.29515839 0 0 0 0 106354703.25124466 69150833.010681152 0 69150833.010681152 70993743.450485229 0 0 0 0 -36064806.875596702 14173693.941390991 0 14173693.941390991 51598859.48399353 0 0 0 0 -63162881.153430462 37072737.996101379 0 37072737.996101379 69323692.985321045 0 0 0 0 -77160684.809348732 10862531.451442719 0 10862531.451442719 37175129.839767456 0 0 0 0 -66721869.366341144 44889271.398265839 0 44889271.398265839 52419350.371047974 0 0 0 0 -17147362.216874808 53015066.700422287 0 53015066.700422287 47577413.522956848 0 0 0 0 -43207472.592023015 13642492.507797241 0 13642492.507797241 44479950.515625 0 0 0 0 78069055.983427286 38426766.584121704 0 38426766.584121704 25121963.272392273 0 0 0 0 217080.41744390473 3433189.6058341451 0 3433189.6058341451 2093236.2653979287 0 0 0 0 -453051.91872471571 3573830.2188272476 0 3573830.2188272476 6128826.0527648926 0 0 0 0 -1506917.3748455048 1401641.1098499298 0 1401641.1098499298 4217792.7034912109 0 0 0 0 -755262.2999889683 1715248.4042311385 0 1715248.4042311385 11841956.80526929 0 0 0 0 1503770.2806668282 9633921.4514770508 0 9633921.4514770508 38028188.062568665 0 0 0 0 17694566.429344222 21303973.376098633 0 21303973.376098633 41270608.692245483 0 0 0 0 1710798.0172133404 3604726.4571966752 0 3604726.4571966752 11275149.286665596 0 0 0 0 21995578.72808218 55923896.328941345 0 55923896.328941345 38118202.655704498 0 0 0 0 -91913.434094905853 3293476.2501678467 0 3293476.2501678467 4272283.5247650146 0 0 0 0 -2169026.1132541895 -6706965.0404205322 0 -6706965.0404205322 5345994.1641464233 0 0 0 0 -12670779.639232278 14512039.540969849 0 14512039.540969849 8871916.0484008789 0 0 0 0 -1619412.5897243917 2267429.9412344247 0 2267429.9412344247 6867387.7426199913 0 0 0 0 6980231.1246252656 11125683.64887619 0 11125683.64887619 -443002.50511169434 0 0 0 0 -543124.74276089668 374246.59658432007 0 374246.59658432007 8298246.8366374969 0 0 0 0 5513274.4522190094 -445114.31355285645 0 -445114.31355285645 -5482003.7240219116 0 0 0 0 21060088.600847423 22788574.475032806 0 22788574.475032806 15069677.203983307 0 0 0 0 14072354.056269407 491946.94689559937 0 491946.94689559937 -4709656.5065765381 0 0 0 0 68687017.815871596 -19608107.470626831 0 -19608107.470626831 61513987.488128662 0 0 0 0 -943224.89070904267 -214065.57158374786 0 -214065.57158374786 2554288.821144104 0 0 0 0 -156783.32271288527 -62683.432422105223 0 -62683.432422105223 257395.0301129818 0 0 0 0 -393.86593197388356 -8699.4892438109964 0 -8699.4892438109964 -8722.1088773310184 0 0 0 0 72921.833328246401 290006.37819315493 0 290006.37819315493 256031.15484760702 0 0 0 0 -4507495.1596012563 5106829.6644935608 0 5106829.6644935608 4572559.0160903931 0 0 0 0 -3552618.3464895524 -1602390.3233642578 0 -1602390.3233642578 1025098.9190444946 0 0 0 0 304426.23642745847 603911.22888178751 0 603911.22888178751 -222216.93368117511 0 0 0 0 -397587.89806039259 1527947.8551864624 0 1527947.8551864624 957623.6309967041 0 0 0 0 -1516724.2828769241 2228671.5372085571 0 2228671.5372085571 1222772.6066131592 0 0 0 0 -735343.59313068609 -2747629.4819908142 0 -2747629.4819908142 -27405.266387939453 0 0 0 0 -833766.23781714961 2312480.6331214905 0 2312480.6331214905 -432299.0703125 0 0 0 0 -1440547.9851044505 1974450.6726226807 0 1974450.6726226807 1726197.1642913818 0 0 0 0 13249.019636883884 -65081.41276665777 0 -65081.41276665777 172827.30949092656 0 0 0 0 -812506.23652431194 -1436742.9588775635 0 -1436742.9588775635 5014218.7312469482 0 0 0 0 218134.89634926358 -16665951.433597565 0 -16665951.433597565 87225542.830497742 0 0 0 0 -10607423.601713931 -70847527.64802742 0 -70847527.64802742 183983113.70401001 0 0 0 0 90836683.141990602 -113687394.37889099 0 -113687394.37889099 177683229.57861423 0 0 0 0 -125778.02562718888 -47594775.37498568 0 -47594775.37498568 355528442.81677246 0 0 0 0 21473092.337423157 -69770126.917858124 0 -69770126.917858124 267803186.52182007 0 0 0 0 127149313.94777776 -235183825.79997635 0 -235183825.79997635 313613029.64590454 0 0 0 0 149418358.18098676 -123030122.65194225 0 -123030122.65194225 152934265.5276947 0 0 0 0 23980874.402094126 2381997.7137680054 0 2381997.7137680054 153760132.97880733 0 0 0 0 14902809.462696541 4308598.6019740105 0 4308598.6019740105 163823368.76960754 0 0 0 0 14294141.996325016 -3629989.6971740723 0 -3629989.6971740723 100523753.88191986 0 0 0 0 17798063.357170582 -47171452.832305908 0 -47171452.832305908 123737259.71536255 0 0 0 0 21209004.901933163 4327785.8516540527 0 4327785.8516540527 162447132.94672394 0 0 0 0 -46871.81087583577 88550.290669418871 0 88550.290669418871 172450.24160942435 0 0 0 0 -14407986.812262088 -61967946.692367554 0 -61967946.692367554 149336316.53665924 0 0 0 0 -34441462.089371026 -27098473.909698486 0 -27098473.909698486 121915037.37393188 0 0 0 0 93557705.087864578 -49406209.448093414 0 -49406209.448093414 147306382.45823669 0 0 0 0 1769229.7755383248 2040370.5480825587 0 2040370.5480825587 5371651.3717987016 0 0 0 0 170763768.26913834 150178302.60958147 0 150178302.60958147 71021448.769958496 0 0 0 0 -127856871.58061984 108278769.86166382 0 108278769.86166382 13354823.543619156 0 0 0 0 71097150.729352713 103174596.76617587 0 103174596.76617587 -90120465.417293549 0 0 0 0 86887197.127955124 -49973976.889417648 0 -49973976.889417648 -127763036.93880653 0 0 0 0 46061308.789405137 -33411730.740800858 0 -33411730.740800858 771385129.44708252 0 0 0 0 206969092.8150048 -26666064.479093552 0 -26666064.479093552 -121519945.14746094 0 0 0 0 597124.5748970178 431485.47344870493 0 431485.47344870493 2212973.1437199786 0 0 0 0 -36211554.041858882 -415535947.89710808 0 -415535947.89710808 747768295.31917191 0 0 0 0 549313455.80731368 495201610.7475245 0 495201610.7475245 609588878.64678192 0 0 0 0 273614997.63453311 -98601041.699710369 0 -98601041.699710369 1717808875.0437241 0 0 0 0 219377464.62553239 -455241916.69692731 0 -455241916.69692731 1493900057.4364014 0 0 0 0 -220527648.17483303 -67665518.296195984 0 -67665518.296195984 2205280528.923233 0 0 0 0 -176081700.53185812 -68774434.657560349 0 -68774434.657560349 1741129939.5579987 0 0 0 0 -26571497.811397657 -116539028.8041954 0 -116539028.8041954 795917624.05302429 0 0 0 0 -30897152.852563895 175910679.77775764 0 175910679.77775764 899010302.86930084 0 0 0 0 -162508673.24279392 73724242.222459793 0 73724242.222459793 1771668155.6790695 0 0 0 0 -167685335.77818564 176064807.05220604 0 176064807.05220604 2204852049.7777405 0 0 0 0 -192635019.07910839 36938862.169214249 0 36938862.169214249 1781253812.4653549 0 0 0 0 392440547.52114344 194986572.82194138 0 194986572.82194138 1884959933.8720551 0 0 0 0 242012390.24885821 559376745.36851883 0 559376745.36851883 418069311.4437027 0 0 0 0 -129251598.24881808 320086123.98428726 0 320086123.98428726 1956638260.0473652 0 0 0 0 -29873993.713223815 -43732142.780197144 0 -43732142.780197144 446744199.93704224 0 0 0 0 31728092.267674148 -95340842.295744896 0 -95340842.295744896 54666084.657600403 0 0 0 0 -5264333.2486438155 -36069322.452236176 0 -36069322.452236176 275314324.19792366 0 0 0 0 175713936.88484085 4667038.4073295593 0 4667038.4073295593 234498197.81095123 0 0 0 0 154817240.31199837 -59814521.266265869 0 -59814521.266265869 221368416.65486145 0 0 0 0 -3070031.5628124475 124533456.53654861 0 124533456.53654861 915202213.86064339 0 0 0 0 20913976.239049256 145813463.41462708 0 145813463.41462708 81996624.464673996 0 0 0 0 26985295.82509492 -180108351.0977284 0 -180108351.0977284 -1164131.6684341431 0 0 0 0 66607839.617213428 -16657720.419296265 0 -16657720.419296265 -193877915.58340454 0 0 0 0 61018360.91041398 -61646454.226573944 0 -61646454.226573944 -56846183.701953888 0 0 0 0 -33496786.871242762 -23358316.844963074 0 -23358316.844963074 1639984.8620681763 0 0 0 0 121732.21369029093 265646.36965853535 0 265646.36965853535 44212.989370524883 0 0 0 0 12332825.504045963 18178707.125747681 0 18178707.125747681 -11044345.806631088 0 0 0 0 -98673543.183223844 -99360450.890714645 0 -99360450.890714645 70698469.34147644 0 0 0 0 80145108.858045459 -73840649.943296432 0 -73840649.943296432 61838518.119216919 0 0 0 0 1365082.9866649662 -521361.05208311975 0 -521361.05208311975 1199886.8592591323 0 0 0 0 58113124.140203476 -34011289.768304825 0 -34011289.768304825 60560650.850273132 0 0 0 0 20890604.885373592 -126059753.07984161 0 -126059753.07984161 83556736.495239258 0 0 0 0 371869.18399157713 32932.244929498062 0 32932.244929498062 1509710.3612271026 0 0 0 0 -37115215.602012634 -9818334.0323238373 0 -9818334.0323238373 60631849.264099121 0 0 0 0 23681494.264903307 -28680947.632040024 0 -28680947.632040024 123611286.7558136 0 0 0 0 40222273.402962685 -70169170.412528992 0 -70169170.412528992 107521378.30252075 0 0 0 0 -78035975.36978054 -22703750.262607574 0 -22703750.262607574 135914997.85514832 0 0 0 0 -27457971.145810127 -94061338.354766846 0 -94061338.354766846 148724649.96168518 0 0 0 0 -84468362.993964911 20864700.891098022 0 20864700.891098022 249866423.27399063 0 0 0 0 -69883838.098612487 64594521.252194405 0 64594521.252194405 189657599.80215454 0 0 0 0 -61548873.106342554 -61380985.577121735 0 -61380985.577121735 258270361.26211548 0 0 0 0 -37361091.149905682 -45014755.624031067 0 -45014755.624031067 24750366.881965637 0 0 0 0 -60816109.568013191 55342501.733070374 0 55342501.733070374 235419318.52209854 0 0 0 0 156956221.3850255 195883789.19598198 0 195883789.19598198 -339614909.1190834 0 0 0 0 1128172.7648598952 1139693.7837876379 0 1139693.7837876379 1975138.8488194663 0 0 0 0 7150841.3990420699 -174023101.27336502 0 -174023101.27336502 3144735152.2221909 0 0 0 0 -59044303.178405762 -301708368.38906097 0 -301708368.38906097 82834833.284248352 0 0 0 0 184415468.9009262 -56720495.547996521 0 -56720495.547996521 2205296081.966929 0 0 0 0 310846112.98308176 131340361.24980164 0 131340361.24980164 2368571585.3830872 0 0 0 0 264685209.58346507 248389731.71574211 0 248389731.71574211 2823505281.0718536 0 0 0 0 60301106.165492356 -374907628.68712234 0 -374907628.68712234 2685044362.1640358 0 0 0 0 60604803.721803971 -334611721.1433236 0 -334611721.1433236 2093545613.4360733 0 0 0 0 -20716980.350916281 33455859.433273315 0 33455859.433273315 2232709445.0864258 0 0 0 0 2225143.2984562879 3370514.9987233281 0 3370514.9987233281 5296446.5028748102 0 0 0 0 -10070453.200980067 -170060512.09698868 0 -170060512.09698868 1943592293.4452 0 0 0 0 3500432.8000822067 58601544.253206253 0 58601544.253206253 -145559174.7230835 0 0 0 0 -153859495.96174765 151004188.17071152 0 151004188.17071152 523295205.62877655 0 0 0 0 -87242890.1483922 128167595.4597168 0 128167595.4597168 91088017.385403633 0 0 0 0 -56773469.606822148 -269856282.25208378 0 -269856282.25208378 1752669367.167099 0 0 0 0 -164711120.21964386 -80169841.116075516 0 -80169841.116075516 2204596019.6109161 0 0 0 0 -303212177.86162043 205683940.45642471 0 205683940.45642471 1872773525.3148766 0 0 0 0 -35548187.188376904 56514300.953556061 0 56514300.953556061 1322000025.8816319 0 0 0 0 1788950.6292880343 4421878.0816960484 0 4421878.0816960484 8537660.2349575032 0 0 0 0 -61711318.542299807 -77874448.719347954 0 -77874448.719347954 119977583.58647919 0 0 0 0 220580323.74815178 100732129.8759079 0 100732129.8759079 -44374191.45375824 0 0 0 0 81358466.527920723 -85839572.225883484 0 -85839572.225883484 39790426.107925415 0 0 0 0 -161810604.51957083 38521104.124885559 0 38521104.124885559 260852863.89787292 0 0 0 0 -117180747.71035671 -71980446.730552673 0 -71980446.730552673 105516054.1616745 0 0 0 0 -46510875.65562439 22588690.516555786 0 22588690.516555786 168702832.26455688 0 0 0 0 15913354.523118019 27233269.768135071 0 27233269.768135071 127525264.36959076 0 0 0 0 91356481.379051208 -12313005.70627594 0 -12313005.70627594 -8831602.3465805054 0 0 0 0 -33238245.915938377 144641629.05722809 0 144641629.05722809 242324251.03055763 0 0 0 0 682111.36133166403 -159778.3258487545 0 -159778.3258487545 212892.3805423677 0 0 0 0 19296283.513494968 12401971.907817841 0 12401971.907817841 -11620941.604621887 0 0 0 0 18478019.102449417 7863494.1038208008 0 7863494.1038208008 52209078.789840698 0 0 0 0 -23802979.542444825 22935333.476287842 0 22935333.476287842 21614788.00983429 0 0 0 0 3914281.881611824 -32555615.506546021 0 -32555615.506546021 27423571.782241821 0 0 0 0 6555329.4300045967 -7641375.7543144226 0 -7641375.7543144226 18568644.684104919 0 0 0 0 7824697.9541540146 -2824868.7429161072 0 -2824868.7429161072 26123474.37020874 0 0 0 0 15367143.679676533 -5370542.4075202942 0 -5370542.4075202942 12159533.920845032 0 0 0 0 7068700.5020885468 -17089421.688030243 0 -17089421.688030243 6403589.2572193146 0 0 0 0 -873484.61361801624 -51836470.947502136 0 -51836470.947502136 29188660.582389832 0 0 0 0 63453598.256556988 -19172058.684425354 0 -19172058.684425354 1748272.1333847046 0 0 0 0 -2131147.5168894529 -13237159.080242157 0 -13237159.080242157 9254935.4571914673 0 0 0 0 1663753.0736815929 -14024711.571655273 0 -14024711.571655273 6931097.8682632446 0 0 0 0 2568106.4841985703 -9650998.443069458 0 -9650998.443069458 3563418.1638259888 0 0 0 0 8485647.22465837 -5212577.9666223526 0 -5212577.9666223526 6261455.8935623169 0 0 0 0 12729970.763092995 -11504459.625450134 0 -11504459.625450134 5192953.4539718628 0 0 0 0 8279267.4043655396 -6207466.0759048462 0 -6207466.0759048462 1846545.7369842529 0 0 0 0 1624628.4116559029 680210.55187988281 0 680210.55187988281 1762833.4779205322 0 0 0 0 3337532.168844223 -10759929.703460693 0 -10759929.703460693 5152794.039390564 0 0 0 0 1122527.7559241652 -8421929.7952957153 0 -8421929.7952957153 4678600.0046539307 0 0 0 0 -3182778.6018199921 -5524222.391242981 0 -5524222.391242981 10259408.063739777 0 0 0 0 1822878.4822940826 -6403222.3177146912 0 -6403222.3177146912 479844.27701568604 0 0 0 0 -4600009.2189435959 -5180229.9654541016 0 -5180229.9654541016 2042774.8495445251 0 0 0 0 -1485729.6533670425 1335151.2548561096 0 1335151.2548561096 3079446.9508209229 0 0 0 0 -36314.524248861242 47594.738534256816 0 47594.738534256816 311684.9865874704 0 0 0 0 -2644502.5374803543 -2883901.0806655884 0 -2883901.0806655884 5874480.3514060974 0 0 0 0 113162.89221000671 -7428487.9488811493 0 -7428487.9488811493 2378774.6095733643 0 0 0 0 -4796394.2464857101 -12600844.681777954 0 -12600844.681777954 6669329.3294334412 0 0 0 0 -925020.70413469232 -3617124.6625372358 0 -3617124.6625372358 22299065.303670987 0 0 0 0 -2618284.9424319267 -7880044.1022186279 0 -7880044.1022186279 6219717.847743988 0 0 0 0 -63392.349890990765 490490.78085637093 0 490490.78085637093 3701708.0839691404 0 0 0 0 -14378762.688064337 -12467793.047462463 0 -12467793.047462463 29856015.449981451 0 0 0 0 728792.87827892764 -3343249.5654132403 0 -3343249.5654132403 12608790.283509254 0 0 0 0 -2839765.3558996916 -1681941.1500854492 0 -1681941.1500854492 31254974.770736694 0 0 0 0 5196807.1487848759 6152204.9140472412 0 6152204.9140472412 30550820.301609993 0 0 0 0 3443292.4369153949 5148695.2271857336 0 5148695.2271857336 14105374.496796295 0 0 0 0 3208834.8031110764 6814445.9784698486 0 6814445.9784698486 36899954.877052307 0 0 0 0 -3310066.581751138 -2647879.5209598541 0 -2647879.5209598541 5742330.3375663757 0 0 0 0 -1938867.357367754 -1333701.7694568634 0 -1333701.7694568634 9018934.513671875 0 0 0 0 -1485303.9196856092 -2183209.6853696844 0 -2183209.6853696844 7111033.7801636085 0 0 0 0 -2601936.3886051178 3589608.9242553711 0 3589608.9242553711 4858265.2827882767 0 0 0 0 -2140353.4681874416 914683.18200718611 0 914683.18200718611 17276671.444468983 0 0 0 0 -3252532.5129523277 932051.44183349609 0 932051.44183349609 2744542.4175653458 0 0 0 0 -951154.91746673884 1092080.5759202465 0 1092080.5759202465 21166132.155051704 0 0 0 0 -4116523.1265945435 -1636522.9165344238 0 -1636522.9165344238 4514281.4001464844 0 0 0 0 -1471901.1993169531 439316.33486996219 0 439316.33486996219 16612693.614411995 0 0 0 0 -1318123.1005171917 -763493.47690635175 0 -763493.47690635175 15313590.065557517 0 0 0 0 -2945556.1612361372 -998566.51683044434 0 -998566.51683044434 8267297.2135696411 0 0 0 0 -647355.89765973622 393769.58457098529 0 393769.58457098529 12342073.144703859 0 0 0 0 -412579.82442235947 225735.86178588867 0 225735.86178588867 8802539.5510864258 0 0 0 0 -1193531.2325754166 -1400701.4350166321 0 -1400701.4350166321 5476881.2596418858 0 0 0 0 -668721.86107621994 626576.91603848711 0 626576.91603848711 15296142.108348865 0 0 0 0 -2224002.0148166418 -814979.57524299622 0 -814979.57524299622 9450495.493057251 0 0 0 0 -1073353.4956544321 -463525.62249754742 0 -463525.62249754742 13181707.726210639 0 0 0 0 -2473620.9833126068 -1051301.8966217041 0 -1051301.8966217041 10085350.940719604 0 0 0 0 -1392873.8801956177 1108806.5600128174 0 1108806.5600128174 14067598.197327614 0 0 0 0 -378733.45640850067 946678.96806240082 0 946678.96806240082 9281939.589931488 0 0 0 0 356068.42588986969 1691391.7859043013 0 1691391.7859043013 8519249.5254840702 0 0 0 0 -86720.270101308823 -157209.89786338806 0 -157209.89786338806 6942373.3051261902 0 0 0 0 553690.19189170236 -185700.57890737802 0 -185700.57890737802 5588458.3237494379 0 0 0 0 259554.2601971617 12521.633089102805 0 12521.633089102805 8739963.1591082048 0 0 0 0 712772.92074465752 -425104.41855812073 0 -425104.41855812073 5246051.813129425 0 0 0 0 1241570.151720047 -554278.41698074341 0 -554278.41698074341 3959896.4840049744 0 0 0 0 544517.22974393331 -1012711.5204724222 0 -1012711.5204724222 6583668.9094426837 0 0 0 0 1208105.8189704418 -639452.76799964905 0 -639452.76799964905 4040835.9505767822 0 0 0 0 -1518794.4589080811 -3741384.1303482056 0 -3741384.1303482056 2304600.7548828125 0 0 0 0 -729159.04831504822 -2671050.4067802429 0 -2671050.4067802429 3135177.3147633076 0 0 0 0 978243.25350291631 -1887867.773231376 0 -1887867.773231376 2258926.9555436447 0 0 0 0 1014048.5671672821 -888931.12781333923 0 -888931.12781333923 4234798.4850006104 0 0 0 0 -820875.18341688486 -5578558.4788367525 0 -5578558.4788367525 3767347.2558735982 0 0 0 0 -447608.02200268244 -1371241.7242484116 0 -1371241.7242484116 2756257.1792130023 0 0 0 0 829272.9126398596 13426.963091785088 0 13426.963091785088 1694608.3385682851 0 0 0 0 -988867.6325378418 -535557.52226257324 0 -535557.52226257324 746554.87777709961 0 0 0 0 264780.63841163833 -948634.0071080476 0 -948634.0071080476 5401746.4013032075 0 0 0 0 -1830636.4338927269 7023842.4480018616 0 7023842.4480018616 -3494177.8593101501 0 0 0 0 -483017.48636847734 -820976.48959302902 0 -820976.48959302902 3009226.9737968445 0 0 0 0 -700172.54968523979 -1062362.6059188843 0 -1062362.6059188843 3040179.1928863525 0 0 0 0 -159983.63984353608 280629.37282291241 0 280629.37282291241 380532.30007058382 0 0 0 0 -2684664.8082199097 2055175.037689209 0 2055175.037689209 2652945.0791702271 0 0 0 0 663304.01362947864 -2156489.0796522582 0 -2156489.0796522582 3569027.5235005766 0 0 0 0 1201828.2010338793 -876930.64277037233 0 -876930.64277037233 4116303.43942637 0 0 0 0 1373339.7723278336 96230.291725303978 0 96230.291725303978 -862974.06374663115 0 0 0 0 8327167.1598916054 -12119329.015367508 0 -12119329.015367508 -14422519.760306597 0 0 0 0 3315261.0936867595 3766835.0770273209 0 3766835.0770273209 -3364407.0701141357 0 0 0 0 2128663.1325413035 -1716794.7534511089 0 -1716794.7534511089 5587390.8547774805 0 0 0 0 2712500.7214801726 -260010.58376571164 0 -260010.58376571164 3596071.9060742818 0 0 0 0 -4657621.5101464391 -28679053.6588974 0 -28679053.6588974 -71871614.032646179 0 0 0 0 223739.38566970825 -33843.904205322266 0 -33843.904205322266 1474115.7271518707 0 0 0 0 3393149.1443563625 -2699703.6999034882 0 -2699703.6999034882 -6625482.228187561 0 0 0 0 -17754414.408297226 58911696.683403015 0 58911696.683403015 -91442265.26726532 0 0 0 0 4185404.1441857647 1738119.8904807679 0 1738119.8904807679 4499923.3905109735 0 0 0 0 2331474.4347085953 1060014.3963165283 0 1060014.3963165283 5970258.2541999817 0 0 0 0 921724.96856222115 563368.01520139119 0 563368.01520139119 -610737.90674532205 0 0 0 0 -19475102.853555933 -49012935.603265524 0 -49012935.603265524 -93821925.706302643 0 0 0 0 1726388.5511317253 731275.80011940002 0 731275.80011940002 7166415.3349380493 0 0 0 0 1521493.8205003508 143682.96737515309 0 143682.96737515309 3540594.9874228016 0 0 0 0 1854955.1736800671 1045209.3960266113 0 1045209.3960266113 7604754.6664123535 0 0 0 0 429342.16325950623 667040.0330696106 0 667040.0330696106 1514521.4362487793 0 0 0 0 294723.7626080513 -92424.206018447876 0 -92424.206018447876 1310084.5075111389 0 0 0 0 1075239.1652464522 1238225.2535012607 0 1238225.2535012607 2547121.4522887021 0 0 0 0 878095.98329687119 138122.40044021606 0 138122.40044021606 4492232.649980545 0 0 0 0 1321876.7206733322 605480.20831289515 0 605480.20831289515 2691917.0707830414 0 0 0 0 1365448.1807597927 730481.62404993363 0 730481.62404993363 3263525.1880747378 0 0 0 0 1756705.4813939512 533709.89144361019 0 533709.89144361019 1012278.3158528954 0 0 0 0 288262.95056438446 169264.20634078979 0 169264.20634078979 835953.80933952332 0 0 0 0 148038.39076137543 -100871.97440338135 0 -100871.97440338135 6873237.1903305054 0 0 0 0 678162.14797210693 414984.78960418701 0 414984.78960418701 818074.05947303772 0 0 0 0 -566338.73183146166 284991.00796229392 0 284991.00796229392 9780888.5748380516 0 0 0 0 -968809.68759155273 -682946.03596496582 0 -682946.03596496582 868953.53344726562 0 0 0 0 1295057.5857249228 339355.2446002569 0 339355.2446002569 3275303.4769759551 0 0 0 0 1288164.6732903318 -691055.36313257506 0 -691055.36313257506 5650604.4866779745 0 0 0 0 -859006.81939137727 820111.45673758909 0 820111.45673758909 17091845.81691828 0 0 0 0 675607.43554885406 -634711.40240884572 0 -634711.40240884572 9444591.442477189 0 0 0 0 -582632.67527008057 3876295.9363174438 0 3876295.9363174438 9214053.9573860168 0 0 0 0 -1444894.6409626007 1636367.5870132446 0 1636367.5870132446 10126747.581466675 0 0 0 0 520261.21207046509 5215515.39245224 0 5215515.39245224 8367522.6662902832 0 0 0 0 2120830.595517322 4770700.2561568981 0 4770700.2561568981 5036611.8643417731 0 0 0 0 -431013.94064019667 498238.86346406676 0 498238.86346406676 580890.3821291253 0 0 0 0 87636.58931350708 -698779.4469909668 0 -698779.4469909668 7455768.6641235352 0 0 0 0 -2851393.344078064 1178356.1677627563 0 1178356.1677627563 1967110.0600585938 0 0 0 0 129919.16086907312 3109100.4650265612 0 3109100.4650265612 5543889.9383434169 0 0 0 0 -287497.28349644551 659169.11697822274 0 659169.11697822274 4496553.0672043711 0 0 0 0 -682661.6619215766 771846.43712040037 0 771846.43712040037 17378645.036579426 0 0 0 0 -207263.40324020386 5325359.4235076904 0 5325359.4235076904 15097010.977546692 0 0 0 0 -1058583.4317872012 1704005.3954433538 0 1704005.3954433538 14087140.228672178 0 0 0 0 5591407.3734378815 -1411213.1481666565 0 -1411213.1481666565 7058792.366104126 0 0 0 0 -6887897.298687458 -3634520.5203170776 0 -3634520.5203170776 -4877685.9777908325 0 0 0 0 -42190.753702163696 11315040.469669342 0 11315040.469669342 26009739.486923218 0 0 0 0 -2719532.7613787651 14367513.533857346 0 14367513.533857346 24147123.224899292 0 0 0 0 -805616.77754883375 1356121.9511741251 0 1356121.9511741251 1444149.7096277848 0 0 0 0 -12173532.848085403 -5550562.2882766724 0 -5550562.2882766724 16228808.055328369 0 0 0 0 -9608150.7917575836 -1686069.6148452759 0 -1686069.6148452759 19885338.981460571 0 0 0 0 -7019932.145740509 -6071660.4584274292 0 -6071660.4584274292 24973640.127212524 0 0 0 0 2514184.8300247192 -8627519.7815093994 0 -8627519.7815093994 27750798.868019104 0 0 0 0 67544.13388633728 -3928376.8765449524 0 -3928376.8765449524 18727270.846191406 0 0 0 0 6472322.7559432983 13334543.598163605 0 13334543.598163605 -1573053.904548645 0 0 0 0 -5600753.8321099281 1361790.2436542511 0 1361790.2436542511 44511086.085083008 0 0 0 0 1005501.2909215996 1928032.9962458666 0 1928032.9962458666 9913616.9709312394 0 0 0 0 1661229.8990354538 794605.6310043335 0 794605.6310043335 11218214.697296143 0 0 0 0 -5757870.3177866936 4933057.8491401672 0 4933057.8491401672 18410568.872970581 0 0 0 0 -7074818.7596578598 1718752.6040611267 0 1718752.6040611267 13820382.34154129 0 0 0 0 -7633269.0353813171 3322890.0230941772 0 3322890.0230941772 10457641.748119354 0 0 0 0 1994800.1602020264 -3447159.2242736816 0 -3447159.2242736816 7043929.8377075195 0 0 0 0 -1613442.126127243 4766089.0576782227 0 4766089.0576782227 14679394.174324036 0 0 0 0 3350063.3848213358 959417.96234131081 0 959417.96234131081 2931764.3742720112 0 0 0 0 -208462.17922969582 50120.283242773265 0 50120.283242773265 415029.70471042395 0 0 0 0 541934.14829730988 775172.33528900146 0 775172.33528900146 11243881.716117859 0 0 0 0 -1388730.1499490738 10883037.455116272 0 10883037.455116272 15376363.149417877 0 0 0 0 6093489.8039873242 -14533152.158564806 0 -14533152.158564806 -2981156.4380760193 0 0 0 0 523785.29837682564 1830371.4014166892 0 1830371.4014166892 9945641.9214447215 0 0 0 0 969558.73685359955 2351955.9424629211 0 2351955.9424629211 9391533.0245857239 0 0 0 0 10972609.84982872 34574387.839363098 0 34574387.839363098 26621149.662811279 0 0 0 0 7340819.3156471252 5364762.609664917 0 5364762.609664917 -5485254.3147735596 0 0 0 0 -415276.40068601386 2073665.758997025 0 2073665.758997025 873117.79758871347 0 0 0 0 4965139.719745636 -5596808.0938110352 0 -5596808.0938110352 19264580.659881592 0 0 0 0 -660919.09204705292 2111748.6257174686 0 2111748.6257174686 11911979.879103493 0 0 0 0 -4368439.621556282 5811922.7821331024 0 5811922.7821331024 23579789.885036469 0 0 0 0 -2154253.2080945177 -252870.84695085138 0 -252870.84695085138 6135410.1524227168 0 0 0 0 2037688.8317152066 6036736.2728330735 0 6036736.2728330735 7028625.394628305 0 0 0 0 -15249667.551568031 11818601.03260994 0 11818601.03260994 35893911.525863647 0 0 0 0 -16092328.566060066 17335765.663333893 0 17335765.663333893 29514907.424383163 0 0 0 0 -4848700.0903377533 9590618.8900871277 0 9590618.8900871277 67709.755584716797 0 0 0 0 5177253.3610858917 -2827643.9859237671 0 -2827643.9859237671 5614865.6371688843 0 0 0 0 -766744.09727685992 -196526.88396847248 0 -196526.88396847248 4892077.4212302575 0 0 0 0 4521262.3159885406 32520102.100883484 0 32520102.100883484 -39758030.455711365 0 0 0 0 7008695.7858982086 25349068.656303406 0 25349068.656303406 21618230.750934601 0 0 0 0 2653392.9134734897 4237895.7783185141 0 4237895.7783185141 7751197.8091086298 0 0 0 0 1055171.7024993896 3255884.5474529266 0 3255884.5474529266 7236386.5301780701 0 0 0 0 1651858.1993961334 2074959.8249092102 0 2074959.8249092102 7177048.3199760914 0 0 0 0 -56257739.59455204 -105584.99056816101 0 -105584.99056816101 10869288.379051208 0 0 0 0 -65911001.014446497 -29534717.362137794 0 -29534717.362137794 37175958.975097656 0 0 0 0 376813.02313485276 2078301.5322533408 0 2078301.5322533408 368197.04283575714 0 0 0 0 -140392565.78237915 542041.48556137085 0 542041.48556137085 29667637.0962677 0 0 0 0 -526392.1479298519 -351458.48898771871 0 -351458.48898771871 455071.83886216581 0 0 0 0 2373318.3941059113 1451031.3251247406 0 1451031.3251247406 7061682.0173988342 0 0 0 0 845838.64784526825 2079296.9854507446 0 2079296.9854507446 8829727.7357673645 0 0 0 0 1800156.7723419666 797482.51738405228 0 797482.51738405228 7445947.1592178345 0 0 0 0 2240874.3953413963 1899543.2177991867 0 1899543.2177991867 5717643.4877471924 0 0 0 0 2396579.0967569351 2546107.0872116089 0 2546107.0872116089 4768612.4132614136 0 0 0 0 3289394.240139368 5680064.4369614916 0 5680064.4369614916 6740622.7729675658 0 0 0 0 3978420.2691851626 2823502.2828029618 0 2823502.2828029618 5452609.6307759192 0 0 0 0 1797816.6377158165 2629575.5041847229 0 2629575.5041847229 6046860.2348480225 0 0 0 0 -66315376.595116615 27444835.922677994 0 27444835.922677994 24372283.823028564 0 0 0 0 -280353914.25015974 -68958949.477765083 0 -68958949.477765083 182351475.3199234 0 0 0 0 -100469072.20838976 -8871808.3425035477 0 -8871808.3425035477 150108004.6884861 0 0 0 0 -190540170.12117529 -26553466.670707703 0 -26553466.670707703 181852791.67793274 0 0 0 0 -122051927.02108908 16771246.108793259 0 16771246.108793259 206663389.29910278 0 0 0 0 -262657291.99772835 22355261.731080055 0 22355261.731080055 256606110.47273636 0 0 0 0 29367341.112887859 26273823.991140366 0 26273823.991140366 24096019.991641998 0 0 0 0 -238562.19338760769 1460358.797380575 0 1460358.797380575 1527182.6305810809 0 0 0 0 -212622844.77342224 2152279.554889679 0 2152279.554889679 475309246.66902924 0 0 0 0 28883758.667427007 82084674.576330036 0 82084674.576330036 57664547.795585632 0 0 0 0 8110367.4449563026 15106470.070605278 0 15106470.070605278 -105458260.38016939 0 0 0 0 -2147644.9927554964 4804338.6803448945 0 4804338.6803448945 3823285.2637517601 0 0 0 0 37385422.773071051 -12592526.344463825 0 -12592526.344463825 -104583595.74113274 0 0 0 0 -57121455.041893005 -19627117.033245087 0 -19627117.033245087 71030182.050857544 0 0 0 0 -2231845.9389978112 -174848.7683925759 0 -174848.7683925759 11681157.798859362 0 0 0 0 -41550107.45356369 -53170485.494876862 0 -53170485.494876862 -34334376.257329941 0 0 0 0 -112752.9641107535 234157.92514657602 0 234157.92514657602 407877.24376379 0 0 0 0 -105740227.94674683 -44555790.665998459 0 -44555790.665998459 -98733715.278266907 0 0 0 0 -209168234.44979477 -116299563.41283798 0 -116299563.41283798 26809222.320198059 0 0 0 0 -197993183.84540582 -71908307.226347923 0 -71908307.226347923 114906680.43025208 0 0 0 0 -75233875.029295921 20467776.627029419 0 20467776.627029419 20595777.820800781 0 0 0 0 -55003578.483501196 -13564349.000545025 0 -13564349.000545025 60558488.486843109 0 0 0 0 -99854785.829070091 85007341.273164749 0 85007341.273164749 -25682447.86582756 0 0 0 0 -37471759.821179628 104479179.24761105 0 104479179.24761105 49974160.37915802 0 0 0 0 -78518857.868108273 52022337.040597916 0 52022337.040597916 9462989.2522735596 0 0 0 0 -38057343.323048592 57772303.308515549 0 57772303.308515549 -69838920.760343552 0 0 0 0 -29145159.900592327 87098349.358122826 0 87098349.358122826 -38587761.416305542 0 0 0 0 -77488786.800682068 81408891.596170425 0 81408891.596170425 16189104.84690094 0 0 0 0 -922191.60203044582 2450150.7859174353 0 2450150.7859174353 8721012.049943924 0 0 0 0 -1693161.4381561279 4484220.4985351562 0 4484220.4985351562 341458.83968663216 0 0 0 0 -786570.92850873922 6944946.2598474082 0 6944946.2598474082 4859098.323416464 0 0 0 0 9926687.9333305359 -2145469.4858283997 0 -2145469.4858283997 -2386340.6738128662 0 0 0 0 802501.54373272508 5382486.6748034609 0 5382486.6748034609 4778128.0635881163 0 0 0 0 -91404914.879356861 41650776.860804558 0 41650776.860804558 -15161442.934909821 0 0 0 0 -129361058.5871737 52270790.823992729 0 52270790.823992729 13078511.193271637 0 0 0 0 6628369.659201622 26293399.075271606 0 26293399.075271606 7113336.8786239624 0 0 0 0 -673075.93555017235 5569737.1975886961 0 5569737.1975886961 4810188.6986488253 0 0 0 0 -1034735.1384763718 1452977.5125007629 0 1452977.5125007629 7517875.0830154419 0 0 0 0 -405184.83612393821 -700027.76076970343 0 -700027.76076970343 807491.21222952381 0 0 0 0 -4386340.4459486008 4148231.582326889 0 4148231.582326889 8035326.9457521439 0 0 0 0 -660970.49210699252 4040766.880550297 0 4040766.880550297 6805794.6731663235 0 0 0 0 -4298983.1835336685 1656936.5857849121 0 1656936.5857849121 9290074.8478398323 0 0 0 0 -3754960.2953596115 4409766.9034461975 0 4409766.9034461975 5151057.4521636963 0 0 0 0 -4616046.5323820114 1958426.4799423218 0 1958426.4799423218 5175876.0907452106 0 0 0 0 -2978164.196393013 1054596.6500167847 0 1054596.6500167847 8145570.0571768284 0 0 0 0 -1184647.2917356491 1339965.2945899963 0 1339965.2945899963 6952083.4341506958 0 0 0 0 -3773683.9093561172 356521.80718994141 0 356521.80718994141 7670946.8829574585 0 0 0 0 159099.99860612891 1419095.5357722964 0 1419095.5357722964 5847257.6567762196 0 0 0 0 -2388767.0158600807 -371717.30148696899 0 -371717.30148696899 5125334.2237243652 0 0 0 0 -202998.15233927313 4035166.0999670736 0 4035166.0999670736 12775352.351497106 0 0 0 0 -25321103.386623383 -5957476.7171936035 0 -5957476.7171936035 38846328.448074341 0 0 0 0 -11482666.861474991 7127260.5942208767 0 7127260.5942208767 14733857.121109009 0 0 0 0 -5363857.9670739174 2498747.1383132935 0 2498747.1383132935 5209086.6002277732 0 0 0 0 282818.32742857165 797813.1158954819 0 797813.1158954819 6203439.6891917288 0 0 0 0 2539405.2064228058 10101342.048217773 0 10101342.048217773 13704014.410114288 0 0 0 0 -417593.04259300232 20768334.426261902 0 20768334.426261902 20982957.545543671 0 0 0 0 25568187.341606498 8603989.828086853 0 8603989.828086853 9844611.0244445801 0 0 0 0 -474338.33701131633 4342883.7494578362 0 4342883.7494578362 12141827.849536255 0 0 0 0 -4533964.5379190445 3854266.6383285522 0 3854266.6383285522 4622971.0821685791 0 0 0 0 424871.57086229883 6214798.4943766128 0 6214798.4943766128 8800961.7218238786 0 0 0 0 1095450.3620931115 4205081.8189603668 0 4205081.8189603668 14079437.094836332 0 0 0 0 5107156.4015836716 796559.41892242432 0 796559.41892242432 4005676.3787136078 0 0 0 0 -3992102.9426779747 -5453923.4942264557 0 -5453923.4942264557 14979877.922958374 0 0 0 0 -11123090.033810616 -6867655.0825176239 0 -6867655.0825176239 13801130.990959167 0 0 0 0 -12907655.945205688 11110168.118427277 0 11110168.118427277 35970346.231790543 0 0 0 0 -4780045.9627707526 4593956.9946322478 0 4593956.9946322478 20190530.785721172 0 0 0 0 5901976.5817193985 10283809.950275421 0 10283809.950275421 29395607.231462479 0 0 0 0 -8859345.3758077621 2373012.6668205261 0 2373012.6668205261 16385436.799732208 0 0 0 0 -15764602.880759954 31333292.114385843 0 31333292.114385843 54378754.609893799 0 0 0 0 -2687093.2537021637 -1358820.332736969 0 -1358820.332736969 21100229.882606506 0 0 0 0 -1616361.3016733807 4239277.7499542721 0 4239277.7499542721 18420041.092673138 0 0 0 0 1862647.1907380628 1579554.5528959595 0 1579554.5528959595 20547178.301473361 0 0 0 0 -3415423.0946016312 1795998.5214996338 0 1795998.5214996338 5536125.8515014648 0 0 0 0 -6840298.074681282 2514155.3613872528 0 2514155.3613872528 11219814.24899292 0 0 0 0 -1675540.9437653655 -1037742.3553110473 0 -1037742.3553110473 23533102.315933555 0 0 0 0 -773724.44866943359 3604728.313621521 0 3604728.313621521 4878900.4279632568 0 0 0 0 1718577.2595183449 2791331.6624659104 0 2791331.6624659104 4432258.700460963 0 0 0 0 -10239300.183721781 -2674975.1007957458 0 -2674975.1007957458 33061392.047355652 0 0 0 0 -899694.13634830364 -241055.47671723738 0 -241055.47671723738 20639395.461173229 0 0 0 0 -643139.01436443347 -407866.98740157112 0 -407866.98740157112 21366352.033835288 0 0 0 0 -489501.56380581856 -1710843.2567901611 0 -1710843.2567901611 22930728.39704895 0 0 0 0 662775.97960746288 -9276380.3778452873 0 -9276380.3778452873 44345949.656906128 0 0 0 0 14658831.626600742 39652630.53974247 0 39652630.53974247 32619244.630996704 0 0 0 0 -1417001.3398652854 2090498.8923654594 0 2090498.8923654594 4912745.7239654586 0 0 0 0 6615538.9612524509 4461436.2413673401 0 4461436.2413673401 22273172.52918911 0 0 0 0 -4869484.204813242 28552654.098780632 0 28552654.098780632 53097780.569290161 0 0 0 0 -19775414.628195405 10478331.935458183 0 10478331.935458183 55676707.417976379 0 0 0 0 37895997.487900257 3967034.7954444885 0 3967034.7954444885 16211637.984764099 0 0 0 0 491718.53472101851 1230208.4136242084 0 1230208.4136242084 10020958.116401196 0 0 0 0 -10476626.942561388 -3238571.8860836029 0 -3238571.8860836029 15141502.753128052 0 0 0 0 6554607.0355162621 -6624523.3508987427 0 -6624523.3508987427 14561091.521503448 0 0 0 0 10768890.394367218 729275.11861419678 0 729275.11861419678 8069469.7190761566 0 0 0 0 -4067753.262293458 2291254.7456827164 0 2291254.7456827164 14015935.986824036 0 0 0 0 19313717.991182327 17532696.24356842 0 17532696.24356842 25296245.011501312 0 0 0 0 -2303063.3592624664 500785.47635650635 0 500785.47635650635 14448551.44024086 0 0 0 0 3008213.6223130226 21864645.282032013 0 21864645.282032013 48894748.852394104 0 0 0 0 -963400.30227565765 12494958.999233246 0 12494958.999233246 35348196.015300751 0 0 0 0 -1112599.0453718901 11669000.495705605 0 11669000.495705605 31307026.858581543 0 0 0 0 -1916280.7588329315 5953106.6796264648 0 5953106.6796264648 31888292.942447662 0 0 0 0 2033559.1398200989 8560318.5243835449 0 8560318.5243835449 25712971.932098389 0 0 0 0 -295578.82379081473 919838.8836344406 0 919838.8836344406 1391526.0323616266 0 0 0 0 5024748.6327915192 17170687.70324707 0 17170687.70324707 33685424.513408661 0 0 0 0 608273.8191204071 -1376542.7764434814 0 -1376542.7764434814 13265630.942148209 0 0 0 0 5302596.7814083099 13222888.518173218 0 13222888.518173218 29939518.77494812 0 0 0 0 -3132490.3178851604 5000013.387386322 0 5000013.387386322 10435398.097885132 0 0 0 0 630125.91811551759 1135904.5783060342 0 1135904.5783060342 13018684.749186084 0 0 0 0 -2697675.4091873169 2767836.7269287109 0 2767836.7269287109 4458934.890914917 0 0 0 0 -1334579.1325550079 3710610.2406005859 0 3710610.2406005859 10138763.341796875 0 0 0 0 -1894423.3214502931 3244481.1946668625 0 3244481.1946668625 11691329.036514282 0 0 0 0 2531797.5867278501 3285511.7817667741 0 3285511.7817667741 8286927.612449795 0 0 0 0 22594074.177211761 19731023.208023071 0 19731023.208023071 7841007.7062072754 0 0 0 0 -1285304.3408381213 -880784.09352252446 0 -880784.09352252446 3855894.5933351368 0 0 0 0 4319055.1472855601 6266393.6226416277 0 6266393.6226416277 3003507.151926294 0 0 0 0 261188.13771145768 393208.32921083597 0 393208.32921083597 -200682.02436456084 0 0 0 0 572685.99551224709 652793.20188522339 0 652793.20188522339 12495041.169141769 0 0 0 0 2699575.7209758759 8375316.8662986755 0 8375316.8662986755 20966677.493785858 0 0 0 0 5263277.1811451912 5487847.1072449684 0 5487847.1072449684 18750304.879627228 0 0 0 0 2822175.8219666863 2289613.4088300057 0 2289613.4088300057 13966266.735251911 0 0 0 0 -1710577.0684776215 -3542183.9808465652 0 -3542183.9808465652 20961241.810831964 0 0 0 0 -3751833.9885587692 2452534.3640270233 0 2452534.3640270233 25518209.969413757 0 0 0 0 -2597284.2178348461 -3110261.5217064694 0 -3110261.5217064694 23129939.928797446 0 0 0 0 -3882778.417124033 2591007.8666992188 0 2591007.8666992188 36155977.837463379 0 0 0 0 -3971346.2393603325 -7569348.201133728 0 -7569348.201133728 24767987.163485527 0 0 0 0 -1499463.05359105 884172.57874774933 0 884172.57874774933 14933756.7304166 0 0 0 0 -1575558.2297956944 568848.7952041626 0 568848.7952041626 37587635.002609253 0 0 0 0 -621977.58922814578 -13921910.733402252 0 -13921910.733402252 26978847.273162842 0 0 0 0 -5702928.5494585782 -9873057.0113334656 0 -9873057.0113334656 24425271.13945961 0 0 0 0 -7204236.2339355052 -10784846.649486542 0 -10784846.649486542 28685251.874984741 0 0 0 0 -835616.16994423815 -4321633.7158632576 0 -4321633.7158632576 22508352.810564391 0 0 0 0 -7227746.2560793385 -11900736.059223175 0 -11900736.059223175 29280681.166969299 0 0 0 0 -8390195.1153462976 -14525181.696941376 0 -14525181.696941376 27388093.428894043 0 0 0 0 -25322240.422220539 -6924250.2603673935 0 -6924250.2603673935 42452517.780296326 0 0 0 0 -21789563.161098968 -21429979.420591354 0 -21429979.420591354 62030883.182342529 0 0 0 0 -69181175.358651638 -25303868.115074158 0 -25303868.115074158 71533205.949905396 0 0 0 0 -49070000.04318431 -19222938.351005554 0 -19222938.351005554 61884700.748526573 0 0 0 0 -24376562.347740799 6719406.997718811 0 6719406.997718811 55871121.094100952 0 0 0 0 -19100333.415068761 6844850.9646244049 0 6844850.9646244049 30132991.423530579 0 0 0 0 -15392180.953094035 -6596783.8654613495 0 -6596783.8654613495 38288349.815074921 0 0 0 0 -4899898.3042359352 -5618700.2781200409 0 -5618700.2781200409 32136340.401786804 0 0 0 0 -10410323.348264307 557742.23114776611 0 557742.23114776611 36360934.15600872 0 0 0 0 -1365761.7476977883 -2428840.8329756446 0 -2428840.8329756446 26359931.490355767 0 0 0 0 -2044105.0562176886 5533363.6417755876 0 5533363.6417755876 23951200.020467028 0 0 0 0 -16638097.31330055 2764865.0207252502 0 2764865.0207252502 36893561.832315445 0 0 0 0 -12232951.266246796 9857043.7035255432 0 9857043.7035255432 16711471.572898865 0 0 0 0 -2618053.0187238809 12133002.765734695 0 12133002.765734695 19606699.75193809 0 0 0 0 -30208052.014626503 16136267.050607681 0 16136267.050607681 18063278.036594391 0 0 0 0 -11402129.191606745 2466116.1085312366 0 2466116.1085312366 20325892.030540466 0 0 0 0 4790383.5669946671 4275142.9973869324 0 4275142.9973869324 15050715.686912537 0 0 0 0 -1644486.1050355628 -1310627.6036736853 0 -1310627.6036736853 2646832.2503540888 0 0 0 0 -10113764.258770794 4574738.5266692638 0 4574738.5266692638 16832487.619567871 0 0 0 0 -9759875.4730128646 1846856.0882542133 0 1846856.0882542133 22659729.555130005 0 0 0 0 1837500.1596593857 515834.09767913818 0 515834.09767913818 23227564.47502327 0 0 0 0 916957.01619291306 -696294.70879745483 0 -696294.70879745483 27191542.750401497 0 0 0 0 -6917287.9878696799 -4501354.8536162376 0 -4501354.8536162376 21802636.01159668 0 0 0 0 -6237144.766764164 -2353841.6131634712 0 -2353841.6131634712 16091817.56136322 0 0 0 0 -461798.96423854062 6208589.1204699893 0 6208589.1204699893 25370180.216426477 0 0 0 0 -16401923.095259905 1945083.1716880798 0 1945083.1716880798 27561951.872535706 0 0 0 0 -14638243.690369129 46474084.678956032 0 46474084.678956032 31469386.143611908 0 0 0 0 -10687717.137182713 45419725.547335625 0 45419725.547335625 22075937.67281723 0 0 0 0 -676654.08734670887 7513159.8487457968 0 7513159.8487457968 4413982.406669151 0 0 0 0 -10749263.965082169 41841387.945808411 0 41841387.945808411 35114384.435638428 0 0 0 0 -5818477.1212089062 3943032.5348510742 0 3943032.5348510742 9528160.3330345154 0 0 0 0 -48026604.1584692 -8697198.5438232422 0 -8697198.5438232422 36571533.22192955 0 0 0 0 -3109942.9725687886 1956948.3146156464 0 1956948.3146156464 14395077.432009902 0 0 0 0 -41273287.950508595 12062041.372873306 0 12062041.372873306 28802488.940994263 0 0 0 0 -8719767.1894035339 39221334.62122345 0 39221334.62122345 41105597.785919189 0 0 0 0 489845.38318634033 32101845.589553833 0 32101845.589553833 43114631.97870636 0 0 0 0 9103948.5437812805 31491579.505073547 0 31491579.505073547 29737629.78868103 0 0 0 0 17853782.034908295 16372748.134437561 0 16372748.134437561 47302346.303627014 0 0 0 0 38070936.232438087 32895559.704889297 0 32895559.704889297 26557223.47303009 0 0 0 0 -1805127.1917190552 24629618.634784698 0 24629618.634784698 44334722.261642456 0 0 0 0 60446690.888950348 12428604.77567482 0 12428604.77567482 26202446.10618782 0 0 0 0 -16254539.515179634 33188083.638092041 0 33188083.638092041 48126913.568181992 0 0 0 0 -19227174.713348389 -3271351.645154953 0 -3271351.645154953 24223994.309607506 0 0 0 0 -83830700.994107246 24514903.789505243 0 24514903.789505243 55982546.864227295 0 0 0 0 -1156991.8842371213 4379341.4181905799 0 4379341.4181905799 26175843.159693345 0 0 0 0 -1168475.5855625868 23468176.681200743 0 23468176.681200743 8730698.5378570557 0 0 0 0 -46073926.083145618 -11813465.090898514 0 -11813465.090898514 48216067.926094055 0 0 0 0 -21124500.442137718 16875034.921668053 0 16875034.921668053 13370112.26484108 0 0 0 0 -3242157.9709525136 -143338.60315831611 0 -143338.60315831611 27153772.359337736 0 0 0 0 -76542331.813629627 -8796436.3454389572 0 -8796436.3454389572 60347389.845644951 0 0 0 0 13430027.016338348 31818476.329488754 0 31818476.329488754 58437715.433324814 0 0 0 0 -37899717.568190575 -3933291.9867696762 0 -3933291.9867696762 97030375.114571571 0 0 0 0 -21784175.655983925 18371863.873996735 0 18371863.873996735 68500352.531898499 0 0 0 0 24898997.996422529 29527958.223166466 0 29527958.223166466 26152503.74842453 0 0 0 0 22994472.950476646 19589077.120728493 0 19589077.120728493 65476603.080469608 0 0 0 0 16917708.208136201 48720450.853778362 0 48720450.853778362 84390481.186166763 0 0 0 0 386136.16356804734 574913.97046604287 0 574913.97046604287 1931935.2227168605 0 0 0 0 64227536.01464498 97668228.908795834 0 97668228.908795834 174141854.4526825 0 0 0 0 43027472.144827366 -98148046.305780411 0 -98148046.305780411 -28449591.581324577 0 0 0 0 13697373.657044411 -44903744.300821304 0 -44903744.300821304 -41028295.431941986 0 0 0 0 -100570542.43080044 -54862272.021791458 0 -54862272.021791458 42864140.674304962 0 0 0 0 66924072.636414051 75094220.587352693 0 75094220.587352693 43617927.469161987 0 0 0 0 564715.60813019704 2699639.3290521586 0 2699639.3290521586 7266164.2673825826 0 0 0 0 -88679968.229253531 -29039248.502804756 0 -29039248.502804756 36376218.202735901 0 0 0 0 -74745790.828850746 -49728510.537643433 0 -49728510.537643433 -1607014.0158195496 0 0 0 0 -84594575.482009888 -20339634.725482941 0 -20339634.725482941 27713606.050945282 0 0 0 0 -65457100.66740036 7043353.5322265625 0 7043353.5322265625 49239055.884124756 0 0 0 0 -62376030.614557266 9967887.4473953247 0 9967887.4473953247 46761820.646476746 0 0 0 0 -102383674.30350685 13581754.999551773 0 13581754.999551773 108064727.23957062 0 0 0 0 -34010694.864282608 3732217.7371940613 0 3732217.7371940613 7416069.2517671585 0 0 0 0 -50789228.258328438 -9794123.4169521332 0 -9794123.4169521332 31514555.432655334 0 0 0 0 -36789592.288205147 5338230.3300094604 0 5338230.3300094604 38861503.427032471 0 0 0 0 -25578019.429538727 18649810.666044235 0 18649810.666044235 37471444.716351986 0 0 0 0 -36766056.524855614 42402830.16659832 0 42402830.16659832 76012157.345626831 0 0 0 0 -75170710.672243118 46879731.553359985 0 46879731.553359985 111173400.69374084 0 0 0 0 -180908215.19861412 83908615.751846313 0 83908615.751846313 302947213.20727539 0 0 0 0 -44124326.033429623 -8143116.2472543716 0 -8143116.2472543716 1364209.2364854813 0 0 0 0 -162987757.30925858 378808654.74394071 0 378808654.74394071 72561645.787631989 0 0 0 0 -116591421.42294884 -11556905.901403427 0 -11556905.901403427 68477379.263572693 0 0 0 0 -102112749.92575073 -108368301.22166884 0 -108368301.22166884 -170792149.77742386 0 0 0 0 -7596397.2941688895 -9308382.4266357422 0 -9308382.4266357422 21196200.005912781 0 0 0 0 2658010.4355012178 18668706.129493713 0 18668706.129493713 -6686941.8525009155 0 0 0 0 -568560.4129912511 -514021.57041122019 0 -514021.57041122019 2558465.4263981134 0 0 0 0 -5235624.5537880063 -1334103.6857919693 0 -1334103.6857919693 13110790.927391052 0 0 0 0 34900365.399502441 -55613799.711545944 0 -55613799.711545944 91151282.045799255 0 0 0 0 11590190.984566137 -9521135.0741558075 0 -9521135.0741558075 131098498.6658783 0 0 0 0 -19211679.613631323 -44959476.208625793 0 -44959476.208625793 101770528.65190887 0 0 0 0 -211535.74209906967 -148630.13776579499 0 -148630.13776579499 1451913.7009556964 0 0 0 0 -3932666.0279126088 -33385082.159095764 0 -33385082.159095764 103068976.32919312 0 0 0 0 27827630.404612251 -73288635.008895874 0 -73288635.008895874 31895898.782485962 0 0 0 0 -14899.230472318844 -115615.95842987299 0 -115615.95842987299 936225.05952589214 0 0 0 0 -28417.04292751446 -1124323.9811515808 0 -1124323.9811515808 19650115.60855484 0 0 0 0 19455021.288583633 -7583364.3943367004 0 -7583364.3943367004 -38570998.900474548 0 0 0 0 -7400316.9624353312 2017498.362341404 0 2017498.362341404 18391214.375488281 0 0 0 0 26019139.589815103 -28826101.251655579 0 -28826101.251655579 15527543.509277344 0 0 0 0 8714500.1225642394 14325231.776632309 0 14325231.776632309 13152172.27747345 0 0 0 0 -6330649.5823020805 10404081.883025169 0 10404081.883025169 63052903.343902588 0 0 0 0 -30716829.686450776 28915651.648948669 0 28915651.648948669 104352081.92947388 0 0 0 0 -80237.974969361007 -76290.426630664617 0 -76290.426630664617 350431.99255596101 0 0 0 0 3816495.8293100987 -369924.36894989014 0 -369924.36894989014 -1741817.6103134155 0 0 0 0 5039623.7219814872 6608322.9425163269 0 6608322.9425163269 4681782.3823852539 0 0 0 0 1169.0495936769021 3520897.0669822693 0 3520897.0669822693 16741874.814506531 0 0 0 0 9201.6684861862668 449807.21860178316 0 449807.21860178316 1298851.2275238037 0 0 0 0 12484.550115632126 1041228.2294235229 0 1041228.2294235229 3020717.5346984863 0 0 0 0 -4868619.2408104828 -1853366.1366920471 0 -1853366.1366920471 3035901.3933753967 0 0 0 0 -5164273.2258643247 -1095014.1708812714 0 -1095014.1708812714 1650539.6653137207 0 0 0 0 -305424.23176641867 1805936.3309211731 0 1805936.3309211731 1223281.2897186279 0 0 0 0 -10344.029688341278 109439.49351590872 0 109439.49351590872 188969.1947544266 0 0 0 0 2141945.3930276334 -4680421.6710367203 0 -4680421.6710367203 9006304.6401748657 0 0 0 0 -255702.76293558785 -217756.85339528695 0 -217756.85339528695 1016118.9766748697 0 0 0 0 8366752.6608018279 -8450510.5571498871 0 -8450510.5571498871 8606819.2943191528 0 0 0 0 633981.10581874847 -2956744.9574737549 0 -2956744.9574737549 7041024.2592468262 0 0 0 0 221931.74348500086 910655.61060601473 0 910655.61060601473 2641458.6335369814 0 0 0 0 -538145.28948271275 -2632060.1958961487 0 -2632060.1958961487 11764880.564308167 0 0 0 0 -96186.739431381226 -1965610.524230957 0 -1965610.524230957 10176533.556985855 0 0 0 0 -538156.38083732128 -1482496.0208892822 0 -1482496.0208892822 11527869.931411743 0 0 0 0 243869.32156738522 1033625.376470983 0 1033625.376470983 5214136.222823726 0 0 0 0 -836201.94790756702 -2146733.5236549377 0 -2146733.5236549377 12306867.24514389 0 0 0 0 5400047.9354905095 -23380371.744013309 0 -23380371.744013309 65318542.571807861 0 0 0 0 -1087445.366616047 -1057950.5856153406 0 -1057950.5856153406 5222015.8976482749 0 0 0 0 -632365.23597180843 -1835847.0473518372 0 -1835847.0473518372 12217917.43006134 0 0 0 0 -2178075.1431191564 2251241.6920280457 0 2251241.6920280457 9655202.2357025146 0 0 0 0 -858109.2700316906 -339515.58145904541 0 -339515.58145904541 13044055.870520711 0 0 0 0 468897.88013554295 2612870.4348230101 0 2612870.4348230101 9340040.609827362 0 0 0 0 -2660403.9531092644 1513320.7678909302 0 1513320.7678909302 8527053.0622609854 0 0 0 0 -2654502.0567731434 -815912.23185881693 0 -815912.23185881693 8184684.5543318838 0 0 0 0 -246471.5119560957 -10607582.863052368 0 -10607582.863052368 30798155.708580017 0 0 0 0 -10092173.14575161 -23879272.117170334 0 -23879272.117170334 66865323.402587891 0 0 0 0 131731.62596580954 -546074.70528073609 0 -546074.70528073609 -156162.03747916222 0 0 0 0 -8385278.9950332344 -11278627.698299408 0 -11278627.698299408 31003187.385787964 0 0 0 0 -2580067.5921722362 -4834626.9244101904 0 -4834626.9244101904 10379454.955025699 0 0 0 0 -4162478.0822366476 -7396799.558013916 0 -7396799.558013916 29292435.557823181 0 0 0 0 -1025659.5525251329 -760879.39588165283 0 -760879.39588165283 22352616.127685547 0 0 0 0 -5606258.5228062868 -1161913.6192092896 0 -1161913.6192092896 36900871.317016602 0 0 0 0 -5539508.1821390837 -758216.70042228699 0 -758216.70042228699 39283973.342346191 0 0 0 0 2828886.8298629448 -12878094.355665207 0 -12878094.355665207 48795226.937072754 0 0 0 0 -4878543.6975560784 -3214184.1069068909 0 -3214184.1069068909 47726100.534744263 0 0 0 0 -9288004.2654877901 5061404.7982025146 0 5061404.7982025146 39991259.243598938 0 0 0 0 -450407.65159422159 -3211309.1247253418 0 -3211309.1247253418 35664134.877792358 0 0 0 0 -10185301.526167324 -3090782.454387188 0 -3090782.454387188 59243688.549911499 0 0 0 0 -4155352.3519257903 7271763.1105651855 0 7271763.1105651855 40895054.98589325 0 0 0 0 -5655587.6447550952 13846704.413349152 0 13846704.413349152 13407930.764274597 0 0 0 0 -4459985.7302460372 6551569.5474014282 0 6551569.5474014282 39275548.590957642 0 0 0 0 -1564007.4140199746 6723321.6479955688 0 6723321.6479955688 35450474.37852478 0 0 0 0 12344253.847266391 -20217638.923248291 0 -20217638.923248291 58608183.437232971 0 0 0 0 1661659.859196052 -36883690.028964996 0 -36883690.028964996 80626696.785171509 0 0 0 0 -9661860.7846752107 -18396538.489875793 0 -18396538.489875793 69443008.493553162 0 0 0 0 -35641227.059223905 -9286488.5340309143 0 -9286488.5340309143 77473802.057182312 0 0 0 0 -23701719.561280325 18228420.783870697 0 18228420.783870697 42275453.615379333 0 0 0 0 7159386.6095516309 9557053.8878440857 0 9557053.8878440857 4068362.7521438599 0 0 0 0 -18821435.510277614 -8621850.8705010414 0 -8621850.8705010414 17598374.98626709 0 0 0 0 -21925665.618744865 10182912.269824505 0 10182912.269824505 11090865.541618347 0 0 0 0 -12476524.221747503 1325317.0744476318 0 1325317.0744476318 16721544.832519531 0 0 0 0 -6524.5673313980369 -73689.978597540408 0 -73689.978597540408 375022.205435507 0 0 0 0 -30651537.674527042 4734692.3803520203 0 4734692.3803520203 38633977.566673279 0 0 0 0 -523644.43293589307 -313174.07650579512 0 -313174.07650579512 6878654.353861209 0 0 0 0 1416753.6063060425 -11936294.805065155 0 -11936294.805065155 22804558.56577301 0 0 0 0 -139977.02160767032 -176059.22338363528 0 -176059.22338363528 2004075.6117829829 0 0 0 0 298069.34094437212 -13749584.694114685 0 -13749584.694114685 15113347.396253586 0 0 0 0 2686132.5754953194 -10436229.745340347 0 -10436229.745340347 16165644.424346924 0 0 0 0 4063358.8162009567 -8924759.7179107666 0 -8924759.7179107666 8919225.2153778076 0 0 0 0 11406820.193673506 -22035482.190917969 0 -22035482.190917969 19743876.763980865 0 0 0 0 -1714419.823083695 -23341047.054679871 0 -23341047.054679871 38191077.60042572 0 0 0 0 -1693146.7022582944 -23236946.104768038 0 -23236946.104768038 26423778.277099609 0 0 0 0 -18779023.21311529 -23460266.592437744 0 -23460266.592437744 41602061.213733673 0 0 0 0 23825091.538948588 -22201754.933837891 0 -22201754.933837891 15610773.367103577 0 0 0 0 10302800.713320538 -36315031.904876709 0 -36315031.904876709 40095006.258895874 0 0 0 0 37391443.898498118 -56090392.492656708 0 -56090392.492656708 59108420.194984436 0 0 0 0 17840152.078076534 -15193136.538433075 0 -15193136.538433075 113170044.97166443 0 0 0 0 608305.13251685724 -32067173.161312103 0 -32067173.161312103 43618589.994297028 0 0 0 0 -1543394.7735315934 -41960264.676950455 0 -41960264.676950455 57950732.152175903 0 0 0 0 -33606400.679627895 -45297270.012435913 0 -45297270.012435913 74506454.058380127 0 0 0 0 1356658.9622840509 3989536.6348896027 0 3989536.6348896027 -298238.76605987549 0 0 0 0 -6539.03995640637 -21776.513701822609 0 -21776.513701822609 200578.99286676943 0 0 0 0 25230301.863327861 -42396496.70999527 0 -42396496.70999527 29215980.772644043 0 0 0 0 26578324.091915183 70799045.742761612 0 70799045.742761612 96181732.400398254 0 0 0 0 2141687.866626177 28214525.141620636 0 28214525.141620636 82152655.624282837 0 0 0 0 4751608.0699859411 43426526.35729599 0 43426526.35729599 50787764.08380127 0 0 0 0 5926275.1487921625 15136030.530670166 0 15136030.530670166 25968517.822502136 0 0 0 0 1314154.4888344929 23023491.599948883 0 23023491.599948883 508161.49697113037 0 0 0 0 10992479.481536455 2567069.0007667542 0 2567069.0007667542 38252949.347448349 0 0 0 0 3711216.1906076223 -33844413.289140701 0 -33844413.289140701 38511669.975891113 0 0 0 0 5725323.303770043 -22135111.758491516 0 -22135111.758491516 96315111.052602768 0 0 0 0 10496.940394781544 -52986.518066478893 0 -52986.518066478893 171320.03269114345 0 0 0 0 8110885.9800060838 21556109.139518738 0 21556109.139518738 91757230.321781933 0 0 0 0 -20965255.117165416 -54811991.256896973 0 -54811991.256896973 48927986.382080078 0 0 0 0 880064.589851439 -47850770.626068115 0 -47850770.626068115 21645347.786979675 0 0 0 0 7995504.1404490042 -28687297.623458862 0 -28687297.623458862 136352693.5235672 0 0 0 0 17350993.298679639 -19345887.928890228 0 -19345887.928890228 59622727.437614441 0 0 0 0 11481223.580376158 7355962.6482524872 0 7355962.6482524872 74831295.662521362 0 0 0 0 11405893.414904941 4120480.5129966736 0 4120480.5129966736 77541695.670330048 0 0 0 0 62297.13706611091 4572819.9870109558 0 4572819.9870109558 82909179.381210327 0 0 0 0 -4032.0800572057215 12846192.584701538 0 12846192.584701538 70873968.766410828 0 0 0 0 13515798.083670046 12731385.477760315 0 12731385.477760315 59458985.565338135 0 0 0 0 619919.24290610105 23442172.525512695 0 23442172.525512695 67481059.583724976 0 0 0 0 2931959.4439147939 17935410.429931641 0 17935410.429931641 78226406.508529663 0 0 0 0 -7602.7559357878963 11215950.686794281 0 11215950.686794281 79136141.414985657 0 0 0 0 -5740021.816508837 14765122.541027069 0 14765122.541027069 78352318.115606666 0 0 0 0 -4480256.6152666435 19116098.398111343 0 19116098.398111343 93377660.097496033 0 0 0 0 -11166452.447853535 3884132.2950401306 0 3884132.2950401306 88255450.954564095 0 0 0 0 -8580914.8976527993 -301098.50631332397 0 -301098.50631332397 74258606.764953613 0 0 0 0 -9153763.4170027226 33532289.873161316 0 33532289.873161316 117668902.54682159 0 0 0 0 -6722980.3544604927 24861203.60654068 0 24861203.60654068 81542706.837182045 0 0 0 0 -9572600.4518026672 3470995.7578601837 0 3470995.7578601837 81321346.30682373 0 0 0 0 -8026191.7830644771 -11119661.625297546 0 -11119661.625297546 129195528.5275116 0 0 0 0 4018225.9832445085 -15592408.131618977 0 -15592408.131618977 85707984.553710938 0 0 0 0 5324797.3172073597 -24314016.231259823 0 -24314016.231259823 62479922.650093079 0 0 0 0 1944166.5407360196 -1373669.4653549194 0 -1373669.4653549194 39918904.751647949 0 0 0 0 -8568.3434142799542 7117504.3606071472 0 7117504.3606071472 59082892.767543793 0 0 0 0 4232719.4599011652 -6401225.6560993195 0 -6401225.6560993195 18486988.688812256 0 0 0 0 -2662156.5206617117 -5900961.0805549622 0 -5900961.0805549622 50261056.614944458 0 0 0 0 3317.3760462303726 4990362.8674468994 0 4990362.8674468994 19266408.580207825 0 0 0 0 -73831.773959941231 -4307260.4582214355 0 -4307260.4582214355 3970285.7461471558 0 0 0 0 687126.28545946744 1171547.0625215545 0 1171547.0625215545 1937675.5453731641 0 0 0 0 -1574.6927736457305 25976.076553344727 0 25976.076553344727 1776903.7621002197 0 0 0 0 -970868.90504786302 2497662.1993026733 0 2497662.1993026733 -1178313.2809829712 0 0 0 0 -684481.2584059122 -155588.54276687652 0 -155588.54276687652 1979598.6876019016 0 0 0 0 -3738908.6211175919 7010601.7629089355 0 7010601.7629089355 5502466.5625829697 0 0 0 0 -1655516.427918911 6552425.9515228271 0 6552425.9515228271 5485470.3266057968 0 0 0 0 -426323.00551122613 -2290736.7522232533 0 -2290736.7522232533 -816188.81073760986 0 0 0 0 -1769271.6433607198 163124.48782414943 0 163124.48782414943 2760467.7579741254 0 0 0 0 1449639.2543204157 2150169.7296409495 0 2150169.7296409495 2401634.9477479979 0 0 0 0 4748941.1672704313 5978846.7235784531 0 5978846.7235784531 14841661.340820312 0 0 0 0 1801856.8769464639 1413975.4520040564 0 1413975.4520040564 1183723.4051235691 0 0 0 0 -15742588.669338703 15089299.710128784 0 15089299.710128784 -5476059.9508552551 0 0 0 0 -20970657.388621688 7532154.1238088608 0 7532154.1238088608 12689275.72353363 0 0 0 0 -22432108.376012087 4420483.2804946899 0 4420483.2804946899 10022851.846691132 0 0 0 0 -1321514.9798779488 3201303.3742904663 0 3201303.3742904663 6262349.8465261459 0 0 0 0 -4799355.9073363543 3712682.3663368225 0 3712682.3663368225 6292658.7163391113 0 0 0 0 -1865218.0644517585 -668208.72994090244 0 -668208.72994090244 2704173.3261554167 0 0 0 0 -1521643.9669325855 -4509609.2706718445 0 -4509609.2706718445 2800895.9694757462 0 0 0 0 -13191645.17015177 -191347.0996799469 0 -191347.0996799469 10312910.306488037 0 0 0 0 -17732861.622131348 -9647343.7284584045 0 -9647343.7284584045 2266443.5179176331 0 0 0 0 -12708301.052071124 -2035136.0950918198 0 -2035136.0950918198 13766013.538497925 0 0 0 0 -15687010.109765053 -18474552.170009613 0 -18474552.170009613 815926.72506523132 0 0 0 0 -1620577.0115947961 -1246886.1295969188 0 -1246886.1295969188 2610906.6856363863 0 0 0 0 3540807.0490577668 3804840.5222396851 0 3804840.5222396851 4531110.779176712 0 0 0 0 3608064.3617785787 -1907780.5982627869 0 -1907780.5982627869 8571280.3500785828 0 0 0 0 -3047699.5374061391 3771368.634853363 0 3771368.634853363 16756110.990367889 0 0 0 0 1699191.4980154489 6243448.0874023438 0 6243448.0874023438 17798422.506713867 0 0 0 0 -24644.192342558032 506000.96799359482 0 506000.96799359482 5431995.8016662598 0 0 0 0 1689959.5838760645 1750735.5574188232 0 1750735.5574188232 -1071428.9794616699 0 0 0 0 3020961.4617550005 -2740941.6186795235 0 -2740941.6186795235 -769216.18006896973 0 0 0 0 -639065.14778581075 3295137.3095283508 0 3295137.3095283508 4020010.956703186 0 0 0 0 -4542445.5646182299 -35244985.634407043 0 -35244985.634407043 66541941.700956345 0 0 0 0 28770060.288441338 -38747223.572966576 0 -38747223.572966576 6614460.5464935303 0 0 0 0 -7183106.4874620438 -21207923.93164444 0 -21207923.93164444 16348262.224258423 0 0 0 0 20522299.200036339 -8706086.8016490936 0 -8706086.8016490936 7320902.589881897 0 0 0 0 65663846.325440735 -50267804.595188141 0 -50267804.595188141 43142908.888088226 0 0 0 0 -2102432.421920985 -19712586.373775482 0 -19712586.373775482 4091524.1590652466 0 0 0 0 17658034.28224501 -26575204.762454987 0 -26575204.762454987 -32568287.746398926 0 0 0 0 5022637.0978056192 -21123374.611419678 0 -21123374.611419678 -979719.7689666748 0 0 0 0 -2398649.3827004433 -31560549.062282562 0 -31560549.062282562 16304928.667404175 0 0 0 0 9856710.4495512247 -28037214.455307007 0 -28037214.455307007 -15794869.420059204 0 0 0 0 2347097.265617013 -18067754.319351196 0 -18067754.319351196 -20447344.203178406 0 0 0 0 -4004241.4181325436 -24125353.161529541 0 -24125353.161529541 -8954193.6796433926 0 0 0 0 -3082439.0673449039 -21770858.739242554 0 -21770858.739242554 -19350760.505691528 0 0 0 0 -11992677.070479631 -16705843.358726501 0 -16705843.358726501 -9691447.5841674805 0 0 0 0 -5735199.163942337 -22082571.596557617 0 -22082571.596557617 -10404611.220191956 0 0 0 0 -8100267.400762558 -25943473.854751587 0 -25943473.854751587 7007629.3723297119 0 0 0 0 -3991920.0981585979 -22782406.414001465 0 -22782406.414001465 -8964086.8692833185 0 0 0 0 -17637960.754054785 -11753220.989044189 0 -11753220.989044189 -6769438.1210479736 0 0 0 0 -14901393.724829555 -20305813.017343521 0 -20305813.017343521 6389080.3938140869 0 0 0 0 -18761336.390778422 -8634923.7169761658 0 -8634923.7169761658 25701776.046417236 0 0 0 0 -14376325.642703772 -17874191.218551636 0 -17874191.218551636 5971566.5442695618 0 0 0 0 -12196895.003044426 -24886339.485376358 0 -24886339.485376358 30493940.176345825 0 0 0 0 -14240047.884572268 -15294086.939323425 0 -15294086.939323425 13323110.011798859 0 0 0 0 -18512213.922317624 -751766.9029045105 0 -751766.9029045105 44960711.972595215 0 0 0 0 -19381573.513632357 -5200860.9646530151 0 -5200860.9646530151 22228873.291793823 0 0 0 0 -22896310.639108181 1514881.0319328308 0 1514881.0319328308 32117474.710899353 0 0 0 0 -15626937.859161317 9901085.310710907 0 9901085.310710907 -6311676.9925384521 0 0 0 0 -17099332.593125343 21036140.270542145 0 21036140.270542145 20285611.760150909 0 0 0 0 -12252508.681946039 13337097.240932465 0 13337097.240932465 19440027.562042236 0 0 0 0 5206988.8496141732 36491955.414169312 0 36491955.414169312 57124986.148544312 0 0 0 0 4622354.2539425194 38064069.390815735 0 38064069.390815735 53051723.354743958 0 0 0 0 21803202.905454576 79481276.647773743 0 79481276.647773743 33775736.158714294 0 0 0 0 -15399198.628846616 -7755505.4281654358 0 -7755505.4281654358 59159680.675735474 0 0 0 0 -5100689.1658782959 -1657317.9879646301 0 -1657317.9879646301 57358905.360010147 0 0 0 0 13347708.182377949 21779035.566123962 0 21779035.566123962 287950365.58207703 0 0 0 0 14389592.639154851 38218291.662879944 0 38218291.662879944 90631948.920417786 0 0 0 0 -8895645.5099725649 -2919547.9094085693 0 -2919547.9094085693 148170798.48661804 0 0 0 0 66552014.647732973 115317686.20241928 0 115317686.20241928 88825163.406311035 0 0 0 0 10161265.200014532 52822201.69329071 0 52822201.69329071 110890925.58151245 0 0 0 0 71044544.388527542 69664633.603317261 0 69664633.603317261 45522773.225914001 0 0 0 0 73796510.059447676 75046297.510766983 0 75046297.510766983 -17445478.227600098 0 0 0 0 -777884.40708912001 -1101410.3062476367 0 -1101410.3062476367 2134028.0224787518 0 0 0 0 -22151738.39482832 -51594645.95552063 0 -51594645.95552063 114316301.97932434 0 0 0 0 -42402728.976464301 122498355.8257637 0 122498355.8257637 -33325457.085586548 0 0 0 0 -18370406.901407391 69600338.401883125 0 69600338.401883125 -58143181.669662476 0 0 0 0 46220322.238876343 81982246.912963867 0 81982246.912963867 -24678124.769554138 0 0 0 0 -32745771.112096086 93543408.699735641 0 93543408.699735641 15660513.075622559 0 0 0 0 29392262.164354876 52340207.368156433 0 52340207.368156433 40164458.142883301 0 0 0 0 29580632.778745711 57930223.333709717 0 57930223.333709717 -4411361.6921310425 0 0 0 0 47194528.324847959 69922488.577305794 0 69922488.577305794 -22269711.659378052 0 0 0 0 40960951.043916181 126142133.04496956 0 126142133.04496956 89064681.638725281 0 0 0 0 113301936.40800917 104088504.6720047 0 104088504.6720047 -8673234.8776664734 0 0 0 0 -36499618.79094559 89668714.265041351 0 89668714.265041351 22458705.473724365 0 0 0 0 -44829387.952433974 27449914.5664711 0 27449914.5664711 38149649.009185791 0 0 0 0 -97379367.471237898 44560122.106269836 0 44560122.106269836 -6942360.0551528931 0 0 0 0 5617134.5067445338 67352631.321914673 0 67352631.321914673 -8512374.7495117188 0 0 0 0 -14197031.882716358 91472873.381965637 0 91472873.381965637 -4976748.2583465576 0 0 0 0 1396068.9500427917 896442.43128737062 0 896442.43128737062 650623.60481856018 0 0 0 0 -28570188.774713159 44112343.487819672 0 44112343.487819672 -19046745.107086182 0 0 0 0 -15827153.393973947 6072468.6526489258 0 6072468.6526489258 -14891808.747802734 0 0 0 0 38986344.572988212 41937960.755401611 0 41937960.755401611 6751923.9856758118 0 0 0 0 92838759.324291021 38190067.947399139 0 38190067.947399139 -55400193.12090683 0 0 0 0 597421.65652089531 299269.48077506199 0 299269.48077506199 184643.01480694115 0 0 0 0 13559720.572186053 -18600772.078594208 0 -18600772.078594208 86650614.424247742 0 0 0 0 6662705.6838150322 -37070965.706990242 0 -37070965.706990242 224890951.66197968 0 0 0 0 77388609.765567124 62071161.732000351 0 62071161.732000351 168907765.52556992 0 0 0 0 6797976.5825507715 12750844.077651978 0 12750844.077651978 135082517.17945862 0 0 0 0 -43342559.537922382 19197818.564453125 0 19197818.564453125 66756164.729431152 0 0 0 0 -90079998.880533099 54423079.107696533 0 54423079.107696533 54134201.4789505 0 0 0 0 -99325343.693799138 7869997.9591140747 0 7869997.9591140747 72605206.860549927 0 0 0 0 90126435.52858679 -53281128.664112091 0 -53281128.664112091 93679457.236557007 0 0 0 0 -32336696.877930626 70088633.209119797 0 70088633.209119797 168572439.23728943 0 0 0 0 -13702265.438475691 -36790659.855880737 0 -36790659.855880737 165533012.98048806 0 0 0 0 129462372.83288011 30146951.147872925 0 30146951.147872925 92792659.19569397 0 0 0 0 -7436131.3821405601 -22555005.778617859 0 -22555005.778617859 102057851.68108368 0 0 0 0 -11696457.257040858 -43333022.648711205 0 -43333022.648711205 63187651.050094604 0 0 0 0 -63034515.986138582 -21679152.089553833 0 -21679152.089553833 103344380.54231262 0 0 0 0 -40562547.576519251 -25714658.392341614 0 -25714658.392341614 68043390.243515015 0 0 0 0 -77910480.291527689 -8600208.2013626099 0 -8600208.2013626099 59894802.117233276 0 0 0 0 -57925107.451923221 -39472621.223739624 0 -39472621.223739624 70606047.172424316 0 0 0 0 -62567012.41850093 27492678.795631409 0 27492678.795631409 81082780.427978516 0 0 0 0 -150212097.74349737 4799760.7900161743 0 4799760.7900161743 76327045.617492676 0 0 0 0 -94700175.471578479 2352000.3342285156 0 2352000.3342285156 39679055.368469238 0 0 0 0 -136674520.07345581 -32625796.070800781 0 -32625796.070800781 11986038.801376343 0 0 0 0 -90125072.872394174 -26987326.341409683 0 -26987326.341409683 32225195.182769775 0 0 0 0 -105548715.43356121 10347151.173019409 0 10347151.173019409 42480557.798152924 0 0 0 0 -106069301.93701297 16534069.533762932 0 16534069.533762932 -30516179.870574951 0 0 0 0 -81522769.224983692 11424539.777420044 0 11424539.777420044 49911569.583309174 0 0 0 0 -147302388.66083312 20749963.334289551 0 20749963.334289551 49337221.581878662 0 0 0 0 -121901884.62238133 46114731.255218506 0 46114731.255218506 60562608.152359009 0 0 0 0 -3428585.7122432268 1078422.7910784492 0 1078422.7910784492 10851194.102018237 0 0 0 0 -78620692.37277016 9343968.7458724976 0 9343968.7458724976 20279187.353942871 0 0 0 0 -153372937.98995274 54044373.765651703 0 54044373.765651703 36062732.099048615 0 0 0 0 -1518348.3687526805 -1029350.4397165701 0 -1029350.4397165701 4636989.1062252522 0 0 0 0 -11745011.651336491 1241815.3079833984 0 1241815.3079833984 5785554.696434021 0 0 0 0 -1616931.4883348453 395690.36907527968 0 395690.36907527968 14686031.660456307 0 0 0 0 -1654370.1956482623 -4149154.78017845 0 -4149154.78017845 7419110.5192262232 0 0 0 0 -2705123.7674057363 10600817.762236979 0 10600817.762236979 4512621.9350680187 0 0 0 0 693430.52163773193 8220852.9484633468 0 8220852.9484633468 20879391.334611103 0 0 0 0 10231771.723123372 9911429.6650314331 0 9911429.6650314331 -12475516.174240112 0 0 0 0 -9625822.3981682211 37522976.917180061 0 37522976.917180061 37613593.001113892 0 0 0 0 929992.89364208712 2976425.2432534229 0 2976425.2432534229 -957096.90130278468 0 0 0 0 -174673174.55271584 -13032448.998657227 0 -13032448.998657227 64104373.581329346 0 0 0 0 -4350139.4050872326 6836151.7479801178 0 6836151.7479801178 24792863.065422058 0 0 0 0 -2571181.1305971146 3693559.307258606 0 3693559.307258606 19682031.139127731 0 0 0 0 -6229216.4747802019 1930494.99974823 0 1930494.99974823 23447651.337341309 0 0 0 0 -6802101.8070406914 1550008.1268844604 0 1550008.1268844604 23343303.483078003 0 0 0 0 -5947123.849017024 4150106.0678520203 0 4150106.0678520203 24582804.407913208 0 0 0 0 -5184164.0004038811 1187039.3906517029 0 1187039.3906517029 20236465.756065369 0 0 0 0 -633536.26646137238 4141390.850643158 0 4141390.850643158 30782881.083686829 0 0 0 0 -5616338.0664944649 709310.96495437622 0 709310.96495437622 25745895.706848145 0 0 0 0 -4475510.3704810143 5049220.3497161865 0 5049220.3497161865 24955960.968353271 0 0 0 0 -2778903.4964447021 2944155.3042144775 0 2944155.3042144775 23711699.77173233 0 0 0 0 -3475552.865391016 4519127.375120163 0 4519127.375120163 29788059.349395752 0 0 0 0 -1114951.5826349258 1932656.3035812378 0 1932656.3035812378 25637608.406880856 0 0 0 0 1997776.2517156601 8373585.2531700134 0 8373585.2531700134 25151447.631320953 0 0 0 0 1486834.7601266503 3185465.0482788086 0 3185465.0482788086 8372156.3331451416 0 0 0 0 -1103164.1048879623 3701375.4008255005 0 3701375.4008255005 25491155.019714355 0 0 0 0 -2376426.9739282131 3806282.9608211517 0 3806282.9608211517 29461996.14831543 0 0 0 0 -1423197.5177302575 -68447.452141530812 0 -68447.452141530812 11408348.075898107 0 0 0 0 -905438.91248273849 5469390.7955284119 0 5469390.7955284119 30058321.664224625 0 0 0 0 1357327.9491043091 3159394.0069007874 0 3159394.0069007874 9470538.7965698242 0 0 0 0 -4704092.4304375434 -2176283.1689394563 0 -2176283.1689394563 29472197.231261112 0 0 0 0 3761083.2722387314 6390986.7845344543 0 6390986.7845344543 28352081.229090691 0 0 0 0 1739959.4439645514 2591124.409562856 0 2591124.409562856 26846731.123439461 0 0 0 0 -21548288.07333231 -21244429.528175354 0 -21244429.528175354 -20915578.61259985 0 0 0 0 -2867318.5210193396 2669883.7157859802 0 2669883.7157859802 35027790.616973877 0 0 0 0 -228296.38105916977 2379187.7800254822 0 2379187.7800254822 30782000.392211914 0 0 0 0 -20631124.823912621 -60441036.028961182 0 -60441036.028961182 -4618210.8254394531 0 0 0 0 -3437826.1901229508 -4138379.4542600065 0 -4138379.4542600065 16223589.243650429 0 0 0 0 -9890855.173342824 -32149800.088438034 0 -32149800.088438034 -33428538.07244873 0 0 0 0 2456389.5484209554 -3772337.6719336845 0 -3772337.6719336845 -7846463.7589644119 0 0 0 0 16677171.215832949 -5148287.7638244629 0 -5148287.7638244629 4776615.0659179688 0 0 0 0 -56694376.867529482 7102687.5793075562 0 7102687.5793075562 -72934234.5262146 0 0 0 0 -114206.94769319892 -2861462.0163459778 0 -2861462.0163459778 7535669.4628143311 0 0 0 0 1896084.7148888111 4096094.0936775208 0 4096094.0936775208 16255240.117111206 0 0 0 0 1771807.4153571264 -1902933.6630663499 0 -1902933.6630663499 -3740787.5051077455 0 0 0 0 -6502169.2908113003 -8875913.0527572632 0 -8875913.0527572632 16784580.15087986 0 0 0 0 855311.12828081846 -3509342.550151825 0 -3509342.550151825 -658748.70695495605 0 0 0 0 -2415375.6456201077 -3631886.0195922852 0 -3631886.0195922852 7665286.8530960083 0 0 0 0 -1384150.1702739648 -2878542.2678582761 0 -2878542.2678582761 8835943.8152730167 0 0 0 0 -402604.35488927364 -2874317.9378814697 0 -2874317.9378814697 6397965.464012146 0 0 0 0 -2900584.5393854678 -2539770.4029769897 0 -2539770.4029769897 9493310.8344116211 0 0 0 0 -4033471.8607472777 -1572729.3797683716 0 -1572729.3797683716 21013344.994499207 0 0 0 0 2994564.1834712029 -10551856.99130249 0 -10551856.99130249 992501.04675292969 0 0 0 0 -2029363.572198391 -363250.78352355957 0 -363250.78352355957 1510180.3363194466 0 0 0 0 -66657.090663336799 -1490406.4865971096 0 -1490406.4865971096 4861456.6899324888 0 0 0 0 -128791217.58593911 99881917.201076508 0 99881917.201076508 -34131937.004272461 0 0 0 0 -2674187.922220245 -3145864.3040300496 0 -3145864.3040300496 6145931.2880382016 0 0 0 0 -139099356.47729528 79497583.686897278 0 79497583.686897278 -3547033.4348144531 0 0 0 0 -97317319.371023715 31279132.704143524 0 31279132.704143524 -10604106.669204712 0 0 0 0 -232974.00956886978 -363516.25042404979 0 -363516.25042404979 3585909.3601864055 0 0 0 0 -2021037.062479167 1129214.0488652475 0 1129214.0488652475 8864896.3049449548 0 0 0 0 -1675066.9177377224 -3155781.1153678894 0 -3155781.1153678894 8299982.9442596436 0 0 0 0 -1234812.2368661966 -1139686.503699705 0 -1139686.503699705 9791974.3644183595 0 0 0 0 -2471559.3672189713 -1191586.7794799805 0 -1191586.7794799805 7137669.5195350647 0 0 0 0 -2478039.0613387823 -1131871.0042629242 0 -1131871.0042629242 7117562.8606643677 0 0 0 0 19363469.582210302 25907260.736104488 0 25907260.736104488 2611089.3663825989 0 0 0 0 43660205.008983135 -32293027.2965765 0 -32293027.2965765 -44284298.216680527 0 0 0 0 21835292.835649252 -57724653.825802803 0 -57724653.825802803 158797274.29286385 0 0 0 0 17384189.398163795 -11927230.918654919 0 -11927230.918654919 42439524.192966461 0 0 0 0 -6979756.729218483 -37793709.343281746 0 -37793709.343281746 36754945.965505123 0 0 0 0 -4599878.4345555305 -30495817.345429897 0 -30495817.345429897 -5997842.3512573242 0 0 0 0 -28553496.357215405 -18237037.267596245 0 -18237037.267596245 26536247.861463547 0 0 0 0 -22069648.633042336 -39068502.130966187 0 -39068502.130966187 21072086.135592222 0 0 0 0 -6755443.0934019089 -42265348.580055237 0 -42265348.580055237 53021749.124702454 0 0 0 0 -1554457.7124802475 -1868745.5557211693 0 -1868745.5557211693 30020354.501589153 0 0 0 0 -48501238.309734344 -34710175.40155983 0 -34710175.40155983 37518928.071781754 0 0 0 0 -37935205.00029695 -6839082.6341785192 0 -6839082.6341785192 34234529.10733223 0 0 0 0 -7339890.2341364175 -3474076.8454208374 0 -3474076.8454208374 24483352.548164368 0 0 0 0 -558948.84509224992 -4391094.2445415715 0 -4391094.2445415715 26361368.617669653 0 0 0 0 1153219.1694991589 -333887.47822189331 0 -333887.47822189331 24782325.933970928 0 0 0 0 1195177.7511698455 1023802.8681030273 0 1023802.8681030273 30486661.319519043 0 0 0 0 6157976.991191566 2428579.3955125809 0 2428579.3955125809 22601786.716583252 0 0 0 0 1873287.1032063118 2071918.779434301 0 2071918.779434301 27238092.443399083 0 0 0 0 240023.86176514626 -2495421.9847755432 0 -2495421.9847755432 22114788.225918293 0 0 0 0 -5813356.6805443764 5514053.4717512131 0 5514053.4717512131 51685189.721405029 0 0 0 0 -2574085.3052059212 -1891152.9313020501 0 -1891152.9313020501 27812841.473799367 0 0 0 0 -697244.52978334483 1916195.4439189602 0 1916195.4439189602 15071919.914212972 0 0 0 0 -168343.27929926198 211487.59423637949 0 211487.59423637949 4554639.6341947028 0 0 0 0 507643.65533399582 12003531.285361767 0 12003531.285361767 44156628.484275818 0 0 0 0 -26187134.696386337 -5345543.7594280243 0 -5345543.7594280243 40507174.218602896 0 0 0 0 4015851.9741153717 15148334.225832939 0 15148334.225832939 50151690.919273376 0 0 0 0 -10714288.82651186 -1125447.3870992661 0 -1125447.3870992661 71912557.505146027 0 0 0 0 -12918363.8635571 5681785.2804148197 0 5681785.2804148197 44946439.547454834 0 0 0 0 -9766678.0106115341 13319658.95464325 0 13319658.95464325 57509501.462486267 0 0 0 0 -43023135.793623686 -54396798.187175751 0 -54396798.187175751 78157074.883310318 0 0 0 0 -27586687.184209824 -8401269.9128131866 0 -8401269.9128131866 56992509.815643311 0 0 0 0 -16108668.507189751 -33429131.029144287 0 -33429131.029144287 83523416.190637589 0 0 0 0 -12510614.02530551 -20300724.902719736 0 -20300724.902719736 45664460.127384186 0 0 0 0 33444586.614553452 -13931904.927355766 0 -13931904.927355766 -85240575.565288544 0 0 0 0 2032111.9881180869 -5832084.3640155382 0 -5832084.3640155382 -2479711.6574421078 0 0 0 0 -796382.04324668646 -43950439.501646221 0 -43950439.501646221 22382020.74237442 0 0 0 0 -380973.38303852081 -48964918.826257706 0 -48964918.826257706 64666217.687398911 0 0 0 0 -267298.26714277267 -35342209.051760674 0 -35342209.051760674 41889060.412525177 0 0 0 0 -13000257.038042784 7925878.1139969826 0 7925878.1139969826 42074208.176113129 0 0 0 0 456042.10869693756 -14145047.084955215 0 -14145047.084955215 55247796.297687531 0 0 0 0 3016517.3815419674 -18101911.212583542 0 -18101911.212583542 14176576.046304703 0 0 0 0 94124.929140090942 -13452740.208426476 0 -13452740.208426476 54158047.821187973 0 0 0 0 1989147.4114353657 -7276734.3533191681 0 -7276734.3533191681 16477017.006393433 0 0 0 0 -858680.11094409577 -4312792.6005955637 0 -4312792.6005955637 23617482.576762319 0 0 0 0 355808.50143282057 -2531995.088735152 0 -2531995.088735152 33758276.18473886 0 0 0 0 2922715.1360114096 -7440985.1285010353 0 -7440985.1285010353 17785258.109742425 0 0 0 0 1111854.1117990017 609160.69806480408 0 609160.69806480408 17479090.030792236 0 0 0 0 6781945.5219594836 -252984343.30774689 0 -252984343.30774689 -86204642.779560089 0 0 0 0 210050320.0308134 -10759979.650642395 0 -10759979.650642395 115293.21325683594 0 0 0 0 64957621.730078697 101579620.69301605 0 101579620.69301605 78827482.428001404 0 0 0 0 29102787.908724308 67878282.692512512 0 67878282.692512512 -101833322.3916626 0 0 0 0 -170202007.59972239 -38737601.597824097 0 -38737601.597824097 25181403.178747177 0 0 0 0 3024064.3009831905 3765854.421749115 0 3765854.421749115 22896466.399387598 0 0 0 0 41650159.777105808 -104165693.62312317 0 -104165693.62312317 -138611720.22598267 0 0 0 0 -371765.29478992044 -4513461.0790858977 0 -4513461.0790858977 21200276.226348028 0 0 0 0 -47584.957703007618 -432375.63676001877 0 -432375.63676001877 -234657.03510359675 0 0 0 0 -46287252.727513313 -8193174.4744567871 0 -8193174.4744567871 -32985320.662600636 0 0 0 0 -36542478.61699605 -63004191.603271484 0 -63004191.603271484 -48478289.216064453 0 0 0 0 7231127.4906402826 -68268557.749542236 0 -68268557.749542236 13341156.520568848 0 0 0 0 2372416.6883023586 -2020323.5433066338 0 -2020323.5433066338 -6792470.3426666334 0 0 0 0 28004862.331143573 49893467.65742445 0 49893467.65742445 92103840.718994141 0 0 0 0 27003386.067462921 37335502.50775528 0 37335502.50775528 53057636.837265015 0 0 0 0 1426660.5370589895 -1982737.3695038967 0 -1982737.3695038967 -1469015.6938703507 0 0 0 0 51534755.92635262 4214176.1274185181 0 4214176.1274185181 -4804065.7870483398 0 0 0 0 -11238119.47322309 20887067.732631683 0 20887067.732631683 143716986.31085968 0 0 0 0 14360794.163903743 57059984.265069962 0 57059984.265069962 96306183.996658325 0 0 0 0 16043634.431315154 45017481.70665741 0 45017481.70665741 179951890.29074097 0 0 0 0 29392373.249610573 -5875540.6670475006 0 -5875540.6670475006 56049557.667495728 0 0 0 0 37893990.430912375 -58096772.203388214 0 -58096772.203388214 72444739.930131912 0 0 0 0 39015295.257740267 -95266428.102428436 0 -95266428.102428436 118288135.33755875 0 0 0 0 19177956.329532608 13019048.575045586 0 13019048.575045586 222649010.26091766 0 0 0 0 247894531.53419009 -80428393.95331955 0 -80428393.95331955 216771563.89465332 0 0 0 0 131498004.10659176 61847716.367919922 0 61847716.367919922 153231708.54911041 0 0 0 0 66206778.245681897 39989694.1238029 0 39989694.1238029 187083952.91830444 0 0 0 0 479356.77956240007 -623139.96086904407 0 -623139.96086904407 -426755.70940257609 0 0 0 0 19589090.902698338 -98388242.958816528 0 -98388242.958816528 -128321916.25098991 0 0 0 0 87949142.300688952 -241760713.74118042 0 -241760713.74118042 142966471.5970459 0 0 0 0 -303796808.13729262 -42945829.44254303 0 -42945829.44254303 131711472.61001587 0 0 0 0 -70630516.356314912 2880751.2310562134 0 2880751.2310562134 53753139.820251465 0 0 0 0 -51361926.775766045 -56816886.353927612 0 -56816886.353927612 238366565.41343689 0 0 0 0 102252136.31653351 86779082.603767395 0 86779082.603767395 210165068.25648117 0 0 0 0 267957676.81233239 -60016080.488471985 0 -60016080.488471985 199957996.83811951 0 0 0 0 82696029.073695183 39610851.416633606 0 39610851.416633606 335716600.16781616 0 0 0 0 499332.11925531656 427536.18341368064 0 427536.18341368064 1467847.3600138798 0 0 0 0 211577515.15152943 259471193.72267151 0 259471193.72267151 180793999.92913818 0 0 0 0 -73125344.400322318 103465025.20645142 0 103465025.20645142 138822523.16791916 0 0 0 0 187013619.57680452 77200353.975345612 0 77200353.975345612 26510986.288223267 0 0 0 0 -40732043.338836938 -11297246.779701233 0 -11297246.779701233 102496411.22201538 0 0 0 0 48464379.974829048 122875911.75656891 0 122875911.75656891 146975273.37911987 0 0 0 0 -109713322.73213625 28663693.234558105 0 28663693.234558105 120176632.32384491 0 0 0 0 -262009388.222256 -83307031.472862244 0 -83307031.472862244 69546995.152297974 0 0 0 0 -159752258.24134755 99853298.219467163 0 99853298.219467163 107580837.83738708 0 0 0 0 -56867872.576999113 34334356.203219414 0 34334356.203219414 -41099342.853210449 0 0 0 0 -216205863.11118722 -110727512.56647491 0 -110727512.56647491 12948294.627044678 0 0 0 0 -1677664.5326224468 1225201.4188858643 0 1225201.4188858643 3914281.8553751111 0 0 0 0 -6563205.7349786758 2503538.4480648041 0 2503538.4480648041 6525507.0649261475 0 0 0 0 -6455555.0739323534 -367386.26352104824 0 -367386.26352104824 36368127.631595343 0 0 0 0 -13979579.175306007 -1121667.4170733336 0 -1121667.4170733336 46442136.881723814 0 0 0 0 3230761.9225023692 7555221.0196638573 0 7555221.0196638573 9811319.7724289522 0 0 0 0 -272205034.96803558 -38127938.350738525 0 -38127938.350738525 119515395.50979614 0 0 0 0 -369626218.85538924 39015258.771781921 0 39015258.771781921 58600428.442016602 0 0 0 0 -1108662.3807899952 1039396.1201276779 0 1039396.1201276779 8102595.0874671936 0 0 0 0 -222240243.607977 -73453274.686767578 0 -73453274.686767578 161294338.47242355 0 0 0 0 -234149880.29911822 -29139920.940547943 0 -29139920.940547943 18168691.584014893 0 0 0 0 -16746611.433267593 -12019302.31855011 0 -12019302.31855011 -2896577.5214233398 0 0 0 0 -338641714.56833082 -186841602.67817688 0 -186841602.67817688 63059908.7996521 0 0 0 0 591231.95860327722 -4634280.2523443475 0 -4634280.2523443475 31198102.166989736 0 0 0 0 536736.74931627698 1235330.4683925118 0 1235330.4683925118 33035771.8665931 0 0 0 0 -2876783.1434774399 -8053505.3844423294 0 -8053505.3844423294 14069240.048828125 0 0 0 0 4607624.0624919236 -7201230.4230285995 0 -7201230.4230285995 -730856.1527313441 0 0 0 0 -8153297.0922805071 9604686.4373321533 0 9604686.4373321533 114011976.31899261 0 0 0 0 -29396165.660270631 3713226.7584190369 0 3713226.7584190369 157976404.76223755 0 0 0 0 3132759.3954785466 51196515.380187988 0 51196515.380187988 266380133.25946808 0 0 0 0 190246740.33967429 -28015088.988529205 0 -28015088.988529205 85932578.169845581 0 0 0 0 38162528.723396242 -77905199.307453156 0 -77905199.307453156 149388424.14223099 0 0 0 0 -12225.760602176451 -1466694.8499103589 0 -1466694.8499103589 1071963.0024692267 0 0 0 0 105145183.09108153 16650504.121934891 0 16650504.121934891 10650110.908508301 0 0 0 0 -182040.27544233057 -285343.86166832596 0 -285343.86166832596 588202.23098298907 0 0 0 0 1041386.7440602087 -2340858.1778720766 0 -2340858.1778720766 1740092.2442560159 0 0 0 0 -1182282.0785993338 -4729755.1493453979 0 -4729755.1493453979 4233567.2186660767 0 0 0 0 28809784.848316669 -37469443.617019653 0 -37469443.617019653 48080674.261436462 0 0 0 0 -21398022.532339215 11074196.788005829 0 11074196.788005829 127763869.48929024 0 0 0 0 505660.89515031362 -2451627.4618917108 0 -2451627.4618917108 1731235.681430975 0 0 0 0 -2863635.1636837721 -13521420.762542725 0 -13521420.762542725 -7564128.3778610229 0 0 0 0 -56075.27137568756 -2351727.8336112276 0 -2351727.8336112276 1982358.6365093328 0 0 0 0 65771888.949808002 -64345003.595588684 0 -64345003.595588684 -14154176.923294067 0 0 0 0 7579852.1987146735 37579313.067817688 0 37579313.067817688 85322476.142004013 0 0 0 0 11650911.029480696 29629402.937767029 0 29629402.937767029 -7767921.6976165771 0 0 0 0 -1304432.1504678726 32808258.037521362 0 32808258.037521362 -7837065.5152282715 0 0 0 0 457574.13775356108 -553411.64144962281 0 -553411.64144962281 -1063796.0386707336 0 0 0 0 -29847325.813127518 4973522.0355758667 0 4973522.0355758667 2918998.7220840454 0 0 0 0 428662.18290162086 37070439.256530762 0 37070439.256530762 101584085.14498901 0 0 0 0 -5539878.2073991299 41012705.746734619 0 41012705.746734619 103398998.11492157 0 0 0 0 -4524118.0264351368 52923187.698242188 0 52923187.698242188 97998978.117874146 0 0 0 0 -28226435.322012186 18676897.504874229 0 18676897.504874229 119361845.1296463 0 0 0 0 -48099704.426736474 14769142.163658142 0 14769142.163658142 118817917.17992783 0 0 0 0 -9740930.8603404164 18385562.033683777 0 18385562.033683777 64628708.609470367 0 0 0 0 -37054800.310315795 54350492.136540413 0 54350492.136540413 101144640.92530823 0 0 0 0 -48799846.268918753 53529196.156017303 0 53529196.156017303 34539560.439804077 0 0 0 0 -79635000.046987996 -23032846.554777145 0 -23032846.554777145 33774947.375724792 0 0 0 0 11220862.684994459 24527307.677440643 0 24527307.677440643 -124883407.29615021 0 0 0 0 -38861619.281778008 26423642.856878281 0 26423642.856878281 122051887.68789673 0 0 0 0 -27798195.825991094 37322430.048519135 0 37322430.048519135 62721754.576164246 0 0 0 0 59437826.062621951 4845383.5918273926 0 4845383.5918273926 -6343662.9652328491 0 0 0 0 28584743.703471512 10332610.556926727 0 10332610.556926727 77272037.682706833 0 0 0 0 39628774.322630495 -14551885.227947235 0 -14551885.227947235 -71215477.961853027 0 0 0 0 -19169760.584376037 5333869.9340209961 0 5333869.9340209961 -6175271.5578045845 0 0 0 0 -792567.99098666152 -675957.56649122387 0 -675957.56649122387 635677.43683448434 0 0 0 0 -603127.75564444065 -15257832.521356583 0 -15257832.521356583 18905670.670028687 0 0 0 0 6611387.1867708564 30575489.881019592 0 30575489.881019592 -92801054.982845306 0 0 0 0 9929040.887419343 -10630147.329341888 0 -10630147.329341888 -11090342.636077881 0 0 0 0 1693884.4545701807 -597413.07212200761 0 -597413.07212200761 583647.06275803596 0 0 0 0 15584983.575841784 -24019113.02633667 0 -24019113.02633667 34901055.954702377 0 0 0 0 -14709030.597810447 -18666154.929180145 0 -18666154.929180145 -27520014.772544861 0 0 0 0 -7475512.3472968936 -3023635.4354248047 0 -3023635.4354248047 979036.97228240967 0 0 0 0 12465332.066269189 -3126482.4798316956 0 -3126482.4798316956 895702.15854644775 0 0 0 0 -34739449.74873507 -3942601.0397186279 0 -3942601.0397186279 27927531.308776855 0 0 0 0 -262879.98990740394 -185980.81586485356 0 -185980.81586485356 174489.77693999186 0 0 0 0 -52617261.746300399 -27576751.994096756 0 -27576751.994096756 7087910.0905456543 0 0 0 0 1823880.6401721239 -53210446.729984283 0 -53210446.729984283 -26874057.755744934 0 0 0 0 24469836.088490546 -25623514.542690277 0 -25623514.542690277 -5784952.1922225952 0 0 0 0 53101040.630976439 -46114219.611972809 0 -46114219.611972809 -17786438.678581238 0 0 0 0 -15001258.298352838 -13759048.262283325 0 -13759048.262283325 -22797903.442474365 0 0 0 0 -22816068.326316416 -26268665.468479156 0 -26268665.468479156 7095483.4759502411 0 0 0 0 1243507.1627041965 -433557.10371029377 0 -433557.10371029377 339286.24750230089 0 0 0 0 18472139.397187471 -5191898.4133796692 0 -5191898.4133796692 82909997.008230209 0 0 0 0 478445.69698272168 -160446.302123487 0 -160446.302123487 126339.3119026646 0 0 0 0 -5516540.1136419307 -22909250.502363205 0 -22909250.502363205 227503577.18086243 0 0 0 0 74811507.977436036 -23740091.018405914 0 -23740091.018405914 -71254977.135738373 0 0 0 0 44972377.652789712 -79419788.999423981 0 -79419788.999423981 175154521.60672379 0 0 0 0 50895424.907628059 -4635614.1191864014 0 -4635614.1191864014 123103839.83182144 0 0 0 0 13179909.290270358 32676289.595590591 0 32676289.595590591 150838141.06095123 0 0 0 0 34279845.917117357 22214796.154727936 0 22214796.154727936 123747427.67993927 0 0 0 0 9437767.487460494 44142139.452103615 0 44142139.452103615 108198933.05532074 0 0 0 0 -8820345.4180029631 -6903571.3008270264 0 -6903571.3008270264 125321858.66124725 0 0 0 0 1179934.8692023004 1675045.7287338935 0 1675045.7287338935 5307859.0704292208 0 0 0 0 15678779.899532739 -4762407.1253137589 0 -4762407.1253137589 -35219838.108230591 0 0 0 0 -163260861.09518445 -21462227.384155273 0 -21462227.384155273 130110760.7625885 0 0 0 0 18087171.52999549 124414474.41802299 0 124414474.41802299 126252704.61894226 0 0 0 0 -3133625.6786383027 -15822834.105459733 0 -15822834.105459733 23334728.190634087 0 0 0 0 -37500292.278726801 10419737.422973633 0 10419737.422973633 103163484.44503021 0 0 0 0 -74479840.959410578 -80303146.045253754 0 -80303146.045253754 -29125939.186164856 0 0 0 0 -76574363.109767586 -56999228.189888 0 -56999228.189888 41293869.405487061 0 0 0 0 82492226.484114021 -111606765.7411232 0 -111606765.7411232 30197563.986904144 0 0 0 0 40403302.295151196 -70192790.308387756 0 -70192790.308387756 1807471.9702453613 0 0 0 0 44557730.037932828 -104919811.26844406 0 -104919811.26844406 -37312739.398513794 0 0 0 0 6157109.0566599816 -10854145.039812088 0 -10854145.039812088 -36813514.383789062 0 0 0 0 72003352.017203212 -49869591.382064819 0 -49869591.382064819 -20633247.351007462 0 0 0 0 61156205.484557807 -62906134.971588135 0 -62906134.971588135 -22947911.985572815 0 0 0 0 118504102.83506474 -76094997.473770142 0 -76094997.473770142 -39695865.418012619 0 0 0 0 60393119.143835239 -39102750.595083237 0 -39102750.595083237 -27996127.238983154 0 0 0 0 71680279.768663868 21602199.361328125 0 21602199.361328125 84767193.069061279 0 0 0 0 110633720.76240402 -62384912.514235497 0 -62384912.514235497 86445162.429100037 0 0 0 0 -2139650.3471851777 -6634943.4895172119 0 -6634943.4895172119 93460886.5442276 0 0 0 0 -4057265.2594430596 12810464.018886566 0 12810464.018886566 53866110.683116913 0 0 0 0 -7543330.4863570835 -36242817.973896027 0 -36242817.973896027 138019387.60559082 0 0 0 0 -6714156.6352865137 -46578746.499733925 0 -46578746.499733925 18678368.606292725 0 0 0 0 -63297038.73058264 -20199962.755908966 0 -20199962.755908966 86043933.757148743 0 0 0 0 -64648285.133098021 -29345773.267386436 0 -29345773.267386436 35200126.906265259 0 0 0 0 -58148570.566811688 8715910.1879272461 0 8715910.1879272461 39308573.058315277 0 0 0 0 -88197933.337938115 -17036698.61831665 0 -17036698.61831665 64927647.033470154 0 0 0 0 -88919331.159221724 -11355815.950828552 0 -11355815.950828552 20470235.336486816 0 0 0 0 -98205150.918869957 -5205286.2646102905 0 -5205286.2646102905 34787084.124862671 0 0 0 0 -97415227.128203407 -38362082.058084488 0 -38362082.058084488 31746640.488883972 0 0 0 0 -91698446.075210527 -19856386.32598877 0 -19856386.32598877 41389573.246505737 0 0 0 0 -202923.6724346336 5024319.6727281138 0 5024319.6727281138 13401167.229323737 0 0 0 0 -2089992.0526264198 -1086561.0367652765 0 -1086561.0367652765 11307854.058333129 0 0 0 0 -1053372.9379784004 -2469667.4197232537 0 -2469667.4197232537 12376260.356940202 0 0 0 0 -21862606.047426701 2685391.8449554443 0 2685391.8449554443 -706549.49691772461 0 0 0 0 -97309821.504580498 21351648.676445007 0 21351648.676445007 661373.50640869141 0 0 0 0 -158744924.70839706 54051565.870518208 0 54051565.870518208 57699859.89276123 0 0 0 0 -18288408.07800293 17475936.987472534 0 17475936.987472534 31989387.060806274 0 0 0 0 -827271.13584256754 3473267.2369155055 0 3473267.2369155055 5418887.2506917417 0 0 0 0 -45782132.76450175 82927687.592071533 0 82927687.592071533 -113190261.45572662 0 0 0 0 -106006234.86371672 46960691.103603363 0 46960691.103603363 56511336.640472412 0 0 0 0 -152916676.74845523 -14977738.155731201 0 -14977738.155731201 67606200.541023254 0 0 0 0 -105897192.18233496 47386740.507219315 0 47386740.507219315 -1818577.78125 0 0 0 0 -720280.18919332838 2033463.2674390217 0 2033463.2674390217 4502515.4997741133 0 0 0 0 -86264086.390354648 6821756.9229512215 0 6821756.9229512215 -1102798.1379852295 0 0 0 0 -84647628.711391464 -9796625.1760482788 0 -9796625.1760482788 34205698.440689087 0 0 0 0 -103911981.48058811 28965768.202548027 0 28965768.202548027 44758432.824615479 0 0 0 0 -77463083.963702351 19877560.95715332 0 19877560.95715332 43876148.975326538 0 0 0 0 -70179438.05775708 2871110.4564666748 0 2871110.4564666748 66874590.055908203 0 0 0 0 -36339525.164342284 25101141.834712982 0 25101141.834712982 55543071.5832901 0 0 0 0 -49899857.350361362 -9229908.5629281998 0 -9229908.5629281998 60671467.855262756 0 0 0 0 292797.57498964097 -101545.58469190449 0 -101545.58469190449 -7543.0502419434488 0 0 0 0 -99483900.213614896 27528874.311973572 0 27528874.311973572 -59556627.090494156 0 0 0 0 -52479374.206184193 7333324.2614440918 0 7333324.2614440918 87844167.777633667 0 0 0 0 -95263902.929183841 29885446.061203003 0 29885446.061203003 76150190.202377319 0 0 0 0 3379430.78912431 5616132.0725708008 0 5616132.0725708008 54615633.652511597 0 0 0 0 4608903.1582912756 11500010.968344688 0 11500010.968344688 55754897.230628967 0 0 0 0 25978420.725586303 -29773121.225633621 0 -29773121.225633621 109815410.38070679 0 0 0 0 42136193.855329975 13534149.884017944 0 13534149.884017944 51265823.150436401 0 0 0 0 30717030.00587368 13886225.882778168 0 13886225.882778168 22134957.360450745 0 0 0 0 711910.59933427081 -68412.146737828851 0 -68412.146737828851 25273.827725368552 0 0 0 0 59060012.68072629 61219187.607463837 0 61219187.607463837 6085349.4283981323 0 0 0 0 36538123.17391026 12262846.824886322 0 12262846.824886322 71099751.902885437 0 0 0 0 6581421.8116096258 97527085.207054138 0 97527085.207054138 226894633.68463135 0 0 0 0 39173591.327991128 136078906.58972931 0 136078906.58972931 218364282.00496292 0 0 0 0 82153920.087225035 77119460.681638718 0 77119460.681638718 13143142.681625366 0 0 0 0 59191936.010449767 163400537.75452423 0 163400537.75452423 182217104.05725861 0 0 0 0 37745983.40899086 168589546.402771 0 168589546.402771 181364227.36475372 0 0 0 0 -21598087.059517071 910770.38968467712 0 910770.38968467712 43140430.018569946 0 0 0 0 7022157.2552610636 4701620.1714324951 0 4701620.1714324951 -59554139.749824524 0 0 0 0 -217046275.41979587 -56298511.548778534 0 -56298511.548778534 -18405002.998764038 0 0 0 0 -155798978.77811778 9460871.5994567871 0 9460871.5994567871 6962435.8242492676 0 0 0 0 65903854.28481853 92833420.594535828 0 92833420.594535828 -105818695.65084839 0 0 0 0 104088.07007280659 108870.7756439466 0 108870.7756439466 2289627.9947183728 0 0 0 0 26310457.197408587 239437215.82393265 0 239437215.82393265 177672912.60162354 0 0 0 0 -17334445.21724841 81337006.05078125 0 81337006.05078125 -18864907.826919556 0 0 0 0 17510958.286012352 32338717.333282471 0 32338717.333282471 -125085704.83787537 0 0 0 0 -109265474.37911832 -34390211.386867523 0 -34390211.386867523 -118314639.48330688 0 0 0 0 176159624.12122247 -218906191.83512878 0 -218906191.83512878 229484729.96160889 0 0 0 0 17673879.841741204 77943321.278400421 0 77943321.278400421 61442831.200098038 0 0 0 0 -1062132.8607699734 -4472199.3998930333 0 -4472199.3998930333 2200093.6054815501 0 0 0 0 121760841.29783797 -224424747.53292084 0 -224424747.53292084 368824002.34765625 0 0 0 0 33040148.587905169 -99637656.188171387 0 -99637656.188171387 164640749.38641357 0 0 0 0 69750645.868038297 -173950718.33195496 0 -173950718.33195496 275927310.68457031 0 0 0 0 92209769.675671577 -153420904.15573883 0 -153420904.15573883 202193917.06072998 0 0 0 0 147385909.6380434 -181943242.96185303 0 -181943242.96185303 160495296.26812744 0 0 0 0 126604039.42394924 -124006529.88487244 0 -124006529.88487244 47046219.105194092 0 0 0 0 171686780.11469698 -159491970.15830994 0 -159491970.15830994 27184313.23487854 0 0 0 0 169490149.99909616 -186709389.05657959 0 -186709389.05657959 74441143.730957031 0 0 0 0 -4577854.5826754412 728776.14579195622 0 728776.14579195622 17161292.597574212 0 0 0 0 8276895.6056163311 -24658137.3634758 0 -24658137.3634758 -5078899.9937744141 0 0 0 0 -17462121.691140652 -18539818.451560974 0 -18539818.451560974 31859317.883964539 0 0 0 0 -233624473.88479617 50116521.265617371 0 50116521.265617371 -754517.2607421875 0 0 0 0 75262.70487472316 -94902.414049487561 0 -94902.414049487561 6795611.4516801015 0 0 0 0 -54667018.287935257 -56859117.534805298 0 -56859117.534805298 18963525.542482376 0 0 0 0 173098092.43598396 85548528.754882812 0 85548528.754882812 137698917.6301899 0 0 0 0 75047974.402269542 99503834.814699173 0 99503834.814699173 246441009.42871094 0 0 0 0 74137858.294826806 86410196.650936127 0 86410196.650936127 192149546.45590973 0 0 0 0 37777070.275782943 67243312.887550354 0 67243312.887550354 192138903.73121643 0 0 0 0 86190879.249708295 51787009.316204071 0 51787009.316204071 144864275.69511414 0 0 0 0 58495792.662553161 11537447.426080704 0 11537447.426080704 116517621.5609436 0 0 0 0 61067603.878514171 3603145.3171844482 0 3603145.3171844482 129243586.6015892 0 0 0 0 48389169.529937349 -43815336.77419281 0 -43815336.77419281 104354275.17233276 0 0 0 0 24129303.402218044 -45919031.628553391 0 -45919031.628553391 111398889.83643341 0 0 0 0 2978930.6380274147 10295252.863063812 0 10295252.863063812 71655638.701393127 0 0 0 0 121531719.64520425 -33453268.849193573 0 -33453268.849193573 22120002.331253052 0 0 0 0 428941.72960756911 -15134.125983998179 0 -15134.125983998179 42489.410052351654 0 0 0 0 130239882.17117488 148006876.82276535 0 148006876.82276535 236905271.52113342 0 0 0 0 -1577492.4730042815 41314752.216016769 0 41314752.216016769 280994237.24746704 0 0 0 0 3542012.8507941961 141714075.99385071 0 141714075.99385071 337129560.16999054 0 0 0 0 161284917.69729269 108825726.97340012 0 108825726.97340012 266435899.4999367 0 0 0 0 140717272.57479754 81808803.200799942 0 81808803.200799942 242276249.32255554 0 0 0 0 67035241.09490335 134403221.12351799 0 134403221.12351799 292647278.90294647 0 0 0 0 11950860.321100295 102439038.71152496 0 102439038.71152496 282268497.15681934 0 0 0 0 -8813068.4154852629 82436546.532016754 0 82436546.532016754 284849125.92064762 0 0 0 0 7093508.0610592365 89360305.50933075 0 89360305.50933075 256027725.18993378 0 0 0 0 30781255.973171234 93527637.193634033 0 93527637.193634033 257401826.7059021 0 0 0 0 20914459.355022877 88048713.147706032 0 88048713.147706032 220712902.32809448 0 0 0 0 35867728.230039656 111476705.50505066 0 111476705.50505066 257284173.41996971 0 0 0 0 9035165.9132389426 108198744.77871132 0 108198744.77871132 249686304.78392792 0 0 0 0 9049686.6948178709 71216374.319284439 0 71216374.319284439 204417661.64460754 0 0 0 0 13844034.498391807 80574469.099128723 0 80574469.099128723 221733710.44517279 0 0 0 0 42040357.714442074 73686863.101430893 0 73686863.101430893 177676399.75037384 0 0 0 0 -20221658.671194255 101781516.74233627 0 101781516.74233627 269027803.65471649 0 0 0 0 -17625562.325015843 79878262.627681732 0 79878262.627681732 271269307.14945602 0 0 0 0 -19548027.818111092 62771238.794181824 0 62771238.794181824 286244499.13298225 0 0 0 0 -13215083.796252549 73541350.816589355 0 73541350.816589355 227381985.29653931 0 0 0 0 -8746473.7594224215 81967010.111186981 0 81967010.111186981 242593540.55974567 0 0 0 0 -6657030.9127181768 95511387.340175629 0 95511387.340175629 242496369.08725983 0 0 0 0 -11894081.461894691 104239445.58651733 0 104239445.58651733 259367515.29437637 0 0 0 0 -20282518.707228601 99721387.877487183 0 99721387.877487183 257083548.46651459 0 0 0 0 -15156432.963643417 110211104.77393341 0 110211104.77393341 238480947.9972229 0 0 0 0 -17029847.214486837 109521149.69623184 0 109521149.69623184 256495352.91080475 0 0 0 0 1348954.0733414292 103110717.81325912 0 103110717.81325912 229756124.33276749 0 0 0 0 -7843730.6735406816 57199608.603286743 0 57199608.603286743 270680640.64531136 0 0 0 0 -4865143.6747298539 56829290.850643158 0 56829290.850643158 167790507.22316742 0 0 0 0 4830108.2173066735 137638777.38744354 0 137638777.38744354 148536788.12991714 0 0 0 0 -14714662.9649418 92358128.173059464 0 92358128.173059464 147810364.38110352 0 0 0 0 -11771219.405314386 105852043.50022125 0 105852043.50022125 183963339.09298325 0 0 0 0 -13286917.489198942 107200921.95336437 0 107200921.95336437 290972036.79948425 0 0 0 0 -20740453.278911732 130991402.61873531 0 130991402.61873531 272119685.61366272 0 0 0 0 -23805944.133814573 104990067.2677002 0 104990067.2677002 258263324.58503723 0 0 0 0 -19188049.14679271 123420525.97229004 0 123420525.97229004 228298879.0900116 0 0 0 0 -27622230.358010754 117937384.93104362 0 117937384.93104362 246953090.29185486 0 0 0 0 -27267508.130546071 24225073.886253357 0 24225073.886253357 6288346.0686597824 0 0 0 0 8640187.8235048354 2762883.7008361816 0 2762883.7008361816 1245863.9236297607 0 0 0 0 177330394.29737461 137369884.60057831 0 137369884.60057831 49783950.709003448 0 0 0 0 51673720.896559238 104604628.96740723 0 104604628.96740723 50177101.791131973 0 0 0 0 28559002.269023567 165717728.92978668 0 165717728.92978668 180852359.55968094 0 0 0 0 70664388.206567109 157891750.90628815 0 157891750.90628815 276575063.28793335 0 0 0 0 27007144.885711566 141416530.29577637 0 141416530.29577637 270357916.06549072 0 0 0 0 -69671673.279761508 -25794171.561733246 0 -25794171.561733246 19693912.222484589 0 0 0 0 231683751.56385154 238994621.33194542 0 238994621.33194542 232283352.0574646 0 0 0 0 -159711.49364846424 149228944.49041367 0 149228944.49041367 400749377.00878906 0 0 0 0 -58343.171812146436 124150.92059863359 0 124150.92059863359 615824.53415924311 0 0 0 0 70687683.648895174 201906324.15957642 0 201906324.15957642 487298034.44978333 0 0 0 0 36325377.123706117 85070514.066085815 0 85070514.066085815 382329660.03927994 0 0 0 0 126064657.20053449 75715415.377677917 0 75715415.377677917 382833818.76611328 0 0 0 0 48245157.217117921 53635968.991416931 0 53635968.991416931 496279284.53096008 0 0 0 0 41583350.741989642 28499160.694068909 0 28499160.694068909 364480164.6244784 0 0 0 0 43601754.061851412 97959029.507781982 0 97959029.507781982 365273223.84634197 0 0 0 0 6355641.6550506055 101089356.13183689 0 101089356.13183689 418923658.1902771 0 0 0 0 4901956.1204532385 115597414.20163727 0 115597414.20163727 294845381.23202133 0 0 0 0 21922127.529358223 48328517.765125275 0 48328517.765125275 333050065.04060364 0 0 0 0 28302870.546965662 54504770.071210861 0 54504770.071210861 321582750.65957642 0 0 0 0 39938989.320395038 38933334.349662781 0 38933334.349662781 321105660.46836734 0 0 0 0 150427.18425511644 45234016.404914856 0 45234016.404914856 341646510.73672485 0 0 0 0 -15713748.002993256 115117668.87940216 0 115117668.87940216 265165772.83383942 0 0 0 0 -12545613.656321526 90600134.459457397 0 90600134.459457397 283153891.31098557 0 0 0 0 -26811935.27550637 103798896.63314629 0 103798896.63314629 304147621.14631653 0 0 0 0 -10199387.917006791 96758083.465042114 0 96758083.465042114 283597285.202425 0 0 0 0 -14850268.32553497 96424510.939064026 0 96424510.939064026 342717115.65477753 0 0 0 0 2089969.4213145971 74770698.95602417 0 74770698.95602417 302035568.51544237 0 0 0 0 17053379.509463176 46433321.173786163 0 46433321.173786163 315235551.3163538 0 0 0 0 -373567.52099123597 73223284.796699524 0 73223284.796699524 309838105.53497314 0 0 0 0 16901743.515752167 65436171.619029999 0 65436171.619029999 290354752.16215992 0 0 0 0 -15142754.964282393 90279828.683166504 0 90279828.683166504 295463625.32723999 0 0 0 0 -12920729.689010918 75534187.561771393 0 75534187.561771393 307937285.02604675 0 0 0 0 -1299372.0430375934 12688039.785160065 0 12688039.785160065 458230794.44696808 0 0 0 0 264724.2913987569 176465.15880805254 0 176465.15880805254 296973.9920701012 0 0 0 0 1917983.4673000351 -3980247.2274103165 0 -3980247.2274103165 264599457.66671753 0 0 0 0 -3412757.5099893212 10590695.134963989 0 10590695.134963989 241350569.00834656 0 0 0 0 36741761.397532254 31530839.300487518 0 31530839.300487518 308449025.61132812 0 0 0 0 24727400.438431956 52284529.891628265 0 52284529.891628265 318521429.02127075 0 0 0 0 53008547.616554603 62103049.526760101 0 62103049.526760101 321012305.24516106 0 0 0 0 45529772.377556734 43294757.185432434 0 43294757.185432434 306022040.01014233 0 0 0 0 -56235.876225668326 4162694.2458496094 0 4162694.2458496094 274238059.5516243 0 0 0 0 31591359.380997341 113087868.30408859 0 113087868.30408859 162066680.95402527 0 0 0 0 58922079.753911391 48260518.992002487 0 48260518.992002487 8749957.6358337402 0 0 0 0 32713079.472857215 -10576232.151124954 0 -10576232.151124954 -9846035.7854995728 0 0 0 0 -88702.09636740791 -10135.956987507641 0 -10135.956987507641 214502.68308221921 0 0 0 0 -13027305.570881672 7020909.9606742859 0 7020909.9606742859 93621045.895797729 0 0 0 0 79465.795296574521 1999162.2971076965 0 1999162.2971076965 20205750.117620468 0 0 0 0 729066.46870976046 497517.6179619357 0 497517.6179619357 787866.54273204505 0 0 0 0 4143861.7526225448 -1502203.7335548401 0 -1502203.7335548401 3103578.6972885132 0 0 0 0 -11090890.857235789 9174405.1733369827 0 9174405.1733369827 -2165650.8964614868 0 0 0 0 29579097.813938469 14783046.445495605 0 14783046.445495605 -26370593.451831818 0 0 0 0 -16280489.268517807 2848175.8503227234 0 2848175.8503227234 18853566.128097534 0 0 0 0 -6747586.2766902447 9432053.6208305359 0 9432053.6208305359 42986021.736492157 0 0 0 0 -10660337.007600546 -7029474.2819442749 0 -7029474.2819442749 14225685.444257736 0 0 0 0 -3594360.2667929865 1037059.0336151123 0 1037059.0336151123 12676270.695426941 0 0 0 0 -12581634.374163508 -2961850.6595001221 0 -2961850.6595001221 7730227.8165664673 0 0 0 0 2235809.2125083953 141482.03234863281 0 141482.03234863281 2319609.6457366943 0 0 0 0 -277019.30248119275 61549.103406742215 0 61549.103406742215 723156.59618433751 0 0 0 0 -1422720.2413580865 125754.09113883972 0 125754.09113883972 10775323.240562439 0 0 0 0 -410009.42708293116 322790.2386706993 0 322790.2386706993 1580742.6458088905 0 0 0 0 -6156996.6509516239 -16495118.781394958 0 -16495118.781394958 -23165904.469024658 0 0 0 0 -1518945.8326497078 4101852.9164714813 0 4101852.9164714813 7728535.2169570923 0 0 0 0 13683394.317505002 21725488.234111786 0 21725488.234111786 94545076.487323761 0 0 0 0 1650715.617559433 665499.56982421875 0 665499.56982421875 4368090.0761108398 0 0 0 0 1046367.3597560027 759422.60174022615 0 759422.60174022615 1336283.1937411614 0 0 0 0 -4733990.9950931668 17990499.173019409 0 17990499.173019409 124108210.31207275 0 0 0 0 -15307643.123749971 -3681964.5758972168 0 -3681964.5758972168 -15521830.863555908 0 0 0 0 -616734.54336876422 -1168616.490924634 0 -1168616.490924634 2105065.9108350128 0 0 0 0 -74673.061313439161 -119697.95169067383 0 -119697.95169067383 482156.70629882812 0 0 0 0 -539431.40686483937 -255684.28021577746 0 -255684.28021577746 1549121.9935748875 0 0 0 0 -3508614.4648118019 -22439645.313156128 0 -22439645.313156128 -23703671.263717651 0 0 0 0 -13926971.211213768 -13303804.559833527 0 -13303804.559833527 -25870853.960449219 0 0 0 0 -6094063.8314061165 -11812195.640640259 0 -11812195.640640259 -27968764.575744629 0 0 0 0 -6231860.4072127342 -21651938.45880127 0 -21651938.45880127 -23909763.550354004 0 0 0 0 -12711635.630820274 -9939838.1484069824 0 -9939838.1484069824 -25944087.915771484 0 0 0 0 -1274386.7344344971 -1722300.0935801752 0 -1722300.0935801752 2406660.5204669163 0 0 0 0 -10778940.698462963 -13410342.327255249 0 -13410342.327255249 -27849795.045806885 0 0 0 0 -4177371.9149603844 -17652806.458099365 0 -17652806.458099365 -24298915.706110001 0 0 0 0 -1962739.6194114089 -19321228.783363342 0 -19321228.783363342 -25845246.519012451 0 0 0 0 -6302583.6573674679 -21274485.523582458 0 -21274485.523582458 -19408410.630065918 0 0 0 0 3966636.5138225555 -21570839.189453125 0 -21570839.189453125 -25786096.443252563 0 0 0 0 7298380.9731149673 3921773.5768585205 0 3921773.5768585205 -60892827.382892609 0 0 0 0 3332005.7748981714 -24582656.330596924 0 -24582656.330596924 -22937951.642059326 0 0 0 0 13614807.86516197 -8580123.9028244019 0 -8580123.9028244019 -62085618.484413147 0 0 0 0 -1422003.1240458484 -1255475.3923062496 0 -1255475.3923062496 1577877.6466533989 0 0 0 0 -267426.46222770214 -11137546.024711609 0 -11137546.024711609 -37132374.372146606 0 0 0 0 10877900.6238195 -17094928.539569855 0 -17094928.539569855 -43135252.661315918 0 0 0 0 1669870.5709909201 -3423050.8595123291 0 -3423050.8595123291 -46210235.324935913 0 0 0 0 -16800072.91271925 1102199.0383300781 0 1102199.0383300781 -27305442.504623413 0 0 0 0 -3610242.8847434521 -7060914.9569702148 0 -7060914.9569702148 -34028804.946762085 0 0 0 0 -8269437.4024100304 -657346.0246887207 0 -657346.0246887207 -41285995.605728149 0 0 0 0 -14706699.799974918 5940346.4831237793 0 5940346.4831237793 -36539740.731216431 0 0 0 0 2709223.6374434233 -10163477.414738655 0 -10163477.414738655 -37170565.107421875 0 0 0 0 4775972.7451655716 -21135928.94078064 0 -21135928.94078064 -49612864.099594116 0 0 0 0 5178666.9207052588 -11323870.833770752 0 -11323870.833770752 -34848886.359233856 0 0 0 0 2238632.8909696639 -9919193.4508743286 0 -9919193.4508743286 4263422.4734725952 0 0 0 0 2862322.2495453358 6209107.5129432678 0 6209107.5129432678 3462824.349029541 0 0 0 0 -3372924.5112938881 6537973.436126709 0 6537973.436126709 6033920.4195480347 0 0 0 0 3488882.7472863197 473827.13247680664 0 473827.13247680664 -2444939.6813850403 0 0 0 0 1806516.3028924284 -949433.6257115081 0 -949433.6257115081 1142430.8880744986 0 0 0 0 -371536.00904655457 398005.48387908936 0 398005.48387908936 564658.90339660645 0 0 0 0 675200.73633009382 -442311.12627010792 0 -442311.12627010792 2307063.6575757489 0 0 0 0 475640.42405878199 169526.28452316672 0 169526.28452316672 149421.66786277294 0 0 0 0 3993710.4497966766 -2161640.8682403564 0 -2161640.8682403564 81044411.439338684 0 0 0 0 -9962851.0754905343 39512819.904541016 0 39512819.904541016 178027509.52333069 0 0 0 0 15350801.600942969 51674597.488601685 0 51674597.488601685 100232125.43809509 0 0 0 0 12850070.053878874 58977795.994764328 0 58977795.994764328 180179534.59337616 0 0 0 0 21320931.624523282 40628157.529273987 0 40628157.529273987 173143696.43512344 0 0 0 0 128369.44226120564 34036.618158608675 0 34036.618158608675 100192.4430160746 0 0 0 0 13564992.339385331 40468945.634963989 0 40468945.634963989 176145852.77053833 0 0 0 0 27218180.208788082 44356081.900222778 0 44356081.900222778 172281225.74627686 0 0 0 0 20136075.431594014 45035867.120834351 0 45035867.120834351 175974715.31733227 0 0 0 0 -2948802.6278412342 45921502.637264252 0 45921502.637264252 177372303.75443268 0 0 0 0 163597.23494145274 56479605.98254776 0 56479605.98254776 204230744.68615723 0 0 0 0 -18894923.820990026 43896540.403478622 0 43896540.403478622 192560063.33973694 0 0 0 0 -16446194.87405026 55622647.443847656 0 55622647.443847656 228415868.06604218 0 0 0 0 -22920932.047712207 52591553.195075989 0 52591553.195075989 263483676.00021362 0 0 0 0 -18815764.933609724 67718652.510738373 0 67718652.510738373 235929753.83443451 0 0 0 0 -7474524.7477326989 -4187668.2354202271 0 -4187668.2354202271 188160901.41560364 0 0 0 0 2915525.1907955408 -2682824.8731918335 0 -2682824.8731918335 118684864.93174744 0 0 0 0 -8781118.3888047934 24554348.524627686 0 24554348.524627686 200673713.07617188 0 0 0 0 -2515232.0607854128 28671012.527008057 0 28671012.527008057 123136557.28602362 0 0 0 0 -45002034.260602474 12710910.631585538 0 12710910.631585538 -191212070.0715456 0 0 0 0 -124139698.2135601 48009521.672585726 0 48009521.672585726 224193295.81932616 0 0 0 0 -474443.97496816004 -1485439.5026204572 0 -1485439.5026204572 2486913.444641903 0 0 0 0 -209289086.07743931 -8978929.3150990009 0 -8978929.3150990009 27609233.410108387 0 0 0 0 -149280202.55522144 -137691972.99308074 0 -137691972.99308074 -21934379.04441452 0 0 0 0 -29191702.005386353 -3832872.960185051 0 -3832872.960185051 15911033.285759926 0 0 0 0 -54053915.479881287 -6246073.8976421356 0 -6246073.8976421356 25833916.491386414 0 0 0 0 -61513636.130689383 -75910787.058627069 0 -75910787.058627069 12100851.419404984 0 0 0 0 6775196.8929753304 -86028524.539551735 0 -86028524.539551735 -11727480.790312767 0 0 0 0 21808092.357163429 -53312407.128839493 0 -53312407.128839493 18081399.799982071 0 0 0 0 -31861387.483760834 -19490668.092743874 0 -19490668.092743874 30987762.072479248 0 0 0 0 -6373007.9653110504 -5916728.7115802765 0 -5916728.7115802765 37408138.426290512 0 0 0 0 -35984201.085375309 19065693.602060914 0 19065693.602060914 49068666.899287224 0 0 0 0 -19177067.884545326 -8102742.7772941589 0 -8102742.7772941589 14813887.987161636 0 0 0 0 44104726.42122364 -286069200.00306445 0 -286069200.00306445 -131729494.99806672 0 0 0 0 623859544.17821312 79846187.096624374 0 79846187.096624374 -346886603.84595466 0 0 0 0 128714140.05978584 60214456.873787165 0 60214456.873787165 21189632.266620636 0 0 0 0 103537926.00960696 -29031644.175214462 0 -29031644.175214462 102120782.72512722 0 0 0 0 215482018.99789333 -1071352.7447297573 0 -1071352.7447297573 64256940.783082366 0 0 0 0 -845247.08485706104 2043120.5116277281 0 2043120.5116277281 2448788.858055844 0 0 0 0 172930258.59658718 106003392.01448882 0 106003392.01448882 5189812.7174123526 0 0 0 0 191605358.37796021 126900350.15290244 0 126900350.15290244 -118182437.37242389 0 0 0 0 -196341320.25771284 -307419149.34969634 0 -307419149.34969634 159469852.68276954 0 0 0 0 48551242.49464035 2193194.4030312896 0 2193194.4030312896 106297765.39493313 0 0 0 0 9638407.532365799 -121523379.30995095 0 -121523379.30995095 -215235225.79976082 0 0 0 0 1757297.7212189464 -3138604.1315357429 0 -3138604.1315357429 4561979.6441761702 0 0 0 0 -1690574.6392647875 411634.25157082151 0 411634.25157082151 2118773.1233156789 0 0 0 0 5763362.4655337334 73069756.159824967 0 73069756.159824967 31560655.482122045 0 0 0 0 71567136.419960737 -96781392.468902349 0 -96781392.468902349 32617036.647464991 0 0 0 0 665170.79867382441 -3170393.934635709 0 -3170393.934635709 4425786.4184887968 0 0 0 0 -107900031.45881653 -346333522.38670057 0 -346333522.38670057 -155334271.24722099 0 0 0 0 31886191.190970898 82488144.152058363 0 82488144.152058363 33644549.078098297 0 0 0 0 131047118.17624317 129657795.77907419 0 129657795.77907419 44985630.227353573 0 0 0 0 107588675.37946573 47183222.466038585 0 47183222.466038585 37003245.25709033 0 0 0 0 171392660.26804399 170166639.98746419 0 170166639.98746419 82928865.278586715 0 0 0 0 247114931.43283653 -30138925.776264668 0 -30138925.776264668 33654726.967852652 0 0 0 0 422306404.6187501 287186555.48666334 0 287186555.48666334 -989187.8893051669 0 0 0 0 -182332414.26243669 -38727737.252063125 0 -38727737.252063125 162069721.60721016 0 0 0 0 336570744.86182928 518738528.48136318 0 518738528.48136318 462945569.91129303 0 0 0 0 -290854842.13536263 601296676.66004658 0 601296676.66004658 -875623397.07581329 0 0 0 0 236973.31367347017 -765249.20467024855 0 -765249.20467024855 1997303.4486987439 0 0 0 0 -193410978.94987965 66880822.448222637 0 66880822.448222637 97031318.934390068 0 0 0 0 -96224494.32725811 119231057.58898354 0 119231057.58898354 839328430.08173704 0 0 0 0 35850410.135846138 -533735502.20740843 0 -533735502.20740843 1890780170.2551041 0 0 0 0 199035145.99318218 -404444679.45763874 0 -404444679.45763874 411781106.03025079 0 0 0 0 83897455.24129121 92434834.51238355 0 92434834.51238355 -216345678.65050697 0 0 0 0 62237556.085323334 -298002562.60815001 0 -298002562.60815001 332552854.1956315 0 0 0 0 122128978.90270412 59576589.270991802 0 59576589.270991802 -10344094.589824677 0 0 0 0 139047668.19784045 37323056.920878887 0 37323056.920878887 -41697280.091041565 0 0 0 0 142114581.59034157 77099531.291658401 0 77099531.291658401 -57194783.444782019 0 0 0 0 -1113811.7410090321 -727187.51239070459 0 -727187.51239070459 2951200.9274123004 0 0 0 0 188956180.66706637 83289719.470127106 0 83289719.470127106 -34142877.098966122 0 0 0 0 -308386.81780505367 7652465.2789640632 0 7652465.2789640632 29887868.721560717 0 0 0 0 -68280019.438676238 10784088.913443208 0 10784088.913443208 57489962.583148479 0 0 0 0 -87345647.348207533 50786089.913525283 0 50786089.913525283 40336505.751535416 0 0 0 0 -30336859.673897266 43310616.629928112 0 43310616.629928112 51390027.283658981 0 0 0 0 -8925531.1783075333 134851054.29690981 0 134851054.29690981 103611742.60781431 0 0 0 0 -29891457.486656666 45310019.378175735 0 45310019.378175735 40876313.223470688 0 0 0 0 1635.4040148074273 3212338.5859246249 0 3212338.5859246249 1284214.0990767125 0 0 0 0 46644343.312534213 24649865.368482709 0 24649865.368482709 -11767327.362322807 0 0 0 0 117216881.97259474 152382303.13330054 0 152382303.13330054 29968342.497595072 0 0 0 0 113145691.96003914 99365441.342047215 0 99365441.342047215 27983855.584868908 0 0 0 0 -57379294.309257358 20636631.390029907 0 20636631.390029907 41178517.872390747 0 0 0 0 1223084.3185536938 9841899.4943738636 0 9841899.4943738636 32361112.814314526 0 0 0 0 -52465026.475143492 4923998.407658577 0 4923998.407658577 45165125.644058228 0 0 0 0 -40754675.212105036 -21268.762511253357 0 -21268.762511253357 51467980.341918945 0 0 0 0 -35991351.620070219 12974553.133529663 0 12974553.133529663 28320446.583690643 0 0 0 0 -2780796.9502888676 14189475.37412554 0 14189475.37412554 6752215.8368896721 0 0 0 0 232978459.28073597 -201950740.82962799 0 -201950740.82962799 -161618935.11053085 0 0 0 0 -22005074.779126167 71787587.256779253 0 71787587.256779253 20865743.449676812 0 0 0 0 -10209278.186970145 44206673.180212021 0 44206673.180212021 53270823.014350891 0 0 0 0 4740896.7698578006 9637492.3450856395 0 9637492.3450856395 26506479.093258135 0 0 0 0 -22257603.937312603 27389993.567416191 0 27389993.567416191 -31756376.506860018 0 0 0 0 99187306.995262146 200794524.05122805 0 200794524.05122805 85572771.632611752 0 0 0 0 -3896076.2256052201 11925731.20631272 0 11925731.20631272 13002699.054651868 0 0 0 0 -20884840.83341217 -43132.348606109619 0 -43132.348606109619 35618887.762329102 0 0 0 0 -29320309.27406013 -8852472.068939209 0 -8852472.068939209 45044726.064437866 0 0 0 0 -32711011.997700214 -5326014.537147522 0 -5326014.537147522 42308944.205371857 0 0 0 0 235141863.98515737 155169062.45191765 0 155169062.45191765 19646421.462771893 0 0 0 0 -33780816.648788452 -184027003.03928995 0 -184027003.03928995 -92649840.095018387 0 0 0 0 365765736.01971245 69028923.406809807 0 69028923.406809807 -33356963.555866241 0 0 0 0 347819552.04921436 -52288470.034729958 0 -52288470.034729958 33695783.838310242 0 0 0 0 130791228.38213015 -28186941.354974747 0 -28186941.354974747 111217523.20930099 0 0 0 0 344098229.70094323 -260886650.21437454 0 -260886650.21437454 256894045.79620361 0 0 0 0 475756015.34337091 -122507035.82091427 0 -122507035.82091427 39068739.013271332 0 0 0 0 124057803.55753136 2769652.3373718262 0 2769652.3373718262 20196637.338691711 0 0 0 0 302614160.00423956 95352854.773800373 0 95352854.773800373 -29244248.254823685 0 0 0 0 161221084.55794537 54979507.768918276 0 54979507.768918276 -32146753.648617744 0 0 0 0 -70541539.044069767 -68852369.779004574 0 -68852369.779004574 73997170.037029266 0 0 0 0 75463421.425578117 218011244.87017012 0 218011244.87017012 -204812411.15666026 0 0 0 0 -41696625.879031181 -93615450.828032494 0 -93615450.828032494 12297820.523906708 0 0 0 0 -659704.6714858762 -359114.7894302113 0 -359114.7894302113 1556234.5198643357 0 0 0 0 121059276.60405779 6599326.574962616 0 6599326.574962616 20348576.205809593 0 0 0 0 -39291939.871789932 36679866.156952858 0 36679866.156952858 23889804.885807037 0 0 0 0 -8768272.0235509872 -23591433.282976151 0 -23591433.282976151 -58466886.558927536 0 0 0 0 -4715661.0002808571 -15136134.323236465 0 -15136134.323236465 74854002.355868101 0 0 0 0 30445135.17041254 -99356929.690658569 0 -99356929.690658569 60710443.184737206 0 0 0 0 20202319.781005621 -36710703.147679389 0 -36710703.147679389 84100364.421895981 0 0 0 0 17472424.807468414 -71807960.937356949 0 -71807960.937356949 234232531.22514725 0 0 0 0 -3718925.9699532641 4661574.6641162615 0 4661574.6641162615 7504844.7332552914 0 0 0 0 64499571.171690464 45948827.810968399 0 45948827.810968399 -20934072.638618469 0 0 0 0 -22223699.261339188 28455637.94248724 0 28455637.94248724 -4293722.5876271725 0 0 0 0 109036223.81772506 34555218.536650538 0 34555218.536650538 8743142.3674659729 0 0 0 0 -5471880.2356395721 6878629.7065291405 0 6878629.7065291405 -15177283.458221555 0 0 0 0 -8168713.1458916664 -36454889.921055794 0 -36454889.921055794 -11255630.24779129 0 0 0 0 118102728.87821722 8501574.5476064682 0 8501574.5476064682 -31450169.853088379 0 0 0 0 160685713.01979899 -52297599.433202028 0 -52297599.433202028 -59811712.65537262 0 0 0 0 155996644.95673162 54223720.357365072 0 54223720.357365072 -77787942.267082214 0 0 0 0 118718226.67544079 -87309801.89330101 0 -87309801.89330101 -88151349.491469383 0 0 0 0 326163968.95773888 -81899811.041057587 0 -81899811.041057587 -106624136.65530777 0 0 0 0 -58275142.939490318 -79760107.835903168 0 -79760107.835903168 641355381.19478989 0 0 0 0 529271418.2673347 238175002.6894846 0 238175002.6894846 -24871361.976291656 0 0 0 0 4857615.5415439606 121599229.58075905 0 121599229.58075905 139410219.81912327 0 0 0 0 11090247.060111046 -117549387.32233143 0 -117549387.32233143 -33134334.548965454 0 0 0 0 156428835.45207596 -139023603.62196159 0 -139023603.62196159 -108568434.82428551 0 0 0 0 112642142.27646947 -78188548.045084 0 -78188548.045084 -27167245.448295593 0 0 0 0 23842675.294792175 -52807663.107829094 0 -52807663.107829094 6160913.5964736938 0 0 0 0 65516008.170004845 -80466092.210195541 0 -80466092.210195541 -26460124.926002502 0 0 0 0 102174563.98475337 -33505697.769320488 0 -33505697.769320488 -5552162.5307579041 0 0 0 0 56326783.97642529 -39293055.037800789 0 -39293055.037800789 11447046.692501068 0 0 0 0 58830243.455175161 -45877742.781200409 0 -45877742.781200409 -9013723.7665176392 0 0 0 0 38629364.993250012 -35260490.14276123 0 -35260490.14276123 20193143.967161179 0 0 0 0 40842371.685022831 -25313735.570664406 0 -25313735.570664406 23268894.96487999 0 0 0 0 57508548.047631025 -23010350.695392609 0 -23010350.695392609 8575878.3649950027 0 0 0 0 85197752.247219563 -9767135.9787349701 0 -9767135.9787349701 14750304.520030975 0 0 0 0 69877145.798158169 13350538.565582752 0 13350538.565582752 37523045.86139679 0 0 0 0 30480101.066250086 -5069826.0350570679 0 -5069826.0350570679 29469722.841087341 0 0 0 0 4419053.005178811 4001345.9169028746 0 4001345.9169028746 11143891.235365206 0 0 0 0 2939035.2967545986 -2433841.6413221359 0 -2433841.6413221359 3386270.836265564 0 0 0 0 39392609.553651392 -25282869.231254578 0 -25282869.231254578 24523767.427383423 0 0 0 0 26786796.729504347 -13445710.511377335 0 -13445710.511377335 14274723.344861984 0 0 0 0 4954323.8667984009 -29714906.909965515 0 -29714906.909965515 34428384.126569867 0 0 0 0 -760418.26573720726 3038530.1380452123 0 3038530.1380452123 3600345.3108104393 0 0 0 0 -23373851.649365425 -16024797.390705109 0 -16024797.390705109 33916155.988140106 0 0 0 0 -55819175.281722546 -17571617.803173065 0 -17571617.803173065 34560782.870607376 0 0 0 0 3232617.9290504456 -4147193.3952579498 0 -4147193.3952579498 3111403.2797622681 0 0 0 0 -1770180.8892717799 -23848.631090115756 0 -23848.631090115756 23342214.878824808 0 0 0 0 53346070.450800359 235831153.55535316 0 235831153.55535316 111619449.86546326 0 0 0 0 75345229.174072742 -96358573.27500248 0 -96358573.27500248 94144043.618591309 0 0 0 0 283579636.17611337 -292892819.40122223 0 -292892819.40122223 -40680357.709541321 0 0 0 0 271167027.41977191 45260245.026077271 0 45260245.026077271 25805471.397216797 0 0 0 0 39147363.410058022 127565642.65763092 0 127565642.65763092 211510365.71054077 0 0 0 0 -37799995.782021046 25301932.642379761 0 25301932.642379761 258196259.07139206 0 0 0 0 -22205081.678525925 -22426228.561889648 0 -22426228.561889648 4849610.8776245117 0 0 0 0 -14642620.479232073 -249135938.34286499 0 -249135938.34286499 9771762.3985900879 0 0 0 0 -5749387.4682490826 -27012643.570217133 0 -27012643.570217133 -15136492.049358368 0 0 0 0 -243282.83939410106 -3806592.7337503396 0 -3806592.7337503396 19337174.824344773 0 0 0 0 -31424542.326142311 -61457887.832695007 0 -61457887.832695007 -73663108.0728302 0 0 0 0 -329633.33151087398 -159882.0476757139 0 -159882.0476757139 518786.04620885104 0 0 0 0 -74575290.455779314 84349984.040138245 0 84349984.040138245 -37593990.566513062 0 0 0 0 9304172.2134032249 53207584.247589111 0 53207584.247589111 -30393902.710906982 0 0 0 0 -111881001.47896028 23191360.83070755 0 23191360.83070755 14392148.705535889 0 0 0 0 -55153021.070252657 -11108791.130661011 0 -11108791.130661011 19699972.900360107 0 0 0 0 13490518.6450243 -11904149.033992767 0 -11904149.033992767 -18151273.093812943 0 0 0 0 773407.48400783539 -4472691.6121296883 0 -4472691.6121296883 3255503.4420013428 0 0 0 0 8784338.9568653107 -5044015.073841095 0 -5044015.073841095 -6814408.9430007935 0 0 0 0 11645619.483504295 14957827.117164612 0 14957827.117164612 32542909.074199677 0 0 0 0 16672462.940352917 4546775.0317707062 0 4546775.0317707062 10439470.916873932 0 0 0 0 22565820.767281115 11129061.465291262 0 11129061.465291262 126938.76794815063 0 0 0 0 17817870.974276274 -10780667.157390594 0 -10780667.157390594 -22637315.055942535 0 0 0 0 28185768.956724823 -26686881.485056877 0 -26686881.485056877 -24961030.260444641 0 0 0 0 56041047.557015419 27423301.006626129 0 27423301.006626129 -4925845.4887275696 0 0 0 0 -4939956.2796174288 -15729348.617980957 0 -15729348.617980957 2257342.2862739563 0 0 0 0 3148511.3034740686 -44435076.704250336 0 -44435076.704250336 -84270581.683959961 0 0 0 0 -22539233.625984192 -19408342.797561646 0 -19408342.797561646 -18142887.555725098 0 0 0 0 -31530021.189750195 -61304309.101783752 0 -61304309.101783752 -59521039.598449707 0 0 0 0 -52733615.722081542 -97856287.498109818 0 -97856287.498109818 -87061789.455505371 0 0 0 0 1202493.4374958754 -483123.01152554527 0 -483123.01152554527 -1448188.5044678897 0 0 0 0 5879346.0699201478 4719849.9285299396 0 4719849.9285299396 5308379.0394045748 0 0 0 0 11312008.525358677 -3337837.5467023849 0 -3337837.5467023849 23391770.268315315 0 0 0 0 13340200.246632576 3134036.0274372101 0 3134036.0274372101 2398794.2447023392 0 0 0 0 8842813.3364801407 5950813.9975700378 0 5950813.9975700378 8075232.2970581055 0 0 0 0 -264584.3552069217 153105.86285592802 0 153105.86285592802 3813107.2886040099 0 0 0 0 13842734.958467007 12651902.111948013 0 12651902.111948013 11840535.404149055 0 0 0 0 43638702.851932526 -44538640.761154175 0 -44538640.761154175 41366334.764669418 0 0 0 0 3344750.3724182695 3767343.6216950659 0 3767343.6216950659 2796409.0949228816 0 0 0 0 40777454.069493294 89724794.638153076 0 89724794.638153076 90961951.331033707 0 0 0 0 76472735.427046776 164489428.33251762 0 164489428.33251762 198123823.38807011 0 0 0 0 -1406649.5971241635 -1143196.5836144611 0 -1143196.5836144611 4856938.6810144801 0 0 0 0 54380983.755337715 -39859572.135168076 0 -39859572.135168076 -848682.45548534393 0 0 0 0 561353683.88068199 195545961.76063919 0 195545961.76063919 222975358.90893364 0 0 0 0 512902469.34321404 273915694.20463181 0 273915694.20463181 97956167.94826889 0 0 0 0 -1029392.7128627163 2780389.6360520096 0 2780389.6360520096 2312685.7763275132 0 0 0 0 141734247.36761868 45234576.237643242 0 45234576.237643242 88999159.763397217 0 0 0 0 94736374.749742985 -48194345.021842957 0 -48194345.021842957 187956708.62975693 0 0 0 0 -860342.41700039897 -805566.85253535956 0 -805566.85253535956 2052921.4267417351 0 0 0 0 11028165.51361227 -58595133.513538361 0 -58595133.513538361 144730299.72644043 0 0 0 0 10869387.272750378 -11257502.552851677 0 -11257502.552851677 28583313.085321426 0 0 0 0 15105345.407579064 -12201301.052540302 0 -12201301.052540302 22694558.088108063 0 0 0 0 21112421.737073302 -28255381.75968504 0 -28255381.75968504 48158711.536720276 0 0 0 0 38450085.639656067 -41440359.97369957 0 -41440359.97369957 31078352.111349106 0 0 0 0 48234054.002120972 -23305324.385649681 0 -23305324.385649681 14075815.97312355 0 0 0 0 133170660.63738251 -90697350.873975754 0 -90697350.873975754 14034179.438709259 0 0 0 0 158910598.2517252 -29821341.243005514 0 -29821341.243005514 -48224229.968711853 0 0 0 0 89225312.029286385 29215362.949826717 0 29215362.949826717 -62809333.427047729 0 0 0 0 70444606.895370483 -34381854.025375366 0 -34381854.025375366 2412641.2231194973 0 0 0 0 16436282.171898842 40300801.814752579 0 40300801.814752579 43127217.426736355 0 0 0 0 43214515.5076437 48249002.972131729 0 48249002.972131729 4629013.0144138336 0 0 0 0 13543558.425339669 -6192200.3546952009 0 -6192200.3546952009 26841257.186763763 0 0 0 0 26779669.014949322 -38293159.356411934 0 -38293159.356411934 20680937.131181717 0 0 0 0 31410003.193950653 -28797356.187066078 0 -28797356.187066078 25958522.260041237 0 0 0 0 -19385680.976911068 -37161429.707778931 0 -37161429.707778931 26050810.944541931 0 0 0 0 13394862.115921497 -11367722.878658295 0 -11367722.878658295 15381127.755273819 0 0 0 0 446358515.11589289 460578009.16842055 0 460578009.16842055 392736383.31109619 0 0 0 0 66800256.799160957 -103335113.5017314 0 -103335113.5017314 694700530.06840372 0 0 0 0 -298043351.47542334 157291581.52518606 0 157291581.52518606 841351574.03335285 0 0 0 0 -1683888.7487966677 4129759.0478922497 0 4129759.0478922497 4485467.9483926678 0 0 0 0 291540666.37427521 311700974.08571529 0 311700974.08571529 -75616292.2514534 0 0 0 0 3682213.1176716983 1265489.7011715174 0 1265489.7011715174 1057740.2817115476 0 0 0 0 287945429.47387105 257020880.72878471 0 257020880.72878471 -194881524.27173615 0 0 0 0 -205542474.77765465 119892818.23022842 0 119892818.23022842 107750801.49278927 0 0 0 0 251458461.5816223 134184210.90795919 0 134184210.90795919 -230904609.96471596 0 0 0 0 485150422.52705717 386820983.91328573 0 386820983.91328573 41412545.308998108 0 0 0 0 249741942.23791504 186125711.18767262 0 186125711.18767262 -104026556.2293241 0 0 0 0 66255325.660181999 171972094.38800526 0 171972094.38800526 287384882.23862076 0 0 0 0 138353381.81410027 104279303.02815437 0 104279303.02815437 302706563.70764923 0 0 0 0 30673416.834478378 52831879.966130257 0 52831879.966130257 50950545.776333809 0 0 0 0 -113739872.04683018 108318458.80938435 0 108318458.80938435 181372918.19940567 0 0 0 0 32015307.3092556 -72960095.843813181 0 -72960095.843813181 116074771.59948826 0 0 0 0 -103052029.68211746 101103666.13077354 0 101103666.13077354 -53040000.609234095 0 0 0 0 6245125.1665789559 2160000.8722274378 0 2160000.8722274378 7634930.2992072674 0 0 0 0 -228271979.20687485 277501404.52086449 0 277501404.52086449 -28289502.90576303 0 0 0 0 -5073569.0974309668 -1551052.2473121192 0 -1551052.2473121192 30176143.287450768 0 0 0 0 -19641284.980081558 -52646302.787210464 0 -52646302.787210464 48335035.142368913 0 0 0 0 -71305867.589572668 -97828615.400230408 0 -97828615.400230408 -2087038.5508117676 0 0 0 0 -199763347.54369497 -101391052.10817719 0 -101391052.10817719 10365156.941410065 0 0 0 0 -7469407.6450047754 -8493179.2275431491 0 -8493179.2275431491 67229637.659175381 0 0 0 0 -55448830.745883942 -52439415.915019035 0 -52439415.915019035 82282602.377972603 0 0 0 0 -12824415.781095505 -19716298.257115841 0 -19716298.257115841 54803990.965034842 0 0 0 0 -64531250.744842529 -2615754.0575046539 0 -2615754.0575046539 110479006.41776943 0 0 0 0 -80952940.471553802 22016846.62048316 0 22016846.62048316 90694165.76734376 0 0 0 0 -57677217.443536758 38807760.103396893 0 38807760.103396893 54512660.583480835 0 0 0 0 -7024289.4341861084 1041278.9767020764 0 1041278.9767020764 18237007.798486944 0 0 0 0 -55766724.786965847 -33915380.120666862 0 -33915380.120666862 186648148.67196465 0 0 0 0 -17309526.745126724 55622600.341603041 0 55622600.341603041 115654385.7473774 0 0 0 0 -17728267.292924881 71700212.818474293 0 71700212.818474293 342738275.53681278 0 0 0 0 23698223.343191147 -17049614.046839476 0 -17049614.046839476 113526916.96210194 0 0 0 0 66084738.417711258 -84448204.125678539 0 -84448204.125678539 203606410.8922205 0 0 0 0 -16312173.601118088 12463451.615352631 0 12463451.615352631 23702056.078065872 0 0 0 0 -3166853.5464443145 -9311172.5798864402 0 -9311172.5798864402 2610720.6214673668 0 0 0 0 90902708.747469425 -19302833.943389893 0 -19302833.943389893 -23692935.272262573 0 0 0 0 -15766760.357755065 -65251675.109600067 0 -65251675.109600067 158618785.59477234 0 0 0 0 -9100532.7660799026 -28531759.135250092 0 -28531759.135250092 110335904.98379517 0 0 0 0 34054935.385880098 -117724773.19335079 0 -117724773.19335079 183826256.4743042 0 0 0 0 -22034000.974923611 -57583179.662635803 0 -57583179.662635803 248372466.25052643 0 0 0 0 -32121299.533982992 -66542804.396453857 0 -66542804.396453857 286443758.79174805 0 0 0 0 -28445363.9160676 -28877968.156570435 0 -28877968.156570435 176077383.87757874 0 0 0 0 -1225960.200540781 -6434060.1133956909 0 -6434060.1133956909 156803200.75757599 0 0 0 0 -36466269.776772976 -32512202.312965393 0 -32512202.312965393 222458381.50089264 0 0 0 0 10021514.243790627 -58004805.653446198 0 -58004805.653446198 55703180.3227005 0 0 0 0 8071084.2289397717 -35122819.157901764 0 -35122819.157901764 43052727.303741455 0 0 0 0 -4758893.6049136817 -10897481.280073468 0 -10897481.280073468 7709707.1438309886 0 0 0 0 6259323.5559453964 -49107845.00756073 0 -49107845.00756073 37782910.783752441 0 0 0 0 -16906359.787539482 -26397094.303039551 0 -26397094.303039551 72975379.742012024 0 0 0 0 -2037568.7964863256 -26831101.895561576 0 -26831101.895561576 68973963.186828613 0 0 0 0 8746358.5982232094 55288991.286792755 0 55288991.286792755 180450587.63574982 0 0 0 0 -2831373.9429047108 7460826.9355621338 0 7460826.9355621338 29957116.425739288 0 0 0 0 -50461272.930162668 -26049892.948085785 0 -26049892.948085785 75603794.297019958 0 0 0 0 -17971785.418542445 -36765320.224384069 0 -36765320.224384069 29157298.082427979 0 0 0 0 -37545542.397853851 12814637.370618582 0 12814637.370618582 65094720.68794632 0 0 0 0 -7722605.9521536864 -11274195.457249504 0 -11274195.457249504 61165654.672228478 0 0 0 0 -42748141.307623863 -68054844.004219055 0 -68054844.004219055 29151812.98634313 0 0 0 0 -28257217.7774086 -57013257.855131865 0 -57013257.855131865 27263705.846347809 0 0 0 0 -16307771.124412537 -25600469.934566021 0 -25600469.934566021 82107630.447967052 0 0 0 0 -4919520.3522074111 -7990765.4406931577 0 -7990765.4406931577 40335253.112420887 0 0 0 0 10665857.603257179 7557314.3077812195 0 7557314.3077812195 38784563.399675369 0 0 0 0 2733435.2817091942 -11529519.782659531 0 -11529519.782659531 55809329.955184937 0 0 0 0 -14675957.819904981 -8940596.3494680934 0 -8940596.3494680934 27272782.765426408 0 0 0 0 -25698693.396971107 -41515831.069026947 0 -41515831.069026947 39172884.984191895 0 0 0 0 921939.0885424614 464575.17429351807 0 464575.17429351807 32121804.483791351 0 0 0 0 -11410403.435739517 -19081658.247119904 0 -19081658.247119904 64487891.281997681 0 0 0 0 -19534050.541349411 -363436.16927719116 0 -363436.16927719116 45421053.825187683 0 0 0 0 -22776652.9449296 30305416.729213715 0 30305416.729213715 26894386.300930023 0 0 0 0 440541.88204372523 4268914.5432396494 0 4268914.5432396494 10067918.193838499 0 0 0 0 -90616279.863615558 23681891.209557533 0 23681891.209557533 1197796.9680786133 0 0 0 0 -20504364.106617391 19676126.977735341 0 19676126.977735341 10790642.771751404 0 0 0 0 -90902525.771551371 28571359.398353577 0 28571359.398353577 -5726820.5400390625 0 0 0 0 -27714848.156057358 -9707821.1143341064 0 -9707821.1143341064 33781706.684913635 0 0 0 0 -745545.06383371353 -7366511.8171386719 0 -7366511.8171386719 22882435.850250244 0 0 0 0 -41589425.628347397 8483238.2263317108 0 8483238.2263317108 36340175.044250488 0 0 0 0 12680206.410476208 33911787.177268982 0 33911787.177268982 15258462.201194763 0 0 0 0 -72727033.554828167 151579397.40919113 0 151579397.40919113 105829486.5448494 0 0 0 0 -11377264.184576035 15182947.998055458 0 15182947.998055458 28936869.507217407 0 0 0 0 -2396696.5711377873 -4770514.8262914754 0 -4770514.8262914754 3074936.5348633081 0 0 0 0 57741633.011283875 -49726119.604515076 0 -49726119.604515076 -6443494.4452514648 0 0 0 0 -87903948.126364708 -159538193.06569672 0 -159538193.06569672 35165499.486688614 0 0 0 0 -4878064.6178393085 -3167473.1206538426 0 -3167473.1206538426 26426345.780587904 0 0 0 0 -19014837.642843008 199881.40045928955 0 199881.40045928955 3850367.6954956055 0 0 0 0 -2390360.5360138891 -1505808.5295759756 0 -1505808.5295759756 15595417.297623023 0 0 0 0 -18951363.694022179 -27551.057640075684 0 -27551.057640075684 4657670.5880737305 0 0 0 0 -2847800.6508094138 6774025.0769142061 0 6774025.0769142061 23176544.751034699 0 0 0 0 139245.64177681587 154596.64409682155 0 154596.64409682155 12697495.479956977 0 0 0 0 -2687903.0420329622 -6625727.8434674777 0 -6625727.8434674777 7355745.4441842735 0 0 0 0 18024814.279539108 24574412.268157959 0 24574412.268157959 -4088831.2237548828 0 0 0 0 -1904860.754321028 2378751.6488172226 0 2378751.6488172226 4232648.5849652737 0 0 0 0 -34721630.529171228 11981179.645443916 0 11981179.645443916 36361216.299308777 0 0 0 0 -26387816.706718445 19520860.305057526 0 19520860.305057526 26249692.456329346 0 0 0 0 -10330939.227105618 -5208109.8099079132 0 -5208109.8099079132 45805625.969963074 0 0 0 0 -48821051.707143784 -5970443.4747028351 0 -5970443.4747028351 31049115.244110107 0 0 0 0 -33264131.969419003 17628218.165441513 0 17628218.165441513 58190350.618247986 0 0 0 0 -28296848.970677376 -48760920.494300842 0 -48760920.494300842 42364014.891573906 0 0 0 0 -6855572.0847906107 -3471095.9938058369 0 -3471095.9938058369 39685117.642762385 0 0 0 0 63627238.247047424 -102769443.66786355 0 -102769443.66786355 39838288.806056023 0 0 0 0 -79266623.574855804 -110443979.10468364 0 -110443979.10468364 62606337.738782644 0 0 0 0 -18627978.769114494 19379948.142662108 0 19379948.142662108 32566092.936895847 0 0 0 0 16414005.466001511 -508127.82441091537 0 -508127.82441091537 -10477383.69876039 0 0 0 0 67031820.7844944 129096029.91118389 0 129096029.91118389 137974761.05968285 0 0 0 0 168571690.95388031 18966100.582429409 0 18966100.582429409 12539827.50511229 0 0 0 0 2064671.3269048929 234784.06101189181 0 234784.06101189181 -1003241.6743082159 0 0 0 0 21552650.935709 -4837622.6703598499 0 -4837622.6703598499 5914880.4026225805 0 0 0 0 164538905.23988676 4759169.8407739997 0 4759169.8407739997 -6513001.1668282747 0 0 0 0 13427101.187889099 62523118.345123053 0 62523118.345123053 37545688.466910362 0 0 0 0 18414658.092720032 54518966.582248688 0 54518966.582248688 36330005.210157394 0 0 0 0 -60475932.905517578 71181268.002045602 0 71181268.002045602 208827626.879655 0 0 0 0 105959073.07777882 140878593.47211808 0 140878593.47211808 98473163.937010229 0 0 0 0 -54424454.082256317 -41881014.786785126 0 -41881014.786785126 44743016.939491272 0 0 0 0 -6932655.1557497438 997411.5048268009 0 997411.5048268009 37561451.948088974 0 0 0 0 -106508017.31500912 -16652590.423683524 0 -16652590.423683524 108188509.98734355 0 0 0 0 3457357.5046920776 51451940.759367228 0 51451940.759367228 51051063.422132015 0 0 0 0 9489349.0885753632 65425962.113999248 0 65425962.113999248 64705496.391385198 0 0 0 0 -40845171.288060665 -16962013.240882874 0 -16962013.240882874 24065.047058105469 0 0 0 0 -6782081.5234227963 7957965.5420439951 0 7957965.5420439951 37500461.638594277 0 0 0 0 -39010344.015598297 -16129417.312156677 0 -16129417.312156677 -1001130.2355728149 0 0 0 0 -2323143.6346340179 43845605.892512679 0 43845605.892512679 49946146.043274879 0 0 0 0 -40170731.771565437 -14604040.196662903 0 -14604040.196662903 -2886008.4970703125 0 0 0 0 -57176765.930049419 2734623.6398429871 0 2734623.6398429871 84706937.630706787 0 0 0 0 -35793536.09638834 -36137037.058380127 0 -36137037.058380127 44880510.990447998 0 0 0 0 -3266520.0092258207 -5335332.4455457553 0 -5335332.4455457553 23676100.121032566 0 0 0 0 -32057160.487455368 -17362895.376678467 0 -17362895.376678467 -3939100.4916114807 0 0 0 0 -1570264.0830239169 -4947838.7022831999 0 -4947838.7022831999 2072520.5537457839 0 0 0 0 31002156.385956764 101092192.35771269 0 101092192.35771269 102482108.76094031 0 0 0 0 115791103.91599739 57392716.636564299 0 57392716.636564299 61672175.936876059 0 0 0 0 17462268.076227188 78883574.836514354 0 78883574.836514354 117376488.82969904 0 0 0 0 175702839.84739971 150975309.77636623 0 150975309.77636623 140267611.85664749 0 0 0 0 -56591227.605194092 89323650.954395175 0 89323650.954395175 162845441.30840623 0 0 0 0 -53393193.185493469 51219744.091044664 0 51219744.091044664 90780104.786218643 0 0 0 0 19202870.704509735 30845323.856243849 0 30845323.856243849 68909343.587585032 0 0 0 0 -22660307.243992805 50209866.51541394 0 50209866.51541394 82928052.721707702 0 0 0 0 -44476840.534212112 44506392.4797443 0 44506392.4797443 211793438.21432921 0 0 0 0 -16517731.432299614 36923685.28064543 0 36923685.28064543 18198672.772768408 0 0 0 0 4535202.8650481813 770459.711568492 0 770459.711568492 -1627703.0430386409 0 0 0 0 -14053275.340393066 59082830.823489666 0 59082830.823489666 7923415.4477382898 0 0 0 0 -5223079.7872943878 23771288.922454476 0 23771288.922454476 -35352802.120114088 0 0 0 0 32542304.792152405 73940048.669625044 0 73940048.669625044 8965033.6808907986 0 0 0 0 34166868.530237198 36359702.825720668 0 36359702.825720668 -29106196.21161139 0 0 0 0 29382513.289349318 100604843.09058531 0 100604843.09058531 51227187.787115097 0 0 0 0 53286712.236776352 46028451.198527277 0 46028451.198527277 -53267614.028411865 0 0 0 0 17511232.505263209 -8629556.3793226779 0 -8629556.3793226779 -95299424.03912878 0 0 0 0 1551776.1633339329 -2203369.3441645131 0 -2203369.3441645131 5245276.59569507 0 0 0 0 9167177.3857865334 6164839.8494318575 0 6164839.8494318575 17169957.028300107 0 0 0 0 1031201.7034783363 7720978.1948248446 0 7720978.1948248446 21318803.682763085 0 0 0 0 11593775.390792847 -2149582.1522989273 0 -2149582.1522989273 14873029.344601631 0 0 0 0 7367828.1619973183 4535377.4101294279 0 4535377.4101294279 18267021.461791992 0 0 0 0 19062878.677034378 5781814.7571206093 0 5781814.7571206093 13088431.595468521 0 0 0 0 17813494.001857758 10110988.395101547 0 10110988.395101547 16609893.545992374 0 0 0 0 5983109.9793128967 8263545.9942884445 0 8263545.9942884445 42840808.449487686 0 0 0 0 90274.702077691443 -89609.15645205183 0 -89609.15645205183 101312.99973283662 0 0 0 0 13640227.345675111 27226907.169891067 0 27226907.169891067 -45126875.317938089 0 0 0 0 6507818.2368190438 1082779.5157664982 0 1082779.5157664982 -1962042.6323195305 0 0 0 0 9232158.9393253326 -3619424.7354178429 0 -3619424.7354178429 921425.53675365448 0 0 0 0 16448718.048215866 3650826.9478213787 0 3650826.9478213787 -889672.18046426773 0 0 0 0 11252195.631160736 480503.5784342289 0 480503.5784342289 -3606058.2272510529 0 0 0 0 16893920.303089142 -1696997.0893688202 0 -1696997.0893688202 -2769536.2085971832 0 0 0 0 8968104.8952102661 -620493.18164300919 0 -620493.18164300919 660987.20775580406 0 0 0 0 4919799.732542038 2196327.4797449112 0 2196327.4797449112 1121991.8659296036 0 0 0 0 7712998.6687202454 2270809.3998231888 0 2270809.3998231888 1120472.5289400667 0 0 0 0 4926832.9936065674 -918096.97490644455 0 -918096.97490644455 639247.04771232605 0 0 0 0 9927411.5192318484 3253383.1942112213 0 3253383.1942112213 2133484.4019291033 0 0 0 0 4081998.7398490906 8906079.0717244148 0 8906079.0717244148 11408359.413487434 0 0 0 0 33834303.033410072 -37559648.443676949 0 -37559648.443676949 43194725.003723145 0 0 0 0 14136127.494874477 23744897.420397758 0 23744897.420397758 27339933.929049492 0 0 0 0 13338939.457596986 2999673.9851950132 0 2999673.9851950132 7939407.9971191585 0 0 0 0 1881822.4793433957 1381620.8860750049 0 1381620.8860750049 624655.26267095283 0 0 0 0 18549763.083034992 -28191014.052769661 0 -28191014.052769661 108037764.53881741 0 0 0 0 12051811.005418301 -16871553.133547783 0 -16871553.133547783 119190984.86901855 0 0 0 0 17236638.740237057 -5433182.4053227901 0 -5433182.4053227901 30418360.079978943 0 0 0 0 12884486.391808033 -57044482.656999588 0 -57044482.656999588 117357811.94641781 0 0 0 0 51040879.219917774 -3343217.5317316055 0 -3343217.5317316055 9449257.4148597717 0 0 0 0 7324875.8125166828 3449819.81292836 0 3449819.81292836 2463332.0082588042 0 0 0 0 457225.45748711517 713389.37762656063 0 713389.37762656063 1263874.2703505345 0 0 0 0 31549738.008775473 62210054.140875101 0 62210054.140875101 230858028.3136158 0 0 0 0 7752919.5775957946 2087567.2206920874 0 2087567.2206920874 -1299427.3040223643 0 0 0 0 5843057.3199005127 658778.1593708992 0 658778.1593708992 9942982.9667811394 0 0 0 0 2811278.6681423187 1836188.2813540995 0 1836188.2813540995 9490750.3407297134 0 0 0 0 -2990341.8469308382 4304218.5905775474 0 4304218.5905775474 3719113.0660441015 0 0 0 0 5344584.2562408447 -1374676.4052219391 0 -1374676.4052219391 14849285.548035622 0 0 0 0 7678115.6437206268 6617878.1320357323 0 6617878.1320357323 9144445.0327720642 0 0 0 0 3526657.4719113242 1707486.0302256476 0 1707486.0302256476 8592435.1849206407 0 0 0 0 5879901.4152297974 7746310.711016655 0 7746310.711016655 12077104.110460281 0 0 0 0 13524780.380214691 2796181.4684467316 0 2796181.4684467316 11635389.950149536 0 0 0 0 10232805.021369934 6330330.7688407898 0 6330330.7688407898 14835822.311139107 0 0 0 0 10806059.462564468 8905045.9057558775 0 8905045.9057558775 10258187.269962311 0 0 0 0 3902354.0134410858 5840476.2427654266 0 5840476.2427654266 9722622.0300266743 0 0 0 0 6568666.4449181557 9687700.4389592409 0 9687700.4389592409 -3525739.2698516846 0 0 0 0 8785107.2747783661 3070389.4411659241 0 3070389.4411659241 3648333.7011389732 0 0 0 0 6296446.4247407913 -27229545.548670769 0 -27229545.548670769 16067923.307536125 0 0 0 0 5760718.9786182931 -1212375.7465421958 0 -1212375.7465421958 18811593.175796993 0 0 0 0 1601502.6330222487 -14884426.459764957 0 -14884426.459764957 20286653.034786224 0 0 0 0 6311646.4477405548 -21209066.693437576 0 -21209066.693437576 23194851.310978413 0 0 0 0 3103101.5627627373 -26331756.372262955 0 -26331756.372262955 22425557.563538313 0 0 0 0 -3198208.856751442 1093989.4431972504 0 1093989.4431972504 8489034.0550231934 0 0 0 0 16637886.964263916 28110106.139746904 0 28110106.139746904 57967716.918879032 0 0 0 0 16331725.536634415 13327172.412898537 0 13327172.412898537 25783192.507062342 0 0 0 0 -37022188.118266106 -21898350.405166626 0 -21898350.405166626 5960958.5944671631 0 0 0 0 2466496.121919632 43554051.723146677 0 43554051.723146677 32343185.796550751 0 0 0 0 6601481.2950572968 46525360.197904825 0 46525360.197904825 27940891.815569401 0 0 0 0 17290665.16594696 52920364.092092752 0 52920364.092092752 36038565.233298779 0 0 0 0 14313844.788814139 9107580.6925816871 0 9107580.6925816871 23672775.819776051 0 0 0 0 9220248.6886839867 -18183694.906059265 0 -18183694.906059265 27795128.489627838 0 0 0 0 19466992.563301086 -11795473.403867722 0 -11795473.403867722 -16402681.754110336 0 0 0 0 16186969.569718877 4544474.1632551923 0 4544474.1632551923 11959393.095172839 0 0 0 0 39409869.253263474 27408814.446021557 0 27408814.446021557 -14234445.178658962 0 0 0 0 38605911.039619446 21057178.433502197 0 21057178.433502197 -1688363.9897270203 0 0 0 0 19026339.298706055 21518454.127673626 0 21518454.127673626 -5061301.1135058403 0 0 0 0 64120788.213816941 50266796.339071304 0 50266796.339071304 12911796.975886345 0 0 0 0 65016882.386662662 7899364.5370815024 0 7899364.5370815024 -3934622.5472545624 0 0 0 0 11257647.569818497 9090244.5312685966 0 9090244.5312685966 -3233928.2731601 0 0 0 0 34390387.595953226 5789150.345035553 0 5789150.345035553 60246586.142066956 0 0 0 0 1926662.6335926056 -26592401.626605153 0 -26592401.626605153 47710259.002105713 0 0 0 0 -18143985.882082462 16464210.154834747 0 16464210.154834747 115682597.41305351 0 0 0 0 -53261.723107814789 1423259.0721788406 0 1423259.0721788406 121106466.69304895 0 0 0 0 40558322.527369022 28537411.860204697 0 28537411.860204697 105136479.47156 0 0 0 0 -7597799.283914566 15284039.358382225 0 15284039.358382225 188892688.45920181 0 0 0 0 48042642.008713722 15306176.551010132 0 15306176.551010132 102421818.84965229 0 0 0 0 78171317.455386877 73193753.689459324 0 73193753.689459324 202615379.52646637 0 0 0 0 28600396.106937408 -4514529.4328899384 0 -4514529.4328899384 37392154.430568695 0 0 0 0 18843589.636703253 -32937908.833510876 0 -32937908.833510876 44007462.599994659 0 0 0 0 18903856.220683098 -22140306.240411758 0 -22140306.240411758 19126591.703954697 0 0 0 0 33715492.135014534 -18155245.250447273 0 -18155245.250447273 55657377.011182785 0 0 0 0 55849988.638344646 -26048251.287384748 0 -26048251.287384748 51103884.07188797 0 0 0 0 28919106.0955863 -24001677.098949432 0 -24001677.098949432 88682390.337295532 0 0 0 0 116161272.39973593 -6517295.0784358978 0 -6517295.0784358978 90006183.752927899 0 0 0 0 17111655.328242302 -2305202.0745611191 0 -2305202.0745611191 82575298.084154129 0 0 0 0 3746597.2687206268 -23308442.338157654 0 -23308442.338157654 94603375.460261345 0 0 0 0 1912125.2407627106 -6653295.2184791565 0 -6653295.2184791565 79584048.595129013 0 0 0 0 2819184.6767501831 -28848017.104316711 0 -28848017.104316711 61517810.096982956 0 0 0 0 1131448.4827520847 -28996393.310822248 0 -28996393.310822248 63416626.179737091 0 0 0 0 261227.83573532104 -34123867.039699554 0 -34123867.039699554 60625413.467759132 0 0 0 0 18400902.729941368 -39637471.247646332 0 -39637471.247646332 65613169.557983398 0 0 0 0 6610651.0976161957 -23797058.16746521 0 -23797058.16746521 47065145.998897552 0 0 0 0 9455805.4035339355 -31722992.692171097 0 -31722992.692171097 41821827.261455536 0 0 0 0 4000731.8394842148 -25669531.335893631 0 -25669531.335893631 44280397.522277832 0 0 0 0 44383676.974701405 41814166.302979469 0 41814166.302979469 21281095.431018829 0 0 0 0 44979705.140999794 27433141.088244438 0 27433141.088244438 -7972590.089966774 0 0 0 0 48368745.277962685 37442978.635490417 0 37442978.635490417 16581073.94895649 0 0 0 0 6244127.8366954327 26335888.599611044 0 26335888.599611044 105039370.72904968 0 0 0 0 9657192.539249897 -10472391.207381248 0 -10472391.207381248 76187061.211645126 0 0 0 0 23006897.486257315 -30136752.302961111 0 -30136752.302961111 173269990.39699936 0 0 0 0 71048316.105161667 105781493.30441475 0 105781493.30441475 124757225.54487562 0 0 0 0 18737419.666227579 47850853.551647186 0 47850853.551647186 22084250.472616196 0 0 0 0 40185631.840042114 33573615.224332809 0 33573615.224332809 31073820.632045746 0 0 0 0 -2341588.8933722973 -5022449.6840047836 0 -5022449.6840047836 -8503684.3851823807 0 0 0 0 -50164.977970058797 341780.36044778861 0 341780.36044778861 884962.47355662473 0 0 0 0 -20718925.55987215 -11644738.353526115 0 -11644738.353526115 13099214.708742142 0 0 0 0 74006974.255412713 35021271.899404407 0 35021271.899404407 -13699964.730987549 0 0 0 0 368682.63736389065 146930.63366565853 0 146930.63366565853 9378.5750370398164 0 0 0 0 12041441.16335392 -59227461.332605362 0 -59227461.332605362 272994932.24516201 0 0 0 0 14015944.28253305 -55166718.672019958 0 -55166718.672019958 133919403.5950737 0 0 0 0 -11435756.266288996 -1735213.4840974808 0 -1735213.4840974808 121744447.5520401 0 0 0 0 7178820.9028124809 -20828624.740283966 0 -20828624.740283966 66897827.203845978 0 0 0 0 -10183239.227645159 -26169119.992498875 0 -26169119.992498875 127812138.16632652 0 0 0 0 538506.38789108675 198394.61937797908 0 198394.61937797908 370103.29750759341 0 0 0 0 -23558505.385513544 -24300067.146224976 0 -24300067.146224976 85230668.918876648 0 0 0 0 -5778765.2165498734 -1020828.3784360886 0 -1020828.3784360886 67860411.247552752 0 0 0 0 16889909.356251359 -10835433.697390079 0 -10835433.697390079 -7412146.1574020386 0 0 0 0 13614108.089784145 -31229181.241389275 0 -31229181.241389275 12753497.662389755 0 0 0 0 -108131.30327105394 211210.86044491827 0 211210.86044491827 1310132.9913547691 0 0 0 0 -29063676.632563591 -11161698.466702461 0 -11161698.466702461 6641651.414809227 0 0 0 0 40083708.900174141 47864721.411295891 0 47864721.411295891 6470866.6985855103 0 0 0 0 -48177373.867685795 7576813.9028997421 0 7576813.9028997421 13594147.77769506 0 0 0 0 51453266.30742979 74853104.784638405 0 74853104.784638405 41265865.615367889 0 0 0 0 127271174.59739017 -14093790.902887344 0 -14093790.902887344 15154525.629937649 0 0 0 0 110544421.08570999 62985767.454162359 0 62985767.454162359 92811063.073122025 0 0 0 0 92127042.772115231 64546527.766633987 0 64546527.766633987 104734031.50906849 0 0 0 0 88861629.18922022 82237927.103551269 0 82237927.103551269 156141795.87591743 0 0 0 0 19384906.400370598 24445020.130360126 0 24445020.130360126 200525266.1137886 0 0 0 0 69343472.643604755 24978879.955352306 0 24978879.955352306 126403967.77611542 0 0 0 0 75464042.221827984 9084746.6066055298 0 9084746.6066055298 160061146.6231842 0 0 0 0 48003933.013253927 -3325079.251335144 0 -3325079.251335144 95164901.49197197 0 0 0 0 17102902.646579742 -7954504.5665473938 0 -7954504.5665473938 154852826.79012871 0 0 0 0 -1979922.8618187904 -31699302.996547222 0 -31699302.996547222 131669610.68431854 0 0 0 0 -3970802.399630785 -24981973.559402466 0 -24981973.559402466 109251199.16833687 0 0 0 0 -7584931.909825325 -30114147.255233765 0 -30114147.255233765 104671458.77745247 0 0 0 0 11696.653332233429 -13153632.369483948 0 -13153632.369483948 88019413.62969017 0 0 0 0 8736726.8520805836 -28211268.563788414 0 -28211268.563788414 33109680.337059021 0 0 0 0 12386958.317313671 -43063.810564994812 0 -43063.810564994812 75895185.675963402 0 0 0 0 113475522.66954279 26862659.318817139 0 26862659.318817139 46992672.785891533 0 0 0 0 11872520.415671349 -17167552.215535164 0 -17167552.215535164 89981732.525013924 0 0 0 0 198043875.04956961 53611856.386076927 0 53611856.386076927 -12489568.977687836 0 0 0 0 24364037.969938576 -27620141.767960072 0 -27620141.767960072 14848595.950368881 0 0 0 0 -4074675.327167511 38235623.302754402 0 38235623.302754402 20190753.691046476 0 0 0 0 708577.07929731812 295066.71817134693 0 295066.71817134693 179909.87578316592 0 0 0 0 2267700.7483278513 14983638.757057905 0 14983638.757057905 -15461144.255157471 0 0 0 0 54425044.476147652 9476333.5860843658 0 9476333.5860843658 -15976205.309568882 0 0 0 0 15366253.207116127 17654430.573809147 0 17654430.573809147 64687531.322248459 0 0 0 0 373430.23112052679 153222.5087085953 0 153222.5087085953 44322.689852265641 0 0 0 0 57594210.045968056 149457169.33798695 0 149457169.33798695 134876630.07716274 0 0 0 0 150258080.62882477 137946080.43741727 0 137946080.43741727 117066697.80303001 0 0 0 0 112837238.4763751 94634475.088552475 0 94634475.088552475 68167368.234897137 0 0 0 0 113597251.84621069 83463352.934095025 0 83463352.934095025 61388443.263017654 0 0 0 0 109267557.99763727 74454067.194556236 0 74454067.194556236 79195113.410611153 0 0 0 0 51389715.813179255 2277477.0605139732 0 2277477.0605139732 28435924.549243927 0 0 0 0 145714.37829932012 96908.714641148224 0 96908.714641148224 6469.4272669050843 0 0 0 0 29631901.718462765 35528364.491163969 0 35528364.491163969 13781401.736005783 0 0 0 0 175523350.91985321 -9528511.742433548 0 -9528511.742433548 -102507109.68279648 0 0 0 0 189164438.83277655 -34606898.849727631 0 -34606898.849727631 -75771359.62335968 0 0 0 0 216680838.70921898 78324699.020892143 0 78324699.020892143 30161490.581766173 0 0 0 0 148612122.18731713 129382704.51833534 0 129382704.51833534 111179858.25698471 0 0 0 0 -44578063.515560389 10567307.945531845 0 10567307.945531845 31672134.222268105 0 0 0 0 -41930009.013142943 13864670.400671005 0 13864670.400671005 31547553.90098381 0 0 0 0 7231512.7573657036 -66583922.033479691 0 -66583922.033479691 70516984.61256671 0 0 0 0 -102227484.10240865 -29039837.869416237 0 -29039837.869416237 80638019.706880569 0 0 0 0 -55890800.419019938 -15529101.032895088 0 -15529101.032895088 23708521.064933777 0 0 0 0 -29740660.883106709 19831953.882780075 0 19831953.882780075 37373596.136847496 0 0 0 0 -3150319.3327792939 4687889.0618429929 0 4687889.0618429929 27211434.380765326 0 0 0 0 -79240632.98015666 64566630.594927549 0 64566630.594927549 2692424.9819221497 0 0 0 0 1269158.7882812168 -10039930.129278503 0 -10039930.129278503 6892909.9707677132 0 0 0 0 -2883800.9005959281 6510821.7471820563 0 6510821.7471820563 6402354.2787854942 0 0 0 0 202063.65334811807 -1964446.3619475961 0 -1964446.3619475961 1309279.1448225975 0 0 0 0 -129099151.87036085 58403478.576841354 0 58403478.576841354 11087150.315000534 0 0 0 0 1318120.4831132912 -2416427.5978169306 0 -2416427.5978169306 9608883.0635703541 0 0 0 0 8099673.4480338097 -2444557.4776172638 0 -2444557.4776172638 21137411.347766876 0 0 0 0 -172409338.49609017 -421863666.23929977 0 -421863666.23929977 -147284900.30949974 0 0 0 0 -300504764.66056538 -15481120.599344254 0 -15481120.599344254 24166451.769293547 0 0 0 0 -178030637.20094752 -237188794.81721926 0 -237188794.81721926 -187507308.51485062 0 0 0 0 -305331294.52748585 70246797.065001249 0 70246797.065001249 -6318540.4154548645 0 0 0 0 368789859.26987028 -36997923.541641235 0 -36997923.541641235 -410992437.71035194 0 0 0 0 -108147815.91199565 -10013672.356664658 0 -10013672.356664658 23389698.323936462 0 0 0 0 -17387707.126401424 336535759.92849541 0 336535759.92849541 958027111.60894489 0 0 0 0 486037318.45519543 -340944285.84648991 0 -340944285.84648991 188339978.76793861 0 0 0 0 -330785052.04794443 42726879.4867239 0 42726879.4867239 191478831.8891201 0 0 0 0 -18482723.213569641 7543629.100331068 0 7543629.100331068 25804903.718242645 0 0 0 0 -2763477.1161260009 -3303437.3782727993 0 -3303437.3782727993 24692837.03431534 0 0 0 0 241260761.81412315 141241856.81059456 0 141241856.81059456 16397191.613311768 0 0 0 0 609738389.60123968 297860495.94447994 0 297860495.94447994 -130636519.63346195 0 0 0 0 3088400.8201941629 349644.82287816051 0 349644.82287816051 -653720.04075788707 0 0 0 0 128676124.08487415 298191401.64089441 0 298191401.64089441 737430982.25969887 0 0 0 0 57071561.871395588 88471927.086598396 0 88471927.086598396 171739566.66803551 0 0 0 0 -4392376.5665388107 20860061.721568108 0 20860061.721568108 31311588.192241192 0 0 0 0 -4282503.6512317657 16373392.817167044 0 16373392.817167044 1354762.8264769316 0 0 0 0 188524465.39923167 127231238.29618156 0 127231238.29618156 -11644646.843291283 0 0 0 0 210539156.79486799 240202907.97018003 0 240202907.97018003 29230878.426678658 0 0 0 0 182599969.35347283 170123259.46310079 0 170123259.46310079 -58840545.030071259 0 0 0 0 261090625.82879019 175739429.42078781 0 175739429.42078781 -99952164.642723083 0 0 0 0 402157553.04109097 -86853446.442702293 0 -86853446.442702293 -40698399.510901451 0 0 0 0 602579666.61388671 290226464.66665125 0 290226464.66665125 -72397006.294420242 0 0 0 0 -44224630.796442747 327349253.30139351 0 327349253.30139351 147176994.29124308 0 0 0 0 255190310.35128605 154987089.04389167 0 154987089.04389167 -169326946.12059212 0 0 0 0 -20309732.014230728 -4896512.104937315 0 -4896512.104937315 19682883.098876953 0 0 0 0 -218000017.26422814 123350242.17849112 0 123350242.17849112 -43065909.315502167 0 0 0 0 -11904682.745922089 -5966279.484790802 0 -5966279.484790802 18857114.823400497 0 0 0 0 -730578.99638016848 -1905894.3497019268 0 -1905894.3497019268 18144172.718561511 0 0 0 0 -20129383.69553709 -6021513.6662659645 0 -6021513.6662659645 24637798.349714279 0 0 0 0 -19146970.874323845 -19669479.890120983 0 -19669479.890120983 13908465.625699997 0 0 0 0 -13824573.974330425 -14431536.789648056 0 -14431536.789648056 21605745.174133301 0 0 0 0 -15215938.433448792 -10205292.5175457 0 -10205292.5175457 9904938.2915887833 0 0 0 0 677938066.88066101 85536748.920507669 0 85536748.920507669 -20910624.912134647 0 0 0 0 302903711.09941721 289786491.55474949 0 289786491.55474949 -125196065.30143619 0 0 0 0 155177912.2399323 105583622.08676291 0 105583622.08676291 70621337.996038437 0 0 0 0 -1815562.7474519843 681434.78474116744 0 681434.78474116744 2125169.2635478592 0 0 0 0 211606091.6666398 234679610.85047197 0 234679610.85047197 39907305.399201393 0 0 0 0 412546.42766292009 -1738392.6529253859 0 -1738392.6529253859 1583490.6454828014 0 0 0 0 412624012.38325226 41252172.610131085 0 41252172.610131085 256982644.7175436 0 0 0 0 214242490.17855072 381896839.33912039 0 381896839.33912039 230941311.70038223 0 0 0 0 532171101.74724531 338048741.72462606 0 338048741.72462606 39633480.351643801 0 0 0 0 6421309.5968665183 3120591.4232956171 0 3120591.4232956171 215014753.3851583 0 0 0 0 2206641.6475337399 -5764615.916603351 0 -5764615.916603351 10903967.735503238 0 0 0 0 361538910.72699839 203020426.30045983 0 203020426.30045983 165752299.54045916 0 0 0 0 -961954.97354029189 -317048.02379244514 0 -317048.02379244514 1946515.7802518131 0 0 0 0 3275734.6123723984 108461856.65385456 0 108461856.65385456 248871109.28873038 0 0 0 0 118158869.1197803 157618744.96434259 0 157618744.96434259 219707254.18966889 0 0 0 0 237594124.56045532 -200495181.9867537 0 -200495181.9867537 28970955.767060161 0 0 0 0 33644181.377673149 316883539.8057313 0 316883539.8057313 63163929.94895111 0 0 0 0 -7446056.8403174877 -15687264.786866022 0 -15687264.786866022 20224652.583859593 0 0 0 0 1006010.7395448685 14860466.658237696 0 14860466.658237696 29236367.130538583 0 0 0 0 -28410.52689409256 10677686.786847353 0 10677686.786847353 13073738.443146229 0 0 0 0 -95208402.708029747 -104234104.54412484 0 -104234104.54412484 133171478.61901474 0 0 0 0 129362972.97075605 90804031.638693333 0 90804031.638693333 -28032824.094124675 0 0 0 0 -3405960.6378039322 1755441.0962659125 0 1755441.0962659125 3991694.43186783 0 0 0 0 28103875.29923439 141340970.95487976 0 141340970.95487976 114982646.28352237 0 0 0 0 -26474361.175042629 -26395611.153514862 0 -26395611.153514862 51110151.499357224 0 0 0 0 -34701690.42828989 -27217549.728359222 0 -27217549.728359222 55280501.165176392 0 0 0 0 -30983399.308214188 -13982946.667422771 0 -13982946.667422771 46463729.60561657 0 0 0 0 -38111683.411753505 -6904595.6605670452 0 -6904595.6605670452 33608993.367807388 0 0 0 0 -43231345.206201553 -14177170.774752617 0 -14177170.774752617 48764679.857656479 0 0 0 0 -41215688.834278345 -17096104.586540222 0 -17096104.586540222 52240566.602322578 0 0 0 0 -46038527.585105404 9122546.8377948999 0 9122546.8377948999 21315489.470742226 0 0 0 0 -45677217.111281097 -799561.61768531799 0 -799561.61768531799 43665154.464078903 0 0 0 0 -52179539.029936075 6486018.0693399906 0 6486018.0693399906 63566431.238670349 0 0 0 0 -52423501.548269272 12839087.681114197 0 12839087.681114197 44084816.353840351 0 0 0 0 -48158858.006492615 -7052367.8772506714 0 -7052367.8772506714 46945505.718660831 0 0 0 0 -46701048.479553044 -19214011.366063952 0 -19214011.366063952 84411122.35278511 0 0 0 0 -71313486.886699677 15616898.950625896 0 15616898.950625896 118015525.42083025 0 0 0 0 -61239633.217495441 11793525.032181025 0 11793525.032181025 82271742.044723511 0 0 0 0 -137025154.2756238 -61789698.510340691 0 -61789698.510340691 169907884.99958611 0 0 0 0 23449756.094875336 -107695420.50824356 0 -107695420.50824356 108056115.76776886 0 0 0 0 1284160.4109820917 -3049217.7337938729 0 -3049217.7337938729 6138980.7010624902 0 0 0 0 65440164.392632008 -47555704.176578283 0 -47555704.176578283 3591257.0935707092 0 0 0 0 114367724.69871497 274026641.75615859 0 274026641.75615859 285467021.73295677 0 0 0 0 -27675787.553255618 223258594.47572908 0 223258594.47572908 314407541.13960814 0 0 0 0 1802187.9800348282 -7682861.6919803619 0 -7682861.6919803619 4997215.0677136183 0 0 0 0 -20106652.118630826 -12783841.948526144 0 -12783841.948526144 20919326.441385269 0 0 0 0 15262172.436614037 -41944372.564163685 0 -41944372.564163685 38939475.688947201 0 0 0 0 -34600423.667524472 -47055947.375907391 0 -47055947.375907391 44733301.078605652 0 0 0 0 19811516.26886344 -20075204.28617382 0 -20075204.28617382 10637242.813865662 0 0 0 0 -10417745.416790962 -22495733.047401428 0 -22495733.047401428 32002663.782057762 0 0 0 0 -131469.03461790085 -18946696.61229229 0 -18946696.61229229 30577461.154216766 0 0 0 0 -5130021.4284133911 -13940215.084133148 0 -13940215.084133148 27462393.978806496 0 0 0 0 -7101271.0485877991 -9206157.1105098724 0 -9206157.1105098724 16392400.429681301 0 0 0 0 1721853.2204256058 -11365067.398081779 0 -11365067.398081779 23584154.475122452 0 0 0 0 -11880051.994610786 -4211084.1905040741 0 -4211084.1905040741 38955353.062777519 0 0 0 0 5550017.8386640549 -13380494.703326225 0 -13380494.703326225 47211070.000864983 0 0 0 0 996193.14568519592 -10521763.523078203 0 -10521763.523078203 45446419.614397049 0 0 0 0 25819537.900902748 17209347.68492794 0 17209347.68492794 54832981.119502425 0 0 0 0 -53770298.342941284 -20671336.612444878 0 -20671336.612444878 49248231.788144588 0 0 0 0 -25177637.583927155 2068951.593487978 0 2068951.593487978 52509059.751449585 0 0 0 0 -41084026.886980057 -13374416.531186104 0 -13374416.531186104 51583053.630010605 0 0 0 0 -31327252.974929925 -19262389.227875918 0 -19262389.227875918 35159390.786848068 0 0 0 0 -31758309.823969603 -24488264.558432579 0 -24488264.558432579 42057754.641806602 0 0 0 0 -42808600.064119339 -21350647.845877647 0 -21350647.845877647 42500443.138938904 0 0 0 0 -49070704.931232929 -32729028.30273819 0 -32729028.30273819 38281394.674474716 0 0 0 0 -53238886.083715916 26530133.396981239 0 26530133.396981239 170150154.0474081 0 0 0 0 333175.98382992297 832208.72651465889 0 832208.72651465889 423554.18925402779 0 0 0 0 -146751.9213366172 506780.50687785354 0 506780.50687785354 3150171.245565848 0 0 0 0 -96944832.006778747 -17097978.234526634 0 -17097978.234526634 135942393.74767303 0 0 0 0 -23885621.573404223 -31279514.228997231 0 -31279514.228997231 23426421.347446442 0 0 0 0 -78993398.617617026 -86859660.25466907 0 -86859660.25466907 -54273652.156793594 0 0 0 0 -88603686.617249399 -4776769.9412355423 0 -4776769.9412355423 24136262.260076523 0 0 0 0 -17109779.549337626 -42022075.42192626 0 -42022075.42192626 -48161522.39962101 0 0 0 0 -63742679.422361434 -5141904.2076363564 0 -5141904.2076363564 6742862.9416561127 0 0 0 0 -21045747.181950092 -36910802.680992126 0 -36910802.680992126 -18568860.985478401 0 0 0 0 -26394807.922376394 -23117874.889613152 0 -23117874.889613152 -10199066.486528397 0 0 0 0 -21395991.532632828 -21710163.051269531 0 -21710163.051269531 -23635402.698051453 0 0 0 0 -29202518.781047583 -27809080.46619606 0 -27809080.46619606 2284480.187789917 0 0 0 0 -141101226.7451086 -13956580.559421539 0 -13956580.559421539 239583629.36137772 0 0 0 0 -310938.78499830049 574275.09175556991 0 574275.09175556991 888786.55923111783 0 0 0 0 24012188.076394796 -46186925.094230175 0 -46186925.094230175 55766574.965097427 0 0 0 0 -24406137.878956318 -31913289.271654129 0 -31913289.271654129 3755608.5366277695 0 0 0 0 -44785629.370566905 -18572565.288677216 0 -18572565.288677216 2244204.3774623871 0 0 0 0 17588617.772783756 -3857442.046833992 0 -3857442.046833992 3012450.9841537476 0 0 0 0 -2488054.5509007368 -877276.54435344692 0 -877276.54435344692 8669129.8453361355 0 0 0 0 -12388974.687794685 2038149.5184836388 0 2038149.5184836388 27797577.40861702 0 0 0 0 -1020302.6763744354 -9353501.0801315308 0 -9353501.0801315308 18285237.727884293 0 0 0 0 -549135.01055240631 6460674.1844272614 0 6460674.1844272614 27134930.800889969 0 0 0 0 -3105648.0841503143 8827445.0959558487 0 8827445.0959558487 67582013.719304085 0 0 0 0 43324.105629961006 1289646.2814506525 0 1289646.2814506525 2688559.8958296804 0 0 0 0 -25372963.881057978 -27500497.970209718 0 -27500497.970209718 3153661.68653965 0 0 0 0 -12208985.835646629 -10779185.571177483 0 -10779185.571177483 27878775.867870808 0 0 0 0 -12003892.817190647 -6035163.2572984695 0 -6035163.2572984695 27305266.594161987 0 0 0 0 -11478134.011360645 -6971504.264415741 0 -6971504.264415741 35060561.027848244 0 0 0 0 -3338132.6442279816 -1600920.8950920105 0 -1600920.8950920105 31672731.352535248 0 0 0 0 -11497173.994982958 -8593155.9695711136 0 -8593155.9695711136 26937093.597946167 0 0 0 0 -13516890.462978721 -1677573.8965368271 0 -1677573.8965368271 37335360.87494278 0 0 0 0 -13650148.650358081 -107869.47072410583 0 -107869.47072410583 40715927.373889923 0 0 0 0 -3521460.8826926313 -1036421.4600269478 0 -1036421.4600269478 8723936.7428179849 0 0 0 0 -6204491.9152493477 3867308.836151123 0 3867308.836151123 37049037.730204582 0 0 0 0 6031302.7584787607 -11141137.598706245 0 -11141137.598706245 26960182.786241531 0 0 0 0 -20999757.389555573 -11900542.997779846 0 -11900542.997779846 27386503.451702118 0 0 0 0 -13057436.899877667 4401745.6595067978 0 4401745.6595067978 21536718.151176929 0 0 0 0 -10855831.455344439 -3525851.1879367828 0 -3525851.1879367828 26833125.739608765 0 0 0 0 -5850552.9936451912 64021747.905761719 0 64021747.905761719 -35508204.974680185 0 0 0 0 42424667.391092658 -185434188.34635878 0 -185434188.34635878 -4332258.9999485016 0 0 0 0 -180412308.16174805 91805859.9398036 0 91805859.9398036 206519791.55438805 0 0 0 0 -45082227.37607336 80346268.847717285 0 80346268.847717285 12108865.840001106 0 0 0 0 -1239079.1194340549 -180851.0599839678 0 -180851.0599839678 2381298.3856284199 0 0 0 0 -29651182.540619254 -42964373.535245895 0 -42964373.535245895 27490422.70085001 0 0 0 0 -109074192.47965837 -35741117.290863037 0 -35741117.290863037 54179247.360111237 0 0 0 0 -35159516.59660244 -7307421.4413089752 0 -7307421.4413089752 60839707.448570728 0 0 0 0 -148696230.30453432 47976625.76094079 0 47976625.76094079 105586628.33538437 0 0 0 0 -3496062.1459579468 68087751.911819458 0 68087751.911819458 82131367.32818985 0 0 0 0 2017794.95497334 28860584.862171173 0 28860584.862171173 40994684.661477089 0 0 0 0 -62884544.592158675 25430988.677542686 0 25430988.677542686 57995172.745111465 0 0 0 0 -21007361.863280356 5536439.6844162941 0 5536439.6844162941 38645391.728879929 0 0 0 0 -31328528.447229624 -8245825.3972144127 0 -8245825.3972144127 35811190.263000488 0 0 0 0 -14770956.915649891 3113910.0983982086 0 3113910.0983982086 30397133.156097412 0 0 0 0 -18592002.542581081 4820820.1206951141 0 4820820.1206951141 33041762.481523514 0 0 0 0 17251141.281182885 12863260.641130447 0 12863260.641130447 25797839.736545563 0 0 0 0 -10630169.620128095 16896452.040599823 0 16896452.040599823 31700189.141115189 0 0 0 0 -3295490.6346427202 7593872.4811115265 0 7593872.4811115265 34378826.392856598 0 0 0 0 -3952839.7436996102 9768052.5546116829 0 9768052.5546116829 27190840.846940994 0 0 0 0 -18892787.906254768 5754655.839348793 0 5754655.839348793 31103548.451319695 0 0 0 0 4750555.2803419605 8988010.1726647615 0 8988010.1726647615 20043443.105827332 0 0 0 0 -16922989.362232924 751287.80416488647 0 751287.80416488647 28098930.699159503 0 0 0 0 -98926672.542223454 -11817883.085817337 0 -11817883.085817337 70839031.708820343 0 0 0 0 3824498.713414073 20357491.69318676 0 20357491.69318676 32771876.450616956 0 0 0 0 -5691534.8149249693 -2351128.8159597777 0 -2351128.8159597777 21826326.936332487 0 0 0 0 -23940201.811285973 47469095.635837555 0 47469095.635837555 -77913052.618165016 0 0 0 0 -12364058.369283676 21395051.501041412 0 21395051.501041412 69038243.302375793 0 0 0 0 -27603606.380627632 -5966777.7513694763 0 -5966777.7513694763 20372672.720672607 0 0 0 0 -29695635.976486862 61666486.942997217 0 61666486.942997217 81416656.580142975 0 0 0 0 -45902286.313426018 -31012894.678958893 0 -31012894.678958893 78628146.142609596 0 0 0 0 -75889582.729687691 -69857514.803243637 0 -69857514.803243637 -42139565.621810913 0 0 0 0 -46143536.90298748 -34746840.031917572 0 -34746840.031917572 40342323.003707886 0 0 0 0 -51586299.713010788 -19748762.050384521 0 -19748762.050384521 57230929.061435699 0 0 0 0 -21157836.948931932 10172088.079690933 0 10172088.079690933 16981077.027223587 0 0 0 0 -32838863.665810347 -3644740.2794017792 0 -3644740.2794017792 22907513.251745224 0 0 0 0 -18749869.838127136 4772912.0469360352 0 4772912.0469360352 23350767.008218765 0 0 0 0 -43066802.424053669 -199408.55195331573 0 -199408.55195331573 31441598.966823578 0 0 0 0 -33712457.718002558 8962573.490032196 0 8962573.490032196 30839121.146137238 0 0 0 0 -48073450.575579286 10395784.616264582 0 10395784.616264582 33572326.557210922 0 0 0 0 -2334263.4057546617 1106741.3250144836 0 1106741.3250144836 29441565.134715512 0 0 0 0 -104772753.5102389 61899603.350922823 0 61899603.350922823 -12840242.837041855 0 0 0 0 55036.106980087468 121552.48782248143 0 121552.48782248143 130145.99981925823 0 0 0 0 -102255603.18868947 92315040.016638756 0 92315040.016638756 72052881.097743988 0 0 0 0 -25286355.959972382 25951387.853720665 0 25951387.853720665 94433956.644265175 0 0 0 0 -26065655.15164125 -426756.09979534149 0 -426756.09979534149 31648070.9368155 0 0 0 0 -26140812.851229548 2623500.0304946899 0 2623500.0304946899 24402173.74320668 0 0 0 0 -28407295.944117069 3170032.0629730225 0 3170032.0629730225 30956062.689229071 0 0 0 0 -20565744.332480907 7911030.8489570618 0 7911030.8489570618 30118112.929172516 0 0 0 0 -34448595.245109558 12578544.924408913 0 12578544.924408913 24671932.252845764 0 0 0 0 -40496345.063918829 12119348.511821747 0 12119348.511821747 21055419.499700546 0 0 0 0 -2361090.9107745108 2170900.8413263005 0 2170900.8413263005 28617652.889405452 0 0 0 0 -32727026.694553941 4191348.0470910072 0 4191348.0470910072 28953157.912410736 0 0 0 0 -41895325.800044537 7187856.8130588531 0 7187856.8130588531 27331945.042324066 0 0 0 0 171160.12197924522 211281.41657748725 0 211281.41657748725 165102.78930344619 0 0 0 0 -8080911.9968129843 -17388449.190773606 0 -17388449.190773606 18754376.457715988 0 0 0 0 55506923.887725353 -41378432.165374756 0 -41378432.165374756 -532422.47127342224 0 0 0 0 -3236133.3667275757 33153736.011778712 0 33153736.011778712 -21538090.975355148 0 0 0 0 -42508697.670269012 -273352.67179489136 0 -273352.67179489136 105390.43156051636 0 0 0 0 45081021.538479328 -16845934.425971985 0 -16845934.425971985 -32746077.518174171 0 0 0 0 51235549.660146236 8256580.4911832809 0 8256580.4911832809 47430937.928485394 0 0 0 0 51469498.429553747 5784673.3306722641 0 5784673.3306722641 52534331.398662567 0 0 0 0 31085603.831570387 -28752175.00709343 0 -28752175.00709343 -3039249.5331161022 0 0 0 0 31959304.272839427 -48802649.567315578 0 -48802649.567315578 34700306.41043663 0 0 0 0 37059735.145712376 -27632941.941600323 0 -27632941.941600323 47390481.521505356 0 0 0 0 24438324.226001024 -42456498.657888412 0 -42456498.657888412 35911473.397689819 0 0 0 0 -22791709.638019562 -28829023.490276337 0 -28829023.490276337 48718490.303592205 0 0 0 0 71926536.616375208 -68990069.78180027 0 -68990069.78180027 39652546.283361435 0 0 0 0 71821544.783260822 -111079912.17008781 0 -111079912.17008781 136414202.69468307 0 0 0 0 105642858.25976276 82936363.687221527 0 82936363.687221527 152255435.46895969 0 0 0 0 -16328164.614076257 -45644530.165389538 0 -45644530.165389538 96675244.137935638 0 0 0 0 3397154.2921640873 -33121835.546394825 0 -33121835.546394825 22381153.966737747 0 0 0 0 -23929048.828570366 28523992.087324142 0 28523992.087324142 97232038.750736237 0 0 0 0 -11660424.560411036 -22294815.421198368 0 -22294815.421198368 37575168.003017426 0 0 0 0 48935243.049625158 39788762.097384453 0 39788762.097384453 96752499.216331482 0 0 0 0 28054702.601316214 -19477850.769010544 0 -19477850.769010544 23980095.77664566 0 0 0 0 53927957.841412783 -43220993.711249828 0 -43220993.711249828 64926706.582717896 0 0 0 0 82387830.007659435 -36263557.450958252 0 -36263557.450958252 21855244.259990811 0 0 0 0 89395824.537967205 78736924.424769402 0 78736924.424769402 190230905.3537941 0 0 0 0 231404549.93223047 -29445236.550771713 0 -29445236.550771713 65968049.082992077 0 0 0 0 21353419.310053825 -48547178.185136795 0 -48547178.185136795 224908113.04023361 0 0 0 0 21099208.765676975 -33039254.419963837 0 -33039254.419963837 91082531.178249359 0 0 0 0 22598142.833343029 8173486.3942623138 0 8173486.3942623138 115880861.71697807 0 0 0 0 8159020.4897049665 34382289.774643421 0 34382289.774643421 120963053.7287941 0 0 0 0 -5957253.0360684395 10911581.495788574 0 10911581.495788574 82009631.562717438 0 0 0 0 -599716.35318565369 -41299856.662296295 0 -41299856.662296295 111737462.08502221 0 0 0 0 -17381859.703253508 -22673052.004847527 0 -22673052.004847527 94001065.0128479 0 0 0 0 3626512.2900676727 -59606264.814979553 0 -59606264.814979553 66300919.755365372 0 0 0 0 -17307256.816236734 -38865366.390423775 0 -38865366.390423775 53358582.579288483 0 0 0 0 52837253.072282791 -70771517.227191925 0 -70771517.227191925 44679342.951318741 0 0 0 0 4190557.1489651203 -54593027.702376366 0 -54593027.702376366 105873828.24983597 0 0 0 0 1314.9796736426069 -1575092.5050296262 0 -1575092.5050296262 1064970.0995582528 0 0 0 0 145894498.79299963 57242784.782222748 0 57242784.782222748 37770023.399803162 0 0 0 0 104653021.61954832 -97669301.470004082 0 -97669301.470004082 96431472.132619858 0 0 0 0 -295592.72574281506 -206654.31812719721 0 -206654.31812719721 1031858.1401650645 0 0 0 0 64942439.220389724 -39132987.078156948 0 -39132987.078156948 11687034.342948914 0 0 0 0 26244067.214034557 -32927352.514091492 0 -32927352.514091492 -101303396.39214325 0 0 0 0 -42925878.028766274 112994392.40773582 0 112994392.40773582 254473010.12072754 0 0 0 0 -10345261.001674175 -1431378.2142577171 0 -1431378.2142577171 11427620.147129059 0 0 0 0 -1640242.7782913211 316882.50503117352 0 316882.50503117352 7818255.5681628324 0 0 0 0 -10236805.645706654 -23534120.340654373 0 -23534120.340654373 28490412.442085266 0 0 0 0 -4039324.2173838671 -5225369.4943267871 0 -5225369.4943267871 7427636.7548921639 0 0 0 0 8375691.6680716276 -37446384.296327114 0 -37446384.296327114 30687773.119720459 0 0 0 0 29914296.747420788 -18152691.867830276 0 -18152691.867830276 11153510.39942041 0 0 0 0 -1625857.5386830536 -4449808.0229823133 0 -4449808.0229823133 3740118.6901447531 0 0 0 0 11564394.688708305 -43660334.584596634 0 -43660334.584596634 32642441.595342636 0 0 0 0 1101922.1484025912 813148.03437537141 0 813148.03437537141 420130.41917232797 0 0 0 0 -69608699.87574482 79981445.178700924 0 79981445.178700924 12077359.804555893 0 0 0 0 -7774484.5394484997 59028401.43518734 0 59028401.43518734 -49570081.01115799 0 0 0 0 -9658125.167526722 -48367759.200000763 0 -48367759.200000763 6735035.5260105133 0 0 0 0 -43563354.414850473 15675135.430228233 0 15675135.430228233 174439485.12482834 0 0 0 0 87286232.31937474 106954313.64351654 0 106954313.64351654 -92580015.913398743 0 0 0 0 545736.67634243635 349048.20449131262 0 349048.20449131262 142854.60997424275 0 0 0 0 -47231312.538818896 850509.48801159859 0 850509.48801159859 123498565.7277832 0 0 0 0 -21731543.649981022 -51000477.224380255 0 -51000477.224380255 123942850.27520752 0 0 0 0 -401314.19983935356 18796111.683049202 0 18796111.683049202 51171337.333724976 0 0 0 0 -35511502.579982996 -11529382.152327538 0 -11529382.152327538 107326754.56909275 0 0 0 0 -309462.49149231613 22850481.040617928 0 22850481.040617928 37668199.886520386 0 0 0 0 27513826.757735729 109707506.72039795 0 109707506.72039795 146995450.39569521 0 0 0 0 41665922.770865679 22767225.1912117 0 22767225.1912117 12976080.682168961 0 0 0 0 12468152.448939443 3743763.0065972805 0 3743763.0065972805 6969366.4261341095 0 0 0 0 5783457.6823535562 -11347208.357546329 0 -11347208.357546329 3535103.1651229858 0 0 0 0 13988076.137447 165781.15556430817 0 165781.15556430817 6287381.9771881104 0 0 0 0 9318344.0760810375 -8470384.294005394 0 -8470384.294005394 33320464.742300987 0 0 0 0 -7666611.2777020931 4426139.5602831841 0 4426139.5602831841 8255646.5096554756 0 0 0 0 882503.40801018244 4739494.6747252299 0 4739494.6747252299 9513442.4440831542 0 0 0 0 -6620032.3324737549 2472410.0081379414 0 2472410.0081379414 10236483.286949158 0 0 0 0 -3092850.4827365577 -3990755.251452148 0 -3990755.251452148 11794372.388587952 0 0 0 0 -3444721.1729328334 -1097746.5212765336 0 -1097746.5212765336 3702385.9841041565 0 0 0 0 -2010351.0100425072 -1206783.4569439273 0 -1206783.4569439273 9704134.9549246673 0 0 0 0 -60595856.949748755 -22884462.830060959 0 -22884462.830060959 8391232.5732517242 0 0 0 0 171487339.58907008 83715765.500704765 0 83715765.500704765 -134028499.34154892 0 0 0 0 13648708.864127636 -51104750.910114288 0 -51104750.910114288 -50525200.79297924 0 0 0 0 1267045.6792542934 -8995067.6824703217 0 -8995067.6824703217 4598459.1700248718 0 0 0 0 -914840.90877342224 -894448.36544561386 0 -894448.36544561386 6084910.799720481 0 0 0 0 2015259.2681150436 1051318.0558581352 0 1051318.0558581352 6046190.7174868137 0 0 0 0 -96595.918592214584 7673744.4434625804 0 7673744.4434625804 -487355.63791275024 0 0 0 0 17131147.766489029 8098202.6891531944 0 8098202.6891531944 5799254.2332062721 0 0 0 0 -5684748.5841121674 4171347.6853966713 0 4171347.6853966713 6349769.9820756912 0 0 0 0 -177271.23530662432 1315953.5256210384 0 1315953.5256210384 9191208.4296794664 0 0 0 0 -4655999.6959543228 4091156.7217454314 0 4091156.7217454314 12598154.08982119 0 0 0 0 -12772036.883976936 -213951.52341127396 0 -213951.52341127396 7464590.7572593689 0 0 0 0 -7187870.6796216965 8719146.6685099602 0 8719146.6685099602 10051936.270584166 0 0 0 0 -4434802.7050285339 5473388.6943774521 0 5473388.6943774521 3256548.2845451236 0 0 0 0 -971200.6867908733 509628.22755232756 0 509628.22755232756 9869563.7563749831 0 0 0 0 258077.12951393286 5696270.5371917402 0 5696270.5371917402 4254077.2481417842 0 0 0 0 -7430832.2799034119 5973673.4563418031 0 5973673.4563418031 4530145.3801814318 0 0 0 0 -5938957.910995841 16920785.941334151 0 16920785.941334151 5892650.8337488174 0 0 0 0 4772642.5274715424 31125716.594938278 0 31125716.594938278 -9210628.6175780296 0 0 0 0 -15369329.078619957 6071965.1571187973 0 6071965.1571187973 14476838.778074265 0 0 0 0 32263700.644484043 34040680.628492355 0 34040680.628492355 6041809.3921933174 0 0 0 0 -24819947.665717125 15971137.863102794 0 15971137.863102794 13764974.601171494 0 0 0 0 25177241.633688927 14125326.005361319 0 14125326.005361319 -8249681.6420106888 0 0 0 0 -6916458.5053844452 27508070.751909733 0 27508070.751909733 53792008.442277908 0 0 0 0 -693560.97052420035 1321713.9077968837 0 1321713.9077968837 967520.68369091302 0 0 0 0 7581540.2844424248 2164988.0794622898 0 2164988.0794622898 12782528.652236938 0 0 0 0 1458385.0650119781 1660325.6828989983 0 1660325.6828989983 14869544.29284668 0 0 0 0 6061224.0531554222 -1608681.5289821625 0 -1608681.5289821625 15384473.684610367 0 0 0 0 13718134.653543651 16841884.392089844 0 16841884.392089844 11914879.530414581 0 0 0 0 24023160.288552284 38099303.336081505 0 38099303.336081505 48240842.457728386 0 0 0 0 5991932.1855020281 8723905.0194658451 0 8723905.0194658451 13329255.711528685 0 0 0 0 -5372566.0678720474 369167.06451177597 0 369167.06451177597 -3462702.6906561852 0 0 0 0 -7082997.6654546261 -19423909.594789267 0 -19423909.594789267 30836292.945695877 0 0 0 0 -9311773.0714712143 18450299.218135834 0 18450299.218135834 55602891.153560638 0 0 0 0 2026393.7060635909 9894678.0108967237 0 9894678.0108967237 23114706.206990298 0 0 0 0 -4038824.9804821014 25832625.471294403 0 25832625.471294403 19402928.147083282 0 0 0 0 -6522917.7295441628 20273292.305956841 0 20273292.305956841 54176731.623558044 0 0 0 0 -18693913.422819614 31975284.369813919 0 31975284.369813919 71923620.438663483 0 0 0 0 -10831897.720343161 2713240.7168552345 0 2713240.7168552345 30876973.14778357 0 0 0 0 -13223680.436278462 25660996.317481279 0 25660996.317481279 53093934.820632935 0 0 0 0 -11798533.370252848 20611180.431171417 0 20611180.431171417 59134338.813644409 0 0 0 0 -30428298.95099926 13127906.583246231 0 13127906.583246231 26565520.30604744 0 0 0 0 -123811478.57993376 -28097829.533763409 0 -28097829.533763409 67490496.271146774 0 0 0 0 -4964873.2975725941 -3842326.9273254732 0 -3842326.9273254732 31606111.014996931 0 0 0 0 -27918424.203677058 8257633.5200014114 0 8257633.5200014114 28472159.315600604 0 0 0 0 -102436354.82028963 -3917597.618835777 0 -3917597.618835777 67627894.862010956 0 0 0 0 -100614257.31659155 -44206635.537700772 0 -44206635.537700772 67922053.709716797 0 0 0 0 -53384759.826421738 -34640191.143695831 0 -34640191.143695831 64160910.172641754 0 0 0 0 -31346359.680438042 -48411612.910770416 0 -48411612.910770416 62406205.161306381 0 0 0 0 -19240737.867518425 -30582770.666866779 0 -30582770.666866779 60575313.316146851 0 0 0 0 -58796210.879646301 -39720808.425300598 0 -39720808.425300598 72677631.938245773 0 0 0 0 -80146820.863631845 4413153.6407519579 0 4413153.6407519579 45908156.131435394 0 0 0 0 -54271233.736082554 -27327070.158260345 0 -27327070.158260345 55127034.571922302 0 0 0 0 -75286020.314788818 -35449655.207389832 0 -35449655.207389832 67743668.740306854 0 0 0 0 -43731790.972103119 -33045939.119644165 0 -33045939.119644165 55615803.06552124 0 0 0 0 -66713635.948969364 -19599068.481798172 0 -19599068.481798172 58306482.887069702 0 0 0 0 -5853533.4787988663 8439170.0314094424 0 8439170.0314094424 9979645.9761177301 0 0 0 0 -32164772.792848587 -13193529.955463409 0 -13193529.955463409 41370050.686248779 0 0 0 0 -1688247.7288806594 3574666.1122488016 0 3574666.1122488016 27579694.161434878 0 0 0 0 -34125370.569420338 -21017568.452274323 0 -21017568.452274323 52164584.997749329 0 0 0 0 -10037959.822578453 -17149106.811436102 0 -17149106.811436102 42014437.932348251 0 0 0 0 -16461715.514008999 -46874506.711862564 0 -46874506.711862564 51830550.295933723 0 0 0 0 -17824400.294930458 -32589113.222257614 0 -32589113.222257614 46942968.820444107 0 0 0 0 -4502031.2847270966 6448627.6148424149 0 6448627.6148424149 8821163.2753267288 0 0 0 0 15823262.811820984 3563868.7111206055 0 3563868.7111206055 60735972.017566681 0 0 0 0 -342707.47942539048 6078202.4427056164 0 6078202.4427056164 6421890.2559784893 0 0 0 0 -42549869.678700447 -5849956.6636390686 0 -5849956.6636390686 14652863.90802002 0 0 0 0 -2212988.8292211909 -1328995.3334795365 0 -1328995.3334795365 27101701.334752288 0 0 0 0 -1737967.3148899926 642543.57248281036 0 642543.57248281036 4180152.8136806078 0 0 0 0 -2935691.1149673462 -33114099.664863586 0 -33114099.664863586 2244840.7030029297 0 0 0 0 -10185772.199664015 5480399.7286925633 0 5480399.7286925633 29699340.896811321 0 0 0 0 -8767826.4863796234 1032958.3726406097 0 1032958.3726406097 6780023.6572036743 0 0 0 0 -6608308.0479201805 1333411.0250347822 0 1333411.0250347822 21865866.033774901 0 0 0 0 -29302353.552113175 -67360830.196224213 0 -67360830.196224213 98302816.21402359 0 0 0 0 162205692.50131369 36421150.159524918 0 36421150.159524918 85920991.540376663 0 0 0 0 12639052.550025702 -11963044.079646111 0 -11963044.079646111 155730953.55155754 0 0 0 0 -46637999.161182404 68925901.865335464 0 68925901.865335464 72914226.846067667 0 0 0 0 -42171.204350076616 113760.28632604098 0 113760.28632604098 558083.06762152538 0 0 0 0 158528297.98376441 -78615360.781186104 0 -78615360.781186104 -3074630.9706325531 0 0 0 0 28869767.737449169 65734113.726660967 0 65734113.726660967 107971648.8947506 0 0 0 0 84196363.786628723 -132803441.38833141 0 -132803441.38833141 49657420.445351601 0 0 0 0 22574244.804040313 -108519696.91994023 0 -108519696.91994023 80366962.55628109 0 0 0 0 -93937.112633425626 138173.63241383852 0 138173.63241383852 1271392.4166747667 0 0 0 0 -32006846.406832695 -44629192.431542397 0 -44629192.431542397 9607129.9357886314 0 0 0 0 -20389842.899607241 -2371236.1383678913 0 -2371236.1383678913 35804810.544858932 0 0 0 0 62030045.676353216 50954102.536219597 0 50954102.536219597 29954074.912901402 0 0 0 0 74633917.595244169 106266574.39418125 0 106266574.39418125 107234772.81735611 0 0 0 0 208339386.61578131 115170812.38659143 0 115170812.38659143 93538614.158186913 0 0 0 0 235390114.75222731 -26704159.555791855 0 -26704159.555791855 145710534.43122292 0 0 0 0 105624716.15644979 100191037.92225742 0 100191037.92225742 46675738.570017576 0 0 0 0 77445489.146688461 42251183.698568344 0 42251183.698568344 36351071.485969067 0 0 0 0 -12512579.425559521 -12283604.731887817 0 -12283604.731887817 61347708.592285156 0 0 0 0 547533.94484420866 314575.2575313691 0 314575.2575313691 120032.89935935102 0 0 0 0 127504561.43453729 36644920.105752587 0 36644920.105752587 -94615367.754310608 0 0 0 0 93498977.410854638 143159184.38589787 0 143159184.38589787 134532360.72407913 0 0 0 0 146089018.03309298 133504979.96849346 0 133504979.96849346 72339707.687856913 0 0 0 0 57111242.000009179 34609758.377535582 0 34609758.377535582 133201967.96157074 0 0 0 0 172632765.88005519 96794319.682871819 0 96794319.682871819 81672742.552745581 0 0 0 0 154666547.32621837 125651555.07157135 0 125651555.07157135 81072123.867242813 0 0 0 0 8081719.4684407711 70799216.431177139 0 70799216.431177139 229280972.88595104 0 0 0 0 154573714.50032395 160726360.00526428 0 160726360.00526428 117100601.8036747 0 0 0 0 101379067.59185624 48428045.095944405 0 48428045.095944405 119591181.59227464 0 0 0 0 93860289.773767471 62357869.280873299 0 62357869.280873299 93953111.685235977 0 0 0 0 3521288.7648706436 -3953122.1085939407 0 -3953122.1085939407 104846354.8196069 0 0 0 0 -6169285.6522529125 26483828.199349403 0 26483828.199349403 8163790.5368375778 0 0 0 0 21020267.218858957 -20314123.50158453 0 -20314123.50158453 47820155.567737579 0 0 0 0 -15758004.843837261 57911939.682333946 0 57911939.682333946 -67569385.02157402 0 0 0 0 1121822.2278627951 773935.66354762297 0 773935.66354762297 377491.71811279282 0 0 0 0 -18719809.870269418 76434989.244558334 0 76434989.244558334 104072020.87860298 0 0 0 0 20752587.551998138 -48599493.358742714 0 -48599493.358742714 37918925.139216423 0 0 0 0 -15299449.816577435 -12145638.958169937 0 -12145638.958169937 136202616.75054932 0 0 0 0 361874.73396318348 493396.75214170571 0 493396.75214170571 679115.91462815925 0 0 0 0 38115174.547772527 -38965826.923252106 0 -38965826.923252106 32371916.955085754 0 0 0 0 3042344.0194730759 10306299.529500961 0 10306299.529500961 5127114.8746681213 0 0 0 0 -9864435.0728151798 3293341.8905200958 0 3293341.8905200958 10728921.355333328 0 0 0 0 877747.01907191309 1986170.1955937725 0 1986170.1955937725 2372284.8211989142 0 0 0 0 7016044.5627396107 8951876.239563942 0 8951876.239563942 10593483.983429909 0 0 0 0 1642854.5474483422 331389.55384234339 0 331389.55384234339 -1618295.639834512 0 0 0 0 17388544.802632153 3290864.7674717903 0 3290864.7674717903 -3491685.9942092896 0 0 0 0 35218780.962706625 53784482.662799358 0 53784482.662799358 84367289.602153778 0 0 0 0 18357223.955485821 7975309.4289894104 0 7975309.4289894104 9935875.2729301453 0 0 0 0 15352880.500464439 17591812.274610519 0 17591812.274610519 39497502.261117935 0 0 0 0 14544333.943253994 8743884.0149345398 0 8743884.0149345398 630892.36789321899 0 0 0 0 20840602.601505756 5333534.9757652283 0 5333534.9757652283 2457990.8955459595 0 0 0 0 18424776.438981295 5531792.711057663 0 5531792.711057663 -5677806.123008728 0 0 0 0 14221070.89111197 10732198.813615799 0 10732198.813615799 31023444.39642334 0 0 0 0 16015553.214349031 -3026829.8142204285 0 -3026829.8142204285 29723248.548355818 0 0 0 0 4102539.0272185802 -8725352.7752351761 0 -8725352.7752351761 70395680.96377182 0 0 0 0 42853447.480354786 5590351.1859550476 0 5590351.1859550476 66164137.612976074 0 0 0 0 -12679884.893934309 -18480672.134986877 0 -18480672.134986877 74993262.992359161 0 0 0 0 10278630.907350302 -8563701.5234708786 0 -8563701.5234708786 78900551.533390999 0 0 0 0 31491237.184610605 -6740012.4501857758 0 -6740012.4501857758 41912919.746581078 0 0 0 0 23779262.6837641 19692346.942400813 0 19692346.942400813 102807668.61273193 0 0 0 0 110645765.50532323 144746045.64155924 0 144746045.64155924 157533592.41271782 0 0 0 0 338484.56122291024 896700.45078485797 0 896700.45078485797 679282.86193232611 0 0 0 0 -60329769.721830606 -37087662.979982376 0 -37087662.979982376 116688706.34149075 0 0 0 0 664842514.46440327 83349473.914467812 0 83349473.914467812 39857150.104219437 0 0 0 0 -16518170.998879433 56303338.339382172 0 56303338.339382172 203302213.08612442 0 0 0 0 -8357446.710154295 31345132.341074467 0 31345132.341074467 5400104.0631866455 0 0 0 0 31754710.584818125 -2102676.9911751747 0 -2102676.9911751747 -653476.80817985535 0 0 0 0 -47125239.880197048 11696497.583464622 0 11696497.583464622 8111849.5199799538 0 0 0 0 731821.47256656457 2385362.7763146027 0 2385362.7763146027 2196375.2795435786 0 0 0 0 612907071.8577441 -111003921.39514494 0 -111003921.39514494 -80831370.915454865 0 0 0 0 201895272.76766539 -94868383.469028473 0 -94868383.469028473 133203952.41994095 0 0 0 0 248484556.55541849 -20942853.720186234 0 -20942853.720186234 89486860.603083611 0 0 0 0 374330289.35978365 66993940.560153961 0 66993940.560153961 11176109.432945251 0 0 0 0 135417769.80389404 -1665568.298948288 0 -1665568.298948288 21428857.962715149 0 0 0 0 205059095.553967 159164254.37545967 0 159164254.37545967 -116852668.24051094 0 0 0 0 140807790.56379604 -14244802.695478916 0 -14244802.695478916 -166586302.25340271 0 0 0 0 -48883804.184864521 62458096.028781891 0 62458096.028781891 12991626.4106071 0 0 0 0 205425979.90064287 115341956.24612045 0 115341956.24612045 57600435.242950439 0 0 0 0 57111451.705343723 12001910.048461914 0 12001910.048461914 16830749.723278403 0 0 0 0 24614066.244581699 44120598.824987411 0 44120598.824987411 90706615.009342194 0 0 0 0 -73014191.908727646 -46423143.678970337 0 -46423143.678970337 125271946.82987547 0 0 0 0 35125927.927065849 11091830.895777702 0 11091830.895777702 170276290.79374695 0 0 0 0 206115150.79148006 91428008.403876305 0 91428008.403876305 233953454.11090469 0 0 0 0 149327018.43916035 -24521842.36419487 0 -24521842.36419487 105234336.85153389 0 0 0 0 209043193.31141233 -47338373.392235756 0 -47338373.392235756 154841987.65489197 0 0 0 0 29565322.184065342 -31234196.553013802 0 -31234196.553013802 147798367.55007935 0 0 0 0 34114855.156246662 38638723.275288582 0 38638723.275288582 151687837.35916138 0 0 0 0 5420021.3571112603 495828.46873158216 0 495828.46873158216 1766317.9164873976 0 0 0 0 -51329256.818842411 92843519.020137787 0 92843519.020137787 -78678141.643943787 0 0 0 0 -15089373.440011978 -41108807.017814636 0 -41108807.017814636 96248178.745056629 0 0 0 0 -65300754.086587906 26706254.533630371 0 26706254.533630371 23520791.17993927 0 0 0 0 -123613801.12783527 83094555.063140869 0 83094555.063140869 83491951.15452075 0 0 0 0 -70966662.125290871 -89548064.610847473 0 -89548064.610847473 182054894.69526672 0 0 0 0 411925030.52183008 -71935234.798166275 0 -71935234.798166275 -195534987.01979446 0 0 0 0 736374157.84922934 232689623.47629547 0 232689623.47629547 89882241.136060238 0 0 0 0 652590238.77019072 2899175.9826965332 0 2899175.9826965332 -29397156.009536743 0 0 0 0 320805277.586936 -213239912.49552536 0 -213239912.49552536 43113844.737555027 0 0 0 0 215965415.15302205 -35150358.582574844 0 -35150358.582574844 61753215.121154785 0 0 0 0 101938473.26300812 -83714763.692024231 0 -83714763.692024231 92894076.254814148 0 0 0 0 265232440.02119112 -49213236.412273407 0 -49213236.412273407 13721061.414375305 0 0 0 0 92209704.361439466 -50983236.292822838 0 -50983236.292822838 49837697.009735107 0 0 0 0 264779013.83676004 10587512.729134798 0 10587512.729134798 17324624.645652771 0 0 0 0 470054521.09372044 -52857627.363136292 0 -52857627.363136292 -28686524.179336548 0 0 0 0 225022403.32444882 -6831692.0857906342 0 -6831692.0857906342 -15577872.607263565 0 0 0 0 351139448.56326675 9026864.8702163696 0 9026864.8702163696 -20215309.94467926 0 0 0 0 212814910.03184047 20990322.83112812 0 20990322.83112812 -1109504.0126037598 0 0 0 0 112505676.04802895 4443414.9581069946 0 4443414.9581069946 26235055.557979584 0 0 0 0 17055671.593221664 7400781.7309608459 0 7400781.7309608459 41706896.827425003 0 0 0 0 56500924.432795525 1584844.1531124115 0 1584844.1531124115 54406212.821563721 0 0 0 0 -17773522.388654232 -42594770.685783386 0 -42594770.685783386 49916230.004653931 0 0 0 0 -62337567.495061874 26895217.771080017 0 26895217.771080017 23165375.601390839 0 0 0 0 -69025380.82499218 25254434.048851013 0 25254434.048851013 62894462.231300354 0 0 0 0 -64296645.432540894 29619422.509433746 0 29619422.509433746 23296023.80291748 0 0 0 0 -60355465.515050888 -16668697.294471741 0 -16668697.294471741 6858070.7934074402 0 0 0 0 -60729667.728757858 -14237149.00239563 0 -14237149.00239563 45284186.073371887 0 0 0 0 -53122664.590041161 -27716501.807891846 0 -27716501.807891846 20017482.779716492 0 0 0 0 -36693944.871066093 -43496024.150215149 0 -43496024.150215149 34115240.079400063 0 0 0 0 -38724438.025521278 -15216565.831199646 0 -15216565.831199646 53664191.762039185 0 0 0 0 -26953992.233928233 32604785.380523682 0 32604785.380523682 62726209.749473572 0 0 0 0 -25407615.722866058 56125718.623325348 0 56125718.623325348 5391677.1787033081 0 0 0 0 -9256309.2527761459 4844067.6350765228 0 4844067.6350765228 41422649.418821335 0 0 0 0 -22676088.461535692 -10352057.960298538 0 -10352057.960298538 86067336.668777466 0 0 0 0 -583227.73606424965 -967961.3044815138 0 -967961.3044815138 1659000.6589950856 0 0 0 0 59512810.50326252 48053256.135402679 0 48053256.135402679 127410279.32286203 0 0 0 0 219827672.15975595 74630852.311746597 0 74630852.311746597 -267097545.32265282 0 0 0 0 274299962.63077402 28124191.286062241 0 28124191.286062241 23875688.352180481 0 0 0 0 108433026.25975728 28538883.953380585 0 28538883.953380585 1001032.3028144836 0 0 0 0 -205036.04188663699 -885566.06469294988 0 -885566.06469294988 1523376.9932732775 0 0 0 0 186474439.27225983 71698152.617776871 0 71698152.617776871 24918989.870429993 0 0 0 0 119497107.32161856 -12171212.727734566 0 -12171212.727734566 -80057701.632110596 0 0 0 0 302185355.47290683 70518000.615520477 0 70518000.615520477 -29848978.02022171 0 0 0 0 298883351.21609688 -46380507.806087494 0 -46380507.806087494 5746817.0332946777 0 0 0 0 322005426.04239237 61139138.765613556 0 61139138.765613556 -32437274.899147034 0 0 0 0 -24796091.896793783 15710327.835383654 0 15710327.835383654 8003791.063873291 0 0 0 0 555454120.6383779 5788379.7962341309 0 5788379.7962341309 -92013144.990280151 0 0 0 0 799464.59563927306 3790336.5507052382 0 3790336.5507052382 4511519.7334460206 0 0 0 0 346407529.06023383 169632053.56861687 0 169632053.56861687 -80864514.334022522 0 0 0 0 -935489.30235409737 11235016.172041893 0 11235016.172041893 258622.52751159668 0 0 0 0 -5972570.4433255196 19638190.28868866 0 19638190.28868866 -894763.40562534332 0 0 0 0 438727.77787733078 16340143.02747345 0 16340143.02747345 -308606.69787979126 0 0 0 0 -10081527.770151854 5418662.8291378021 0 5418662.8291378021 4307599.2235908508 0 0 0 0 756473.12701272964 9790869.3160362244 0 9790869.3160362244 2994474.8306684494 0 0 0 0 920374.03373837471 7851012.9466285706 0 7851012.9466285706 10892364.98003006 0 0 0 0 -1286867.2298595905 12595820.599701881 0 12595820.599701881 9323941.733505249 0 0 0 0 1173852252.9229708 -930904129.88628769 0 -930904129.88628769 304648066.34678435 0 0 0 0 4090298.3778566625 2056604.3603523783 0 2056604.3603523783 -2985645.3755342644 0 0 0 0 -1746375.5204863548 12342074.062947273 0 12342074.062947273 12395573.245872498 0 0 0 0 291296452.01278144 97913340.833436966 0 97913340.833436966 31017535.85660553 0 0 0 0 559622.74472111627 5286597.5737541299 0 5286597.5737541299 7707800.5290914029 0 0 0 0 322406459.32748389 87693537.743877411 0 87693537.743877411 19942386.560562134 0 0 0 0 397029997.10869968 89879617.889530182 0 89879617.889530182 -8114165.2622833252 0 0 0 0 400706868.9436698 119223781.26963043 0 119223781.26963043 51676460.959739685 0 0 0 0 342496092.95139331 167454763.68665314 0 167454763.68665314 120991621.13143921 0 0 0 0 -124648914.8224988 224764314.97736931 0 224764314.97736931 380249716.31519318 0 0 0 0 511083.84111118456 721611.66988745471 0 721611.66988745471 -185498.26537650824 0 0 0 0 31868519.704143524 67448101.012367249 0 67448101.012367249 158355592.21736145 0 0 0 0 173930582.24746513 87070514.812568665 0 87070514.812568665 121330152.95787048 0 0 0 0 634531437.16604018 142729728.46754837 0 142729728.46754837 9394983.7637939453 0 0 0 0 414508.57389788021 191825.1155056376 0 191825.1155056376 2273687.798462823 0 0 0 0 482104320.58536923 241220447.71780586 0 241220447.71780586 109942061.95683289 0 0 0 0 696308816.08108997 173764982.53659821 0 173764982.53659821 132660092.29629517 0 0 0 0 -138940.26208494464 -1616135.4308735435 0 -1616135.4308735435 4157082.1889979206 0 0 0 0 359909610.84060383 -406631046.45266151 0 -406631046.45266151 244074777.71451187 0 0 0 0 -53752773.537833214 930515095.01976395 0 930515095.01976395 98880828.177015305 0 0 0 0 402392512.63068235 -175466791.23836565 0 -175466791.23836565 70183820.642696381 0 0 0 0 -1542841084.3770504 1211625341.2791519 0 1211625341.2791519 150416192.55795479 0 0 0 0 -174248397.70523548 -38886087.989818573 0 -38886087.989818573 212618428.78911972 0 0 0 0 -93197080.504217148 -397856406.6468277 0 -397856406.6468277 831266830.31412888 0 0 0 0 121621198.86083317 -257688226.24520493 0 -257688226.24520493 210858095.77177238 0 0 0 0 -29604304.934930801 -176949222.21498489 0 -176949222.21498489 321708502.39936066 0 0 0 0 -57971297.636691093 -70570013.284004211 0 -70570013.284004211 95494421.107124329 0 0 0 0 2725595.0351433754 -225060963.5069809 0 -225060963.5069809 216989596.65929222 0 0 0 0 -10345264.390325546 -137111161.02275085 0 -137111161.02275085 -9344656.7180972695 0 0 0 0 -142628997.86702731 77671444.798122406 0 77671444.798122406 -5294064.4763412476 0 0 0 0 -74264152.432514906 -37034784.767456055 0 -37034784.767456055 173584406.96550369 0 0 0 0 -122341819.63518238 99947667.70450592 0 99947667.70450592 80116011.975120544 0 0 0 0 -138843755.88722527 56110594.648031235 0 56110594.648031235 -31268122.030231476 0 0 0 0 -241342885.46759319 415207153.87897491 0 415207153.87897491 -55632976.020397186 0 0 0 0 -105676171.50553894 35213045.592850685 0 35213045.592850685 289551830.59875488 0 0 0 0 -401720317.08988667 138819932.71719742 0 138819932.71719742 650557185.26151466 0 0 0 0 12186853.934061527 13300929.714561462 0 13300929.714561462 1718476.8052368164 0 0 0 0 10338047.089047074 16002608.164561272 0 16002608.164561272 2427359.0130195618 0 0 0 0 4584313.848284144 3864267.4551852867 0 3864267.4551852867 -4673683.6679485142 0 0 0 0 2837953.0310816765 16515534.170026779 0 16515534.170026779 1047730.046298027 0 0 0 0 11957914.594196796 15749241.388139248 0 15749241.388139248 -2322702.0901565552 0 0 0 0 13863164.167494416 11812839.009988308 0 11812839.009988308 1726507.9230880737 0 0 0 0 2910867.3827514648 12494997.006633759 0 12494997.006633759 2510829.0881099701 0 0 0 0 9121724.7107870579 6284243.6502189636 0 6284243.6502189636 -402527.44298648834 0 0 0 0 12250846.34191376 1393966.3386263847 0 1393966.3386263847 -3911978.9670372009 0 0 0 0 21235661.921508409 10881145.939460278 0 10881145.939460278 -18643775.604785919 0 0 0 0 -2740834.3056576252 104026738.39241219 0 104026738.39241219 -206794280.91825676 0 0 0 0 -26417672.474262759 22533807.840888977 0 22533807.840888977 36371675.247642517 0 0 0 0 -1650643.8162167668 2557146.6343946457 0 2557146.6343946457 6434605.1251087189 0 0 0 0 84826.952765297261 1717940.5440693542 0 1717940.5440693542 11136653.917613085 0 0 0 0 1172756.730273359 5565845.3314816952 0 5565845.3314816952 -2975387.8920726422 0 0 0 0 -2155324.8490388393 5527439.518951416 0 5527439.518951416 5057143.4743061066 0 0 0 0 971668.95012790838 378430.36652669869 0 378430.36652669869 6022659.3666693456 0 0 0 0 -807450.88186907768 5800691.1623744965 0 5800691.1623744965 8230380.6285414696 0 0 0 0 -1108547.3409688473 4282993.1919498444 0 4282993.1919498444 4657610.8500099182 0 0 0 0 -721873.1567274332 1871851.2062969208 0 1871851.2062969208 1964641.6957130432 0 0 0 0 -1262834.65139696 133285.27498590946 0 133285.27498590946 9116742.4311561584 0 0 0 0 -783510.56748762727 3506919.2251241207 0 3506919.2251241207 11176047.58574295 0 0 0 0 538337.57656050054 500543.06434238609 0 500543.06434238609 7187062.0885417275 0 0 0 0 53544.437104940414 3241549.9607095718 0 3241549.9607095718 10975078.060306549 0 0 0 0 1279118.5212008953 4675375.5146598816 0 4675375.5146598816 14786472.108117104 0 0 0 0 2668292.1824930906 2402892.6610507965 0 2402892.6610507965 9478973.693813324 0 0 0 0 -908538.82236522436 1800832.8109693527 0 1800832.8109693527 13051275.957561493 0 0 0 0 756093.56062514684 -1326561.119548854 0 -1326561.119548854 6120545.7400324717 0 0 0 0 -202529716.20196429 54968143.491153717 0 54968143.491153717 57716580.458805084 0 0 0 0 2746767.7551544905 3504600.2382698059 0 3504600.2382698059 11303487.171638489 0 0 0 0 11466928.88929525 21727906.197096825 0 21727906.197096825 22152094.758384705 0 0 0 0 126786396.78895235 -15324370.250267029 0 -15324370.250267029 1256265.987663269 0 0 0 0 -7295151.2817742825 12669201.869308472 0 12669201.869308472 31970263.076217651 0 0 0 0 -304212.28349146154 1033775.9751861095 0 1033775.9751861095 2196831.542495979 0 0 0 0 -7494976.3747806549 10553173.953834534 0 10553173.953834534 27919275.569602966 0 0 0 0 188066.54052870395 592470.13419771008 0 592470.13419771008 1551659.8435537294 0 0 0 0 3993166.498667717 39620056.975334167 0 39620056.975334167 13212868.654563904 0 0 0 0 21073927.309673071 16935024.827098846 0 16935024.827098846 26157025.410552979 0 0 0 0 -1749204.7673613296 4186519.9787515933 0 4186519.9787515933 4297683.1877920665 0 0 0 0 14594719.650422335 11687163.357212067 0 11687163.357212067 8960692.9379196167 0 0 0 0 22077845.040408894 48795098.427541256 0 48795098.427541256 133376052.82064438 0 0 0 0 8235288.7724238634 -15424813.542797089 0 -15424813.542797089 64240052.189491272 0 0 0 0 -2235917.2708084583 14650162.229122162 0 14650162.229122162 69939393.61098671 0 0 0 0 19867639.960195981 29237685.627522707 0 29237685.627522707 30035861.187149048 0 0 0 0 -18949585.743308783 -22077292.745136261 0 -22077292.745136261 31370729.962246418 0 0 0 0 -72246626.153704882 18180975.507499695 0 18180975.507499695 124919361.1101265 0 0 0 0 -12481241.8525635 -47895240.390777588 0 -47895240.390777588 178777920.87071419 0 0 0 0 -23659.056608312647 1183597.6411486026 0 1183597.6411486026 647088.43588874117 0 0 0 0 3006986.4309131801 267658137.86110449 0 267658137.86110449 235142835.24033356 0 0 0 0 -64122220.22962451 -77419083.937610626 0 -77419083.937610626 164740846.72006702 0 0 0 0 -106389547.74230245 -266142755.46246862 0 -266142755.46246862 682187034.66229248 0 0 0 0 90249729.448016435 -195206624.68350315 0 -195206624.68350315 223319999.46081543 0 0 0 0 82504594.156605601 -196312116.10750818 0 -196312116.10750818 494945677.69220734 0 0 0 0 17116535.587127566 -39564344.250249863 0 -39564344.250249863 71347192.987287521 0 0 0 0 -192696.25857892245 -704774.48977020103 0 -704774.48977020103 1257500.5969399959 0 0 0 0 8173999.1590553522 -9021630.9994335175 0 -9021630.9994335175 81972236.103424072 0 0 0 0 -5364110.8585994542 -7200246.5192575455 0 -7200246.5192575455 627506796.4799614 0 0 0 0 -407351327.5799349 -15655459.71149826 0 -15655459.71149826 2206835784.3021069 0 0 0 0 122578457.03770386 -435297252.42433357 0 -435297252.42433357 1004328049.9019775 0 0 0 0 -364782997.85181665 177460726.85011101 0 177460726.85011101 1576936193.0945625 0 0 0 0 -11693266.15565896 29263375.888324738 0 29263375.888324738 417715246.71868324 0 0 0 0 -497207.31217952608 331569.05129525997 0 331569.05129525997 1288757.4022331126 0 0 0 0 57698598.345210791 -24668083.610954285 0 -24668083.610954285 -137568681.26411438 0 0 0 0 7538734.4215536118 154678906.9794445 0 154678906.9794445 109048801.38105774 0 0 0 0 -8177356.6876394749 -109859958.45549774 0 -109859958.45549774 219193874.84965134 0 0 0 0 59003787.004775047 97872553.855798721 0 97872553.855798721 -180352248.53069305 0 0 0 0 -2910212.9800392268 414070.29144040309 0 414070.29144040309 3625808.9144771388 0 0 0 0 -337624961.82373613 354758441.83964157 0 354758441.83964157 2199870534.4540806 0 0 0 0 582199862.97856176 449314894.50220966 0 449314894.50220966 348496331.63164902 0 0 0 0 -2729492.1404135441 1031897.7230881786 0 1031897.7230881786 3537385.5485500917 0 0 0 0 510155348.01163328 -714296237.32444286 0 -714296237.32444286 969702705.1859436 0 0 0 0 -4536537.1239209939 2410209.5158081371 0 2410209.5158081371 8654431.1123608109 0 0 0 0 -3162967.301376462 6245507.4575006962 0 6245507.4575006962 -10218836.331752777 0 0 0 0 -19050625.412963867 -39652772.508485794 0 -39652772.508485794 -25319210.864908218 0 0 0 0 -1239521.5886195954 1547804.3946557813 0 1547804.3946557813 -149392.28971603513 0 0 0 0 -236617302.67348409 82989553.352031708 0 82989553.352031708 172307497.7647934 0 0 0 0 380594945.19137883 21118901.773414612 0 21118901.773414612 35273181.015424728 0 0 0 0 334388695.7361834 -280232887.31504059 0 -280232887.31504059 224195561.99081242 0 0 0 0 -22471388.91278553 -6600261.8693008423 0 -6600261.8693008423 496643596.14588547 0 0 0 0 -20623676.034984589 -274989983.1653595 0 -274989983.1653595 311972998.45242882 0 0 0 0 34388525.777315497 -254835203.5508666 0 -254835203.5508666 155983259.77893829 0 0 0 0 463956.45258114499 -907725.99029131932 0 -907725.99029131932 1968712.2855005711 0 0 0 0 197951388.28759593 175759313.36104536 0 175759313.36104536 50210551.40737915 0 0 0 0 30603995.605609894 -208601867.72062492 0 -208601867.72062492 221377949.51852798 0 0 0 0 122910423.74093594 -210797563.65283531 0 -210797563.65283531 84518545.799674988 0 0 0 0 6914194.0852714777 17694272.297173023 0 17694272.297173023 11353259.713054657 0 0 0 0 -559195.31983806612 -32781.19014760945 0 -32781.19014760945 250992.68729168922 0 0 0 0 -35387629.659372807 -225700564.10171509 0 -225700564.10171509 261553302.44632339 0 0 0 0 -33204224.407525778 -243537292.97368622 0 -243537292.97368622 233768993.58612442 0 0 0 0 124792882.11264038 -139660425.94394302 0 -139660425.94394302 192291352.13127899 0 0 0 0 52001306.370281219 66874541.702777863 0 66874541.702777863 -46105497.32152462 0 0 0 0 -77689712.346695423 510454.17308998108 0 510454.17308998108 39498937.977302551 0 0 0 0 -283309676.36451519 -92385102.948097229 0 -92385102.948097229 248949454.51973724 0 0 0 0 133778234.81679213 382277931.65048599 0 382277931.65048599 380465047.41584778 0 0 0 0 531288603.01392686 -454352858.94625092 0 -454352858.94625092 358501379.30732512 0 0 0 0 -1146500.5098172897 -4607243.8657705048 0 -4607243.8657705048 11359455.134833194 0 0 0 0 -5625181.6585660549 792125.62803781219 0 792125.62803781219 9330583.2289412282 0 0 0 0 -4588836.6832666397 20082746.786046982 0 20082746.786046982 -914621.53882789612 0 0 0 0 -1701839.8137540817 -513332.6023349762 0 -513332.6023349762 -2121759.0840587616 0 0 0 0 232349436.03312144 43567981.092580795 0 43567981.092580795 -115574946.53605461 0 0 0 0 3631361.2813364118 -340453118.49096107 0 -340453118.49096107 674601205.65396881 0 0 0 0 -209031882.37913674 19450770.040992737 0 19450770.040992737 1035925229.4689026 0 0 0 0 -298402906.68013585 -340627369.77132034 0 -340627369.77132034 2202191214.0727391 0 0 0 0 -57344051.594160579 837389211.12932205 0 837389211.12932205 2268821916.6817551 0 0 0 0 -214430425.42552522 -24944657.300528765 0 -24944657.300528765 671380177.63526535 0 0 0 0 -1759307.9915701149 -65222.258405070752 0 -65222.258405070752 8399764.4843211472 0 0 0 0 -48448068.793467447 50676990.797286034 0 50676990.797286034 657377839.8075943 0 0 0 0 18368271.162429988 -53482652.523900986 0 -53482652.523900986 -47549859.221424103 0 0 0 0 -442102904.67508113 -15878792.066829681 0 -15878792.066829681 89659611.729415894 0 0 0 0 377783031.41344821 -203561647.84631348 0 -203561647.84631348 -213389977.62511253 0 0 0 0 -368964904.62204325 138384279.14497375 0 138384279.14497375 385864292.60777664 0 0 0 0 427212136.40727609 -1028521838.772171 0 -1028521838.772171 776547618.74348068 0 0 0 0 -151744.48515578688 -548933.07152650878 0 -548933.07152650878 3306642.5974297598 0 0 0 0 220645538.68065143 -1330410530.9789286 0 -1330410530.9789286 1188585785.121315 0 0 0 0 -54024132.997223668 -773695823.67752838 0 -773695823.67752838 2259010699.5194073 0 0 0 0 78280926.778056383 -289675086.10147095 0 -289675086.10147095 1265345120.3242862 0 0 0 0 205740912.65106037 -539684063.55440903 0 -539684063.55440903 1404463631.4149437 0 0 0 0 283735900.25886047 78503185.259672165 0 78503185.259672165 113627957.64800262 0 0 0 0 365984035.26540697 211712275.98538017 0 211712275.98538017 -117942554.94388199 0 0 0 0 -156646529.41661179 270925772.46336746 0 270925772.46336746 -195604672.38522339 0 0 0 0 -975550.52094200556 -671121.33658365905 0 -671121.33658365905 2333712.8453298099 0 0 0 0 -33096660.333258212 496999669.66629028 0 496999669.66629028 214992412.42606354 0 0 0 0 439276308.5174132 349456038.05947876 0 349456038.05947876 4286830.4550170898 0 0 0 0 -129028042.48371047 25623692.771730423 0 25623692.771730423 297277755.56204605 0 0 0 0 2219187.0446863426 -462985.28082178533 0 -462985.28082178533 336711.88966797944 0 0 0 0 24758351.06749253 448305488.28107738 0 448305488.28107738 954816552.86411285 0 0 0 0 28875570.170057356 309924003.76789856 0 309924003.76789856 89513328.292789459 0 0 0 0 125792047.7288993 183185661.00144958 0 183185661.00144958 249682424.74601364 0 0 0 0 5563985.4019632339 -7480512.4363720417 0 -7480512.4363720417 15003210.004749179 0 0 0 0 1655609.5189304352 7907986.271007061 0 7907986.271007061 20921009.839711308 0 0 0 0 -10753558.328748703 6590876.51334095 0 6590876.51334095 3271778.7032289505 0 0 0 0 29863847.814117551 -14386905.593330264 0 -14386905.593330264 32443014.349256516 0 0 0 0 15140710.628870249 12596180.919880629 0 12596180.919880629 51329893.685873985 0 0 0 0 13445875.908655167 -46271517.590676546 0 -46271517.590676546 53821140.713557132 0 0 0 0 -34290760.341641903 -60747403.738746643 0 -60747403.738746643 77271050.995907068 0 0 0 0 -15794966.796040535 7514938.8690750599 0 7514938.8690750599 29791152.811143398 0 0 0 0 12214928.756912231 -27142026.592803478 0 -27142026.592803478 -1206821.7089627981 0 0 0 0 -4135927.4854926034 2343838.962453431 0 2343838.962453431 11652161.248484755 0 0 0 0 18042559.747141838 10777602.682886004 0 10777602.682886004 6202525.8818836212 0 0 0 0 -39163307.065549374 30724659.610046327 0 30724659.610046327 181704148.67186773 0 0 0 0 -16705662.656246185 -65802924.705996037 0 -65802924.705996037 50894291.122854769 0 0 0 0 5353709.8106532097 13261495.939226627 0 13261495.939226627 11410994.32682991 0 0 0 0 -645533.34162040334 1258240.6520359057 0 1258240.6520359057 12964821.169949427 0 0 0 0 -16550484.289837658 5000233.4182376266 0 5000233.4182376266 46101220.666026115 0 0 0 0 12026397.544775009 1329417.065025568 0 1329417.065025568 3163201.4671840668 0 0 0 0 423055.82475259155 1464134.9849808854 0 1464134.9849808854 1185571.6710022967 0 0 0 0 11337106.559548378 7862315.9215917587 0 7862315.9215917587 2367632.4069271088 0 0 0 0 14841456.120522499 1360541.6096534729 0 1360541.6096534729 13871763.300653458 0 0 0 0 6425484.297504425 11166510.889230728 0 11166510.889230728 26874606.791851044 0 0 0 0 6623894.2144423127 8714056.6619001031 0 8714056.6619001031 12022710.57906723 0 0 0 0 -481044.49373794766 309263.01226240816 0 309263.01226240816 5012996.0675755329 0 0 0 0 -29393618.768400669 -9204428.0691417456 0 -9204428.0691417456 19285628.135901928 0 0 0 0 33624516.03777504 22998508.809057236 0 22998508.809057236 21105848.943247318 0 0 0 0 144828864.90795326 26524986.635383606 0 26524986.635383606 -40228769.05338335 0 0 0 0 -36310.961581624812 -282015.87333404692 0 -282015.87333404692 187908.05024958402 0 0 0 0 -63195.214192127809 33565.41426003864 0 33565.41426003864 6963449.1233677892 0 0 0 0 -2521681.2566230297 8074207.8079017401 0 8074207.8079017401 1731560.4994821548 0 0 0 0 -25019233.140228271 8124063.6146405935 0 8124063.6146405935 12473642.318618774 0 0 0 0 31073123.298820972 31431958.371243715 0 31431958.371243715 5309307.6827015877 0 0 0 0 -1432784.7193254014 2925847.6945374231 0 2925847.6945374231 2335341.8144001774 0 0 0 0 -17421391.002419472 50477436.640892029 0 50477436.640892029 16706966.197335005 0 0 0 0 12917229.906000137 17848676.478000641 0 17848676.478000641 16360380.964775085 0 0 0 0 -19183745.989582263 8711579.0206110924 0 8711579.0206110924 22389495.314470291 0 0 0 0 -4168521.0853038775 2226694.4566270327 0 2226694.4566270327 14425308.177669927 0 0 0 0 14025469.150287151 14997321.000591278 0 14997321.000591278 12868786.813842773 0 0 0 0 7239879.5085186958 6067212.8956334591 0 6067212.8956334591 13393851.125283241 0 0 0 0 9216088.4209289551 3851628.4047577381 0 3851628.4047577381 11895435.349216461 0 0 0 0 5490507.2366749048 3938887.0927865505 0 3938887.0927865505 12127405.33290863 0 0 0 0 5668758.8634507656 3302999.2830815315 0 3302999.2830815315 12541622.616004944 0 0 0 0 1366930.1802091599 6181819.4090776443 0 6181819.4090776443 13704517.476242065 0 0 0 0 5267604.7745218277 3088943.8663702011 0 3088943.8663702011 13246565.359302521 0 0 0 0 6023342.126490593 1968417.3922109604 0 1968417.3922109604 14542496.377984047 0 0 0 0 -14320058.701182842 2448613.4112861156 0 2448613.4112861156 23301155.210193634 0 0 0 0 -15738.035849736538 1941135.9614150911 0 1941135.9614150911 9439490.3199728802 0 0 0 0 -9366807.2751541138 -1260877.180480957 0 -1260877.180480957 16907068.990875244 0 0 0 0 -12606451.278858185 -2170773.0022916794 0 -2170773.0022916794 16842965.17729187 0 0 0 0 -780085.16128730774 37910631.572609901 0 37910631.572609901 -6285280.8534088135 0 0 0 0 -956550.0914614033 -177635.73573012324 0 -177635.73573012324 1615901.342135781 0 0 0 0 4682117.4762909412 -4510878.8942363262 0 -4510878.8942363262 14261905.200735092 0 0 0 0 -10705930.903094292 4713148.1134533882 0 4713148.1134533882 8099556.0660947561 0 0 0 0 -20582912.30419445 10161783.973151326 0 10161783.973151326 16385461.575715065 0 0 0 0 -5921571.1781463623 13197793.995536327 0 13197793.995536327 23089926.032623291 0 0 0 0 -7131833.7966995239 8451158.7633388042 0 8451158.7633388042 10742495.643342018 0 0 0 0 -12238183.966347694 -421584.64769124985 0 -421584.64769124985 4566241.4246182442 0 0 0 0 -5633991.0405526161 -2130367.6599650383 0 -2130367.6599650383 8211372.962392807 0 0 0 0 9362278.5698242188 338150.75715732574 0 338150.75715732574 2709582.1538863182 0 0 0 0 13204936.957478046 -2400766.9407227039 0 -2400766.9407227039 9874398.8160915375 0 0 0 0 19315594.987077713 4021738.006768465 0 4021738.006768465 3748083.2413902283 0 0 0 0 4306842.5080888271 -5837888.6667289734 0 -5837888.6667289734 18479818.12893486 0 0 0 0 -2913333.0453004837 2988645.4388356209 0 2988645.4388356209 21087715.291068316 0 0 0 0 -156347.87573207656 394648.9295244884 0 394648.9295244884 7226600.6166023053 0 0 0 0 10652422.372145176 -885446.72495150566 0 -885446.72495150566 3079355.6868228912 0 0 0 0 -18581.792597390246 331343.48603912629 0 331343.48603912629 1761949.6218327698 0 0 0 0 -2436795.5110530853 3934343.0397794247 0 3934343.0397794247 16108724.207693577 0 0 0 0 1425664.7574892491 2433582.9882736206 0 2433582.9882736206 6049201.7415218353 0 0 0 0 1069845.9231485832 560583.79969456326 0 560583.79969456326 8064733.4177325219 0 0 0 0 -3750712.7124481201 -12289625.029039383 0 -12289625.029039383 6176818.4800357819 0 0 0 0 1769916.9828472137 19465861.090740204 0 19465861.090740204 9628190.2761211395 0 0 0 0 -28797.643490843475 -1021524.8138886029 0 -1021524.8138886029 7743635.7401818726 0 0 0 0 -4331683.4894580841 -5635404.7150306702 0 -5635404.7150306702 14833505.777994633 0 0 0 0 6217367.347974062 -11026601.823335171 0 -11026601.823335171 -43023150.842243195 0 0 0 0 -4839247.2627944946 -16561366.582219124 0 -16561366.582219124 -13944411.145709515 0 0 0 0 -9116863.3997745514 2350876.0401000977 0 2350876.0401000977 10622266.177267075 0 0 0 0 12142456.557048798 3311606.0687379837 0 3311606.0687379837 -5506134.7281749249 0 0 0 0 -9453198.8875684738 -9256561.9632110596 0 -9256561.9632110596 31337.72504234314 0 0 0 0 -9524807.2925682068 -10974596.777271271 0 -10974596.777271271 -18424448.57996273 0 0 0 0 -256149.29550650797 -1024816.383020404 0 -1024816.383020404 294428.97822351474 0 0 0 0 5937633.8007924557 5170339.6800928116 0 5170339.6800928116 3444467.399061203 0 0 0 0 5437263.743326664 -3798208.3443946838 0 -3798208.3443946838 5621320.9584152699 0 0 0 0 397130.70823764801 1017506.4700241089 0 1017506.4700241089 1057565.6233711243 0 0 0 0 8924274.7529617548 2274399.6974391937 0 2274399.6974391937 -1338043.8540096283 0 0 0 0 1326589.1408753544 -3668136.8223989829 0 -3668136.8223989829 24547705.630889893 0 0 0 0 145900.6976906627 338106.16931969579 0 338106.16931969579 618706.37346373126 0 0 0 0 -361109.14804959297 1235864.8027877808 0 1235864.8027877808 2436306.2054595947 0 0 0 0 1053261.5769515547 616289.62285263464 0 616289.62285263464 5478037.0129293762 0 0 0 0 599642.50374221802 -2838421.5917444229 0 -2838421.5917444229 1228587.7572320104 0 0 0 0 5630214.8360347748 6538193.9381446838 0 6538193.9381446838 6357444.15284729 0 0 0 0 -864961.25655269623 46628.585243225098 0 46628.585243225098 3024527.5581359863 0 0 0 0 -1605657.9585517438 -20321.622387509793 0 -20321.622387509793 6158219.2597815543 0 0 0 0 1967049.1799640364 3491727.0089040976 0 3491727.0089040976 3929360.6792840483 0 0 0 0 -3023805.9578285217 2555701.6593933105 0 2555701.6593933105 4645428.9482841492 0 0 0 0 1048885.9089273908 -1797314.7904944131 0 -1797314.7904944131 7038950.2858629897 0 0 0 0 -2289782.6779506113 1357053.7929170113 0 1357053.7929170113 18240350.644516718 0 0 0 0 -254403675.37563443 25699674.543278694 0 25699674.543278694 17749231.832509041 0 0 0 0 383417.53274867055 -1812724.5150424875 0 -1812724.5150424875 11191031.335041424 0 0 0 0 -2971058.9159564972 176017736.97499228 0 176017736.97499228 9327969.0164860934 0 0 0 0 200814389.96151257 -116514264.04929447 0 -116514264.04929447 -37870036.99177599 0 0 0 0 -19786678.592140675 -93740145.717132807 0 -93740145.717132807 153843627.76433128 0 0 0 0 -97881153.226331234 165165.36440467834 0 165165.36440467834 138976496.76901817 0 0 0 0 -18042053.831379414 48918501.618180275 0 48918501.618180275 -24479729.331998572 0 0 0 0 -1146807.1736024162 -36657746.294379808 0 -36657746.294379808 -21053613.459429741 0 0 0 0 395621.63373147417 501053.35955161392 0 501053.35955161392 155641.36842827313 0 0 0 0 -2162414.6649399996 23858211.209920883 0 23858211.209920883 3296114.1523666382 0 0 0 0 -644702.11491187313 5265970.2975793295 0 5265970.2975793295 17739463.469095923 0 0 0 0 96085.438366055489 13129755.279102325 0 13129755.279102325 8851746.9465751648 0 0 0 0 -2445392.3327441216 10278275.501895905 0 10278275.501895905 5183447.8743224144 0 0 0 0 62873.126031160355 19818937.552181244 0 19818937.552181244 28619823.490280151 0 0 0 0 -1422587.8047995567 -8825314.6400413513 0 -8825314.6400413513 54896055.204591095 0 0 0 0 -4601898.530790329 -11990534.817933559 0 -11990534.817933559 83642679.609549999 0 0 0 0 9510416.1151914597 8166963.2618494034 0 8166963.2618494034 19827117.318735123 0 0 0 0 13193329.953940392 -1720284.6216681004 0 -1720284.6216681004 11323244.777274132 0 0 0 0 -13909757.872912407 1240150.3373813629 0 1240150.3373813629 53046745.025756836 0 0 0 0 12838520.542615891 -24396492.175106525 0 -24396492.175106525 60293420.910060465 0 0 0 0 -20411735.76247406 1377949.5101900101 0 1377949.5101900101 70520442.752558708 0 0 0 0 -9660687.8475542068 12585510.03569603 0 12585510.03569603 8997930.2953605652 0 0 0 0 -36092229.070363998 51265087.138296604 0 51265087.138296604 -33415548.305608511 0 0 0 0 -4022006.038875103 -8099533.7133101225 0 -8099533.7133101225 63929014.554153442 0 0 0 0 296711.76513364026 882287.3834696156 0 882287.3834696156 1089009.5745315412 0 0 0 0 5177703.3343920708 12460604.100623846 0 12460604.100623846 50234644.674642146 0 0 0 0 7143089.7811307907 21001822.366704345 0 21001822.366704345 77687144.105435252 0 0 0 0 623047.39907258749 2810372.3416979183 0 2810372.3416979183 5830988.3243121821 0 0 0 0 -6191043.262005806 14545383.906228065 0 14545383.906228065 -6973137.945417583 0 0 0 0 1896842.4600972431 1593980.4116662969 0 1593980.4116662969 -312175.19674237212 0 0 0 0 5167534.7534134388 3562438.7935159206 0 3562438.7935159206 -6631737.413921833 0 0 0 0 -10332316.332232177 1476631.8509370089 0 1476631.8509370089 21158092.828582764 0 0 0 0 -1421264.9448531929 3303889.9204396224 0 3303889.9204396224 16137371.697982319 0 0 0 0 -3670014.5612325668 -4452266.5783100128 0 -4452266.5783100128 24520905.529687881 0 0 0 0 -2694453.6549113989 3253750.1438491344 0 3253750.1438491344 6698902.2440099716 0 0 0 0 -2019609.9842306376 1634749.2152252197 0 1634749.2152252197 7115216.9494886398 0 0 0 0 -887133.89673853887 -335859.17373434734 0 -335859.17373434734 5764916.7182397395 0 0 0 0 -263014.91255588183 7362372.9985812139 0 7362372.9985812139 5058958.0106582791 0 0 0 0 83919.406238079071 7689572.6274576187 0 7689572.6274576187 30514583.812213898 0 0 0 0 -10506318.73338294 14319120.485015869 0 14319120.485015869 37089164.551868439 0 0 0 0 -481727.81937633385 4642985.6789206602 0 4642985.6789206602 16226972.790344877 0 0 0 0 -17018980.443312168 19568817.645078659 0 19568817.645078659 16114327.239131927 0 0 0 0 -16453774.265130281 6847122.3195419312 0 6847122.3195419312 27888774.137786865 0 0 0 0 -9307021.6856629848 17676.938634872437 0 17676.938634872437 24694902.295127869 0 0 0 0 -10412164.939495653 -1555762.3121131659 0 -1555762.3121131659 31839123.980625153 0 0 0 0 -5922963.5036168098 -8367485.2882575989 0 -8367485.2882575989 24708628.735519409 0 0 0 0 -1617035.9856715202 -16525867.739866257 0 -16525867.739866257 40371473.08612752 0 0 0 0 -10769998.023425043 -1562155.9833884239 0 -1562155.9833884239 38655084.518215179 0 0 0 0 22577189.415848494 -31001546.583292007 0 -31001546.583292007 41695890.967622757 0 0 0 0 -3219265.9696834087 -7266936.4388446808 0 -7266936.4388446808 39263285.912037134 0 0 0 0 -4518076.6160097122 -4203233.0187959671 0 -4203233.0187959671 58034058.612567902 0 0 0 0 3966224.4455783367 -11100056.565704346 0 -11100056.565704346 19898983.584213257 0 0 0 0 9864669.3111137152 -13194936.443531036 0 -13194936.443531036 20517768.728839874 0 0 0 0 970427.64085578918 -14400625.652593613 0 -14400625.652593613 21065936.486555099 0 0 0 0 -5547928.4246532917 -7966267.7957639694 0 -7966267.7957639694 24107355.634346008 0 0 0 0 -8548893.8981132507 -6998596.3862018585 0 -6998596.3862018585 24059048.115703583 0 0 0 0 -3518079.8366298676 -10501857.724021912 0 -10501857.724021912 25864239.754432678 0 0 0 0 -4800362.0688931942 -6623650.1334438324 0 -6623650.1334438324 18955413.872032166 0 0 0 0 361767.85733306408 -12021061.092078686 0 -12021061.092078686 18518146.154167175 0 0 0 0 -8394615.1944656372 -6452582.0270614624 0 -6452582.0270614624 17344679.588218689 0 0 0 0 4543445.4174866676 -13207255.611228943 0 -13207255.611228943 17883547.863515854 0 0 0 0 -1234192.7542024255 -9578513.9423544407 0 -9578513.9423544407 18211278.97612381 0 0 0 0 2661759.8162121773 -1829549.8402996063 0 -1829549.8402996063 710287.8384552002 0 0 0 0 378975838.99735373 -709024270.29462433 0 -709024270.29462433 1334153132.2132111 0 0 0 0 1975974.743555737 -1728616.984129576 0 -1728616.984129576 5948707.8779415479 0 0 0 0 5744160.2540384522 4338949.305911975 0 4338949.305911975 3175992.7694218736 0 0 0 0 231665739.47685835 -824630938.21855855 0 -824630938.21855855 2293182215.3226185 0 0 0 0 -582321.35708268918 -2581362.4183739489 0 -2581362.4183739489 3014491.4729463477 0 0 0 0 1982874.5947518349 589019.59963703156 0 589019.59963703156 9357046.1296365261 0 0 0 0 74705.902363261208 98913.088779021986 0 98913.088779021986 7186007.4984949082 0 0 0 0 4286882.2915816307 3884124.8970546722 0 3884124.8970546722 12435792.456981659 0 0 0 0 -432314.78905439377 -952310.81224536896 0 -952310.81224536896 17834342.324209213 0 0 0 0 103832.05777254351 -30914.260854509659 0 -30914.260854509659 -10663.288630593568 0 0 0 0 1092846.7271458877 -1385178.0313892271 0 -1385178.0313892271 10780146.027671542 0 0 0 0 -1060563.3889001608 504082.27115392685 0 504082.27115392685 3686779.1836366653 0 0 0 0 -7184938.6719806194 -10696170.311889648 0 -10696170.311889648 15266719.667655945 0 0 0 0 -84913.859760547988 -290892.17252576165 0 -290892.17252576165 1086908.7307041408 0 0 0 0 1877030.8017497063 2136425.6403331757 0 2136425.6403331757 11442441.169203997 0 0 0 0 24694824.808265079 276126810.7154026 0 276126810.7154026 2205049298.1027994 0 0 0 0 1461311.6707059625 1504697.7506546276 0 1504697.7506546276 6713000.6536315251 0 0 0 0 -38050567.346399806 151946547.38217545 0 151946547.38217545 2186411394.2762461 0 0 0 0 1713143.7904365063 2085877.3113775253 0 2085877.3113775253 11562225.697061539 0 0 0 0 2945641.3363699489 -447690.49476607144 0 -447690.49476607144 11346228.328300007 0 0 0 0 -42292564.819313616 147924177.93146133 0 147924177.93146133 2203206702.5475855 0 0 0 0 1359845.3898460004 607944.94629075145 0 607944.94629075145 5957797.1910701208 0 0 0 0 3879377.9616580009 2490616.0406255722 0 2490616.0406255722 10654485.518777847 0 0 0 0 1889014.8158495203 2506310.2357141078 0 2506310.2357141078 11872735.741889954 0 0 0 0 47177267.145013824 -310088970.81728172 0 -310088970.81728172 2063874854.7794919 0 0 0 0 1343273.746817112 1615862.6501379013 0 1615862.6501379013 12295958.361433029 0 0 0 0 3714917.1621489394 1038810.0542758796 0 1038810.0542758796 -955180.91380058322 0 0 0 0 -42019833.973782226 -5884572.3841571808 0 -5884572.3841571808 2187107036.9398003 0 0 0 0 1128022.0365214348 2587732.7273416519 0 2587732.7273416519 12138684.286056519 0 0 0 0 15263026.22380206 11500541.774760067 0 11500541.774760067 9092936.1152191162 0 0 0 0 5201242.3345640302 7820563.449942112 0 7820563.449942112 13422136.188863754 0 0 0 0 141673.92796132585 927161.71633757884 0 927161.71633757884 6628873.9933599103 0 0 0 0 433227519.96474421 940419572.25504494 0 940419572.25504494 2204684527.928432 0 0 0 0 2657372.4716388197 2915889.5112079512 0 2915889.5112079512 7381468.8105938658 0 0 0 0 4071371.1576680932 1402292.6249952582 0 1402292.6249952582 3649359.2748687733 0 0 0 0 1562510.3767524958 3225247.350467205 0 3225247.350467205 11239179.561215401 0 0 0 0 2247512.7464109184 1857408.0901891063 0 1857408.0901891063 5276575.3783172201 0 0 0 0 -283533.83442497253 1163346.3688702583 0 1163346.3688702583 4557734.8199133873 0 0 0 0 384070139.86502171 -126131762.29093111 0 -126131762.29093111 -333702526.58192921 0 0 0 0 2299420.1281049247 1835201.1902429478 0 1835201.1902429478 10162361.27722574 0 0 0 0 3520757.1658147443 5200660.1018979652 0 5200660.1018979652 9556653.9545789305 0 0 0 0 2870228.6722970009 1697085.8511123657 0 1697085.8511123657 5052926.0031657219 0 0 0 0 3477779.0670284033 4980875.9771335125 0 4980875.9771335125 11358463.861473083 0 0 0 0 1326321.246691227 2438490.9293060303 0 2438490.9293060303 13380453.217214584 0 0 0 0 564448.2707837983 1973454.1034716452 0 1973454.1034716452 10169522.721376475 0 0 0 0 3892506.6025338024 1216936.5293501616 0 1216936.5293501616 12810784.835538864 0 0 0 0 -741865.04205465317 707897.82231903076 0 707897.82231903076 7338970.7257442474 0 0 0 0 -75185260.593977928 -34464539.046368837 0 -34464539.046368837 13231771.293226302 0 0 0 0 -66318560.296746254 186346568.82032144 0 186346568.82032144 -48260216.408811569 0 0 0 0 1792970.7192212492 2524394.5625593718 0 2524394.5625593718 4786601.8621383253 0 0 0 0 -126646.15469498001 1541235.3673453098 0 1541235.3673453098 2378179.5262019956 0 0 0 0 101574033.05627596 -415289765.81155878 0 -415289765.81155878 434662046.64847231 0 0 0 0 61687387.211214066 187929790.56937999 0 187929790.56937999 54138085.371348858 0 0 0 0 -134684774.40094614 41240506.12918818 0 41240506.12918818 35900952.108417988 0 0 0 0 -193323100.17262268 44117099.46163559 0 44117099.46163559 253240364.06755733 0 0 0 0 66707615.014267921 113319850.21092236 0 113319850.21092236 -4397148.857227087 0 0 0 0 -36429.373804757372 -34472.645697278436 0 -34472.645697278436 1492138.9668287649 0 0 0 0 -28320549.223565578 -68373881.427173018 0 -68373881.427173018 241410630.38060284 0 0 0 0 79118550.227816582 -63496826.654750407 0 -63496826.654750407 17542275.791982174 0 0 0 0 -31862498.466524452 -6996658.2863294929 0 -6996658.2863294929 19844761.813379288 0 0 0 0 -21366697.355340481 -18297621.373737693 0 -18297621.373737693 10231343.350879192 0 0 0 0 -77757963.424671173 38796113.162892103 0 38796113.162892103 6423799.2786791325 0 0 0 0 1731152.7062954903 5456780.858045578 0 5456780.858045578 22166587.217845917 0 0 0 0 15188790.291350365 19288941.431560516 0 19288941.431560516 34227547.54058075 0 0 0 0 14770083.541214764 14507886.286068201 0 14507886.286068201 26022410.23651886 0 0 0 0 27262507.264893055 49545229.816700324 0 49545229.816700324 15733117.867475972 0 0 0 0 227394541.73887634 129832498.46884614 0 129832498.46884614 -202211121.59392142 0 0 0 0 -20619306.834256172 -20777844.651302338 0 -20777844.651302338 53063718.282081723 0 0 0 0 2987100.1596605759 811083.31954017282 0 811083.31954017282 -154443.02732228395 0 0 0 0 11229573.959156036 4642889.2538633347 0 4642889.2538633347 13893108.382483959 0 0 0 0 -3400245.5381688862 2182489.6449379339 0 2182489.6449379339 8936154.7563805822 0 0 0 0 -138152772.27103806 306021129.33146763 0 306021129.33146763 -155302882.270998 0 0 0 0 -242414.59880552348 1702493.8096490516 0 1702493.8096490516 12696404.437837664 0 0 0 0 9342974.3105182648 10628355.812706947 0 10628355.812706947 28273756.174350739 0 0 0 0 17858155.619018555 16757163.929645538 0 16757163.929645538 35583293.740707397 0 0 0 0 -431866.28008183837 619911.06270483625 0 619911.06270483625 1483570.2302037226 0 0 0 0 72474447.511784732 70651117.830836311 0 70651117.830836311 -3698449.300388813 0 0 0 0 -248495.20525917597 3488118.7105148262 0 3488118.7105148262 16152617.654814892 0 0 0 0 -176208753.36722279 -142319934.31421685 0 -142319934.31421685 -44594826.188263863 0 0 0 0 15101414.07604599 9418981.0187087059 0 9418981.0187087059 26155815.481865883 0 0 0 0 7981886.129699707 8080910.7445068359 0 8080910.7445068359 36040264.955846786 0 0 0 0 8440559.8551023006 3566134.1867740154 0 3566134.1867740154 27041892.903751373 0 0 0 0 2940.8638800056651 -1698188.9644117206 0 -1698188.9644117206 9633360.4298201799 0 0 0 0 2315022.7626892328 3884728.2694452107 0 3884728.2694452107 5086754.0779051781 0 0 0 0 348503961.02819037 906601009.18047905 0 906601009.18047905 1673640252.1771514 0 0 0 0 1416801.275677681 -307227.9108171463 0 -307227.9108171463 4973437.9961022884 0 0 0 0 -697079.13430073985 139923.88763632081 0 139923.88763632081 7674238.1808990547 0 0 0 0 116975.63633489609 1289677.8857312202 0 1289677.8857312202 9713635.5658068061 0 0 0 0 926884548.9519701 1051222688.6422427 0 1051222688.6422427 1200677065.1350894 0 0 0 0 4334453.1009399174 3594150.2192504052 0 3594150.2192504052 3924667.9643014381 0 0 0 0 1743419.7923541069 -646458.77008485794 0 -646458.77008485794 7016444.7236728668 0 0 0 0 -390571.73547053337 645860.50231027603 0 645860.50231027603 6563743.602304697 0 0 0 0 401188.01533889771 2855006.5370433331 0 2855006.5370433331 5043935.0458015185 0 0 0 0 508200146.44046932 1224277238.2824798 0 1224277238.2824798 2685173633.3064799 0 0 0 0 8936.0580723644816 100252.00840568962 0 100252.00840568962 505652.15613509435 0 0 0 0 615487216.17868328 892437020.73512781 0 892437020.73512781 1971165455.2530568 0 0 0 0 137536283.3899695 714859898.62931037 0 714859898.62931037 2034081893.9420404 0 0 0 0 249039041.30887845 867180664.68950248 0 867180664.68950248 2204756385.1771388 0 0 0 0 353499493.6694032 867756662.31242585 0 867756662.31242585 1971601466.0742893 0 0 0 0 127002135.686215 633025073.53977942 0 633025073.53977942 1778575005.2044275 0 0 0 0 -103646158.84002423 366919830.66558647 0 366919830.66558647 1886824170.309072 0 0 0 0 -61401506.100454204 577414620.34415495 0 577414620.34415495 2204626416.4540696 0 0 0 0 225187858.48580664 482010049.60858965 0 482010049.60858965 1351554337.8574839 0 0 0 0 330759583.24812114 659644591.20520735 0 659644591.20520735 1391891816.5055161 0 0 0 0 350514638.52413797 746605860.82420492 0 746605860.82420492 1523446501.6255069 0 0 0 0 367785197.2597506 740475044.1077261 0 740475044.1077261 1490978663.4995794 0 0 0 0 333972925.17968369 672770507.51048803 0 672770507.51048803 1362960779.583334 0 0 0 0 -63186.520731292781 -651341.61288001388 0 -651341.61288001388 6923045.2308383435 0 0 0 0 240453344.24562812 582474305.67134953 0 582474305.67134953 1719274862.9934154 0 0 0 0 -549934261.96572363 -332657763.84547853 0 -332657763.84547853 1200717999.0450487 0 0 0 0 -206064756.70942956 105461367.43708789 0 105461367.43708789 1420264086.7455845 0 0 0 0 -451353731.36949545 106066602.38471842 0 106066602.38471842 2204274570.0762405 0 0 0 0 -13085650.521218657 340236245.65306282 0 340236245.65306282 1485939488.5373769 0 0 0 0 -366893230.03850788 221439756.34762299 0 221439756.34762299 1338669622.5705881 0 0 0 0 -424626750.25434232 -316629196.08610392 0 -316629196.08610392 -23301065.829506099 0 0 0 0 -203499385.47410488 1214257942.719533 0 1214257942.719533 -55602216.928256989 0 0 0 0 -172195928.62782171 9419507.3094348907 0 9419507.3094348907 805316566.22922134 0 0 0 0 160716379.06551969 873932890.46049118 0 873932890.46049118 351407854.05848122 0 0 0 0 165256918.74016428 779886888.82677555 0 779886888.82677555 1364363773.3100405 0 0 0 0 -344868.20214908943 331838.85377015313 0 331838.85377015313 1724699.2294964157 0 0 0 0 -475199396.51691818 676784065.01929665 0 676784065.01929665 562834708.54807663 0 0 0 0 -61802961.671071172 434620868.76104259 0 434620868.76104259 -46288542.616001129 0 0 0 0 -154374399.10725713 407389429.22901487 0 407389429.22901487 748120554.80128479 0 0 0 0 433798595.77708125 -149401341.54180717 0 -149401341.54180717 451086393.59638357 0 0 0 0 214761534.71350932 -633788108.3228178 0 -633788108.3228178 1400359286.3217828 0 0 0 0 83900334.211098433 144192815.49902821 0 144192815.49902821 1396438689.2232809 0 0 0 0 8184.8877871518489 1008518.0319718146 0 1008518.0319718146 2221575.8509633159 0 0 0 0 -3750966.1791877747 8546372.1146006584 0 8546372.1146006584 32403663.758077621 0 0 0 0 2612639.9120265306 2327012.4497661851 0 2327012.4497661851 1583702.5601563053 0 0 0 0 10659185.688209534 12038878.547909737 0 12038878.547909737 24395916.201412588 0 0 0 0 348249959.60887265 651405616.25063515 0 651405616.25063515 1339317725.6870522 0 0 0 0 -357823.91772669577 1032476.9718460413 0 1032476.9718460413 4875714.4920887137 0 0 0 0 344315351.57612562 647438678.58239841 0 647438678.58239841 1364922538.9876451 0 0 0 0 320287702.45425642 430688946.4912076 0 430688946.4912076 976028365.99590778 0 0 0 0 1431526.9444338083 29333578.092871189 0 29333578.092871189 -3603474.1677284241 0 0 0 0 15160085.583004951 48038015.256256104 0 48038015.256256104 4040982.9247851372 0 0 0 0 20360998.886816502 67173917.417554855 0 67173917.417554855 -293511485.78027058 0 0 0 0 -155238067.71506238 105981401.50791359 0 105981401.50791359 263647720.49168873 0 0 0 0 -130044250.71445644 71844070.154164314 0 71844070.154164314 86909633.529993057 0 0 0 0 -34523907.163824081 5750776.9839906693 0 5750776.9839906693 23448711.552966118 0 0 0 0 -56095935.050764561 56713267.160136223 0 56713267.160136223 22305853.953021288 0 0 0 0 -2185466.4164209366 48761012.742256165 0 48761012.742256165 23334008.551862717 0 0 0 0 -35865746.838522911 26070322.755420685 0 26070322.755420685 24830887.234105736 0 0 0 0 3729694.7269129753 13810172.806523323 0 13810172.806523323 10512922.927991867 0 0 0 0 -1204079.2206933498 -23539356.087481499 0 -23539356.087481499 16948786.436193466 0 0 0 0 -52021753.531447649 -24004606.337282181 0 -24004606.337282181 18481268.404565811 0 0 0 0 1952086.7556295395 8382379.8908529282 0 8382379.8908529282 16303509.823957443 0 0 0 0 9965035.3233118057 13184002.59226799 0 13184002.59226799 6922258.3701286316 0 0 0 0 2140265.9114875793 2079076.1039896011 0 2079076.1039896011 9102988.5757484436 0 0 0 0 -1576200.9820805704 2370894.8943843124 0 2370894.8943843124 4429720.3236344941 0 0 0 0 -48249.937360468786 -782.2107266522944 0 -782.2107266522944 7306783.7186109833 0 0 0 0 10374037.574426651 11973087.81039238 0 11973087.81039238 4632574.266122818 0 0 0 0 8693153.2013969421 15507943.765045166 0 15507943.765045166 18085193.904855728 0 0 0 0 10905528.026659489 1222520.3972473145 0 1222520.3972473145 -6112811.8693389893 0 0 0 0 -93458.697525378375 607140.72970475908 0 607140.72970475908 20397.691005369648 0 0 0 0 -274512772.53173369 -230220985.62027228 0 -230220985.62027228 79353175.290493011 0 0 0 0 5722706.4168987274 -5814989.3172416687 0 -5814989.3172416687 11590365.318220139 0 0 0 0 -281836.92805807176 316319.16195053607 0 316319.16195053607 5606860.7626471305 0 0 0 0 -124465280.33626163 -213600494.71053314 0 -213600494.71053314 -34752589.931747437 0 0 0 0 -231055347.42094362 4393196.2269535065 0 4393196.2269535065 89494821.981777191 0 0 0 0 -91716039.576102257 13760533.860836029 0 13760533.860836029 -46270539.182507515 0 0 0 0 -122911309.89515944 -20744359.675467491 0 -20744359.675467491 216387922.62933731 0 0 0 0 -101341.65798676014 115753702.77084899 0 115753702.77084899 327363245.58578682 0 0 0 0 -8309134.6611499786 -94069474.964113235 0 -94069474.964113235 341202675.04078603 0 0 0 0 -24331733.98936668 36579824.304710388 0 36579824.304710388 160495174.20071602 0 0 0 0 259244605.74928582 -80369052.514483452 0 -80369052.514483452 115371656.80133247 0 0 0 0 -13293329.912657082 -32720365.456943512 0 -32720365.456943512 101649224.0524044 0 0 0 0 -156679853.64423856 -121139586.39138794 0 -121139586.39138794 192848379.35466003 0 0 0 0 149938314.14815426 46526217.295103073 0 46526217.295103073 522961087.84692132 0 0 0 0 513289600.90786505 420880092.89619374 0 420880092.89619374 497890845.42642403 0 0 0 0 199604126.43598509 130258594.99373055 0 130258594.99373055 326878703.49225807 0 0 0 0 195991840.26135367 203783009.32759595 0 203783009.32759595 433141985.31723213 0 0 0 0 249359890.75710058 -15100541.067105293 0 -15100541.067105293 264930376.36218452 0 0 0 0 179502620.14118993 -17778144.927256584 0 -17778144.927256584 -88116963.051876068 0 0 0 0 301974879.72938609 54250066.447088242 0 54250066.447088242 71596933.437667847 0 0 0 0 112331399.21188867 30220019.860837936 0 30220019.860837936 80912424.761030197 0 0 0 0 -43043052.354174912 -164457750.74072933 0 -164457750.74072933 49313275.175100327 0 0 0 0 -53244056.449123859 -28200523.632789612 0 -28200523.632789612 154824376.21941662 0 0 0 0 -46153739.386549473 -56702446.959873199 0 -56702446.959873199 -65003887.544174194 0 0 0 0 149549982.93007863 -54819650.450900078 0 -54819650.450900078 -93413392.974014282 0 0 0 0 -80123897.108126283 -14889375.349280357 0 -14889375.349280357 -106647112.65075684 0 0 0 0 -187852285.16575342 -223473987.75666618 0 -223473987.75666618 -300142604.04066849 0 0 0 0 -243297550.87061262 -30562914.355214477 0 -30562914.355214477 -10174614.165596008 0 0 0 0 -378562.34197793179 -129015.06438735127 0 -129015.06438735127 109375.23738662899 0 0 0 0 20471.856843817048 4915260.2140765097 0 4915260.2140765097 2234858.5265893731 0 0 0 0 2163094.6725447178 -1946601.3023023605 0 -1946601.3023023605 18192723.36492157 0 0 0 0 -145046309.14219517 -29488741.334868431 0 -29488741.334868431 -7661195.100063324 0 0 0 0 8782241.4173513651 -63905697.487466812 0 -63905697.487466812 -170890026.16456604 0 0 0 0 38735133.126158834 -109790849.34937286 0 -109790849.34937286 -117978643.62341404 0 0 0 0 -100784500.88639474 -118534698.53126431 0 -118534698.53126431 -88064738.514409065 0 0 0 0 105380123.31056964 3753087.5100269318 0 3753087.5100269318 -83090820.186174393 0 0 0 0 35616199.220936179 -44240236.890094757 0 -44240236.890094757 -94740350.502560854 0 0 0 0 89227934.159322619 11901424.766269684 0 11901424.766269684 -75467406.776823044 0 0 0 0 4649841.9942905307 3578210.3555417061 0 3578210.3555417061 -33686726.857528687 0 0 0 0 6091375.711884141 9275563.5282697678 0 9275563.5282697678 -75549384.603242576 0 0 0 0 -3453493.6153106987 10073792.683605194 0 10073792.683605194 9739370.7215118408 0 0 0 0 -1343957.49914561 9145292.7714440934 0 9145292.7714440934 2474999.8532018587 0 0 0 0 -14597263.241239548 -21615670.554356575 0 -21615670.554356575 -47300036.496329308 0 0 0 0 9303674.5441374779 21970039.798855782 0 21970039.798855782 5081161.3007125854 0 0 0 0 -2653998.8627245426 16619950.690443039 0 16619950.690443039 10803541.465103149 0 0 0 0 2233537.3867890835 -32624191.923888206 0 -32624191.923888206 -42708635.271562576 0 0 0 0 1184523.311753273 9764764.7783317566 0 9764764.7783317566 6547164.3303432465 0 0 0 0 13199394.04366231 19054310.463690758 0 19054310.463690758 5274387.6792831421 0 0 0 0 8903531.290040493 11347682.321176529 0 11347682.321176529 6552405.5026321411 0 0 0 0 16398388.98224926 17115339.156593323 0 17115339.156593323 4713934.459815979 0 0 0 0 16378690.620118618 23471755.128479004 0 23471755.128479004 9162842.0900162458 0 0 0 0 24455616.456144333 18340175.498954773 0 18340175.498954773 3124247.0099563599 0 0 0 0 18792169.092552185 16740933.710998535 0 16740933.710998535 4221953.0312805176 0 0 0 0 18426453.133730412 14102412.812374115 0 14102412.812374115 7921328.8635673523 0 0 0 0 18226616.032750607 16551978.648403168 0 16551978.648403168 3440565.1779165268 0 0 0 0 15261918.293789387 14629015.394008636 0 14629015.394008636 13197347.251873016 0 0 0 0 19094037.646346092 19037205.26978302 0 19037205.26978302 9556809.4636192322 0 0 0 0 10645416.634319305 18651481.738731384 0 18651481.738731384 9996454.6073913574 0 0 0 0 10640396.106531143 22459881.797185898 0 22459881.797185898 9213556.930141449 0 0 0 0 11379433.161548615 5527689.4117641449 0 5527689.4117641449 19565606.346321106 0 0 0 0 -4847010.813867569 12985229.419071198 0 12985229.419071198 25323705.901477814 0 0 0 0 7341587.797164917 8778411.0399856567 0 8778411.0399856567 20828353.518457413 0 0 0 0 -3804887.5510882139 22090067.781304836 0 22090067.781304836 17527374.73639679 0 0 0 0 3831278.2156944275 24184031.480026245 0 24184031.480026245 11149513.378606796 0 0 0 0 5752403.7564697266 16475058.476615906 0 16475058.476615906 19926255.816955566 0 0 0 0 10855415.460124016 19601038.414618969 0 19601038.414618969 14070014.097198486 0 0 0 0 9362131.0616836548 16703912.002906799 0 16703912.002906799 15603793.814300537 0 0 0 0 5401124.1536693573 18736112.053512573 0 18736112.053512573 14564723.082260132 0 0 0 0 7719379.3031482697 14017019.635004044 0 14017019.635004044 16772995.59782362 0 0 0 0 7496363.3640770912 14810123.336206436 0 14810123.336206436 13952509.239646912 0 0 0 0 13393786.271967888 11442941.03847599 0 11442941.03847599 15140081.219276428 0 0 0 0 5923773.2686824799 14952481.808338165 0 14952481.808338165 16548881.451805115 0 0 0 0 7258169.7966585159 11682474.958343029 0 11682474.958343029 12844652.64799118 0 0 0 0 9585830.6117954254 15360066.107256889 0 15360066.107256889 13194930.116764069 0 0 0 0 10006885.784121513 15680440.950098038 0 15680440.950098038 11514047.889194489 0 0 0 0 -1239427.1071245512 967824.54383390862 0 967824.54383390862 2087828.0351027399 0 0 0 0 6258659.732780695 15962086.701357841 0 15962086.701357841 5823918.3233146667 0 0 0 0 9937222.5331840515 16105297.733833313 0 16105297.733833313 13318580.553497314 0 0 0 0 9837116.1946182251 16022585.725671768 0 16022585.725671768 13435199.455258846 0 0 0 0 9228623.0819010735 9785933.7453804016 0 9785933.7453804016 12085360.564620018 0 0 0 0 -3719019.478723526 -31369165.311743736 0 -31369165.311743736 23380467.618583679 0 0 0 0 -315019.27991956938 106865.66651373729 0 106865.66651373729 2087723.6792441029 0 0 0 0 3572666.963309288 9590424.2904319763 0 9590424.2904319763 9186931.3565731049 0 0 0 0 -23909911.748128653 -19074790.588151932 0 -19074790.588151932 653642.56982803345 0 0 0 0 -947395.27197611053 -924612.7733818125 0 -924612.7733818125 3225699.8237807527 0 0 0 0 -32007778.269358397 5117343.4854631424 0 5117343.4854631424 25097080.625221252 0 0 0 0 -68574242.792078376 123847873.99248409 0 123847873.99248409 -55874944.364845753 0 0 0 0 -3160059.2744431058 -691846.08326833323 0 -691846.08326833323 10991965.97522562 0 0 0 0 725584.2742478021 9780440.4449688494 0 9780440.4449688494 20652354.209177528 0 0 0 0 15301226.021719277 26677706.915166378 0 26677706.915166378 -42675467.844953537 0 0 0 0 -13818634.388672471 42438523.448335648 0 42438523.448335648 -50980904.624438286 0 0 0 0 72193253.03648293 28684671.987224579 0 28684671.987224579 -59782832.510812283 0 0 0 0 50936892.524494052 63294229.790350914 0 63294229.790350914 -79052900.147480011 0 0 0 0 61748452.888370872 101897666.809062 0 101897666.809062 -86685053.720709324 0 0 0 0 -87716518.654298782 10935011.250085831 0 10935011.250085831 102509014.43879509 0 0 0 0 100347687.86799502 13939573.900810242 0 13939573.900810242 144092484.77183151 0 0 0 0 141217136.67904007 125197435.93156111 0 125197435.93156111 62299435.182580948 0 0 0 0 -16706178.18085742 -99391581.655989647 0 -99391581.655989647 363318331.90249467 0 0 0 0 25693951.582185388 162395958.07491755 0 162395958.07491755 302210229.49274254 0 0 0 0 166355683.98417389 12513877.822329998 0 12513877.822329998 449030800.86000633 0 0 0 0 -77680732.98291862 -204159035.80794334 0 -204159035.80794334 157765989.75966382 0 0 0 0 -116061233.71668291 22036038.48538208 0 22036038.48538208 80524783.206695557 0 0 0 0 16164.409462091688 7135160.9472924229 0 7135160.9472924229 22043636.91487325 0 0 0 0 -181434326.81580508 203326124.75437307 0 203326124.75437307 54729692.231298447 0 0 0 0 34587218.524383813 -94937511.161146879 0 -94937511.161146879 119367482.83225632 0 0 0 0 232113.53597342456 -96746.008942838758 0 -96746.008942838758 475904.87942062691 0 0 0 0 -11682795.266737938 37507504.179868698 0 37507504.179868698 166916452.62519073 0 0 0 0 -10448355.765486002 -6926038.7056446075 0 -6926038.7056446075 9471915.6886177063 0 0 0 0 6719814.5582251549 83714076.421390533 0 83714076.421390533 -3877534.8597531319 0 0 0 0 15928422.413261771 22785642.376774311 0 22785642.376774311 4637575.7028579712 0 0 0 0 -11211374.653513312 12357120.688529015 0 12357120.688529015 -23747810.937683105 0 0 0 0 -71873995.491560221 71818861.830102921 0 71818861.830102921 13665213.341945648 0 0 0 0 -495572.63735855592 300971.2350893598 0 300971.2350893598 1041423.4584378814 0 0 0 0 -133970698.26329172 -149922707.57980537 0 -149922707.57980537 359626246.59520721 0 0 0 0 -15940450.313898444 11539671.06634903 0 11539671.06634903 22350937.122283936 0 0 0 0 -621478.41232349304 5616881.8972659223 0 5616881.8972659223 20716057.111965746 0 0 0 0 -129390164.86038882 -252872412.69540453 0 -252872412.69540453 479299298.59042358 0 0 0 0 -120938882.36442232 -276638143.01214027 0 -276638143.01214027 513328503.58471298 0 0 0 0 25357942.245221019 -178270613.32167053 0 -178270613.32167053 233140428.36103439 0 0 0 0 361469035.08353925 -560250779.90479279 0 -560250779.90479279 303488972.40693092 0 0 0 0 29021398.908431828 -293970935.22596359 0 -293970935.22596359 677997569.46318054 0 0 0 0 -6976145.0390418172 -378302141.69274807 0 -378302141.69274807 551713037.13887024 0 0 0 0 264188354.48265597 -354294208.98910522 0 -354294208.98910522 592031935.73199654 0 0 0 0 -134368208.20386955 -273470939.13940454 0 -273470939.13940454 563398603.79579544 0 0 0 0 -104307782.03882349 -320901002.29920101 0 -320901002.29920101 535328654.62401962 0 0 0 0 -65645164.331941128 -298425265.5782547 0 -298425265.5782547 442964282.5596714 0 0 0 0 -128077779.53523839 -303100624.23253632 0 -303100624.23253632 657689799.5852356 0 0 0 0 50046177.863546014 -338508490.56650925 0 -338508490.56650925 571757145.58679581 0 0 0 0 83492237.80188705 -277894418.12425613 0 -277894418.12425613 669981419.82531738 0 0 0 0 3282499.5935553927 7011917.5200585481 0 7011917.5200585481 10591977.42017133 0 0 0 0 263193858.12285268 -377595443.62628222 0 -377595443.62628222 676548759.17898941 0 0 0 0 226114710.00716719 -293504337.24211121 0 -293504337.24211121 627802262.45721054 0 0 0 0 200885504.69782287 -342616807.97237015 0 -342616807.97237015 766080446.53821564 0 0 0 0 105202052.21200338 -275370190.73268986 0 -275370190.73268986 833691347.82863235 0 0 0 0 278190837.31128359 -339707478.69300985 0 -339707478.69300985 767503419.2622509 0 0 0 0 371521165.2424612 -651045652.20604229 0 -651045652.20604229 812051488.21438599 0 0 0 0 705725746.14735472 -850220639.48806763 0 -850220639.48806763 894706644.49882364 0 0 0 0 771519.31910270825 1025200.4139574189 0 1025200.4139574189 -752902.31616778485 0 0 0 0 230894693.93092775 -324394646.44886208 0 -324394646.44886208 928144125.0815506 0 0 0 0 278968803.87533927 -413768942.91519928 0 -413768942.91519928 625623307.15907097 0 0 0 0 -15708240.197696686 -49829870.882176399 0 -49829870.882176399 943510973.83605385 0 0 0 0 -110384279.26245189 -126007457.00359631 0 -126007457.00359631 384629411.49914169 0 0 0 0 -112503453.60184574 -117556354.3148365 0 -117556354.3148365 599435067.47709274 0 0 0 0 -130180220.20100331 -309124909.733778 0 -309124909.733778 591654725.84664035 0 0 0 0 -124416230.70608997 -293508557.00132179 0 -293508557.00132179 498724166.24127769 0 0 0 0 -130822301.95901752 -295271530.20558643 0 -295271530.20558643 530927997.30467224 0 0 0 0 -126816477.25735533 -280205092.97443771 0 -280205092.97443771 514850019.84661484 0 0 0 0 -187728463.78906554 -153432705.3011961 0 -153432705.3011961 459994001.92099059 0 0 0 0 79724974.221995354 -205404124.36702633 0 -205404124.36702633 462919717.16249084 0 0 0 0 -453649281.59002537 134210227.36541586 0 134210227.36541586 912844355.37197876 0 0 0 0 -565802.48725062946 1951538.3345060027 0 1951538.3345060027 5068593.8321061824 0 0 0 0 -198652377.88839573 -322108729.76326752 0 -322108729.76326752 491883829.76225376 0 0 0 0 302142694.78337663 -762513490.60027647 0 -762513490.60027647 1043246172.1514298 0 0 0 0 -433042.13612220786 890340.91617791913 0 890340.91617791913 2803246.7221276052 0 0 0 0 146285690.79772544 -878050809.595505 0 -878050809.595505 2602667403.6998405 0 0 0 0 -575098638.92391956 -358353345.13816714 0 -358353345.13816714 2204887176.0850382 0 0 0 0 -1454946.5494612306 -84841621.144144058 0 -84841621.144144058 1424639497.4880714 0 0 0 0 10842894.826054573 7139464.9168567657 0 7139464.9168567657 993822665.49700069 0 0 0 0 186797365.13877523 -352358590.57578564 0 -352358590.57578564 1149230410.7989731 0 0 0 0 168578703.25764951 -291196835.06956005 0 -291196835.06956005 757166565.12796402 0 0 0 0 63494156.903581202 -238388457.58078575 0 -238388457.58078575 740068410.9618988 0 0 0 0 187238162.34789798 -267613275.22151852 0 -267613275.22151852 746805663.57498932 0 0 0 0 -52016784.931214392 -109778620.12302589 0 -109778620.12302589 767098949.56116104 0 0 0 0 -24970514.459519118 -102890841.26336575 0 -102890841.26336575 21343979.282936096 0 0 0 0 70516184.63259393 -192218326.22494698 0 -192218326.22494698 560488138.11169982 0 0 0 0 32314167.755373865 -20005328.026722908 0 -20005328.026722908 543755268.08085823 0 0 0 0 -312582391.67735195 534215386.56187558 0 534215386.56187558 1338764838.500824 0 0 0 0 -271666020.91172791 676387936.99905872 0 676387936.99905872 242960163.19784999 0 0 0 0 481266444.28594369 133237453.817379 0 133237453.817379 2205615160.5181808 0 0 0 0 -332655498.25398701 79434608.716651917 0 79434608.716651917 2212471005.3038268 0 0 0 0 -247766696.41104126 -262223.18530511856 0 -262223.18530511856 1399137023.0964165 0 0 0 0 -206685415.28260595 -365604746.33913136 0 -365604746.33913136 2205010614.4969196 0 0 0 0 244271430.43063605 -416676322.19209385 0 -416676322.19209385 826833696.10671425 0 0 0 0 164096258.9566583 -282830379.17653847 0 -282830379.17653847 1000355431.3569145 0 0 0 0 878131.63627063041 6159422.0422912128 0 6159422.0422912128 11364415.646572679 0 0 0 0 228531998.56885934 -612195019.51599455 0 -612195019.51599455 1217763158.1012907 0 0 0 0 455064411.09348935 -1084681582.9705601 0 -1084681582.9705601 2201175254.6771116 0 0 0 0 1179251.6200965145 4447864.4369764114 0 4447864.4369764114 933420.924148947 0 0 0 0 214368841.95720384 65169085.278305531 0 65169085.278305531 -27472984.963500977 0 0 0 0 4447082.1607737998 3524015.2341809124 0 3524015.2341809124 1798773.4680768363 0 0 0 0 -371937441.40055126 388858887.68309784 0 388858887.68309784 2201492945.9113655 0 0 0 0 159392019.93939555 188112071.89295578 0 188112071.89295578 819390978.51250839 0 0 0 0 -376208.32454376295 1132003306.9540253 0 1132003306.9540253 1010326338.0527039 0 0 0 0 -273732.75621709792 1459131.0833502342 0 1459131.0833502342 -94121.538853380829 0 0 0 0 -133359282.29818012 -141282940.02809525 0 -141282940.02809525 510633482.99757576 0 0 0 0 -148523486.36601043 -7056354.0829219818 0 -7056354.0829219818 86360921.804695129 0 0 0 0 -1390059.8652828578 5895878.3244416229 0 5895878.3244416229 3198087.5435591787 0 0 0 0 16178972.020278096 -14336292.270720959 0 -14336292.270720959 22272710.192802429 0 0 0 0 -1752913.9706263731 1518653.3088575397 0 1518653.3088575397 7153106.9121988043 0 0 0 0 -1963645.2592079043 6788602.3645648956 0 6788602.3645648956 425763.82420539856 0 0 0 0 -1998805.5853261352 6713844.5416097641 0 6713844.5416097641 266848.37596893311 0 0 0 0 699278.92129909992 4036838.0251283646 0 4036838.0251283646 -481142.07732391357 0 0 0 0 -1558679.8291078636 3488262.80974147 0 3488262.80974147 3708955.1424936727 0 0 0 0 -1893119.243495971 1999844.0400505066 0 1999844.0400505066 932516.80925416946 0 0 0 0 -1496159.8521312475 1414409.8541049957 0 1414409.8541049957 1777219.5694198608 0 0 0 0 -5033063.4314799309 1910455.7085113525 0 1910455.7085113525 -4419044.4906196594 0 0 0 0 -1111030.6554703712 1100622.6600704193 0 1100622.6600704193 -6922172.1245613098 0 0 0 0 677677.25407743477 814850.4959161412 0 814850.4959161412 -1286522.1606362015 0 0 0 0 38118163.677608728 43008365.568073273 0 43008365.568073273 -17332066.153892517 0 0 0 0 -6497205.8529442921 27040165.123661399 0 27040165.123661399 -6696818.0105819702 0 0 0 0 56436276.183527231 -12769154.278213501 0 -12769154.278213501 -18955384.166845322 0 0 0 0 13207146.637229681 37684921.84104538 0 37684921.84104538 -40212085.187049866 0 0 0 0 -15712166.472588897 10526143.221141815 0 10526143.221141815 2313135.9921875 0 0 0 0 -2169217.4916402102 7924755.3747358322 0 7924755.3747358322 -4471897.9703559875 0 0 0 0 12363588.697441578 10403475.398342133 0 10403475.398342133 -30721127.444946289 0 0 0 0 2604292.1230890364 2995391.6824405696 0 2995391.6824405696 -4719965.1974765062 0 0 0 0 -165928092.69067073 -108782194.8159256 0 -108782194.8159256 1550957643.4602299 0 0 0 0 61416199.167691708 -128769036.53445435 0 -128769036.53445435 752835473.34019089 0 0 0 0 -51310437.230435342 274129220.22909021 0 274129220.22909021 1221590172.8603439 0 0 0 0 -680432.89530992322 9334.3661055155098 0 9334.3661055155098 1524982.5003854441 0 0 0 0 -297491104.65913278 641215085.98444939 0 641215085.98444939 1660421836.7308846 0 0 0 0 -361166755.45104671 292439167.73379707 0 292439167.73379707 1920614447.9344864 0 0 0 0 -511749938.78871965 867991187.12122154 0 867991187.12122154 2201060548.4286308 0 0 0 0 -81516236.495974451 512867834.44067001 0 512867834.44067001 811648159.11193848 0 0 0 0 -62540864.138710037 601719688.35288048 0 601719688.35288048 1151729184.5229836 0 0 0 0 -91822175.194593236 103893501.62525463 0 103893501.62525463 938179534.37483215 0 0 0 0 -4361974.9114237726 318517394.97870636 0 318517394.97870636 727790997.53805542 0 0 0 0 41613826.21176365 77620159.428131104 0 77620159.428131104 302573463.53271103 0 0 0 0 142636312.86931109 -65956419.497092247 0 -65956419.497092247 63873551.288547516 0 0 0 0 385957745.53527761 476687900.36334991 0 476687900.36334991 569328673.21511841 0 0 0 0 655991571.74278629 1393618729.5883446 0 1393618729.5883446 1219773032.2907372 0 0 0 0 792934138.93030238 617202327.11041474 0 617202327.11041474 -294481469.64271545 0 0 0 0 2038903.0547612596 1070456.2656917106 0 1070456.2656917106 903533.66427002288 0 0 0 0 4299233.9635359161 -621603252.20583725 0 -621603252.20583725 2204688054.8696623 0 0 0 0 -30986813.160789125 -418423119.33122253 0 -418423119.33122253 1037724098.8560028 0 0 0 0 -153954842.07460785 115057690.01980972 0 115057690.01980972 -69152128.945671082 0 0 0 0 -162033677.23915195 63362496.955186844 0 63362496.955186844 182317483.77585602 0 0 0 0 -6168768.7656128407 -137719998.77709198 0 -137719998.77709198 161003175.35366774 0 0 0 0 -120092124.45756578 -5780454.8030586243 0 -5780454.8030586243 13113406.282653809 0 0 0 0 -51121065.983885288 -47865193.041173935 0 -47865193.041173935 -44966897.703258514 0 0 0 0 -4633690.9210245609 -89997221.54986763 0 -89997221.54986763 -6804597.7233643532 0 0 0 0 -617342.78645290935 -577760.42544498295 0 -577760.42544498295 22600.9679075405 0 0 0 0 67534965.380225539 -55124177.861780167 0 -55124177.861780167 -353796745.87936783 0 0 0 0 -13363806.848348141 -46349181.99719429 0 -46349181.99719429 -97672765.664955139 0 0 0 0 6455501.8137199078 -18910819.761201143 0 -18910819.761201143 76835234.300216675 0 0 0 0 -1734008.6035926342 -156228789.88232422 0 -156228789.88232422 45476773.861068726 0 0 0 0 95098045.71822387 -17890102.629838943 0 -17890102.629838943 106580592.01604462 0 0 0 0 -4806991.9973596781 27534240.292726517 0 27534240.292726517 351065217.20106506 0 0 0 0 99074985.70966053 -89465156.216514587 0 -89465156.216514587 340995078.52762032 0 0 0 0 -19317078.024390787 198285219.23957062 0 198285219.23957062 80618058.940475464 0 0 0 0 33071378.910430133 -93648385.244544983 0 -93648385.244544983 145566591.94670105 0 0 0 0 -34727678.387078449 -144895506.21512985 0 -144895506.21512985 -57140484.985469818 0 0 0 0 -16112167.192418575 -112855261.06048584 0 -112855261.06048584 -29677531.852719307 0 0 0 0 -180514.05638530228 98152.930231172591 0 98152.930231172591 99124.256360635161 0 0 0 0 84885450.648632452 299930444.15721989 0 299930444.15721989 -87528631.194431305 0 0 0 0 94960588.480904102 49375030.082984924 0 49375030.082984924 -125435212.97452545 0 0 0 0 6267831.3928500414 31619829.548593521 0 31619829.548593521 -1011819.2613296509 0 0 0 0 44229748.694481492 -246365641.67806435 0 -246365641.67806435 -95807953.039428711 0 0 0 0 35058003.109062672 -20775453.979938507 0 -20775453.979938507 77786691.392280579 0 0 0 0 204371355.67557502 -143350296.85793686 0 -143350296.85793686 96563978.240905762 0 0 0 0 -18322655.75222373 47779042.097507477 0 47779042.097507477 668453956.45780945 0 0 0 0 9690601.303907454 -15417233.89600575 0 -15417233.89600575 20231483.604049683 0 0 0 0 9995681.010268569 -19191935.877920151 0 -19191935.877920151 42364959.16318512 0 0 0 0 92747225.3401618 8844730.1411602497 0 8844730.1411602497 -3978486.3997955322 0 0 0 0 74513185.127108425 -79788837.211037636 0 -79788837.211037636 -39323772.809448242 0 0 0 0 -18792407.760732383 -37523149.038536072 0 -37523149.038536072 18325906.804901123 0 0 0 0 -117978271.26575281 -67885559.81313324 0 -67885559.81313324 26149112.623275757 0 0 0 0 -10103849.668253303 -40758689.647901535 0 -40758689.647901535 19273174.007544518 0 0 0 0 -29368784.626367211 -10570178.875545502 0 -10570178.875545502 41754400.297370911 0 0 0 0 -514545.57530327514 -3006836.2283744812 0 -3006836.2283744812 5290894.9325790405 0 0 0 0 -84135348.953223705 42285241.273720264 0 42285241.273720264 -16656001.593643188 0 0 0 0 -18922322.427772142 1510177.0654411316 0 1510177.0654411316 6967835.9422416687 0 0 0 0 -13007040.849820778 10611841.549282074 0 10611841.549282074 -4126568.757976532 0 0 0 0 -2519105.8167364341 -1041129.8013146631 0 -1041129.8013146631 914438.63117792457 0 0 0 0 -693928.50898627134 718231.9535412956 0 718231.9535412956 1397032.9506391436 0 0 0 0 -18275763.755266488 3884465.4032173157 0 3884465.4032173157 4956905.7534980774 0 0 0 0 -13647439.811333612 9438912.5017910004 0 9438912.5017910004 11514244.669944763 0 0 0 0 16779258.91723654 -39149856.545555115 0 -39149856.545555115 24055692.706294537 0 0 0 0 -214119.56175581901 234711.13208574243 0 234711.13208574243 506160.25340934098 0 0 0 0 51562101.286573417 80912686.8080616 0 80912686.8080616 98655397.708946228 0 0 0 0 -9041476.7676200271 33048928.731302261 0 33048928.731302261 74639188.965719223 0 0 0 0 -4146367.7820964977 51729351.294033051 0 51729351.294033051 143889137.97560501 0 0 0 0 -11094762.786510319 -27039995.762371063 0 -27039995.762371063 44700247.683250427 0 0 0 0 -15835068.122310907 -31966235.965591431 0 -31966235.965591431 126216261.38150787 0 0 0 0 -9494999.7275030091 -14170602.341750145 0 -14170602.341750145 41129515.632385254 0 0 0 0 -13697730.097006977 -415569.78609275818 0 -415569.78609275818 108711655.0238266 0 0 0 0 -10369845.376988053 4254435.7335758209 0 4254435.7335758209 75107956.53911972 0 0 0 0 9920610.09664011 12372878.664047241 0 12372878.664047241 63210271.85766983 0 0 0 0 -3018037.1144997478 -3395532.937046051 0 -3395532.937046051 58312991.926827431 0 0 0 0 3856675.0822131634 968036.75129890442 0 968036.75129890442 31110791.331539154 0 0 0 0 29497811.504581086 19134983.508061886 0 19134983.508061886 -14263598.02771759 0 0 0 0 595351.42265834287 -96297.090147688985 0 -96297.090147688985 -153165.21348911151 0 0 0 0 -15144517.641213298 23453449.731506348 0 23453449.731506348 189310931.17400932 0 0 0 0 -24601912.842293739 35603227.709617615 0 35603227.709617615 196783740.07259369 0 0 0 0 45550463.316177726 63581877.836647034 0 63581877.836647034 100072118.1088028 0 0 0 0 70469499.720700726 -7114860.5072665215 0 -7114860.5072665215 9194643.1653518677 0 0 0 0 82606476.839863539 72471726.095731735 0 72471726.095731735 40430814.221569061 0 0 0 0 21896085.320046425 25761458.673717499 0 25761458.673717499 -11577876.709873199 0 0 0 0 21785644.277136803 -3694649.798500061 0 -3694649.798500061 -5309933.187169075 0 0 0 0 -4181432.0017186999 -7022745.4145679474 0 -7022745.4145679474 10140739.493846893 0 0 0 0 -8429264.4977026582 1962965.3186187744 0 1962965.3186187744 1882942.4603827 0 0 0 0 963460.26424743142 461975.42745926231 0 461975.42745926231 194290.25385735556 0 0 0 0 -4114911.8425840437 6185796.4190559387 0 6185796.4190559387 -925595.99413490295 0 0 0 0 12730875.651916683 24375370.724876404 0 24375370.724876404 29176703.672136307 0 0 0 0 2987484.5764854103 12791539.196010113 0 12791539.196010113 38096970.901386261 0 0 0 0 -2660065.1060625315 36412732.888839722 0 36412732.888839722 104805119.25875664 0 0 0 0 -8584486.860148102 18382751.295255661 0 18382751.295255661 113307146.65224075 0 0 0 0 -17266165.915577412 -3766627.9836349487 0 -3766627.9836349487 58183278.004911423 0 0 0 0 -18293919.397302359 9113999.9430427551 0 9113999.9430427551 146824433.43746567 0 0 0 0 24655544.146088719 -14710521.917394638 0 -14710521.917394638 -12471695.608287811 0 0 0 0 7487687.2476216555 13219977.600419998 0 13219977.600419998 47311762.601776123 0 0 0 0 12681104.710264802 11998381.495726585 0 11998381.495726585 47322578.557189941 0 0 0 0 42611043.432845354 80961750.33505249 0 80961750.33505249 114938274.40468979 0 0 0 0 392570.31067299843 24815696.467401505 0 24815696.467401505 47898139.175254822 0 0 0 0 -30554558.735845804 72171916.648851395 0 72171916.648851395 41433865.410881042 0 0 0 0 -13069751.517618179 -30003457.037761688 0 -30003457.037761688 11671166.441538811 0 0 0 0 79456388.704123974 17561676.92404747 0 17561676.92404747 27187263.861351013 0 0 0 0 -21510894.52979517 -14927247.131311417 0 -14927247.131311417 20296348.209369659 0 0 0 0 -11601.704215044854 -508593.66649406776 0 -508593.66649406776 1995994.5440432993 0 0 0 0 51627299.870567322 -61480267.347492218 0 -61480267.347492218 -5818022.6973762512 0 0 0 0 -163136.8612135225 -150418.44526207075 0 -150418.44526207075 488201.59837477282 0 0 0 0 4273975.5806863308 34462629.102108002 0 34462629.102108002 68726234.782562256 0 0 0 0 4292743.4673755169 -80888262.884090424 0 -80888262.884090424 -10175746.579841614 0 0 0 0 -8543611.4395341873 15537421.539051056 0 15537421.539051056 77754932.132200241 0 0 0 0 -21597562.211759746 -2919390.8327379227 0 -2919390.8327379227 54415520.863330841 0 0 0 0 15635799.195380777 5528433.9141874313 0 5528433.9141874313 -3583517.1289978027 0 0 0 0 265354.3684657308 -666600.39955198765 0 -666600.39955198765 934103.50729597732 0 0 0 0 2826728.9316188097 371640.15635204315 0 371640.15635204315 33348015.031997681 0 0 0 0 -8668247.8442531824 -7615058.7360248566 0 -7615058.7360248566 38807583.46147573 0 0 0 0 577799.98226004839 -1215272.9133827686 0 -1215272.9133827686 18446727.28061676 0 0 0 0 -3156404.3475227952 -7167492.5164604187 0 -7167492.5164604187 31762950.788652897 0 0 0 0 285798.44248860015 -420804.01773732156 0 -420804.01773732156 7843.6915277801454 0 0 0 0 1544108.739254266 2344275.2876465321 0 2344275.2876465321 11266640.426963806 0 0 0 0 -1293263.9783337116 6935413.0613517761 0 6935413.0613517761 -3916446.6293048859 0 0 0 0 8161763.4872570038 13013344.903869629 0 13013344.903869629 -1419886.0803985596 0 0 0 0 -2135.1864234483801 -34754.605403333902 0 -34754.605403333902 22898.927625695243 0 0 0 0 -42623653.434306622 -24174465.187170029 0 -24174465.187170029 143102398.29247284 0 0 0 0 -39296617.247092247 -45080933.134376526 0 -45080933.134376526 43543415.954467773 0 0 0 0 -39631707.368558407 -25860929.506542206 0 -25860929.506542206 -15091447.099551201 0 0 0 0 -498047.8381550042 -288697.1529900115 0 -288697.1529900115 1110192.9158243723 0 0 0 0 76190055.989667654 62110215.420618057 0 62110215.420618057 15721604.147548676 0 0 0 0 24917717.82517767 69905395.391120911 0 69905395.391120911 173346331.83425903 0 0 0 0 58016718.978263378 -34816830.809261322 0 -34816830.809261322 -43165585.787683487 0 0 0 0 7485201.8356595039 20115309.022083282 0 20115309.022083282 33842864.335830688 0 0 0 0 13853763.193345964 22711704.524217606 0 22711704.524217606 77550041.607269287 0 0 0 0 -11828950.997622192 -6408988.0421581268 0 -6408988.0421581268 48033394.22505188 0 0 0 0 9293855.7993519604 -7599013.2047462463 0 -7599013.2047462463 76969552.952728271 0 0 0 0 23021447.067946434 9098473.2715835571 0 9098473.2715835571 61632818.205646515 0 0 0 0 6822674.7124822587 32857351.149942875 0 32857351.149942875 59363264.763637543 0 0 0 0 140771.53796870666 -256346.6370360367 0 -256346.6370360367 150738.32972855074 0 0 0 0 21838468.307204247 -8893863.6922874451 0 -8893863.6922874451 46418066.284549713 0 0 0 0 302315.46614444256 -5791551.0369167328 0 -5791551.0369167328 66537370.266704559 0 0 0 0 4021949.0199137032 2824135.8440093994 0 2824135.8440093994 46176565.322788239 0 0 0 0 319642.7463570807 -547740.31851479784 0 -547740.31851479784 442233.13190482953 0 0 0 0 54001563.731997348 991127.39906215668 0 991127.39906215668 -1454668.1152229309 0 0 0 0 -5888455.8140115142 -2465996.9339828491 0 -2465996.9339828491 51682512.742282391 0 0 0 0 377136.47324700659 -371126.08967366442 0 -371126.08967366442 -157176.34313743189 0 0 0 0 3076813.605037909 16261.259498596191 0 16261.259498596191 18874954.5727005 0 0 0 0 12924918.958076775 -2244757.3798694611 0 -2244757.3798694611 -4429511.3638648987 0 0 0 0 -4220796.8310217857 -4723807.6027870178 0 -4723807.6027870178 15513725.222930908 0 0 0 0 1107961.4051554203 -9603143.9192180634 0 -9603143.9192180634 14647930.855510712 0 0 0 0 -3815651.5472773314 -12356690.22984314 0 -12356690.22984314 41322995.861382484 0 0 0 0 9502537.8137874901 1602205.1847991943 0 1602205.1847991943 39076874.358310699 0 0 0 0 214165.72134618834 -202618.42426944897 0 -202618.42426944897 -121710.14882043563 0 0 0 0 10311137.053249955 -11969601.86130619 0 -11969601.86130619 9105579.0938262939 0 0 0 0 15084735.476188958 -9804411.1006813049 0 -9804411.1006813049 -1954073.2740950584 0 0 0 0 4345364.7397757769 5171359.1014404297 0 5171359.1014404297 2750565.7939548492 0 0 0 0 -13202610.536350667 6403811.2218351364 0 6403811.2218351364 44463576.27967453 0 0 0 0 1882323.378910929 2392839.1830530167 0 2392839.1830530167 14673961.676593781 0 0 0 0 -7277859.007140398 1484304.2400417328 0 1484304.2400417328 14704347.654624939 0 0 0 0 -845107.78715820983 7203629.4696736336 0 7203629.4696736336 30780685.238891602 0 0 0 0 4772619.4722153693 -2802058.7106180191 0 -2802058.7106180191 19831440.731502533 0 0 0 0 -157425.07583734463 -531396.91190241277 0 -531396.91190241277 198915.53886563145 0 0 0 0 12077764.247047957 893171.53052139282 0 893171.53052139282 29092715.136157036 0 0 0 0 13062699.347974837 36563882.973640442 0 36563882.973640442 55060832.355903625 0 0 0 0 7059325.6051677763 -759979.54358196259 0 -759979.54358196259 19736018.429256439 0 0 0 0 -55192.627601176326 -289954.48799012974 0 -289954.48799012974 110281.3579064263 0 0 0 0 -3684947.5606333613 -8255007.7483291626 0 -8255007.7483291626 59391325.867607117 0 0 0 0 28219680.728717566 -25647897.509868622 0 -25647897.509868622 15524175.507701341 0 0 0 0 -7490662.1246807575 -49512702.357139587 0 -49512702.357139587 114700965.06871033 0 0 0 0 34476993.680457592 -8667672.2813987732 0 -8667672.2813987732 12731537.792352676 0 0 0 0 45926481.82210505 56710836.94228363 0 56710836.94228363 102182338.7798233 0 0 0 0 41569337.500088215 51632305.281867981 0 51632305.281867981 80431438.99238205 0 0 0 0 11617858.835617185 36321069.169242859 0 36321069.169242859 96128975.297363281 0 0 0 0 28984759.279149607 45777838.533011913 0 45777838.533011913 77814556.192153931 0 0 0 0 13015572.732807994 42443820.375349045 0 42443820.375349045 84375765.020435333 0 0 0 0 35341437.756065041 29520861.775214672 0 29520861.775214672 76207588.191291809 0 0 0 0 -10432394.996790202 24377499.323810577 0 24377499.323810577 77972962.654399872 0 0 0 0 3043089.7788515091 13971113.602582932 0 13971113.602582932 63105819.14409256 0 0 0 0 27600844.995593667 26821310.539611816 0 26821310.539611816 55090811.450332642 0 0 0 0 9110919.2668695748 34195064.631912231 0 34195064.631912231 122431894.2201004 0 0 0 0 9009587.9639780521 15205478.973403931 0 15205478.973403931 75920686.560081482 0 0 0 0 -1483297.0186145306 32888041.03002739 0 32888041.03002739 46262024.956840515 0 0 0 0 623180.72246101499 957494.06942200661 0 957494.06942200661 43830850.036003113 0 0 0 0 -3560936.7679116726 47138413.372119904 0 47138413.372119904 98149215.389942169 0 0 0 0 -3040481.2643954754 46978463.510797501 0 46978463.510797501 97180108.412208557 0 0 0 0 -3639019.2093062401 41605097.745832443 0 41605097.745832443 52370575.408783913 0 0 0 0 13075704.987353563 28702288.52132225 0 28702288.52132225 60817584.009399414 0 0 0 0 52847482.004894555 83339762.247243404 0 83339762.247243404 71400628.412139893 0 0 0 0 -15886470.409729481 85398852.784015656 0 85398852.784015656 120612443.84644699 0 0 0 0 -10914671.033895493 67031545.273666382 0 67031545.273666382 65736974.544148445 0 0 0 0 19930159.05162406 18018441.131309509 0 18018441.131309509 34637477.284645081 0 0 0 0 -368344.50047206879 56446535.39541626 0 56446535.39541626 80787897.71188736 0 0 0 0 -45943602.014027357 56131124.346347809 0 56131124.346347809 82469952.886138916 0 0 0 0 -203470.05077165877 -217791.60138861462 0 -217791.60138861462 853465.7509560883 0 0 0 0 -13720395.5777421 -1601752.7939796448 0 -1601752.7939796448 -1407230.5700483322 0 0 0 0 14533932.560075313 35037615.982334137 0 35037615.982334137 60086319.458999634 0 0 0 0 18433079.105550289 33621068.039787292 0 33621068.039787292 60564933.822406769 0 0 0 0 -4975047.2917912006 60684755.029369354 0 60684755.029369354 109456656.38011169 0 0 0 0 -9686758.8102433681 6323441.8973197937 0 6323441.8973197937 5005963.9504394531 0 0 0 0 -3071039.4972844124 -37284922.270076752 0 -37284922.270076752 18571841.429000854 0 0 0 0 13174726.227907658 10012759.561988831 0 10012759.561988831 -5887053.8777618408 0 0 0 0 -144340.35484082357 -63683.497001420707 0 -63683.497001420707 386676.59690058976 0 0 0 0 56174058.314472198 102414573.02932358 0 102414573.02932358 171567201.01210022 0 0 0 0 30797284.286183596 20319633.057312012 0 20319633.057312012 181688107.1144886 0 0 0 0 33771572.126077414 27993372.19701767 0 27993372.19701767 106892111.69044876 0 0 0 0 75112634.878156662 20277666.056762695 0 20277666.056762695 95017639.055831909 0 0 0 0 2471375.6655287743 42467137.298671722 0 42467137.298671722 100218525.92800522 0 0 0 0 55845561.133332685 65804115.984116107 0 65804115.984116107 88139672.766098022 0 0 0 0 3450053.5084452629 49696613.038246155 0 49696613.038246155 152226869.58876038 0 0 0 0 5373583.1730904579 33021187.561376095 0 33021187.561376095 107678907.94218445 0 0 0 0 467266.65406441689 15965727.565200329 0 15965727.565200329 86904898.547164917 0 0 0 0 37925151.496271491 25027269.349830627 0 25027269.349830627 80538853.26958847 0 0 0 0 26984037.438917279 39581765.258579254 0 39581765.258579254 96739362.261783123 0 0 0 0 -5792679.1326339245 27035971.185163498 0 27035971.185163498 81580773.221669197 0 0 0 0 -13460979.909997702 -4213424.7247638702 0 -4213424.7247638702 58240044.274318695 0 0 0 0 -8382094.2791147232 19505349.590549469 0 19505349.590549469 86402911.356716156 0 0 0 0 -6983504.1283366978 8235684.8646092415 0 8235684.8646092415 52957537.213382721 0 0 0 0 -11398848.187620878 10750769.858333588 0 10750769.858333588 63847142.673900604 0 0 0 0 -7418643.424434185 5142721.3054542542 0 5142721.3054542542 53185433.941275835 0 0 0 0 -4080272.5488557816 19516615.752918243 0 19516615.752918243 53258755.8487854 0 0 0 0 748842.97621846199 18683836.64056015 0 18683836.64056015 41449600.010055542 0 0 0 0 -20163117.40646565 16680295.148883343 0 16680295.148883343 87824054.472034454 0 0 0 0 -17142697.035646915 6131505.6763553619 0 6131505.6763553619 54641108.684043884 0 0 0 0 -11196914.727470875 11258759.51304245 0 11258759.51304245 59022905.188009262 0 0 0 0 -8047888.0976681709 1952242.4946708679 0 1952242.4946708679 27311819.69801712 0 0 0 0 -17298307.332214832 5326010.7209911346 0 5326010.7209911346 55025791.973087311 0 0 0 0 -11845745.665934801 6440111.0683355331 0 6440111.0683355331 36404198.573787689 0 0 0 0 1440171.9022008465 414010.82803515345 0 414010.82803515345 284790.7328257896 0 0 0 0 38105320.074904144 38083258.643332958 0 38083258.643332958 -6571019.6256484985 0 0 0 0 532630.29371404927 67973.332935776561 0 67973.332935776561 81672.2069775071 0 0 0 0 -69857723.379880548 -5492030.8111858368 0 -5492030.8111858368 88203575.257141113 0 0 0 0 -17791015.367689371 21849416.57667923 0 21849416.57667923 51300514.224029541 0 0 0 0 10226603.746405363 -34845899.666984558 0 -34845899.666984558 122645722.61819077 0 0 0 0 18119947.411046743 -8401159.029127121 0 -8401159.029127121 64209272.510726929 0 0 0 0 -27447179.072320938 -8075914.0350227356 0 -8075914.0350227356 58348460.109836578 0 0 0 0 347442288.01089478 3623200.0717315674 0 3623200.0717315674 54559582.848602295 0 0 0 0 2253932.93092401 749197.80824753642 0 749197.80824753642 409191.28926421329 0 0 0 0 -100701225.42436552 47706245.366073608 0 47706245.366073608 46212994.191580772 0 0 0 0 -25986854.524834946 47584862.617173731 0 47584862.617173731 180363530.82493973 0 0 0 0 108063462.62548065 97185620.005645752 0 97185620.005645752 81526073.865634918 0 0 0 0 -575017.28814651596 -449243.78211442824 0 -449243.78211442824 849287.58104621619 0 0 0 0 1003800.4094548225 18713630.566602707 0 18713630.566602707 36401204.985157013 0 0 0 0 18658190.292221546 41295339.643417358 0 41295339.643417358 58927191.559259415 0 0 0 0 -1937950.1890013786 -1975979.3646926843 0 -1975979.3646926843 2169780.3321703225 0 0 0 0 24417279.195952892 20690949.15382576 0 20690949.15382576 28260011.249206543 0 0 0 0 17576121.640005261 25462198.662350178 0 25462198.662350178 24934973.653121948 0 0 0 0 7464889.4885277748 8220621.6513977051 0 8220621.6513977051 -70678810.381530762 0 0 0 0 -2566121.9031844139 16604690.010694504 0 16604690.010694504 -1905828.6747665405 0 0 0 0 -67978714.716856062 11804312.219150066 0 11804312.219150066 84881164.660469055 0 0 0 0 54585834.408332825 184778509.60961151 0 184778509.60961151 166193413.4554081 0 0 0 0 -115451162.63361931 -8297380.0111503601 0 -8297380.0111503601 338220157.24243164 0 0 0 0 36684685.588263035 -62426279.863445282 0 -62426279.863445282 92351239.814590454 0 0 0 0 5273255.6348082274 45711153.492823958 0 45711153.492823958 40875998.853158951 0 0 0 0 47076183.1197896 32060721.017213345 0 32060721.017213345 13114503.024103165 0 0 0 0 13750674.940345287 -39296511.853902817 0 -39296511.853902817 -21070150.420872986 0 0 0 0 -21723124.417352319 -261070794.97401595 0 -261070794.97401595 -155975203.03421021 0 0 0 0 -3202341.9036814831 -6445257.6246216465 0 -6445257.6246216465 19135071.12893296 0 0 0 0 -272348114.63545161 35730457.386062384 0 35730457.386062384 339696411.77481842 0 0 0 0 417410939.8654089 -43782125.67905426 0 -43782125.67905426 -256075468.00248337 0 0 0 0 17267204.421749517 14490622.870286837 0 14490622.870286837 8566676.5588245392 0 0 0 0 -252142763.32634115 -219706714.81093597 0 -219706714.81093597 46620090.182090759 0 0 0 0 -19751628.716370583 -28025045.800140381 0 -28025045.800140381 -30246963.799448013 0 0 0 0 -4148922.0690836199 -5317973.4128311332 0 -5317973.4128311332 20011365.568715584 0 0 0 0 -71163178.814928055 64648790.539737701 0 64648790.539737701 117453130.56276703 0 0 0 0 80140693.167950153 130100552.98096085 0 130100552.98096085 110063689.10240555 0 0 0 0 93053413.993217945 94546504.300452232 0 94546504.300452232 138400967.31568909 0 0 0 0 111739483.06058586 138815300.53479767 0 138815300.53479767 85355689.372360229 0 0 0 0 16042129.654270172 48778073.84746933 0 48778073.84746933 148834179.9943428 0 0 0 0 134639197.53337049 97568088.854752541 0 97568088.854752541 80775565.891891479 0 0 0 0 -23520017.871984482 16263144.151679993 0 16263144.151679993 139848951.91511059 0 0 0 0 -49370102.005417585 60907855.677508354 0 60907855.677508354 68370794.391899109 0 0 0 0 -193374066.31926632 -204695919.64509583 0 -204695919.64509583 289977480.36213684 0 0 0 0 -12243437.958182812 -402666915.22128296 0 -402666915.22128296 109423117.54456902 0 0 0 0 -330653516.42602301 -153377626.26968384 0 -153377626.26968384 166715231.52822876 0 0 0 0 -279913254.49368095 15941880.820297241 0 15941880.820297241 127483118.70454407 0 0 0 0 528140329.41790581 65647015.633911133 0 65647015.633911133 -2333476.6513442993 0 0 0 0 1375155.2673112005 358687.66892236471 0 358687.66892236471 190896.03251757473 0 0 0 0 107586411.86303377 120401159.58922768 0 120401159.58922768 183080760.51210022 0 0 0 0 163791569.42144728 181952491.4308548 0 181952491.4308548 144963941.79339218 0 0 0 0 456239889.27837443 -114735463.42116356 0 -114735463.42116356 -50592913.871948242 0 0 0 0 -137050.08782839775 468798.05704861693 0 468798.05704861693 1600129.9851237983 0 0 0 0 152493966.51270914 155076100.99673843 0 155076100.99673843 88092498.682275772 0 0 0 0 11733072.673410892 -39504722.012119293 0 -39504722.012119293 34797436.504237533 0 0 0 0 -42103963.392033339 -54642480.288730621 0 -54642480.288730621 102167274.51971054 0 0 0 0 130925592.56917953 -67694542.417953491 0 -67694542.417953491 35560035.875590205 0 0 0 0 -13380774.700496435 -218408339.38495636 0 -218408339.38495636 155919509.97566223 0 0 0 0 -142889437.84002495 -38624303.175598145 0 -38624303.175598145 108875546.79203796 0 0 0 0 6304671.4208571911 -14110001.010204315 0 -14110001.010204315 30158086.174530029 0 0 0 0 -8357536.2458267212 -15560749.730358124 0 -15560749.730358124 45337187.751251221 0 0 0 0 3457176.8299925327 -37357878.100509644 0 -37357878.100509644 47592717.267105103 0 0 0 0 -8824751.0022259951 -12945181.126761436 0 -12945181.126761436 40780234.33744812 0 0 0 0 4288224.1629219055 2521789.2000083923 0 2521789.2000083923 11611156.10111618 0 0 0 0 41883102.284039021 -16835941.567605972 0 -16835941.567605972 17495792.484413147 0 0 0 0 -667328.58056464861 1649898.3512694491 0 1649898.3512694491 4958436.543086376 0 0 0 0 2972570.7367574852 5326294.1445563342 0 5326294.1445563342 4752767.550489217 0 0 0 0 4735350.1211149395 6165665.1551303864 0 6165665.1551303864 2376890.270321846 0 0 0 0 790601.95933508873 8437571.8002910614 0 8437571.8002910614 1412040.5264167786 0 0 0 0 -135406.7421904467 8545888.3238697052 0 8545888.3238697052 12881182.976783752 0 0 0 0 1699661.9097642899 13522709.2617836 0 13522709.2617836 9434300.3870010376 0 0 0 0 4342989.0188558921 7561080.6904821973 0 7561080.6904821973 5862818.18271368 0 0 0 0 -1346114.8360991478 19461560.538814545 0 19461560.538814545 8415562.5332455635 0 0 0 0 -27458286.124624252 25095428.900363922 0 25095428.900363922 36050887.209594727 0 0 0 0 -276642.50317001343 21919154.001796722 0 21919154.001796722 634532.8761138916 0 0 0 0 -8560188.1318349838 -2400634.8941650391 0 -2400634.8941650391 38903924.99256897 0 0 0 0 -7880544.4969921112 -5359902.5954666138 0 -5359902.5954666138 45813161.378726959 0 0 0 0 -1040001.6375398636 804652.62620544434 0 804652.62620544434 6285490.8274459839 0 0 0 0 25477253.541386604 113559250.78412628 0 113559250.78412628 123932051.53645802 0 0 0 0 -30090403.037875652 46907942.827049255 0 46907942.827049255 53715382.130111694 0 0 0 0 136003445.7720089 45720537.108989716 0 45720537.108989716 -9529286.1311225891 0 0 0 0 1407220.5203621094 293995.06860425882 0 293995.06860425882 -1198047.3695849515 0 0 0 0 -124798.9530293569 7141811.3132726233 0 7141811.3132726233 474900.44463860244 0 0 0 0 20108206.375930309 25938786.40328598 0 25938786.40328598 15595311.303647995 0 0 0 0 35493556.488415718 36951988.206542969 0 36951988.206542969 6701964.0511169434 0 0 0 0 9067742.371506691 48096480.983844757 0 48096480.983844757 52940266.164955616 0 0 0 0 754710.72922229767 16861110.513334274 0 16861110.513334274 6796492.6309305876 0 0 0 0 10026975.381203175 32115266.100576401 0 32115266.100576401 13619730.873085976 0 0 0 0 -1986893.425178153 10794323.559696928 0 10794323.559696928 2598832.0451585874 0 0 0 0 289278.73246962577 12215413.616892815 0 12215413.616892815 10895183.872528076 0 0 0 0 -6070851.3204064369 2745587.0053663254 0 2745587.0053663254 16608362.828258514 0 0 0 0 15210431.585880071 13101485.048679352 0 13101485.048679352 17014415.59552002 0 0 0 0 46756629.69593811 -4735127.1876907349 0 -4735127.1876907349 27174744.290664673 0 0 0 0 -13897184.019964218 17294793.283443451 0 17294793.283443451 45029790.691455841 0 0 0 0 -1485347.3036924028 -623406.73702737875 0 -623406.73702737875 2919352.5950438138 0 0 0 0 13424072.502536297 -6581700.9939594269 0 -6581700.9939594269 28881688.080673218 0 0 0 0 4499262.3109388351 5309904.4198913574 0 5309904.4198913574 22748520.711273193 0 0 0 0 6237015.2062124014 -4438904.398206234 0 -4438904.398206234 28244845.044288635 0 0 0 0 23741574.91497612 -920679.2741394043 0 -920679.2741394043 24753682.452522278 0 0 0 0 -14507030.884007454 14678686.766687393 0 14678686.766687393 11171131.510555267 0 0 0 0 -395460.47059288668 95648.926228821278 0 95648.926228821278 1073028.7455876544 0 0 0 0 3908046.4489507675 14183875.438642502 0 14183875.438642502 31219146.593948364 0 0 0 0 -4009732.5511925123 2765227.9454263779 0 2765227.9454263779 17462363.754884042 0 0 0 0 -1238887.4820222855 -50915.948930501938 0 -50915.948930501938 17753402.985965729 0 0 0 0 2558069.8081561774 -2776109.6202551126 0 -2776109.6202551126 19498175.998015404 0 0 0 0 167481.75735139847 9786411.6605072021 0 9786411.6605072021 28579380.358459473 0 0 0 0 -41797.66289319098 1505106.1613883972 0 1505106.1613883972 3812192.3920860291 0 0 0 0 -326834.57527250622 3025205.4692483824 0 3025205.4692483824 8389237.1652695388 0 0 0 0 -2392958.339559257 1764043.794342041 0 1764043.794342041 4055951.4660949707 0 0 0 0 -2032622.1534684943 4730518.0215492109 0 4730518.0215492109 9196257.8719669655 0 0 0 0 2227690.7058987617 11980285.820354462 0 11980285.820354462 16179107.23487854 0 0 0 0 660155.75745278632 4906688.5032309853 0 4906688.5032309853 6785668.3350841887 0 0 0 0 -1076873.0269655003 1796662.3223661538 0 1796662.3223661538 1899076.5164567009 0 0 0 0 -34128476.888492584 17898769.43421936 0 17898769.43421936 19604670.974609375 0 0 0 0 5284338.3636987209 2131792.1401052475 0 2131792.1401052475 7448096.2163543701 0 0 0 0 2991605.137437582 10385471.509502411 0 10385471.509502411 11934498.577798843 0 0 0 0 3793945.1123709679 17710175.928115845 0 17710175.928115845 26948189.447303772 0 0 0 0 7382470.2149209976 7281660.5565757751 0 7281660.5565757751 14278371.51209259 0 0 0 0 4173397.4079306126 15880022.589899063 0 15880022.589899063 23258778.268447876 0 0 0 0 6928127.5620734692 6638002.9159164429 0 6638002.9159164429 37396472.874595642 0 0 0 0 95584.49764384648 86986.330351257697 0 86986.330351257697 1567336.6799100568 0 0 0 0 -1698791.712314351 322986.74368280917 0 322986.74368280917 6891355.8813429642 0 0 0 0 -7269898.8097496033 11309717.309444427 0 11309717.309444427 59629650.619354248 0 0 0 0 9785134.5457699299 10995857.75683403 0 10995857.75683403 4085731.3177032471 0 0 0 0 24497824.829392169 9896133.6368163824 0 9896133.6368163824 18094820.461372375 0 0 0 0 13994484.042847157 17005438.152038574 0 17005438.152038574 20053053.698059082 0 0 0 0 -56375110.604897618 64013995.680849075 0 64013995.680849075 31400818.081108093 0 0 0 0 13793385.692119598 -5607388.0667266846 0 -5607388.0667266846 26603356.159980774 0 0 0 0 -212509.84372748667 484990.60006204806 0 484990.60006204806 766161.5879609948 0 0 0 0 780347.04818800965 5403544.1202779692 0 5403544.1202779692 7681617.4161169305 0 0 0 0 -281803.34437535575 105343.41098476015 0 105343.41098476015 5190641.3983990308 0 0 0 0 -329755.77970337868 -655312.96089076996 0 -655312.96089076996 7241785.2484893799 0 0 0 0 -4074239.4355948186 5865593.7943990473 0 5865593.7943990473 11570342.28533252 0 0 0 0 -1021059.1583858654 3561914.3568185456 0 3561914.3568185456 9164614.211433731 0 0 0 0 -1079261.0698481202 1557524.2707176208 0 1557524.2707176208 5558416.7395858765 0 0 0 0 3964953.8380565643 13040270.666423798 0 13040270.666423798 28008328.83531189 0 0 0 0 -627570.83277511597 1027115.2213401794 0 1027115.2213401794 5960303.6774635315 0 0 0 0 -335177.88504923368 635144.71859154291 0 635144.71859154291 2840014.3235596083 0 0 0 0 -631284.67666548491 1094851.4679851532 0 1094851.4679851532 5447461.7287521362 0 0 0 0 -281002.31554603577 749211.30267333984 0 749211.30267333984 7195179.955198288 0 0 0 0 -1050135.3584054708 966313.58347320557 0 966313.58347320557 1370413.0213165283 0 0 0 0 157799.4523267746 657631.30404663086 0 657631.30404663086 7187359.3385658264 0 0 0 0 4860.7594222426414 865469.09512799978 0 865469.09512799978 5146680.5469818115 0 0 0 0 1734881.2353300562 6948532.7453370849 0 6948532.7453370849 9234004.188975228 0 0 0 0 -71379.147125574353 612908.11474744976 0 612908.11474744976 9815299.0536235496 0 0 0 0 34674.541666271631 37029.916849276051 0 37029.916849276051 -98575.498167533427 0 0 0 0 6553985.2160470486 78617137.238040924 0 78617137.238040924 49666252.160574913 0 0 0 0 -868100.59896881843 3488776.9347892636 0 3488776.9347892636 6753220.4984886795 0 0 0 0 -1223065.8412070274 677299.00383377075 0 677299.00383377075 2434791.5506248474 0 0 0 0 131655028.83472252 -20008187.136077881 0 -20008187.136077881 -105717922.30787659 0 0 0 0 -240457622.9332943 -146942776.82131958 0 -146942776.82131958 -63284435.006370544 0 0 0 0 -76321.503569012508 125919.70287612081 0 125919.70287612081 425432.83330810815 0 0 0 0 2633076.2005090714 15854882.936019897 0 15854882.936019897 -789400.08770751953 0 0 0 0 621017.44927498046 5195513.1817054879 0 5195513.1817054879 5604267.2894139402 0 0 0 0 1553405.4542458775 1382356.7951268964 0 1382356.7951268964 -2039684.5037588701 0 0 0 0 -10834491.837280989 19989016.725067139 0 19989016.725067139 52121806.718978882 0 0 0 0 15925248.084722042 50199913.830715179 0 50199913.830715179 67311595.956512451 0 0 0 0 -4627156.2399654388 32917799.50352478 0 32917799.50352478 53256627.805862427 0 0 0 0 82059818.289168358 72588577.53301239 0 72588577.53301239 38364730.758369446 0 0 0 0 -568106.55327749252 3833420.4063072205 0 3833420.4063072205 2819642.8703536987 0 0 0 0 -5953756.486520499 1095162.0678744316 0 1095162.0678744316 -11765897.932113647 0 0 0 0 956314.01196670532 4159801.6131591797 0 4159801.6131591797 -1208721.73487854 0 0 0 0 -453860.28861854831 1444037.4752048738 0 1444037.4752048738 12286134.780040203 0 0 0 0 5146214.0264161425 4392946.2802593689 0 4392946.2802593689 -1059540.3394111097 0 0 0 0 4489951.6353788376 64176.806663513184 0 64176.806663513184 2821762.1322174072 0 0 0 0 244623.54478704929 4105691.8770399094 0 4105691.8770399094 2301372.46534729 0 0 0 0 1162897.5119661228 5484172.4936853312 0 5484172.4936853312 12257162.084792811 0 0 0 0 -608271.51645664824 256560.88065956533 0 256560.88065956533 4402563.4573793281 0 0 0 0 -1305149.6879078695 3613728.8661722913 0 3613728.8661722913 4900989.8848408051 0 0 0 0 -12218917.218767643 -13727476.749526978 0 -13727476.749526978 637817.31366729736 0 0 0 0 22040532.922327995 20643829.679523468 0 20643829.679523468 -54372972.596233368 0 0 0 0 -4158629.9934250116 989358.53722381592 0 989358.53722381592 19993873.921066284 0 0 0 0 -10049910.70066452 63750905.158432007 0 63750905.158432007 -1321128.8151626587 0 0 0 0 -34806209.249289751 53288732.380428314 0 53288732.380428314 62889477.19039917 0 0 0 0 -27579150.498042107 -1946129.380405426 0 -1946129.380405426 101199055.34806442 0 0 0 0 -7301235.7257504463 9191838.8723526001 0 9191838.8723526001 17702305.555997849 0 0 0 0 24445256.569012642 10715680.467475891 0 10715680.467475891 45996788.386383057 0 0 0 0 14692521.339953423 -37439909.192466736 0 -37439909.192466736 63993707.975429535 0 0 0 0 2688196.9715061188 21330375.464538574 0 21330375.464538574 35636346.384399414 0 0 0 0 -10248079.477079391 1449413.278345108 0 1449413.278345108 44505591.005577087 0 0 0 0 -6440412.5267648697 13285360.207328796 0 13285360.207328796 50352670.429710388 0 0 0 0 15794438.457231045 18939965.138130188 0 18939965.138130188 51357976.552240372 0 0 0 0 6378638.8588202 15160067.303413391 0 15160067.303413391 61452891.851669312 0 0 0 0 24076260.321634293 16314840.082866669 0 16314840.082866669 61491285.488779187 0 0 0 0 12500682.588038683 -17838666.413063049 0 -17838666.413063049 28035003.942829132 0 0 0 0 40149163.929389477 9096581.66355896 0 9096581.66355896 61851975.797580719 0 0 0 0 50606318.752804577 17737796.222861528 0 17737796.222861528 51260936.380706787 0 0 0 0 -7627892.8699045181 -16921412.848751068 0 -16921412.848751068 253226014.94361877 0 0 0 0 21708136.2671597 -21220744.211238861 0 -21220744.211238861 134482262.64204407 0 0 0 0 24793506.475672603 30812352.552145958 0 30812352.552145958 104168201.77017212 0 0 0 0 17614687.024870753 -5284883.0664587021 0 -5284883.0664587021 94828980.226676941 0 0 0 0 3369508.9247326851 -727215.55848693848 0 -727215.55848693848 101768042.35617065 0 0 0 0 5478220.2600874901 18815905.667316437 0 18815905.667316437 94781248.172660828 0 0 0 0 1787331.6236810684 -8325135.7231521606 0 -8325135.7231521606 80670813.537561417 0 0 0 0 -5549508.8896644115 7896359.9969177246 0 7896359.9969177246 76355624.76902771 0 0 0 0 -26311645.382424831 9079546.8925743103 0 9079546.8925743103 83192674.341033936 0 0 0 0 -25778077.522098541 -10675971.004241943 0 -10675971.004241943 76464563.834106445 0 0 0 0 -9831184.2000379562 -7090402.3208656311 0 -7090402.3208656311 77267904.134479523 0 0 0 0 -8812841.6125054359 -13864183.919764996 0 -13864183.919764996 54060453.592063904 0 0 0 0 -15108160.491174221 299806.21730041504 0 299806.21730041504 71201608.544631958 0 0 0 0 11179782.29961367 29267588.880262673 0 29267588.880262673 69182595.28565979 0 0 0 0 -22597896.129554749 12104020.795707703 0 12104020.795707703 68515948.454112053 0 0 0 0 11963017.168447971 -2853846.0680274963 0 -2853846.0680274963 46549092.401634216 0 0 0 0 -9250925.3666517735 1302386.4064769745 0 1302386.4064769745 56626407.465324402 0 0 0 0 -14507390.194791079 2528937.7276763916 0 2528937.7276763916 60610149.514862061 0 0 0 0 4910365.025537014 45335199.838478088 0 45335199.838478088 26369905.229324341 0 0 0 0 51495695.562623978 22921623.140869141 0 22921623.140869141 141737.40338802338 0 0 0 0 -114197684.67700624 6360141.9932022095 0 6360141.9932022095 80930098.564094543 0 0 0 0 -16745147.954623699 23742307.222114563 0 23742307.222114563 -2436376.7643203735 0 0 0 0 1348954.5238103129 1628533.9084239136 0 1628533.9084239136 -1319962.5094052926 0 0 0 0 -59933088.058028698 -87859257.773366928 0 -87859257.773366928 -19387678.895553589 0 0 0 0 20801886.504078865 -6653448.1418685913 0 -6653448.1418685913 45609285.616508484 0 0 0 0 24324718.268613815 17985261.361854553 0 17985261.361854553 1400266.6304702759 0 0 0 0 27241855.478221893 35794070.397903442 0 35794070.397903442 53013983.097347736 0 0 0 0 8618590.2295606136 27598216.488460541 0 27598216.488460541 53755195.120376587 0 0 0 0 8448806.111792326 9763860.3865795135 0 9763860.3865795135 59021570.837799072 0 0 0 0 6098460.1261177063 11634289.439575195 0 11634289.439575195 67993546.54492569 0 0 0 0 -5622170.9881563187 -4692067.6950492859 0 -4692067.6950492859 46061067.806861877 0 0 0 0 -60406.646751837725 -17971023.753261566 0 -17971023.753261566 49947467.159656525 0 0 0 0 -26704473.046888586 -2236627.0992355347 0 -2236627.0992355347 151736692.03761292 0 0 0 0 -9175.7021357569811 524568.864157537 0 524568.864157537 1078821.9335200787 0 0 0 0 -59494445.355116501 -71648733.640415192 0 -71648733.640415192 54465123.412679672 0 0 0 0 216208734.81725076 102698625.44118881 0 102698625.44118881 -36964295.810073853 0 0 0 0 48038987.571487188 11976723.95475769 0 11976723.95475769 41321906.269493103 0 0 0 0 -14517091.206480466 7274082.9559020996 0 7274082.9559020996 -4936472.1437301636 0 0 0 0 -116040295.71373607 -21920936.694016457 0 -21920936.694016457 55727565.693832397 0 0 0 0 11769208.172035933 32528928.428840637 0 32528928.428840637 14782389.707879066 0 0 0 0 -5747.9221538907041 1527839.0188669972 0 1527839.0188669972 3169852.4861312211 0 0 0 0 59452951.697077021 54607825.289245605 0 54607825.289245605 7160853.5784301758 0 0 0 0 -77060580.95083499 31312135.559947968 0 31312135.559947968 39718330.381546021 0 0 0 0 -176739.95517480778 4303108.3034941144 0 4303108.3034941144 5482217.7497407794 0 0 0 0 -14025629.665236592 15765915.883987427 0 15765915.883987427 24262804.250228882 0 0 0 0 -28803155.366122723 28324191.39471817 0 28324191.39471817 16679681.59135437 0 0 0 0 -20739131.883419938 47869146.121353149 0 47869146.121353149 2006400.0133972168 0 0 0 0 27961061.169420689 113359376.8763504 0 113359376.8763504 136027885.01533699 0 0 0 0 656998.21358266473 18592757.595619202 0 18592757.595619202 36462382.549530029 0 0 0 0 -10855530.182619208 -11551798.311955452 0 -11551798.311955452 90603367.345855713 0 0 0 0 171716494.78888863 123934951.99690056 0 123934951.99690056 51230789.026187897 0 0 0 0 621052.98970069434 130839014.12697315 0 130839014.12697315 975283138.29204559 0 0 0 0 163232670.00488245 17705436.970262766 0 17705436.970262766 71801175.490692139 0 0 0 0 -280288015.94186312 655141838.79708481 0 655141838.79708481 2199405329.4792805 0 0 0 0 -115660506.80137455 98226489.098175049 0 98226489.098175049 809016690.13908768 0 0 0 0 824731046.5433743 1237277881.7314224 0 1237277881.7314224 1042052357.9509544 0 0 0 0 313890321.02580529 -460856917.9840436 0 -460856917.9840436 508167768.40418243 0 0 0 0 107957.91576164213 926793.26641258923 0 926793.26641258923 4461662.3165250868 0 0 0 0 104415276.00722396 155785077.54615402 0 155785077.54615402 411657794.47790527 0 0 0 0 -491767.42489202472 -545110.99397689709 0 -545110.99397689709 10011700.906914905 0 0 0 0 -75649281.279838741 58356904.854672432 0 58356904.854672432 -39563491.677139282 0 0 0 0 -6892194.4039573073 -7096180.7514457703 0 -7096180.7514457703 17123392.681720689 0 0 0 0 -19121607.628397226 -44047087.663234711 0 -44047087.663234711 563937001.12314606 0 0 0 0 124132565.93182582 16346299.735244751 0 16346299.735244751 -188944792.59707642 0 0 0 0 -342598.24201575003 279648.80793531984 0 279648.80793531984 1926894.2733248847 0 0 0 0 -23986149.421392284 42699085.23882556 0 42699085.23882556 -33265985.164978027 0 0 0 0 -19950533.003680319 81286192.029975891 0 81286192.029975891 76393097.133529663 0 0 0 0 -1706604.1434960365 7431555.4099121094 0 7431555.4099121094 1283419.9797515869 0 0 0 0 156469.68402400985 2412723.9410484806 0 2412723.9410484806 12274384.27405601 0 0 0 0 -61941554.569867253 -44564881.733688354 0 -44564881.733688354 -31694151.915283203 0 0 0 0 435908299.44011784 18810038.422866821 0 18810038.422866821 -64382846.879364014 0 0 0 0 -1528211.5303271054 6202559.0067616813 0 6202559.0067616813 3679216.9502189709 0 0 0 0 -107580572.46366811 194524478.68059921 0 194524478.68059921 114965660.47370911 0 0 0 0 -112152128.71367431 54346335.953250885 0 54346335.953250885 80670022.959976196 0 0 0 0 -288842278.410676 -86762014.883972168 0 -86762014.883972168 -19408124.518829346 0 0 0 0 -404364.57320332201 309523.29273819923 0 309523.29273819923 742083.82949228585 0 0 0 0 -10064070.224355698 -152350954.38999939 0 -152350954.38999939 88892383.856327057 0 0 0 0 -20894080.007598102 39044870.73759079 0 39044870.73759079 54215141.416305542 0 0 0 0 371354.80082973494 -1507477.884930633 0 -1507477.884930633 11118474.338501409 0 0 0 0 -45034818.659342289 7295455.4308700562 0 7295455.4308700562 29681815.557406716 0 0 0 0 -6671639.4507710934 -3741773.5548095703 0 -3741773.5548095703 -120921054.82804871 0 0 0 0 72186457.722913504 168823615.95609665 0 168823615.95609665 -20463255.975158691 0 0 0 0 210027490.27909693 30462389.253250122 0 30462389.253250122 -145587720.81301117 0 0 0 0 -135408061.30915797 -52147558.172315598 0 -52147558.172315598 39990587.999259949 0 0 0 0 2591844.6382946805 -2073837.1509847865 0 -2073837.1509847865 6706008.411885336 0 0 0 0 -70045009.392512128 -221144518.84737396 0 -221144518.84737396 550467464.24549103 0 0 0 0 -21696314.480674203 676073143.02875519 0 676073143.02875519 2203092672.204834 0 0 0 0 -127579324.55897857 114697839.2907486 0 114697839.2907486 511711469.29468775 0 0 0 0 -236260596.49167979 -248947856.91672134 0 -248947856.91672134 2200508447.255661 0 0 0 0 63256049.707167044 -742327692.10452652 0 -742327692.10452652 1475678316.9836807 0 0 0 0 -469708623.67630303 -330077573.55859375 0 -330077573.55859375 2200313839.8426018 0 0 0 0 538750791.59150469 -464531291.64368439 0 -464531291.64368439 31345308.463676453 0 0 0 0 1786694.0854479503 -326359.85639166459 0 -326359.85639166459 3359839.9024510607 0 0 0 0 -60336101.684480309 90062664.618488312 0 90062664.618488312 284138703.13504219 0 0 0 0 -6105356.2888138294 -372195910.28439713 0 -372195910.28439713 756866384.93115997 0 0 0 0 220643174.60452607 93451356.687779427 0 93451356.687779427 19846571.199615479 0 0 0 0 136772182.27825838 -138341820.42337227 0 -138341820.42337227 60241252.20867157 0 0 0 0 22226360.792852938 54602826.175756454 0 54602826.175756454 -40033641.976730347 0 0 0 0 -26664058.439443231 19777103.270961761 0 19777103.270961761 446791.92036247253 0 0 0 0 -14873374.222986698 13342033.850692749 0 13342033.850692749 8907052.1254281253 0 0 0 0 388809.91722113825 7512961.7450837679 0 7512961.7450837679 2671921.971756231 0 0 0 0 -42799872.346171975 13515329.087650299 0 13515329.087650299 45963419.325973511 0 0 0 0 -17134783.82116124 94217839.997293472 0 94217839.997293472 86833822.436889648 0 0 0 0 1625276.1681852927 7072699.6787891686 0 7072699.6787891686 2736750.0316799954 0 0 0 0 294896283.08320236 -115877401.35107422 0 -115877401.35107422 65231064.676216125 0 0 0 0 39969465.054959774 106706925.4905014 0 106706925.4905014 55113201.789077759 0 0 0 0 101513155.9112916 -13211560.446573257 0 -13211560.446573257 -104759907.20545197 0 0 0 0 -37791614.345637865 -35897313.938999698 0 -35897313.938999698 -37587219.056350708 0 0 0 0 286274.10132119351 -182978.59790644795 0 -182978.59790644795 477671.62900968641 0 0 0 0 60192955.685207367 -22193890.325374603 0 -22193890.325374603 -7252893.6643981934 0 0 0 0 -7947.8302074091625 688488.08030365966 0 688488.08030365966 1540595.4138484523 0 0 0 0 16060392.172077417 16862744.325756073 0 16862744.325756073 -36090511.059799194 0 0 0 0 10106627.779804826 229005004.77263832 0 229005004.77263832 22130340.776977539 0 0 0 0 24232488.792085648 -60224699.603439331 0 -60224699.603439331 31305891.649536133 0 0 0 0 20925834.907415628 -62912780.768985748 0 -62912780.768985748 93875650.054412842 0 0 0 0 -54028863.563975319 -71806987.181910515 0 -71806987.181910515 21089289.210838318 0 0 0 0 -354979.21509962622 -38335.842838186771 0 -38335.842838186771 2652435.2102977484 0 0 0 0 -58270749.844708681 -27170212.057353973 0 -27170212.057353973 25527819.654029846 0 0 0 0 -13263666.261381149 227691.65184783936 0 227691.65184783936 41519977.487571716 0 0 0 0 55561603.897835732 34970495.625072479 0 34970495.625072479 30211419.939880371 0 0 0 0 -49609457.425068498 13450991.671684265 0 13450991.671684265 48080251.981246948 0 0 0 0 213202.66468672338 569653.85658854991 0 569653.85658854991 563560.44793956727 0 0 0 0 174844477.41426361 93603859.718887329 0 93603859.718887329 -22689370.121543884 0 0 0 0 38747276.23111856 40544664.055240631 0 40544664.055240631 1084124.5624771118 0 0 0 0 16293030.068654299 82416226.592216492 0 82416226.592216492 61822943.090602875 0 0 0 0 11235235.395519733 27130051.138374329 0 27130051.138374329 -494285.99746847153 0 0 0 0 -1080013.6521465778 4685891.6061439514 0 4685891.6061439514 40984884.572804451 0 0 0 0 -22470859.098273277 36211553.773264885 0 36211553.773264885 24729764.116638184 0 0 0 0 11764.058965618489 1136246.4720854647 0 1136246.4720854647 2130495.7035505623 0 0 0 0 -2080515.357422014 2289945.728383407 0 2289945.728383407 2343478.4486829787 0 0 0 0 -73926079.2110883 -15366262.147663116 0 -15366262.147663116 16155043.461278915 0 0 0 0 -21314159.252322912 83954714.075679779 0 83954714.075679779 64616976.686485291 0 0 0 0 -5007608.9308075607 10009009.638931274 0 10009009.638931274 5576347.1892776489 0 0 0 0 -19748071.601628065 21858500.987611771 0 21858500.987611771 -22936762.54750061 0 0 0 0 -59726196.249515891 42710112.378303528 0 42710112.378303528 24124869.64855957 0 0 0 0 -1264575.7339099757 52200.450079388916 0 52200.450079388916 6831716.5225106776 0 0 0 0 -54474265.356858969 -140633983.10285473 0 -140633983.10285473 31614398.864578247 0 0 0 0 -13174177.462311506 36958701.21421814 0 36958701.21421814 4436145.1529083252 0 0 0 0 -1861561.7308433871 2419882.9501224793 0 2419882.9501224793 12330965.447939157 0 0 0 0 -88571607.589604616 1888158.954044342 0 1888158.954044342 2678461.6488189697 0 0 0 0 94417298.200184345 100944518.05418396 0 100944518.05418396 120615939.3273468 0 0 0 0 -11002967.819551468 5404272.2821426392 0 5404272.2821426392 34159156.623550415 0 0 0 0 397206474.28913665 -264331154.24098587 0 -264331154.24098587 -30696988.921142578 0 0 0 0 -14381674.865002632 -21354727.36026001 0 -21354727.36026001 167304744.45617676 0 0 0 0 -12669055.742528439 -3585747.8029327393 0 -3585747.8029327393 86435738.031417847 0 0 0 0 -28601220.621665955 50447396.385490417 0 50447396.385490417 16798345.78528595 0 0 0 0 -21631293.676068783 -33103656.476539612 0 -33103656.476539612 -10218296.108428955 0 0 0 0 23464393.734035492 35194485.72164917 0 35194485.72164917 61097116.313781738 0 0 0 0 -6154053.0190558434 12318506.113677979 0 12318506.113677979 19968078.773468018 0 0 0 0 -1941991.4364378573 1689687.0270240381 0 1689687.0270240381 5896051.6980318539 0 0 0 0 -15133820.256170332 -27115695.11548233 0 -27115695.11548233 17626072.909912109 0 0 0 0 28059902.394686494 46261243.063674927 0 46261243.063674927 35870065.790344238 0 0 0 0 -1708206.5321846008 7782961.8369674683 0 7782961.8369674683 20945398.680801392 0 0 0 0 11840000.757115841 -173144.16988372803 0 -173144.16988372803 25398548.958320618 0 0 0 0 29530608.600638151 22819469.516029358 0 22819469.516029358 15209744.849258423 0 0 0 0 -23035824.870823015 8950434.4034500122 0 8950434.4034500122 45876684.448455811 0 0 0 0 -19507594.79259634 13170544.958251953 0 13170544.958251953 21406027.4009552 0 0 0 0 -84142874.333927631 -12428648.147079468 0 -12428648.147079468 25826915.038161755 0 0 0 0 -95740418.595319748 -28616752.238529205 0 -28616752.238529205 29317339.567352295 0 0 0 0 -60887916.538424492 -28414601.68901825 0 -28414601.68901825 27389758.565704346 0 0 0 0 -88490148.860882759 -33873583.525375366 0 -33873583.525375366 -17057576.94052124 0 0 0 0 -96735401.800823212 -7235000.0208892822 0 -7235000.0208892822 11739232.046234131 0 0 0 0 -94639024.070336342 -13421960.278022766 0 -13421960.278022766 29767608.765548706 0 0 0 0 -73645514.030151606 -7062613.0629577637 0 -7062613.0629577637 30939555.168912888 0 0 0 0 -73750915.290296316 -14779590.73714447 0 -14779590.73714447 4055495.3888092041 0 0 0 0 -83812193.000087976 -13827469.511672974 0 -13827469.511672974 20290788.061574936 0 0 0 0 -34360977.461804628 50950595.070884705 0 50950595.070884705 -6658818.6461982727 0 0 0 0 8654825.5662054718 28323171.826313019 0 28323171.826313019 -10468947.283187866 0 0 0 0 -1056658.2019164334 445152.5757862255 0 445152.5757862255 2168119.7746787667 0 0 0 0 -96091682.558908939 -1559777.4056091309 0 -1559777.4056091309 18661019.329681396 0 0 0 0 -99129784.314810753 20018107.81098175 0 20018107.81098175 -24884404.819854736 0 0 0 0 4659294.1829879284 11579301.574790955 0 11579301.574790955 722122.5506362915 0 0 0 0 8866036.970339857 6434017.1437758207 0 6434017.1437758207 6817949.0071868896 0 0 0 0 8459833.7139861584 -6580877.7126731873 0 -6580877.7126731873 -31260106.955722332 0 0 0 0 -5782163.3218665123 14472678.453735352 0 14472678.453735352 10214671.746055603 0 0 0 0 -613634.21955931606 -669162.89050378278 0 -669162.89050378278 704806.2262827605 0 0 0 0 27589990.091589749 -64422324.370274544 0 -64422324.370274544 -49477497.503860474 0 0 0 0 -72976132.000974178 -34932700.018489838 0 -34932700.018489838 -7947043.2917747498 0 0 0 0 -60225360.823467493 -43251203.247266769 0 -43251203.247266769 -78515925.214294434 0 0 0 0 1251054.7275096178 -7390392.7870063782 0 -7390392.7870063782 3188780.6584472656 0 0 0 0 -65240991.760479331 -7723588.9349069595 0 -7723588.9349069595 17037239.859886169 0 0 0 0 -5813989.8445167542 425161.78158187866 0 425161.78158187866 -2139880.2971534729 0 0 0 0 -33221597.619809628 -3586086.5699729919 0 -3586086.5699729919 5324369.9369354248 0 0 0 0 -185300.48900546844 3067061.0013375515 0 3067061.0013375515 12474990.118574984 0 0 0 0 -2595516.9819819154 -2729842.2435379922 0 -2729842.2435379922 3029095.0905664042 0 0 0 0 -9292891.6567602158 -2125833.7380981445 0 -2125833.7380981445 -5449518.558807373 0 0 0 0 -29059876.047789097 -10378481.316995621 0 -10378481.316995621 25829721.335285187 0 0 0 0 -8745730.4770909548 10876051.432897568 0 10876051.432897568 17415791.05078125 0 0 0 0 6033643.2397680283 -536955.93991088867 0 -536955.93991088867 3577549.3772583008 0 0 0 0 -72546.7646299724 250941.77201773971 0 250941.77201773971 1031132.5387562402 0 0 0 0 23092777.3528862 27071149.265533447 0 27071149.265533447 31568054.478622437 0 0 0 0 26702986.514255524 14875952.229110718 0 14875952.229110718 18539886.637573242 0 0 0 0 15564911.119846344 13342914.233139038 0 13342914.233139038 19747191.67010498 0 0 0 0 24430203.595785618 17601341.612289429 0 17601341.612289429 15336011.919448853 0 0 0 0 27065597.448232651 -3266411.5741424561 0 -3266411.5741424561 37742212.225250244 0 0 0 0 29035825.347586572 9866593.5280294418 0 9866593.5280294418 5521509.6781005859 0 0 0 0 12552150.796798706 10376339.562088013 0 10376339.562088013 30618700.642776489 0 0 0 0 -1359943.3478948819 1601662.9715543021 0 1601662.9715543021 6095760.2133299932 0 0 0 0 12089322.98643589 13852024.12171936 0 13852024.12171936 22455699.222381592 0 0 0 0 -5732963.3621710539 -247049.80044746399 0 -247049.80044746399 1686556.1625366211 0 0 0 0 -962612.95362142543 4322060.3851630017 0 4322060.3851630017 13311503.796900325 0 0 0 0 13884820.044409752 3350998.8231525421 0 3350998.8231525421 12444340.008239746 0 0 0 0 -2347946.5642410656 3263263.5782781467 0 3263263.5782781467 10374621.002891775 0 0 0 0 -2199290.8004942006 -1694088.822056137 0 -1694088.822056137 5701968.9491739124 0 0 0 0 -567675.2173955969 2511523.1153375581 0 2511523.1153375581 1851709.0749482512 0 0 0 0 -11780461.816968374 8955015.655172348 0 8955015.655172348 4859616.3289337158 0 0 0 0 -767603.3700273037 -5887560.2303104401 0 -5887560.2303104401 -4487360.0713653564 0 0 0 0 37307716.732679367 -17920639.658843994 0 -17920639.658843994 27173727.350830078 0 0 0 0 43957750.288860559 -8858374.5312614441 0 -8858374.5312614441 11065215.22454834 0 0 0 0 115997.66312789917 2905656.1618041992 0 2905656.1618041992 15262032.125732422 0 0 0 0 -2532310.1265296936 8541893.5504989624 0 8541893.5504989624 9872678.3525371552 0 0 0 0 -391222.26829298522 796415.70654702559 0 796415.70654702559 5728022.5235606506 0 0 0 0 3420899.4095360041 5739934.5451507568 0 5739934.5451507568 7211996.1918640137 0 0 0 0 -17486532.425982952 -2467220.6532440186 0 -2467220.6532440186 5106297.703453064 0 0 0 0 -4513027.8277699947 -5959354.2695951462 0 -5959354.2695951462 -505353.56121826172 0 0 0 0 -7678298.025188446 2204296.1971435547 0 2204296.1971435547 11584585.889026642 0 0 0 0 8018094.7225680351 -11042006.007579803 0 -11042006.007579803 5273884.2233734131 0 0 0 0 52140.081969522056 -100116.8095315136 0 -100116.8095315136 -172693.82355143875 0 0 0 0 12743333.714570045 9697817.5232543945 0 9697817.5232543945 21815364.465240479 0 0 0 0 11270992.212873563 16580649.609615803 0 16580649.609615803 -37231167.707901001 0 0 0 0 10984713.989653438 18433881.508163452 0 18433881.508163452 -3633140.37940979 0 0 0 0 2954941.1692617871 4142228.2030410767 0 4142228.2030410767 7848480.5307292938 0 0 0 0 937661.81992227607 1813157.2454416025 0 1813157.2454416025 1212885.2829849496 0 0 0 0 -6782681.9548282623 6062834.9421768188 0 6062834.9421768188 4559477.5866641998 0 0 0 0 -5355753.0503373146 26906314.32824707 0 26906314.32824707 2750366.2077713013 0 0 0 0 -2273045.4361819029 -111123.44962310791 0 -111123.44962310791 -51216857.731517792 0 0 0 0 -531976.67227259511 347739.48004398076 0 347739.48004398076 4447597.7802700996 0 0 0 0 -23084008.525408804 22100850.752071381 0 22100850.752071381 9689933.7568054199 0 0 0 0 77181090.222530603 -12338530.406967163 0 -12338530.406967163 -8447232.4598846436 0 0 0 0 -28831156.720850587 9661988.2047672272 0 9661988.2047672272 12104309.744377136 0 0 0 0 -787269.75664261961 74934.242196867242 0 74934.242196867242 3945277.4329850599 0 0 0 0 -8147214.6856473684 -5632462.7804756165 0 -5632462.7804756165 -1591568.6393737793 0 0 0 0 34503108.652441978 75510922.666007996 0 75510922.666007996 63922200.733901978 0 0 0 0 -194495564.57280195 -30944552.268035889 0 -30944552.268035889 126961321.03178596 0 0 0 0 -170685284.05303344 -39338507.165466309 0 -39338507.165466309 86463671.661880493 0 0 0 0 -89698394.023275137 29941951.704910278 0 29941951.704910278 141036336.25753021 0 0 0 0 -44548464.368875861 4529489.1621055603 0 4529489.1621055603 11183689.183776855 0 0 0 0 -51935560.280130148 14001652.216705322 0 14001652.216705322 11721394.428756714 0 0 0 0 -110022835.54599029 -6595154.3783950806 0 -6595154.3783950806 13468417.635864258 0 0 0 0 91084464.413840115 28523139.368171692 0 28523139.368171692 -9922006.5235290527 0 0 0 0 21084802.719678879 38399288.908828735 0 38399288.908828735 -1684121.7333068848 0 0 0 0 26381241.862665176 -742077.93137359619 0 -742077.93137359619 -5698095.3796539307 0 0 0 0 27499147.753059387 14646304.461875916 0 14646304.461875916 -6081856.1737649441 0 0 0 0 6338969.7328977585 1003172.1530075073 0 1003172.1530075073 5368553.3993835449 0 0 0 0 -45881241.414548308 9299653.7354354858 0 9299653.7354354858 3135246.6560974121 0 0 0 0 -51440247.655321985 24309796.600776672 0 24309796.600776672 -33067377.040740967 0 0 0 0 -822547.1726899147 20098325.444274902 0 20098325.444274902 -8073045.1299362183 0 0 0 0 -53926939.157855809 21152985.378110886 0 21152985.378110886 10749028.278900146 0 0 0 0 -2093501.9827842712 7996032.4007568359 0 7996032.4007568359 7959921.8643798828 0 0 0 0 -67474853.948974878 -7943381.7903747559 0 -7943381.7903747559 16602086.581283569 0 0 0 0 -73807829.043914437 10158703.476783752 0 10158703.476783752 17577453.149047852 0 0 0 0 -40011375.102457404 -10036693.992500305 0 -10036693.992500305 19281727.987080574 0 0 0 0 -29416189.949725866 18498460.903045654 0 18498460.903045654 20504191.131469727 0 0 0 0 19348175.826394081 10060425.454086304 0 10060425.454086304 11725422.479194641 0 0 0 0 4542368.5418481827 21023554.981872559 0 21023554.981872559 8382318.9447937012 0 0 0 0 -30585022.543825448 -45031008.322769642 0 -45031008.322769642 18545393.720352173 0 0 0 0 -2125895.5466113393 1020231.7250273209 0 1020231.7250273209 14283205.985954091 0 0 0 0 -173010320.54241574 -32942663.986068726 0 -32942663.986068726 38128972.82849884 0 0 0 0 -121861285.75772715 -57470373.003547668 0 -57470373.003547668 17920427.30191803 0 0 0 0 -142378040.23031473 -7619782.0615692139 0 -7619782.0615692139 37595366.877593994 0 0 0 0 -95784066.869431019 -35284327.329185486 0 -35284327.329185486 26589316.7833004 0 0 0 0 -121196971.55437005 4205743.9449768066 0 4205743.9449768066 21949942.12702179 0 0 0 0 -142302637.06702676 35935549.972551346 0 35935549.972551346 -20330883.078430176 0 0 0 0 -83938091.135526657 3561862.3498535156 0 3561862.3498535156 13527704.223510742 0 0 0 0 -796191.67059222457 4048399.6146907471 0 4048399.6146907471 5697025.2454864979 0 0 0 0 5658354.5551877022 45298950.533081055 0 45298950.533081055 21781450.212911606 0 0 0 0 -1733423.147961277 -648664.18754193746 0 -648664.18754193746 14421986.656107359 0 0 0 0 -198406940.08446354 -107985502.46640015 0 -107985502.46640015 64728240.524963379 0 0 0 0 -152707992.08731383 -96325442.130209923 0 -96325442.130209923 -19290392.25340271 0 0 0 0 -92904000.661968589 -15747020.159591675 0 -15747020.159591675 -78362876.774787903 0 0 0 0 -10024748.543336868 3359031.3826656342 0 3359031.3826656342 13366865.143341064 0 0 0 0 -37518750.236167483 -201418878.23318613 0 -201418878.23318613 101956465.47915649 0 0 0 0 -212007304.9439438 -95125107.627883911 0 -95125107.627883911 61632001.319137573 0 0 0 0 3375427.8854067167 2903203.4635074399 0 2903203.4635074399 7276157.6065941937 0 0 0 0 8698202.3719260693 5192618.0520248413 0 5192618.0520248413 3563835.9315675646 0 0 0 0 21779636.45186913 -41763541.6183815 0 -41763541.6183815 104112792.10832214 0 0 0 0 98726.967532819777 319881.54392244853 0 319881.54392244853 830967.36090023816 0 0 0 0 84932232.267461061 -83985902.787132263 0 -83985902.787132263 -468023629.19981384 0 0 0 0 -200922862.45477283 -67549886.243301392 0 -67549886.243301392 85102651.731193542 0 0 0 0 -197254708.9974227 -72988604.910747528 0 -72988604.910747528 -190074224.32885742 0 0 0 0 -68606.717650986393 96194.550759792328 0 96194.550759792328 407208.30755095597 0 0 0 0 -135538342.25272441 345957578.55748749 0 345957578.55748749 -1211222993.9622209 0 0 0 0 -249247739.35588574 -186056670.30443192 0 -186056670.30443192 475631780.84461975 0 0 0 0 -65734.775509857049 2440646.6800490264 0 2440646.6800490264 11239593.590798959 0 0 0 0 -1208335.7950060368 -406496.62620162964 0 -406496.62620162964 4349128.7077026367 0 0 0 0 -316285271.55967951 25007472.548892975 0 25007472.548892975 138723195.01135635 0 0 0 0 -133878653.61752868 -32395518.16488266 0 -32395518.16488266 153143050.72288513 0 0 0 0 7446212.9164941013 -3689626.4154901505 0 -3689626.4154901505 791804.88283538818 0 0 0 0 -88302564.080605149 -46119318.276496887 0 -46119318.276496887 23613887.58782959 0 0 0 0 1026044.2338950457 4209219.628293667 0 4209219.628293667 -1565198.3278248012 0 0 0 0 12245972.541235209 4780895.4821891785 0 4780895.4821891785 -573985.57943725586 0 0 0 0 -137831380.44587696 135037210.81564331 0 135037210.81564331 564924725.55303574 0 0 0 0 13266259.015561849 17097563.397522926 0 17097563.397522926 -15584398.806533813 0 0 0 0 322014.49060305912 1267679.4639183721 0 1267679.4639183721 -440130.90291341394 0 0 0 0 242401.25093900613 249571.21304667555 0 249571.21304667555 4345798.1349342689 0 0 0 0 496786870.35387564 816712992.11156368 0 816712992.11156368 1411497179.2475967 0 0 0 0 467841214.46800631 672956419.18509293 0 672956419.18509293 765074981.30532074 0 0 0 0 23092692.052816182 173889956.14723206 0 173889956.14723206 1053632711.0807648 0 0 0 0 -82072267.810752645 91664754.917240143 0 91664754.917240143 2206487314.304142 0 0 0 0 93688168.199554875 510306168.35896778 0 510306168.35896778 2405601129.0173416 0 0 0 0 1204713648.140331 -1012273261.1819 0 -1012273261.1819 3108824862.9572144 0 0 0 0 -567419654.41339159 53185030.381954193 0 53185030.381954193 1281639285.9401588 0 0 0 0 -701133318.94449031 -61399852.378990173 0 -61399852.378990173 2222839776.7750854 0 0 0 0 -313036547.70947397 -225484248.0074234 0 -225484248.0074234 1736769367.9283905 0 0 0 0 -329628160.59006041 -163871302.99601746 0 -163871302.99601746 1586671212.7532043 0 0 0 0 13971588.74791 -621738155.88150024 0 -621738155.88150024 2204577568.6228967 0 0 0 0 810794963.35600889 28687255.594895363 0 28687255.594895363 2494846539.0142059 0 0 0 0 100713.21597007665 -727618.58306234144 0 -727618.58306234144 1346264.9245060086 0 0 0 0 173393657.09246045 -967055632.48795128 0 -967055632.48795128 1282088512.6788025 0 0 0 0 196070972.29545182 104013035.84867096 0 104013035.84867096 -123960121.95893097 0 0 0 0 334723305.35082126 -627206444.3056736 0 -627206444.3056736 719832944.0504837 0 0 0 0 -257638439.47804976 -422530824.51015091 0 -422530824.51015091 1766497895.2186646 0 0 0 0 -260645804.31468582 -369359350.10716271 0 -369359350.10716271 1591606600.4676666 0 0 0 0 309582382.29248178 -225640901.32856941 0 -225640901.32856941 70428128.172679901 0 0 0 0 105699092.82776725 117585633.31736755 0 117585633.31736755 8343052.140332222 0 0 0 0 -198748724.94237128 132753638.47742271 0 132753638.47742271 60952791.663070679 0 0 0 0 -43654458.388473511 111846588.8762207 0 111846588.8762207 63771070.375982285 0 0 0 0 -83211.891787522487 -725663.58137071109 0 -725663.58137071109 3319643.9523903951 0 0 0 0 45033323.497554615 53123886.484573364 0 53123886.484573364 67618388.149078369 0 0 0 0 -102171613.65664633 20312511.626335144 0 20312511.626335144 4502987.4908065796 0 0 0 0 8821798.9254416227 931393.08195495605 0 931393.08195495605 -6425148.7799453735 0 0 0 0 -18992702.793959156 103811236.39194107 0 103811236.39194107 30597915.736961365 0 0 0 0 66394038.798380673 15625864.35395813 0 15625864.35395813 -65562515.183547974 0 0 0 0 145269.63415983366 346781.36472709477 0 346781.36472709477 639157.91076969355 0 0 0 0 -134188.57123351167 412232.97015530989 0 412232.97015530989 2239737.3522398993 0 0 0 0 -9832424.6231744289 -114171259.81956482 0 -114171259.81956482 -112620043.56660843 0 0 0 0 -35363532.685913682 -31862513.529224396 0 -31862513.529224396 -44223505.482830048 0 0 0 0 9809080.8973573446 2227021.584728241 0 2227021.584728241 19223984.712982178 0 0 0 0 42699249.174190938 -30600124.044742584 0 -30600124.044742584 -70090088.477218628 0 0 0 0 94488630.320501089 -56318661.056045532 0 -56318661.056045532 -103275671.00500488 0 0 0 0 96549264.974552631 -15801036.298225403 0 -15801036.298225403 -210418783.36839294 0 0 0 0 -29457240.026131392 82947161.706207275 0 82947161.706207275 -136200899.65034485 0 0 0 0 24145260.344302893 -46111009.073173523 0 -46111009.073173523 112027980.30329895 0 0 0 0 66803184.344963789 30822769.736099243 0 30822769.736099243 13969949.241355896 0 0 0 0 73368.438972884323 101017.39261715859 0 101017.39261715859 594883.27323900536 0 0 0 0 3858900.5460357666 10985213.826957703 0 10985213.826957703 40527678.659204483 0 0 0 0 -72245006.93605423 -36521621.159877777 0 -36521621.159877777 -26667496.041297913 0 0 0 0 1347531.3447313309 -7524539.9068756104 0 -7524539.9068756104 21620977.049278259 0 0 0 0 7808157.9157652855 686922.58061218262 0 686922.58061218262 18192214.230987549 0 0 0 0 -7273888.0046684742 5773691.198431015 0 5773691.198431015 42588477.538833618 0 0 0 0 -14748335.500146866 -2882820.8579311371 0 -2882820.8579311371 39610500.191642761 0 0 0 0 20605522.224187374 24704118.744651794 0 24704118.744651794 -23802693.491104126 0 0 0 0 -94261895.509975165 -139292493.84855127 0 -139292493.84855127 233223689.22237396 0 0 0 0 -177330.87615252763 -200429.46258128434 0 -200429.46258128434 2601842.5173150003 0 0 0 0 -131032225.51926756 110017056.17712021 0 110017056.17712021 99217378.95451355 0 0 0 0 45572144.268456876 -98419466.977847576 0 -98419466.977847576 163449521.90688324 0 0 0 0 179645979.56468961 -88674221.005516052 0 -88674221.005516052 88747419.782669067 0 0 0 0 -127405294.96239591 61489877.314006805 0 61489877.314006805 229689183.81036377 0 0 0 0 11231407.112187386 -58155193.628009796 0 -58155193.628009796 305862147.35139084 0 0 0 0 6474664.1793363094 128101882.62416649 0 128101882.62416649 592030653.8302536 0 0 0 0 -21434692.690450668 -293878028.51332092 0 -293878028.51332092 719406204.24556732 0 0 0 0 -9246163.5337157249 45202492.693881989 0 45202492.693881989 459696796.27985382 0 0 0 0 -308809608.69748068 -140938032.75311661 0 -140938032.75311661 1483118562.7128296 0 0 0 0 -129652869.75446343 39644920.596694946 0 39644920.596694946 992120694.35528946 0 0 0 0 -238020549.54039359 -179001056.50991058 0 -179001056.50991058 1083759049.48629 0 0 0 0 -115817035.62149405 -27338585.705024719 0 -27338585.705024719 662011530.42249298 0 0 0 0 42513089.26773262 253721513.4637146 0 253721513.4637146 372608016.52269363 0 0 0 0 -365651033.9393844 167912282.66076088 0 167912282.66076088 1833759133.0788918 0 0 0 0 -89206301.686528921 402175770.52180862 0 402175770.52180862 1341871745.8583679 0 0 0 0 154555188.06077462 696737580.51234007 0 696737580.51234007 1352975829.2220078 0 0 0 0 -3012902.2649857998 172778946.33760834 0 172778946.33760834 1447534527.3077097 0 0 0 0 -201159394.54470009 -132112995.18517685 0 -132112995.18517685 1859803471.1293716 0 0 0 0 -475100.58529728546 42360.12191645056 0 42360.12191645056 1519377.3342548525 0 0 0 0 -578154650.61666763 -203859404.75239182 0 -203859404.75239182 2204825620.8898911 0 0 0 0 -25373115.055355959 133304394.61460876 0 133304394.61460876 2205320334.4304314 0 0 0 0 443259253.73562956 60491851.401901245 0 60491851.401901245 1993438841.6609669 0 0 0 0 -12181248.602006067 143374040.67148972 0 143374040.67148972 2211512614.4161949 0 0 0 0 -1139920.2843862011 164037.6096464619 0 164037.6096464619 2785366.8623322793 0 0 0 0 11275463.420314386 139659651.90255642 0 139659651.90255642 2204691501.4340553 0 0 0 0 -251550.38939885015 -80661.627897663042 0 -80661.627897663042 1499816.0930444598 0 0 0 0 145331713.59613854 720465095.13964415 0 720465095.13964415 1791266428.1112213 0 0 0 0 -32226.911241047783 -255241.9001779356 0 -255241.9001779356 1567023.410805732 0 0 0 0 294373107.04728127 270249659.4119873 0 270249659.4119873 2117784778.2475891 0 0 0 0 -485338911.64555979 77710634.341697693 0 77710634.341697693 2566952437.3330841 0 0 0 0 -283346242.45402193 -71406998.866256714 0 -71406998.866256714 218461996.23466492 0 0 0 0 -17362386.139007688 -379714354.44132042 0 -379714354.44132042 686665106.02262115 0 0 0 0 -33850936.618602633 148361456.5226841 0 148361456.5226841 390878416.62268829 0 0 0 0 -5619191.768834509 231215043.8876552 0 231215043.8876552 2156429235.8077164 0 0 0 0 -70113636.354386568 198644594.07774734 0 198644594.07774734 1973545653.6369514 0 0 0 0 -105965673.70183563 -262302464.49498367 0 -262302464.49498367 1500853821.6080933 0 0 0 0 16781078.951410294 -81327543.097946167 0 -81327543.097946167 1295463252.6653824 0 0 0 0 -59639781.243075371 -152208382.60338974 0 -152208382.60338974 1306613771.1586075 0 0 0 0 73500866.823515296 -237691744.32569885 0 -237691744.32569885 565316890.89981079 0 0 0 0 117770467.15961456 -105843418.62907028 0 -105843418.62907028 571855310.08600545 0 0 0 0 234185682.98918796 -109335325.0679245 0 -109335325.0679245 -177554746.52843475 0 0 0 0 55178178.405798912 186693230.28620148 0 186693230.28620148 -142043307.32720995 0 0 0 0 35255639.090921104 11359969.486515045 0 11359969.486515045 -136231681.31755829 0 0 0 0 -84001028.254043102 -93952927.536701202 0 -93952927.536701202 -58777907.915565491 0 0 0 0 -52399284.858368158 55215788.018001556 0 55215788.018001556 -76799565.824474335 0 0 0 0 -140448.38605337433 -279796.38114344422 0 -279796.38114344422 3162405.303144291 0 0 0 0 -157930646.33084154 93606824.028028488 0 93606824.028028488 -41908535.375465393 0 0 0 0 -156097427.00567102 -63928845.865613937 0 -63928845.865613937 55800604.698455811 0 0 0 0 -110561300.79989243 -2205436.2096881866 0 -2205436.2096881866 -26221253.270423889 0 0 0 0 139241092.26224148 -14919823.342048645 0 -14919823.342048645 -60448247.721328735 0 0 0 0 8227177.4986913204 15513905.076158524 0 15513905.076158524 -136519720.47055626 0 0 0 0 -148295.09896136925 311573.98862303607 0 311573.98862303607 -22683.300512012094 0 0 0 0 8422437.8134321347 10239973.107266188 0 10239973.107266188 -7089958.1982192993 0 0 0 0 9696534.2710211873 -6628353.3761959076 0 -6628353.3761959076 7072093.3427848816 0 0 0 0 10948155.012296081 -1570951.6103382111 0 -1570951.6103382111 -3567568.5995063782 0 0 0 0 -118466.19042284903 -245060.59235660173 0 -245060.59235660173 3081669.2469849437 0 0 0 0 -483807.25012369268 510765.36982331984 0 510765.36982331984 389994.56280338392 0 0 0 0 -8048518.2639129162 8671521.5990753174 0 8671521.5990753174 -2054038.2707328796 0 0 0 0 -60787378.527032018 -28762779.758403778 0 -28762779.758403778 -8892485.691078186 0 0 0 0 -57961784.972924709 -23647588.885112762 0 -23647588.885112762 -21780137.125540733 0 0 0 0 -18594278.800406456 -39973272.925559998 0 -39973272.925559998 -28427671.925041199 0 0 0 0 -58987412.630727768 -32440027.333744049 0 -32440027.333744049 -7956864.7080612183 0 0 0 0 545943.57703713723 481444.21702073514 0 481444.21702073514 1781338.6260386109 0 0 0 0 -12713963.208599567 -646882.5203704834 0 -646882.5203704834 1252864.7046051025 0 0 0 0 9751853.875674963 9750755.9493656158 0 9750755.9493656158 9318046.1891021729 0 0 0 0 5454519.2575702667 6826691.2392883301 0 6826691.2392883301 11030935.297714233 0 0 0 0 1919914.1244963408 -10018037.4485569 0 -10018037.4485569 -16919788.857704163 0 0 0 0 -1368953.8173336398 301660.82996065728 0 301660.82996065728 2268198.0576797798 0 0 0 0 -26791873.22602582 -14973138.674354553 0 -14973138.674354553 9202989.6650733948 0 0 0 0 -13967337.552018166 -14331297.119468689 0 -14331297.119468689 3238336.6651792526 0 0 0 0 -25559323.530613095 -23731141.869439363 0 -23731141.869439363 -11595607.737594604 0 0 0 0 -13947606.578367054 -15367788.604156971 0 -15367788.604156971 -4327164.3278121948 0 0 0 0 -54212945.19612813 -23528272.47883606 0 -23528272.47883606 -9002760.5365982056 0 0 0 0 -36392028.847643137 -35798356.309967041 0 -35798356.309967041 -11099066.608768463 0 0 0 0 -33469229.849528551 -23846172.679908752 0 -23846172.679908752 -5583070.1695957184 0 0 0 0 727595.20652794838 1114009.4470787048 0 1114009.4470787048 29132175.979721069 0 0 0 0 28306.151024701772 -570159.09194858372 0 -570159.09194858372 1844579.0414773151 0 0 0 0 -45260428.096718073 -28956734.650714874 0 -28956734.650714874 -5021379.1999549866 0 0 0 0 -43673297.317373991 -32989217.782484055 0 -32989217.782484055 -13195431.889532089 0 0 0 0 -34061699.028879166 -46238984.122245789 0 -46238984.122245789 -37886014.671977997 0 0 0 0 -33043642.474811316 -21077668.046705246 0 -21077668.046705246 -19729443.514377594 0 0 0 0 -33656444.430364832 -27926042.204951525 0 -27926042.204951525 -4705990.7604675293 0 0 0 0 16821105.358007669 21720058.826774597 0 21720058.826774597 34571358.021636963 0 0 0 0 -70117095.67109251 -58697880.865818024 0 -58697880.865818024 -29004169.682563782 0 0 0 0 70571.197770923842 -473068.52340712398 0 -473068.52340712398 1122378.786963407 0 0 0 0 8902266.546259284 31887596.170993805 0 31887596.170993805 46266104.726135254 0 0 0 0 3725613.6455262899 18990245.664627075 0 18990245.664627075 25567212.419151306 0 0 0 0 756098.87461853027 19364524.77740097 0 19364524.77740097 60134663.653264999 0 0 0 0 -5836730.5083992481 8148277.4778542519 0 8148277.4778542519 41241837.859161377 0 0 0 0 -7045444.3857698441 10733541.410503387 0 10733541.410503387 54904101.147785187 0 0 0 0 -10808127.26043725 7222876.6064605713 0 7222876.6064605713 61413045.9545784 0 0 0 0 2385400.3134503365 6849772.1719932556 0 6849772.1719932556 12461510.702271461 0 0 0 0 489979.4935285449 -514790.64821052551 0 -514790.64821052551 45029992.30506897 0 0 0 0 -2763734.0372766256 14196415.118959427 0 14196415.118959427 41361493.23790741 0 0 0 0 95458.866611489211 -44140.484085774515 0 -44140.484085774515 3284.8028589338064 0 0 0 0 -30285990.389858723 20251467.203754425 0 20251467.203754425 77715794.859298706 0 0 0 0 -18356810.36244458 14127806.242703438 0 14127806.242703438 80407893.69493103 0 0 0 0 -20025653.530418634 20201825.055183411 0 20201825.055183411 60822957.396377087 0 0 0 0 10988261.425184011 32745454.231266022 0 32745454.231266022 46214587.559624195 0 0 0 0 -13507218.783989727 32711676.90369606 0 32711676.90369606 70680777.623306274 0 0 0 0 35511814.329657793 30839331.402404785 0 30839331.402404785 28091934.043540955 0 0 0 0 36520633.698530197 53999090.581352234 0 53999090.581352234 53818950.315711975 0 0 0 0 14673209.324420214 39477578.737392426 0 39477578.737392426 58327958.199058533 0 0 0 0 26929481.338127136 44882213.454387665 0 44882213.454387665 59317851.885163307 0 0 0 0 348183.67525148392 37093701.143333435 0 37093701.143333435 83361075.747562408 0 0 0 0 27092565.41428785 29803517.143862158 0 29803517.143862158 87705236.617233276 0 0 0 0 51208508.140136242 49270067.27897644 0 49270067.27897644 79192600.943901062 0 0 0 0 67005869.060150623 226207.11589336395 0 226207.11589336395 92076723.445251465 0 0 0 0 24907031.929706573 21401896.573394775 0 21401896.573394775 82219054.758285522 0 0 0 0 -193354.41868495941 41139707.89157486 0 41139707.89157486 75994764.938793182 0 0 0 0 -23980402.007693291 17846374.742019653 0 17846374.742019653 84670536.856293678 0 0 0 0 -6913221.9999669194 50178077.108541489 0 50178077.108541489 104619926.42329407 0 0 0 0 -9533318.9396103024 1404768.5775499344 0 1404768.5775499344 46802988.192749023 0 0 0 0 62755.984940401009 875495.48853488732 0 875495.48853488732 341889.70124274492 0 0 0 0 107958954.49848083 62916558.721345037 0 62916558.721345037 18328028.713371277 0 0 0 0 -10294734.154367566 -12225743.678436279 0 -12225743.678436279 58975598.262198448 0 0 0 0 2379999.588393569 7332163.7674541473 0 7332163.7674541473 2208357.3452606201 0 0 0 0 6776427.8785660267 6204275.2825279236 0 6204275.2825279236 2449308.8693141937 0 0 0 0 -40375420.583093643 39537903.105194092 0 39537903.105194092 407707.66434144974 0 0 0 0 2164366.6452553272 15837345.275440216 0 15837345.275440216 -4010968.293364048 0 0 0 0 -31529888.459185243 32409198.214273453 0 32409198.214273453 59147751.654968262 0 0 0 0 -35136784.147374816 7061876.8745584488 0 7061876.8745584488 55892607.765708923 0 0 0 0 -80335975.819850445 14061959.705587387 0 14061959.705587387 57450640.008026123 0 0 0 0 -38614291.43334353 -32082845.663057327 0 -32082845.663057327 -13203299.303556442 0 0 0 0 -24654462.369698286 30124765.144786835 0 30124765.144786835 -32495858.789786339 0 0 0 0 -108948596.20190418 5236244.9253959656 0 5236244.9253959656 93848847.214374542 0 0 0 0 -58306904.042421699 -47379941.17036438 0 -47379941.17036438 -5546927.703918457 0 0 0 0 -446370.09334683977 517704.2197480686 0 517704.2197480686 1228526.4493663013 0 0 0 0 -14360786.540069342 9327935.9262905121 0 9327935.9262905121 22065564.196231842 0 0 0 0 -2526600.0087354183 7163076.9831237793 0 7163076.9831237793 14002623.12575531 0 0 0 0 403079.52150213718 58477441.319963455 0 58477441.319963455 41430348.989433289 0 0 0 0 -71584342.996322632 -67855791.587249756 0 -67855791.587249756 -21300779.186157227 0 0 0 0 -86189061.962982774 -56611842.322715759 0 -56611842.322715759 -25671512.25378418 0 0 0 0 -11495183.768419743 -591469.72673034668 0 -591469.72673034668 9741410.3035736084 0 0 0 0 -429403.18763222813 175421.71282370016 0 175421.71282370016 574471.51409737021 0 0 0 0 -100584514.96405172 -47244620.583421707 0 -47244620.583421707 6746703.2659492493 0 0 0 0 -31862951.701431751 3289385.2880134583 0 3289385.2880134583 39761107.860309601 0 0 0 0 -132288.3068961734 -342051.29866337776 0 -342051.29866337776 121510.69709768519 0 0 0 0 -5690088.6864731312 14529972.337198257 0 14529972.337198257 15814638.783256531 0 0 0 0 -44350916.479978561 -357092.60342407227 0 -357092.60342407227 48926821.212432861 0 0 0 0 -729678.33260864392 270296.33411089517 0 270296.33411089517 1063056.7702053711 0 0 0 0 -60943579.622200578 -7006682.1542506218 0 -7006682.1542506218 39352129.762908936 0 0 0 0 -52259348.51057744 18650658.165950775 0 18650658.165950775 8803123.2738361359 0 0 0 0 -19999918.044250488 -8602491.418838501 0 -8602491.418838501 6440026.7220535278 0 0 0 0 -43481309.108628392 -2445571.1014480591 0 -2445571.1014480591 30677877.436283112 0 0 0 0 -13398017.850764036 21732115.013179779 0 21732115.013179779 36203340.490972519 0 0 0 0 -21337751.979508281 22707090.368795395 0 22707090.368795395 68134618.687324524 0 0 0 0 10475639.058985233 -16419443.64150238 0 -16419443.64150238 35005089.513305664 0 0 0 0 44298270.548319101 25783357.246131897 0 25783357.246131897 -843095.94929504395 0 0 0 0 16166005.954813957 36800830.277450562 0 36800830.277450562 22581430.935852051 0 0 0 0 8870963.8742508888 29385293.23482132 0 29385293.23482132 7331950.0204734802 0 0 0 0 -6237679.9096355438 13754548.854621887 0 13754548.854621887 -17657236.760561943 0 0 0 0 -23810143.242346764 9803808.804731369 0 9803808.804731369 36639650.972045898 0 0 0 0 -56368161.59975338 -19232425.783535004 0 -19232425.783535004 23956363.333213806 0 0 0 0 -21139675.703879356 2895985.2447738647 0 2895985.2447738647 22445056.95715332 0 0 0 0 -54962266.635996103 12266569.902961731 0 12266569.902961731 33513322.56060791 0 0 0 0 -31758727.774294615 644056.93538284302 0 644056.93538284302 20638988.129318237 0 0 0 0 -20967164.745838642 13447453.785057068 0 13447453.785057068 25110688.452262878 0 0 0 0 -15391703.62084198 8712133.6806411743 0 8712133.6806411743 21239722.899261475 0 0 0 0 13340116.638897896 12930888.293716431 0 12930888.293716431 16666668.027877808 0 0 0 0 13734438.369915962 11112327.946525574 0 11112327.946525574 11092423.609230042 0 0 0 0 14354178.447486877 25316441.196037292 0 25316441.196037292 23384057.249694824 0 0 0 0 858128.24364757538 14660817.167861938 0 14660817.167861938 19553673.145187378 0 0 0 0 -2058386.575340271 19178609.175300598 0 19178609.175300598 24833280.290328979 0 0 0 0 2994862.4356637001 31368170.134937286 0 31368170.134937286 39731444.45500946 0 0 0 0 33420813.176630668 -30228617.232391715 0 -30228617.232391715 8944043.7522277832 0 0 0 0 59452554.895256996 12395182.152542114 0 12395182.152542114 17225717.218078613 0 0 0 0 -52027.275632789475 -1406307.6071396971 0 -1406307.6071396971 60109.862502105534 0 0 0 0 55314845.365720749 21548681.908638 0 21548681.908638 23087223.659408569 0 0 0 0 -1779371.8681024741 -6833687.3034862559 0 -6833687.3034862559 2401083.7793379128 0 0 0 0 58400466.086500168 6265199.6529541016 0 6265199.6529541016 4039291.4293212891 0 0 0 0 -263947.28305347287 -144510.68618050963 0 -144510.68618050963 377453.13681322336 0 0 0 0 -3829528.2293194639 1256687.6895633882 0 1256687.6895633882 7430925.5941470936 0 0 0 0 -8344461.1401530653 -128789.60420316458 0 -128789.60420316458 6214056.8519592285 0 0 0 0 -8813465.3351047039 3496830.1321716309 0 3496830.1321716309 15078429.909534454 0 0 0 0 17533233.695911407 8602812.5034713745 0 8602812.5034713745 10092354.772781372 0 0 0 0 -2971738.8101032623 7838623.8890881389 0 7838623.8890881389 13188223.483971179 0 0 0 0 8810418.4709558487 3256205.9056434631 0 3256205.9056434631 14897065.992195129 0 0 0 0 -4987371.6510257721 10319380.878898621 0 10319380.878898621 17484003.012832642 0 0 0 0 -16018732.246270657 8336102.0063323975 0 8336102.0063323975 18797532.962812424 0 0 0 0 -5531097.6990860701 12488102.01614666 0 12488102.01614666 17967074.429885864 0 0 0 0 -16032731.87806654 8099260.279964447 0 8099260.279964447 20054767.040809631 0 0 0 0 -16336134.524749756 7575658.3374595642 0 7575658.3374595642 20211174.216820717 0 0 0 0 -16316223.177514791 7313029.7917785645 0 7313029.7917785645 21234261.45952034 0 0 0 0 -16310253.263708234 8703850.3607215881 0 8703850.3607215881 20391341.377487183 0 0 0 0 31432272.535852902 27347695.706583351 0 27347695.706583351 -12318816.082336426 0 0 0 0 154415.41333598757 4360667.8291809531 0 4360667.8291809531 1060573.5696457773 0 0 0 0 -1581349.3522431753 1691215.2929509096 0 1691215.2929509096 4608732.9284507968 0 0 0 0 -3330768.9877062626 9859308.00144355 0 9859308.00144355 10199496.165649414 0 0 0 0 1634148.7616481404 7539439.617630668 0 7539439.617630668 20295652.44496128 0 0 0 0 -8400636.3412647247 19616416.070777893 0 19616416.070777893 -11149254.125671506 0 0 0 0 1223494.4967682362 42568387.363582611 0 42568387.363582611 -12007288.615787148 0 0 0 0 6131251.588739872 37019161.371803284 0 37019161.371803284 -6283635.7727298737 0 0 0 0 10946148.774691135 3667261.2171401978 0 3667261.2171401978 11071875.097320557 0 0 0 0 -33411165.813964605 47960461.686855316 0 47960461.686855316 71287546.739990234 0 0 0 0 144051564.85523611 97233009.764190674 0 97233009.764190674 14709201.556785583 0 0 0 0 -45602535.88087368 -19650808.712776184 0 -19650808.712776184 15791759.126861572 0 0 0 0 -91302659.193555832 -6991350.8059387207 0 -6991350.8059387207 44775124.19562912 0 0 0 0 -37500296.610427916 130073549.03557014 0 130073549.03557014 114189046.21235657 0 0 0 0 -38873292.560156226 26600272.334980011 0 26600272.334980011 23618380.85333252 0 0 0 0 -24229350.97101593 36302333.042999268 0 36302333.042999268 -5780960.1783599854 0 0 0 0 -17936760.08805871 -920685.63576889038 0 -920685.63576889038 23572601.419296265 0 0 0 0 -8457980.1195435524 3364230.4932899475 0 3364230.4932899475 5425013.5353088379 0 0 0 0 -13620544.091991425 20271227.517234802 0 20271227.517234802 18769426.002113342 0 0 0 0 -1038853.1659816029 1140487.9990916885 0 1140487.9990916885 1535647.3781190142 0 0 0 0 -32557490.451824665 -1185888.0356140137 0 -1185888.0356140137 28516187.741613388 0 0 0 0 -3267195.4696700345 -289806.65020101517 0 -289806.65020101517 15352911.107024863 0 0 0 0 -1336025.0855611423 1124660.4975345433 0 1124660.4975345433 16908770.43330314 0 0 0 0 -4937537.6296999454 -468714.16119384766 0 -468714.16119384766 5093710.7923355103 0 0 0 0 -3857488.5881495387 -2033756.1933962256 0 -2033756.1933962256 17141130.684563756 0 0 0 0 -1956891.1022081375 -20472053.768787384 0 -20472053.768787384 2196546.2604522705 0 0 0 0 -3410171.7141214609 -14732118.183807373 0 -14732118.183807373 11604076.22088623 0 0 0 0 1534033.8695774078 -16926818.575637817 0 -16926818.575637817 3558782.5295181274 0 0 0 0 -50301101.790860534 -58456058.236135006 0 -58456058.236135006 -38379096.49684906 0 0 0 0 39659.389749526978 -2173631.3198547363 0 -2173631.3198547363 45941576.48538208 0 0 0 0 -2371348.2627114058 -36057623.579567909 0 -36057623.579567909 -4103507.3095703125 0 0 0 0 -826162.63613176346 -9231226.4167842865 0 -9231226.4167842865 -4189035.266708374 0 0 0 0 -237278.91821670532 -5726769.6854858398 0 -5726769.6854858398 -15122609.445903778 0 0 0 0 -38077863.640261173 -22174728.537307739 0 -22174728.537307739 10072730.023590088 0 0 0 0 -2037011.5638950719 -2702076.1123368107 0 -2702076.1123368107 23515240.497181796 0 0 0 0 -1933088.4720572359 1247252.3753230125 0 1247252.3753230125 5786481.8427812606 0 0 0 0 -161754905.07658136 -96103109.322914124 0 -96103109.322914124 -13822746.173749924 0 0 0 0 -185733607.27187502 87966365.240097046 0 87966365.240097046 39347308.106483459 0 0 0 0 -291579862.52628225 40636836.66312027 0 40636836.66312027 103027706.5067749 0 0 0 0 -204940483.43294334 -256375858.19128799 0 -256375858.19128799 86787691.762233734 0 0 0 0 -86759441.517764091 -164724603.01327515 0 -164724603.01327515 9114208.7699584961 0 0 0 0 -317036213.95180374 -5369315.5571632385 0 -5369315.5571632385 163085307.83293152 0 0 0 0 -126402448.30701542 245482017.68026352 0 245482017.68026352 57421255.529350281 0 0 0 0 -7199308.6382036209 56256206.313247681 0 56256206.313247681 -8134036.9458618164 0 0 0 0 6850532.4467830658 46503151.413208008 0 46503151.413208008 -2730096.1079292297 0 0 0 0 15605444.971910596 31454678.824425697 0 31454678.824425697 -25099800.608642578 0 0 0 0 -12261612.325490952 -42131337.974601746 0 -42131337.974601746 -95210286.261230469 0 0 0 0 36475394.530016422 52951775.290439606 0 52951775.290439606 -162803523.99718475 0 0 0 0 220524331.71460396 200766359.35467529 0 200766359.35467529 311532287.96459961 0 0 0 0 57240317.756546095 18214916.486519814 0 18214916.486519814 111563465.90213013 0 0 0 0 121583013.36592144 110680147.46934509 0 110680147.46934509 50028594.421424866 0 0 0 0 97292833.660983801 -143354434.85161591 0 -143354434.85161591 -2563124.6675567627 0 0 0 0 13626002.078763902 -321072552.54797554 0 -321072552.54797554 202412424.98027039 0 0 0 0 431460885.62457472 -69113713.026237488 0 -69113713.026237488 10921531.777193069 0 0 0 0 313296016.77047855 86097844.127765656 0 86097844.127765656 -15799831.485244751 0 0 0 0 -65513331.081037611 172532829.3999939 0 172532829.3999939 509417798.7305603 0 0 0 0 -84555877.023473695 23528346.763492584 0 23528346.763492584 -74210389.815711975 0 0 0 0 -185820158.41160631 190528823.29580688 0 190528823.29580688 212193021.86184692 0 0 0 0 389725.51175623434 845758.79644958675 0 845758.79644958675 1551507.610804975 0 0 0 0 203177222.90424126 -202257900.93451691 0 -202257900.93451691 124231063.49978638 0 0 0 0 22745316.963914335 -39291141.95413208 0 -39291141.95413208 396308757.29027557 0 0 0 0 89779888.759914935 -63612649.714836121 0 -63612649.714836121 -45265964.442911148 0 0 0 0 -24243596.118638396 77718175.955619812 0 77718175.955619812 8447610.2563753128 0 0 0 0 -3841742.6399427056 -88582273.844779968 0 -88582273.844779968 -36824867.543334961 0 0 0 0 86103.726840900752 2407610.485951867 0 2407610.485951867 217134.96685973555 0 0 0 0 -267512425.63977218 87441601.470947266 0 87441601.470947266 66254836.544494629 0 0 0 0 63306061.532699406 192084530.89470673 0 192084530.89470673 -49620313.063186646 0 0 0 0 9679271.4662894309 -12438184.330757141 0 -12438184.330757141 24667013.452461243 0 0 0 0 -65196742.294726253 48172615.558879852 0 48172615.558879852 -7161710.9985733032 0 0 0 0 -99435977.841802359 -469930.55686950684 0 -469930.55686950684 -13960539.473083496 0 0 0 0 313538.88540442853 8049357.312228349 0 8049357.312228349 713387.22673937678 0 0 0 0 -101779939.69016838 36222222.204357147 0 36222222.204357147 11242198.025566101 0 0 0 0 -32209378.504805326 24219484.489494324 0 24219484.489494324 -3437501.7425231934 0 0 0 0 43344835.097867012 3060384.1566314697 0 3060384.1566314697 -19588859.875457764 0 0 0 0 905429.47732225596 2525074.151326457 0 2525074.151326457 4704159.155599311 0 0 0 0 -41216278.350306511 30949305.790100098 0 30949305.790100098 288386718.7593689 0 0 0 0 -36577946.228990078 21405230.967689514 0 21405230.967689514 17634305.985656738 0 0 0 0 -20848324.416951656 36609675.48878479 0 36609675.48878479 5725335.8520202637 0 0 0 0 -36711650.813273907 23859137.906513214 0 23859137.906513214 937292.87452697754 0 0 0 0 -39552446.653780937 36814322.607429504 0 36814322.607429504 -965005.09331130981 0 0 0 0 -32219422.977708101 6596432.0006341934 0 6596432.0006341934 6465640.3313064575 0 0 0 0 -62267717.534388036 23618640.181423187 0 23618640.181423187 -4898644.7239303589 0 0 0 0 -46444861.303915977 31765589.792732239 0 31765589.792732239 6614160.76927948 0 0 0 0 -39896007.542845622 35082906.481655121 0 35082906.481655121 -35166873.412590027 0 0 0 0 -1024510.3863126894 -1371308.3975178078 0 -1371308.3975178078 3558028.8362438232 0 0 0 0 -28996242.434577703 -17305042.974187851 0 -17305042.974187851 24079202.813224792 0 0 0 0 -66997687.717965543 41420472.127753735 0 41420472.127753735 -1715149.3100967407 0 0 0 0 -67112646.620272279 28914440.010398865 0 28914440.010398865 -3370521.1628189087 0 0 0 0 -54108090.223355532 42041110.143371582 0 42041110.143371582 2184917.4175662994 0 0 0 0 1339845.5896294788 6421259.636649061 0 6421259.636649061 20168508.618693821 0 0 0 0 -47017259.301090956 57409409.178297043 0 57409409.178297043 1847638.3439559937 0 0 0 0 4372670.5947799683 42997754.105602264 0 42997754.105602264 -4891301.9659833908 0 0 0 0 -272387.30300855637 33594334.519098282 0 33594334.519098282 12874638.106880188 0 0 0 0 17237473.990348577 4105257.7399902344 0 4105257.7399902344 9001774.2217478752 0 0 0 0 -135862728.70671892 73957947.570968628 0 73957947.570968628 50789881.332588196 0 0 0 0 -75249330.485117197 13471522.984676361 0 13471522.984676361 64123488.009346008 0 0 0 0 -721900.80595628149 5659354.6997833475 0 5659354.6997833475 19546857.456570715 0 0 0 0 -115660065.28131247 -132092180.2875824 0 -132092180.2875824 186681838.93254852 0 0 0 0 13580869.792195797 3743009.8308181763 0 3743009.8308181763 -112942682.9605217 0 0 0 0 15896299.977085948 35043014.955924988 0 35043014.955924988 22077923.750835419 0 0 0 0 28656329.109229326 -4856223.0550956726 0 -4856223.0550956726 128444958.3346138 0 0 0 0 20555282.234113216 14544822.069908142 0 14544822.069908142 161895407.25593662 0 0 0 0 -680988.43187150359 -37167585.091973305 0 -37167585.091973305 150020149.19571686 0 0 0 0 35527357.532397509 57564019.751716614 0 57564019.751716614 130707182.21924973 0 0 0 0 5997.0293822721578 -192515.93681785278 0 -192515.93681785278 426093.05648448318 0 0 0 0 -59622332.339238644 -94228370.98507309 0 -94228370.98507309 -82782174.334472656 0 0 0 0 -49419138.928991318 -77239851.061450958 0 -77239851.061450958 -47523464.882465363 0 0 0 0 -163992678.01793757 -47862385.745343685 0 -47862385.745343685 44141159.822265625 0 0 0 0 -123007876.95998335 -63553634.260688782 0 -63553634.260688782 -40372040.72505188 0 0 0 0 -410303.39823433245 3011870.176866936 0 3011870.176866936 16233547.088036612 0 0 0 0 -83258164.564965725 -7281254.8798751831 0 -7281254.8798751831 -31026610.91827774 0 0 0 0 -48146845.754820995 15151311.837508678 0 15151311.837508678 31580447.382537842 0 0 0 0 -8293528.1041203141 13079487.448795319 0 13079487.448795319 648072.82790803909 0 0 0 0 -6466115.5630231202 21270500.522435188 0 21270500.522435188 23029923.69480896 0 0 0 0 -39662473.05350399 47622804.843257904 0 47622804.843257904 53047299.414871216 0 0 0 0 -95180156.685667515 18165998.556114197 0 18165998.556114197 33695841.054649353 0 0 0 0 -312946.48593711853 14278666.092060089 0 14278666.092060089 29872585.740783691 0 0 0 0 -15354297.699639082 -14289645.877838135 0 -14289645.877838135 95662416.677612305 0 0 0 0 -67948054.751801729 70361112.275566101 0 70361112.275566101 -19242178.342748642 0 0 0 0 27638617.006122768 -57144652.60559082 0 -57144652.60559082 62858732.623550415 0 0 0 0 771278.51495674183 -84685.35232128948 0 -84685.35232128948 -9569.1649618372321 0 0 0 0 20605009.681571513 -20317967.764862061 0 -20317967.764862061 8393387.2546691895 0 0 0 0 -28461918.155329317 27111492.629798889 0 27111492.629798889 32220740.270721436 0 0 0 0 -26628997.911942422 10437283.505134583 0 10437283.505134583 4369626.4573707581 0 0 0 0 -63938580.459993511 37084850.510891199 0 37084850.510891199 22406250.458854675 0 0 0 0 -2255397.3083948647 5960145.0645354968 0 5960145.0645354968 10708798.082355008 0 0 0 0 -44869458.585729361 -13328270.09120369 0 -13328270.09120369 39359467.505706787 0 0 0 0 -44991689.081705093 -20587665.854759216 0 -20587665.854759216 54552886.676303864 0 0 0 0 -49888707.119267941 -31442794.921409607 0 -31442794.921409607 -3115609.0303230286 0 0 0 0 -2278554.859314749 -854467.56039766595 0 -854467.56039766595 8280868.5232037678 0 0 0 0 -14074649.462494135 6162188.9325408936 0 6162188.9325408936 -24464201.701774836 0 0 0 0 -18899685.154597163 12870200.067342758 0 12870200.067342758 5078442.2641296387 0 0 0 0 -11578111.347121537 5890117.5538444519 0 5890117.5538444519 5253593.7778820992 0 0 0 0 9357435.016877532 9283464.6387443542 0 9283464.6387443542 -11721356.348320007 0 0 0 0 8896588.0028669387 2997910.4179809093 0 2997910.4179809093 -20766967.381355286 0 0 0 0 -576006.87205174111 387914.78093507886 0 387914.78093507886 1590524.4864147305 0 0 0 0 53455436.134930432 32876013.737216949 0 32876013.737216949 -17651956.649902344 0 0 0 0 16247444.440683365 12744537.631638527 0 12744537.631638527 -27509727.059028625 0 0 0 0 -22417768.524618328 38903634.405406952 0 38903634.405406952 1421565.8338165283 0 0 0 0 20388883.286817789 22348589.429481506 0 22348589.429481506 -11385158.586159945 0 0 0 0 -41340143.957428485 66907265.933326721 0 66907265.933326721 -760218.87206268311 0 0 0 0 17210647.04572928 28100094.086235046 0 28100094.086235046 -8735441.3718757629 0 0 0 0 13306756.376483515 23766331.653347015 0 23766331.653347015 38700245.866836548 0 0 0 0 122295879.85052335 19550495.860095978 0 19550495.860095978 32529618.787996292 0 0 0 0 -14643654.421636999 -31610806.646614075 0 -31610806.646614075 -38153570.165878296 0 0 0 0 1210047.4412410259 28126293.422904968 0 28126293.422904968 186862920.64772797 0 0 0 0 60865427.67459172 59586934.853271484 0 59586934.853271484 112087893.77806091 0 0 0 0 91664319.712878644 46042904.720085144 0 46042904.720085144 -17521219.156478882 0 0 0 0 -1419326.7631206363 8593392.2703971863 0 8593392.2703971863 -29284870.268936157 0 0 0 0 -93084063.780713975 15438893.235263824 0 15438893.235263824 21592110.187988281 0 0 0 0 -682190.2308549796 3116682.1700053904 0 3116682.1700053904 3661374.710890159 0 0 0 0 -135920.89910546271 4021418.4372529238 0 4021418.4372529238 10557417.118704952 0 0 0 0 -22824479.134222031 23015355.450500488 0 23015355.450500488 -4824549.6415596008 0 0 0 0 1126787.8930807114 10988715.48957634 0 10988715.48957634 -6228077.4740066528 0 0 0 0 1018894.3398168238 3879739.2164004426 0 3879739.2164004426 7450037.5853784382 0 0 0 0 -20845031.051106513 8525007.0922088623 0 8525007.0922088623 -26624956.045490265 0 0 0 0 -61681283.21764183 98555962.20690155 0 98555962.20690155 36658432.736328125 0 0 0 0 13281389.221158326 48697870.343315125 0 48697870.343315125 -74839045.430259705 0 0 0 0 14354770.702270687 -294202513.80336761 0 -294202513.80336761 157934100.30509186 0 0 0 0 -121630605.41824058 -52496123.15669632 0 -52496123.15669632 513089074.7369194 0 0 0 0 26973399.085228845 -30981865.333948135 0 -30981865.333948135 159976221.32504272 0 0 0 0 67830695.998796195 94523008.112652779 0 94523008.112652779 224957045.95567322 0 0 0 0 125786.89011206143 358751.25993691012 0 358751.25993691012 923892.04064540565 0 0 0 0 -22078158.910491168 25302908.841064453 0 25302908.841064453 302113554.37635851 0 0 0 0 -2608713.5125166178 9830522.3421936035 0 9830522.3421936035 300786704.49462891 0 0 0 0 -52563709.665844947 53933465.893001556 0 53933465.893001556 360787674.63241577 0 0 0 0 -29080058.682927608 -5613557.2801513672 0 -5613557.2801513672 -153400321.51900482 0 0 0 0 -19830569.748512506 -73047414.787155151 0 -73047414.787155151 -1620914.7091827393 0 0 0 0 -77761129.383324504 -40488451.941267014 0 -40488451.941267014 -17611997.379623413 0 0 0 0 727377.41291936138 -146674.4633583948 0 -146674.4633583948 161374.19904424623 0 0 0 0 59929086.877861977 -126085920.13952637 0 -126085920.13952637 -220315700.5786972 0 0 0 0 -1962212.4680508971 -160564369.36231232 0 -160564369.36231232 -52585133.406799316 0 0 0 0 40116023.074013233 -154756721.35378265 0 -154756721.35378265 -170334158.05049133 0 0 0 0 87385201.221327305 -144611818.10332489 0 -144611818.10332489 -73413879.756729126 0 0 0 0 -13535778.421816468 -54541128.568782806 0 -54541128.568782806 94763324.571746826 0 0 0 0 -13850102.229397755 -63871745.096961617 0 -63871745.096961617 -9788092.8207244873 0 0 0 0 18453037.011848956 -87155319.157575607 0 -87155319.157575607 127989009.06097412 0 0 0 0 -61432627.900277048 -38384080.376662254 0 -38384080.376662254 21069324.042694092 0 0 0 0 -59712963.856265306 -12059019.071269989 0 -12059019.071269989 107873081.6484375 0 0 0 0 -36002290.934701681 16742204.925792694 0 16742204.925792694 47186979.871833801 0 0 0 0 -35513054.155801058 12645036.748966217 0 12645036.748966217 58557413.950199127 0 0 0 0 -13783735.128764987 23574825.672386169 0 23574825.672386169 84025418.801841736 0 0 0 0 -18868889.632853627 35521134.247871399 0 35521134.247871399 66710376.169834137 0 0 0 0 26965510.862653613 98092260.353077888 0 98092260.353077888 213426483.00794983 0 0 0 0 -13204483.565774679 -10470408.741798401 0 -10470408.741798401 7104952.2344856262 0 0 0 0 -26666648.61605446 -22281229.175412893 0 -22281229.175412893 744754.92172241211 0 0 0 0 -40875618.566987395 -9975565.2778091431 0 -9975565.2778091431 18133586.828552246 0 0 0 0 -26019045.211267233 -13308373.81162262 0 -13308373.81162262 13269924.84690094 0 0 0 0 -12447246.683550835 -27398305.271156311 0 -27398305.271156311 -46116469.708114624 0 0 0 0 -48662170.40651083 -41473611.753473282 0 -41473611.753473282 -1450629.6852416992 0 0 0 0 -40973973.545836926 -29621424.544944763 0 -29621424.544944763 -16799948.561965942 0 0 0 0 -6782889.9397412539 -12120280.043485641 0 -12120280.043485641 -13217151.387870789 0 0 0 0 -21904640.203778327 14372224.671634674 0 14372224.671634674 14255123.966049194 0 0 0 0 1510907.7838095832 -482996.23054534942 0 -482996.23054534942 535848.71308374032 0 0 0 0 -31483805.069776773 -54506807.536403656 0 -54506807.536403656 -58983726.893867493 0 0 0 0 6738325.5606212616 -59146750.231452942 0 -59146750.231452942 190632065.81638336 0 0 0 0 144425641.80604899 2423932.1349334717 0 2423932.1349334717 66817438.216407776 0 0 0 0 -99608355.106525391 -116471651.67153168 0 -116471651.67153168 132578397.12306213 0 0 0 0 -77937586.114943385 -72902744.675937653 0 -72902744.675937653 188498976.58778381 0 0 0 0 -25707610.324979663 -125842500.8669014 0 -125842500.8669014 238383463.67063904 0 0 0 0 42274921.292411745 -90572783.595966339 0 -90572783.595966339 108427709.48045349 0 0 0 0 -35708419.489471436 110341729.29367065 0 110341729.29367065 400596790.29611206 0 0 0 0 444953.56369813345 -323643.98226616904 0 -323643.98226616904 330033.60547509789 0 0 0 0 4656211.0041484833 -15280257.511951447 0 -15280257.511951447 -41097613.294834137 0 0 0 0 -9422336.3021270782 -66927137.468040466 0 -66927137.468040466 208165645.16704559 0 0 0 0 -21298796.568052053 51630548.860439301 0 51630548.860439301 268474469.08816719 0 0 0 0 -6299130.3250784874 6665570.5667190552 0 6665570.5667190552 14871886.481376648 0 0 0 0 1186261.0937603689 -1003282.6336420625 0 -1003282.6336420625 931700.18712675944 0 0 0 0 5510816.9942398071 -32468932.972995758 0 -32468932.972995758 -14735773.585525513 0 0 0 0 15712820.996439457 8891087.1869888306 0 8891087.1869888306 9360339.300743103 0 0 0 0 -6798183.8199341297 11263235.351837158 0 11263235.351837158 8851496.1482429504 0 0 0 0 -17538345.898438454 -2174153.1843509674 0 -2174153.1843509674 31234093.867034912 0 0 0 0 1809791.1879253387 -4919335.9965057373 0 -4919335.9965057373 30926471.67162323 0 0 0 0 1443352.7844207319 -871768.80084477738 0 -871768.80084477738 1249168.1928103529 0 0 0 0 -9179107.9390215874 -11373790.555225372 0 -11373790.555225372 -4401758.8930664062 0 0 0 0 35460.031408271345 -69870.644521140959 0 -69870.644521140959 16171.153004422784 0 0 0 0 -1292571.5526666641 4300305.9374771118 0 4300305.9374771118 10653480.847305298 0 0 0 0 -159265.7659453199 -1970035.230061353 0 -1970035.230061353 4673622.5544422269 0 0 0 0 -13086266.895516902 2890520.5217580795 0 2890520.5217580795 6226836.6347503662 0 0 0 0 -4218074.2406271845 10161132.154724121 0 10161132.154724121 10773277.962456465 0 0 0 0 -16482439.113498688 -10312748.340644836 0 -10312748.340644836 2632570.1447105408 0 0 0 0 -5808745.9777745903 -8313200.4533987045 0 -8313200.4533987045 -1716542.5924530029 0 0 0 0 587098.05657605035 -3948414.6016693115 0 -3948414.6016693115 10731407.525222778 0 0 0 0 3099993.0583040765 -5022983.7940826416 0 -5022983.7940826416 8887072.4580688477 0 0 0 0 436471.09979663324 -5780255.7306213379 0 -5780255.7306213379 13988611.29548645 0 0 0 0 -38067.061182430458 158894.42938110977 0 158894.42938110977 -137498.63320434839 0 0 0 0 2290799.8669598103 2706881.229850769 0 2706881.229850769 399414.16947937012 0 0 0 0 4756808.2134400941 -9723856.3653945923 0 -9723856.3653945923 16874679.47179985 0 0 0 0 -3393267.1060294844 1566072.5751190186 0 1566072.5751190186 1016362.9821548462 0 0 0 0 -2417188.1681673406 644769.22797928751 0 644769.22797928751 2353691.9560654908 0 0 0 0 -7717220.2275209427 2328206.0483398438 0 2328206.0483398438 10340784.488355637 0 0 0 0 -824533.49527806044 -426892.20178222656 0 -426892.20178222656 -37793.393592834473 0 0 0 0 -12867018.790596962 2573264.2256164551 0 2573264.2256164551 14401633.117050171 0 0 0 0 -14733637.317911148 -4079595.2001037598 0 -4079595.2001037598 6677506.9875793457 0 0 0 0 -1776467.1907405853 1658995.9107666016 0 1658995.9107666016 8230894.9702453613 0 0 0 0 -601581.5933087077 -932411.42072689161 0 -932411.42072689161 2442821.4999086931 0 0 0 0 856973.95012800023 -1264071.1857681274 0 -1264071.1857681274 3674090.9575271606 0 0 0 0 2595167.4852085114 -4322213.2156047821 0 -4322213.2156047821 336808.39953613281 0 0 0 0 -1542.8530334994562 -2336978.6068572998 0 -2336978.6068572998 6388458.2449951172 0 0 0 0 2456005.6544527272 -3617534.3397216797 0 -3617534.3397216797 2418700.8677062988 0 0 0 0 1693458.6289708731 -1674686.8765106201 0 -1674686.8765106201 4538747.7190093994 0 0 0 0 -79204.177724282956 358339.88580161333 0 358339.88580161333 -318694.97385331243 0 0 0 0 564879.06956976268 -3140067.0663394928 0 -3140067.0663394928 4541660.5527038574 0 0 0 0 -785416.7718909774 -189634.76120363921 0 -189634.76120363921 2391944.7870568112 0 0 0 0 -1314.1715262498253 -263751.75317382812 0 -263751.75317382812 1427407.4759140015 0 0 0 0 348094.78665979952 -877919.94584465027 0 -877919.94584465027 17683150.693977356 0 0 0 0 899817.82102890231 -1010882.3741176352 0 -1010882.3741176352 920285.08579713106 0 0 0 0 55300502.733676143 32374550.758396149 0 32374550.758396149 15832032.326539755 0 0 0 0 1306077.2733105924 -1763345.8153549731 0 -1763345.8153549731 1767060.2321409583 0 0 0 0 -5035183.3535680771 -9377161.7117080688 0 -9377161.7117080688 -332305.84579277039 0 0 0 0 -19108136.75987339 -1885531.1805343628 0 -1885531.1805343628 13360386.759122849 0 0 0 0 -17275755.291646004 -6687806.5612640381 0 -6687806.5612640381 8917182.7014312744 0 0 0 0 -2919.4871071017919 -14732183.825663567 0 -14732183.825663567 119441107.32278061 0 0 0 0 13301771.523538614 -29368511.213061333 0 -29368511.213061333 -36028415.422504425 0 0 0 0 -12430.795532538585 -186493.00926790014 0 -186493.00926790014 633888.58945748955 0 0 0 0 -40248921.850509346 60326505.488075256 0 60326505.488075256 264649666.75392532 0 0 0 0 61983152.425114498 -82841300.348128319 0 -82841300.348128319 274745529.81072235 0 0 0 0 63888347.300284326 45409317.859874725 0 45409317.859874725 -2218801.2221679688 0 0 0 0 -10413.963818774064 -353976.24017275497 0 -353976.24017275497 1339046.8844348788 0 0 0 0 -3945113.0693869591 -62827134.760379791 0 -62827134.760379791 7131428.5419938564 0 0 0 0 -55553444.63076365 -133724667.05450439 0 -133724667.05450439 -99666408.662086487 0 0 0 0 -98419216.141551018 47670479.706122696 0 47670479.706122696 283272967.10760498 0 0 0 0 -101974469.77283007 -137400055.42116165 0 -137400055.42116165 -27284312.641876221 0 0 0 0 132280945.00282967 10462183.425773621 0 10462183.425773621 -116567191.46294022 0 0 0 0 10777212.495913655 83492812.142057419 0 83492812.142057419 136046950.44052887 0 0 0 0 -6935468.2296339981 -5050005.5556063652 0 -5050005.5556063652 17888931.584590912 0 0 0 0 -28500804.256191306 -14248404.012413025 0 -14248404.012413025 75514633.21673584 0 0 0 0 -136695.9149845553 47189509.472394943 0 47189509.472394943 47930426.988014221 0 0 0 0 -18698186.827214338 913175.9660949707 0 913175.9660949707 12387131.219482422 0 0 0 0 -101206.6179948371 345226.42013461608 0 345226.42013461608 174598.6792549789 0 0 0 0 6226479.7479678616 6810761.8968353271 0 6810761.8968353271 8015419.3921203613 0 0 0 0 3968370.5986311287 -2481916.3305511475 0 -2481916.3305511475 21107119.028076172 0 0 0 0 -13105014.327156752 9574989.1498413086 0 9574989.1498413086 15910066.495285034 0 0 0 0 -5056320.7609389648 12719595.231811523 0 12719595.231811523 15677372.120727539 0 0 0 0 -6900661.9276022837 -2977529.1733932495 0 -2977529.1733932495 -1125578.0394897461 0 0 0 0 -1150402.3953761607 4715160.7966918945 0 4715160.7966918945 5998775.8382377625 0 0 0 0 -4339219.9831278101 1033081.2076568604 0 1033081.2076568604 6962266.4108276367 0 0 0 0 3270081.902612038 1720946.6009254456 0 1720946.6009254456 360324.05084228516 0 0 0 0 3048422.8744035177 2428054.8695983887 0 2428054.8695983887 5929273.5991516113 0 0 0 0 6230082.1564419847 3430542.8017730713 0 3430542.8017730713 -657244.5358581543 0 0 0 0 3985726.6819693148 7364643.7919769287 0 7364643.7919769287 8459714.636177063 0 0 0 0 5622992.6314520985 6144001.3593521118 0 6144001.3593521118 3387909.9325866699 0 0 0 0 5424.9764455312497 5542883.569278717 0 5542883.569278717 30500580.532485962 0 0 0 0 -2385444.2272802033 -7485060.3519363403 0 -7485060.3519363403 7007043.9865856171 0 0 0 0 -4959551.8536599027 -376372.06486129761 0 -376372.06486129761 68507828.231918335 0 0 0 0 417097.96212000586 3880997.2587184906 0 3880997.2587184906 26443151.025436401 0 0 0 0 -74434.323105297983 -5127045.8086853027 0 -5127045.8086853027 68146767.325289965 0 0 0 0 -25161887.685611002 -45341569.124675751 0 -45341569.124675751 53525571.595504761 0 0 0 0 -1700783.6435041651 -9612020.6951675415 0 -9612020.6951675415 68153829.326751709 0 0 0 0 13691404.522613943 -3784257.8370819092 0 -3784257.8370819092 17375756.728712082 0 0 0 0 56413546.459633544 -34994496.193878174 0 -34994496.193878174 -20405979.484222412 0 0 0 0 66467167.627681144 81079924.783512115 0 81079924.783512115 80556804.359786987 0 0 0 0 -150506.68605588275 157076.96268541738 0 157076.96268541738 349395.58113116026 0 0 0 0 37947751.276824556 61906461.909273148 0 61906461.909273148 47524290.427032471 0 0 0 0 13180482.46097815 32560662.31690979 0 32560662.31690979 34759011.730735779 0 0 0 0 31702554.805305138 17307831.826553345 0 17307831.826553345 -4360262.3706359863 0 0 0 0 42758922.684570327 40689132.869781494 0 40689132.869781494 20471059.944641113 0 0 0 0 -2639099.7202245407 62245430.101203918 0 62245430.101203918 112189211.67778015 0 0 0 0 4494457.2490954921 45039909.832977295 0 45039909.832977295 57987821.565078735 0 0 0 0 16939578.310201988 37577483.631439209 0 37577483.631439209 34138369.718536377 0 0 0 0 -15329625.43569041 33784163.977142334 0 33784163.977142334 79779319.937454224 0 0 0 0 -15392498.594810575 34708376.549636841 0 34708376.549636841 71120342.22082901 0 0 0 0 -3861777.921595782 18696537.865463257 0 18696537.865463257 32158685.592391968 0 0 0 0 -524035.18720625341 19141564.722801208 0 19141564.722801208 23248475.059890747 0 0 0 0 -709824.54870767146 27387232.999923706 0 27387232.999923706 50191692.468765259 0 0 0 0 5347984.2920896374 16247625.544239044 0 16247625.544239044 24398494.344940186 0 0 0 0 1066186.8641503081 6848035.4565582275 0 6848035.4565582275 10779383.892410278 0 0 0 0 1643883.1590829492 6873482.8757171631 0 6873482.8757171631 12414935.995010376 0 0 0 0 -734008.20573209971 14842901.882637024 0 14842901.882637024 33035880.048164368 0 0 0 0 -29524371.231445368 -9959660.5765419006 0 -9959660.5765419006 19001984.07434082 0 0 0 0 13120034.401085407 67966031.386081696 0 67966031.386081696 -12518668.752036095 0 0 0 0 -543652.03489474603 643977.63067850657 0 643977.63067850657 810191.11694790423 0 0 0 0 -22582444.014308855 2810625.0355796814 0 2810625.0355796814 14957706.166946411 0 0 0 0 -806698.77935693413 -6262159.0087356567 0 -6262159.0087356567 7421813.7858123779 0 0 0 0 -13508291.431877397 -5103191.3424797058 0 -5103191.3424797058 -2381655.9849700928 0 0 0 0 -1292600.9471140001 1979268.9081322271 0 1979268.9081322271 1162359.5231866241 0 0 0 0 6660653.2978606522 15205913.985874176 0 15205913.985874176 -10536743.788070679 0 0 0 0 -3431757.2654315457 7190250.1775131226 0 7190250.1775131226 -4536756.7047576904 0 0 0 0 -2293389.4227220416 -4453975.0522918701 0 -4453975.0522918701 -7113142.4580001831 0 0 0 0 -2872846.5150211938 5736140.1321105957 0 5736140.1321105957 12764046.055465698 0 0 0 0 -5194547.511737451 8199567.3596572876 0 8199567.3596572876 11512229.706268311 0 0 0 0 -5480735.4842306562 -3830667.1705245972 0 -3830667.1705245972 2487424.089553833 0 0 0 0 -2531277.5444265916 3200647.2766710408 0 3200647.2766710408 1679176.9224958867 0 0 0 0 -9668535.0747189522 -2652521.2727432251 0 -2652521.2727432251 20966931.914329529 0 0 0 0 217015.65205076337 -313867.52275085449 0 -313867.52275085449 -12792571.902534485 0 0 0 0 -8158704.9844822735 2023867.9394721985 0 2023867.9394721985 6041862.5763549805 0 0 0 0 -2137335.4212023509 1324124.8580179662 0 1324124.8580179662 2873122.2233519107 0 0 0 0 -956722.35698956461 1115553.7005561534 0 1115553.7005561534 2963482.8655792922 0 0 0 0 -4677147.8800928295 -1961635.4592285156 0 -1961635.4592285156 -6334479.8938598633 0 0 0 0 -2986582.1677729818 1982537.9135615863 0 1982537.9135615863 3800760.1098246947 0 0 0 0 -1900901.1511365771 509341.07741546631 0 509341.07741546631 3257853.7556152344 0 0 0 0 -2206177.4060902395 2380282.1169354729 0 2380282.1169354729 2617844.8228792995 0 0 0 0 -2093611.9561322094 696138.08433137462 0 696138.08433137462 2868834.8233600259 0 0 0 0 -1764626.9189455509 136150.30386352539 0 136150.30386352539 2642495.4885559082 0 0 0 0 -2797862.0198378209 468940.4178725034 0 468940.4178725034 5327369.0029761922 0 0 0 0 -1069711.6023328602 -1091570.3324394226 0 -1091570.3324394226 2109484.4810791016 0 0 0 0 -1243887.9780902229 -1414351.1236190796 0 -1414351.1236190796 5584668.9191346169 0 0 0 0 5187.6044692629148 -425192.50326950103 0 -425192.50326950103 3767630.4229483833 0 0 0 0 -512459.74787664629 337165.14576721191 0 337165.14576721191 5824109.7911674976 0 0 0 0 24302.242089190033 778933.33201408386 0 778933.33201408386 4852333.248916626 0 0 0 0 -372125.21103955479 1336871.9606348714 0 1336871.9606348714 610729.24159295857 0 0 0 0 -741114.51950996858 174497.49871529639 0 174497.49871529639 1546732.9422616735 0 0 0 0 -3826518.6402450576 4559989.0591201782 0 4559989.0591201782 2801886.6277770996 0 0 0 0 -255261.13672674773 62714.06958770752 0 62714.06958770752 4806809.8584985733 0 0 0 0 -546966.43836283963 708537.65830612183 0 708537.65830612183 4627993.9583435059 0 0 0 0 2694458.4934821129 4672333.0431213379 0 4672333.0431213379 -673260.36624145508 0 0 0 0 1186205.3612711355 2221191.4238090515 0 2221191.4238090515 -2528550.0365600586 0 0 0 0 -2255.6572482299948 1422225.1250343323 0 1422225.1250343323 4096224.777053833 0 0 0 0 -2791640.8782089278 4469381.622833252 0 4469381.622833252 3970194.007932663 0 0 0 0 -2837990.4327933579 -932312.45672607422 0 -932312.45672607422 3687084.6182174683 0 0 0 0 -172074.98714441297 72422.711184240878 0 72422.711184240878 420929.37885031849 0 0 0 0 3996927.8224998415 2502484.4491043091 0 2502484.4491043091 -585032.0512008667 0 0 0 0 3074.4751203272281 -233083.13461682945 0 -233083.13461682945 3082797.7343641142 0 0 0 0 -1226270.2007365623 753097.31044006348 0 753097.31044006348 6050242.6304016113 0 0 0 0 -75411.755979118287 351722.01168441772 0 351722.01168441772 4813025.0053939819 0 0 0 0 -17800.199730939232 -2867043.6090316772 0 -2867043.6090316772 3450030.3865528107 0 0 0 0 -543.40585396727965 -2956038.0054473877 0 -2956038.0054473877 3629045.7401657104 0 0 0 0 -1764310.1825262411 -1980923.2612991333 0 -1980923.2612991333 5001482.0859985352 0 0 0 0 242905.17791478522 -2172770.3799438477 0 -2172770.3799438477 4319826.9676818848 0 0 0 0 -1661314.5186477769 -2975574.1284637451 0 -2975574.1284637451 4003783.4951896667 0 0 0 0 -1503662.5616645713 -1969328.2501759529 0 -1969328.2501759529 4704541.2145690918 0 0 0 0 -134269.84130681865 -3351413.5325698853 0 -3351413.5325698853 3560042.3921966553 0 0 0 0 -4327973.4184659831 -2085983.6241779327 0 -2085983.6241779327 4701667.9110870361 0 0 0 0 -2425801.5055062771 -4549874.225276947 0 -4549874.225276947 3372739.1903839111 0 0 0 0 1432.4506007437092 -3052361.8587226868 0 -3052361.8587226868 3457594.4340324402 0 0 0 0 -146153.58029649127 -3069842.8037986755 0 -3069842.8037986755 3542474.0179367065 0 0 0 0 401754.90221705614 -1381292.0550308228 0 -1381292.0550308228 6614515.6406936646 0 0 0 0 -2398284.4518935997 -6137221.668384552 0 -6137221.668384552 1945154.6501312256 0 0 0 0 938633.56986733526 -2977704.9390258789 0 -2977704.9390258789 2629094.3194141388 0 0 0 0 -1192234.0276304679 -1606713.8479728699 0 -1606713.8479728699 19159951.145650864 0 0 0 0 1057216.6926578777 -176715.45302963257 0 -176715.45302963257 5707280.491973877 0 0 0 0 -264.88923902989717 -2748526.9059981285 0 -2748526.9059981285 7801500.4318695068 0 0 0 0 -386632.45752195548 -190686.2585105896 0 -190686.2585105896 13332477.83327961 0 0 0 0 -14704096.240491986 -13075290.677553177 0 -13075290.677553177 5999231.9324111938 0 0 0 0 -7468571.1212235689 -3363935.2319431305 0 -3363935.2319431305 6432662.7347564697 0 0 0 0 -148624.67456972602 -2070032.9592820131 0 -2070032.9592820131 5438066.2507542521 0 0 0 0 -25935658.905087471 -13199588.041370392 0 -13199588.041370392 7902514.8008041382 0 0 0 0 -13176120.43071894 -11828753.315353394 0 -11828753.315353394 11681962.637044191 0 0 0 0 -14342467.081478357 -13125388.515388489 0 -13125388.515388489 -718083.18761444092 0 0 0 0 -20740786.772325516 2704980.2910995483 0 2704980.2910995483 8798877.8669319153 0 0 0 0 -6244057.536136657 -5289091.5347056389 0 -5289091.5347056389 11894873.3931427 0 0 0 0 -5315901.1488695145 13939477.183509827 0 13939477.183509827 32611524.667274475 0 0 0 0 -51053963.763863564 -20702953.168449402 0 -20702953.168449402 20275972.199058533 0 0 0 0 -8073148.1802491751 -4587999.9123687744 0 -4587999.9123687744 5620663.0551528931 0 0 0 0 -386026.56990922987 -1937421.053372646 0 -1937421.053372646 6162123.4495565072 0 0 0 0 8487313.7004641294 -25111887.389198303 0 -25111887.389198303 -3902457.5622558594 0 0 0 0 -7647039.850484848 -891019.79625701904 0 -891019.79625701904 7168557.0428991318 0 0 0 0 -1138871.6084511764 2022422.2420355724 0 2022422.2420355724 756444.31862079352 0 0 0 0 -31279263.993273258 27718958.661857605 0 27718958.661857605 25807610.148239136 0 0 0 0 924572.04620790482 6658206.2963981628 0 6658206.2963981628 -3304681.3634604216 0 0 0 0 -1040384.4471332959 -1158264.8860443875 0 -1158264.8860443875 6839383.9961635917 0 0 0 0 -1903591.5473253708 77854.501926045865 0 77854.501926045865 3768415.4595463797 0 0 0 0 -8100859.5259950459 1804953.6951060295 0 1804953.6951060295 22162470.424835205 0 0 0 0 -3037927.7357401848 12812604.807250977 0 12812604.807250977 33140572.630210876 0 0 0 0 -162753.17555293557 123809.64585259929 0 123809.64585259929 734582.1444927305 0 0 0 0 4782600.0457353592 4116288.9988937378 0 4116288.9988937378 9509316.7061891556 0 0 0 0 -6019803.6538200378 -17716099.696624756 0 -17716099.696624756 6223551.4665460587 0 0 0 0 -2593514.376909703 -5894947.3686828613 0 -5894947.3686828613 26794615.610801697 0 0 0 0 1633873.2364103794 -3979443.3725585938 0 -3979443.3725585938 23789583.042552948 0 0 0 0 207101.10374689102 2812834.7286224365 0 2812834.7286224365 32209984.792121887 0 0 0 0 2048392.4546530247 26114863.238088608 0 26114863.238088608 46077697.591186523 0 0 0 0 -7782384.5802565962 5203494.8961722851 0 5203494.8961722851 44762518.972824097 0 0 0 0 5152315.0750062466 -4914773.5960731506 0 -4914773.5960731506 16897496.579322815 0 0 0 0 -10565865.388636589 -3587058.8521537781 0 -3587058.8521537781 16790452.396017075 0 0 0 0 6881865.5952707976 9592630.9940495491 0 9592630.9940495491 14685215.757789612 0 0 0 0 -8117657.9684298038 9766025.8859786987 0 9766025.8859786987 14884435.488832474 0 0 0 0 -17633930.471799016 8123296.0062465668 0 8123296.0062465668 30947325.140930176 0 0 0 0 -7052444.4805152416 10905389.032928467 0 10905389.032928467 16066447.678916931 0 0 0 0 -22513137.163271666 -5968947.9531574249 0 -5968947.9531574249 13419813.87802124 0 0 0 0 -2227100.3870780468 4411690.6089897156 0 4411690.6089897156 16421197.222229004 0 0 0 0 13281916.91046536 31706104.317871094 0 31706104.317871094 -595874.08760070801 0 0 0 0 -908688.23865997791 47839549.442779541 0 47839549.442779541 -4418825.061958313 0 0 0 0 11286386.290642738 93017903.124198914 0 93017903.124198914 78509683.883936882 0 0 0 0 -3082822.4064853191 42490844.632286072 0 42490844.632286072 39343943.458908081 0 0 0 0 -7004229.3756888835 25861000.195551142 0 25861000.195551142 13121733.366439819 0 0 0 0 6646502.6327033043 48578.406837463379 0 48578.406837463379 1159366.5316791534 0 0 0 0 6266132.2457295656 25616454.861141205 0 25616454.861141205 -2851817.1454620361 0 0 0 0 -18617926.778129518 -36873353.164863586 0 -36873353.164863586 -45712627.982139587 0 0 0 0 42904963.637983784 27211612.04176712 0 27211612.04176712 -85727757.917915344 0 0 0 0 7484167.0354431868 -1792474.3469619751 0 -1792474.3469619751 -4617534.3835067749 0 0 0 0 -25411505.772046268 -10469512.103187561 0 -10469512.103187561 18518359.871833801 0 0 0 0 -4623908.3577759862 -4436340.1663208008 0 -4436340.1663208008 19480100.107170105 0 0 0 0 322224.20978534222 4451866.7891120911 0 4451866.7891120911 12049654.340148926 0 0 0 0 1295663.1907094717 785127.96106719971 0 785127.96106719971 33446920.256813049 0 0 0 0 -2116743.5175937414 -8575648.2443008423 0 -8575648.2443008423 24420000.631832123 0 0 0 0 -5430063.6215236932 1210708.3824176788 0 1210708.3824176788 30988200.204574585 0 0 0 0 5223689.4260766208 -2895984.1405067444 0 -2895984.1405067444 31531575.918212891 0 0 0 0 -5599587.4392767102 13799401.31697464 0 13799401.31697464 11786324.814727783 0 0 0 0 6003576.2382119894 23759307.640396118 0 23759307.640396118 24484345.938690186 0 0 0 0 450141.17011755705 13642285.43214035 0 13642285.43214035 11786811.036949158 0 0 0 0 19259243.934940517 11300595.728942871 0 11300595.728942871 5467203.6557188034 0 0 0 0 -6881777.2806814313 13677129.35426712 0 13677129.35426712 5683348.1394958496 0 0 0 0 3230040.1587337479 7048740.838391304 0 7048740.838391304 24929009.12260437 0 0 0 0 10433067.498192683 10724100.985790253 0 10724100.985790253 -19985053.4585495 0 0 0 0 -779251.28683152003 3667382.6847635359 0 3667382.6847635359 2108790.9391618795 0 0 0 0 -5027863.4651298523 -4048546.0639247894 0 -4048546.0639247894 45107541.603279114 0 0 0 0 -1631953.4342935635 3490814.5111324303 0 3490814.5111324303 1509927.7919751897 0 0 0 0 1115331.4013576508 -8966456.3438720703 0 -8966456.3438720703 -2883522.5252532959 0 0 0 0 -5338112.50827384 -443050.50202941895 0 -443050.50202941895 33626194.511260986 0 0 0 0 9944655.7107506692 5801732.2974090576 0 5801732.2974090576 -27098747.070965528 0 0 0 0 -8518973.4457682967 -4748198.1490821838 0 -4748198.1490821838 -81176.431518554688 0 0 0 0 6379034.2642844021 834192.89157867432 0 834192.89157867432 -168524.63948082924 0 0 0 0 -4918991.1129651964 -4443524.7258262634 0 -4443524.7258262634 24018514.203170776 0 0 0 0 10278058.227603346 5827159.0226898193 0 5827159.0226898193 2484035.518415451 0 0 0 0 -483165.08944153786 974837.74604034424 0 974837.74604034424 27654234.724182129 0 0 0 0 17055591.76975739 1265625.8629455566 0 1265625.8629455566 27658333.454406738 0 0 0 0 -1981921.0338056367 -4873462.4982481003 0 -4873462.4982481003 58154090.508056641 0 0 0 0 -730969.77263522893 5843266.7929973602 0 5843266.7929973602 52721278.744018555 0 0 0 0 14199264.620268822 -7605689.090385437 0 -7605689.090385437 58774026.310714722 0 0 0 0 1821402.9114405215 8274866.2227020264 0 8274866.2227020264 28544358.100292206 0 0 0 0 -2955458.4163023233 5649312.1366462708 0 5649312.1366462708 40792945.680709839 0 0 0 0 -6211336.609528482 8335920.6345901489 0 8335920.6345901489 58653185.748032093 0 0 0 0 -6144772.135883674 22259622.146936417 0 22259622.146936417 53299686.493408203 0 0 0 0 -21479577.603229798 27220747.48865509 0 27220747.48865509 97084266.961601257 0 0 0 0 -12246665.356746674 15241097.349189758 0 15241097.349189758 61683943.783828735 0 0 0 0 -12963904.756069064 14969186.814573288 0 14969186.814573288 86447360.297943115 0 0 0 0 -21323815.101435632 24205631.529174805 0 24205631.529174805 85255396.978285789 0 0 0 0 -2743934.0120095015 13015910.163772583 0 13015910.163772583 92223932.485057831 0 0 0 0 -5279602.9876193404 641918.79806518555 0 641918.79806518555 99007553.749023438 0 0 0 0 -17423111.108477116 14409169.209152222 0 14409169.209152222 109764008.62709045 0 0 0 0 -3686318.247869987 22024882.417503834 0 22024882.417503834 145244951.68209839 0 0 0 0 49154977.746068418 -11862412.522964478 0 -11862412.522964478 37526921.242637634 0 0 0 0 -13412634.246177256 3975409.7549209595 0 3975409.7549209595 191300649.99055481 0 0 0 0 22491279.681729734 -39790207.223876953 0 -39790207.223876953 147473790.17046356 0 0 0 0 26848637.027084887 -23062280.815231323 0 -23062280.815231323 81547737.39617157 0 0 0 0 3166101.611519143 14449351.902706146 0 14449351.902706146 26675157.325302124 0 0 0 0 -27054440.773417532 -88643767.675292969 0 -88643767.675292969 -13525930.413902283 0 0 0 0 5752430.9505019188 18443595.688419342 0 18443595.688419342 46561889.394226074 0 0 0 0 2243159.261480689 9198665.9785728455 0 9198665.9785728455 27661150.546539307 0 0 0 0 33573382.401023805 13522300.23487854 0 13522300.23487854 26026398.039043427 0 0 0 0 14386371.502920687 -8226386.3747177124 0 -8226386.3747177124 53716469.530914307 0 0 0 0 11069183.650660321 3396049.0421934128 0 3396049.0421934128 63988694.77520752 0 0 0 0 -5594629.2801504582 4435337.0604438782 0 4435337.0604438782 13172425.612640381 0 0 0 0 -2601690.8175833821 5630273.1732711792 0 5630273.1732711792 12404664.528411865 0 0 0 0 -4981596.964768514 15502451.068847656 0 15502451.068847656 29839158.933647156 0 0 0 0 -12710328.434292555 7905731.4756546021 0 7905731.4756546021 22398745.540525436 0 0 0 0 -9899935.0183067098 -8656347.9745464325 0 -8656347.9745464325 2924379.0327682495 0 0 0 0 215329.87508554829 -44636.197248712182 0 -44636.197248712182 822930.41934351064 0 0 0 0 -23599170.743493885 -2370387.5843429565 0 -2370387.5843429565 30869507.377496958 0 0 0 0 -2253944.5137390196 1211536.5065612793 0 1211536.5065612793 14066214.120624542 0 0 0 0 202157.59655475582 239080.18282416463 0 239080.18282416463 1496945.8257632777 0 0 0 0 -1748927.6154731177 1453066.8064775467 0 1453066.8064775467 6394949.5228500366 0 0 0 0 89940109.774146914 56211458.910293579 0 56211458.910293579 135915358.93413734 0 0 0 0 250450051.43229145 205905593.62272644 0 205905593.62272644 170664011.55355835 0 0 0 0 191761680.86164838 210812620.03640747 0 210812620.03640747 328685981.73657227 0 0 0 0 338234531.09787166 284508245.85942078 0 284508245.85942078 240687992.37379456 0 0 0 0 97209.232931813109 240419.77524462622 0 240419.77524462622 530419.72142440081 0 0 0 0 -89073815.472533703 80831932.233390808 0 80831932.233390808 -58480866.362651825 0 0 0 0 517292.31740926462 -123992.73063837737 0 -123992.73063837737 149262.81284975819 0 0 0 0 90159023.391001433 334448450.88521767 0 334448450.88521767 -479912782.50666046 0 0 0 0 -59269556.656902313 47477699.136497498 0 47477699.136497498 -38927293.056640625 0 0 0 0 864680.57609941543 3362375.907498369 0 3362375.907498369 3057720.3759836257 0 0 0 0 15868493.093621016 165727307.57398605 0 165727307.57398605 135527745.88079834 0 0 0 0 -3187266.0587671995 207667804.40465546 0 207667804.40465546 604441393.42941284 0 0 0 0 -277970.68020087481 4195697.8535003662 0 4195697.8535003662 9059281.7219085693 0 0 0 0 25451.648378148675 4413389.7378311157 0 4413389.7378311157 8995195.6810760498 0 0 0 0 -524358.89920713007 4637467.8287467957 0 4637467.8287467957 9597707.9267120361 0 0 0 0 -1276242.2694857717 4044679.5006790161 0 4044679.5006790161 9303008.6279144287 0 0 0 0 1558976.1159808235 7848983.8719805703 0 7848983.8719805703 4420383.3785169572 0 0 0 0 -227124.86670106649 6887328.4533233643 0 6887328.4533233643 8726025.9205760956 0 0 0 0 2808645.8210763037 10291345.316883087 0 10291345.316883087 12110174.259277344 0 0 0 0 -76242243.578215837 -22644398.392490387 0 -22644398.392490387 21717824.177093506 0 0 0 0 102824031.70479432 111608568.69404793 0 111608568.69404793 138611343.41296387 0 0 0 0 263895156.94913864 281688787.47935486 0 281688787.47935486 242488255.0199585 0 0 0 0 64958329.856920719 -4445426.3728790283 0 -4445426.3728790283 147502070.14744949 0 0 0 0 17902009.174300432 -131712457.79785156 0 -131712457.79785156 48164740.351097107 0 0 0 0 367608141.2486968 67411117.08026886 0 67411117.08026886 -194004831.08843994 0 0 0 0 -50331231.627235293 700450.98569488525 0 700450.98569488525 107323531.68608093 0 0 0 0 80209319.497435808 -19901638.219993591 0 -19901638.219993591 -68722737.139373779 0 0 0 0 54576783.966157138 38605038.379537582 0 38605038.379537582 69389435.825805664 0 0 0 0 1719789.4862237861 380597.89724956453 0 380597.89724956453 -2826155.3757921159 0 0 0 0 -2615773.6540288329 41420831.123653412 0 41420831.123653412 -92102495.315963745 0 0 0 0 16821109.426588655 6668186.8944664001 0 6668186.8944664001 -55286091.659454346 0 0 0 0 3239887.2539236071 9476471.4637918323 0 9476471.4637918323 1708475.799019143 0 0 0 0 -902534.52133209317 4615301.6263244972 0 4615301.6263244972 11919663.400896827 0 0 0 0 -168691.9631959796 9373949.3265457153 0 9373949.3265457153 -5233137.5276763439 0 0 0 0 872358.63284137507 4506531.3825097755 0 4506531.3825097755 7500674.5196132734 0 0 0 0 -5545371.4526257515 8128556.0962905884 0 8128556.0962905884 33811818.387986422 0 0 0 0 -1315857.8102401346 10587654.058418274 0 10587654.058418274 16643280.379623413 0 0 0 0 3503526.257265592 12862993.691840369 0 12862993.691840369 4593800.5436845496 0 0 0 0 -2273192.4638960809 9091825.6852455139 0 9091825.6852455139 14608522.527488708 0 0 0 0 242432.09517684579 8794509.4579925537 0 8794509.4579925537 12446372.079310179 0 0 0 0 -3429234.2629331648 17370083.495750427 0 17370083.495750427 20712858.241289139 0 0 0 0 -1905690.0449889135 12452467.156044483 0 12452467.156044483 12562986.814682007 0 0 0 0 32656.950393695908 3882366.591884397 0 3882366.591884397 3795996.163659154 0 0 0 0 -9172923.4353350997 4756150.3541870117 0 4756150.3541870117 51048147.019387722 0 0 0 0 781993.04913234711 15414447.246574402 0 15414447.246574402 4002286.4937410355 0 0 0 0 -856815.64152252674 -1433294.8332633972 0 -1433294.8332633972 35559394.477127075 0 0 0 0 -13397914.75208205 11873012.1508255 0 11873012.1508255 28811663.271408081 0 0 0 0 -2544622.1223779917 13562443.79058075 0 13562443.79058075 26607475.086242676 0 0 0 0 2513336.0887724608 9686201.8769645691 0 9686201.8769645691 22611920.614151001 0 0 0 0 -4435795.2770342827 6616999.8230895996 0 6616999.8230895996 21280259.51474762 0 0 0 0 -2836203.996766448 20392638.262687683 0 20392638.262687683 14852063.135780334 0 0 0 0 -2923431.4708344042 16057916.624816895 0 16057916.624816895 12037013.6328125 0 0 0 0 -1303148.6047746763 1676006.2892719097 0 1676006.2892719097 2219678.7397095188 0 0 0 0 -22692179.453987122 32724786.423149109 0 32724786.423149109 10774039.76448822 0 0 0 0 2167364.4540001205 7975142.1689958815 0 7975142.1689958815 15731512.834678449 0 0 0 0 -4867875.9326826334 12177395.197265625 0 12177395.197265625 25116110.465797424 0 0 0 0 -10711335.329328775 15274268.115776062 0 15274268.115776062 17742941.580947876 0 0 0 0 -31780348.430861861 7338315.2565002441 0 7338315.2565002441 33107041.314826965 0 0 0 0 -18979192.675864697 -10148385.774703979 0 -10148385.774703979 4084319.9721984863 0 0 0 0 -58358479.398582727 -24235593.773239136 0 -24235593.773239136 14162688.587677002 0 0 0 0 -30062373.069386758 -37761895.284080505 0 -37761895.284080505 -122563323.70185852 0 0 0 0 -51631694.403189547 4703710.3976545334 0 4703710.3976545334 16348397.342407227 0 0 0 0 -3311883.9172388446 -1041332.9937875569 0 -1041332.9937875569 4901805.8207602054 0 0 0 0 -33744479.226891041 -14919702.785991669 0 -14919702.785991669 31165981.988986015 0 0 0 0 -1897225.2297900468 -1837696.6419102922 0 -1837696.6419102922 20682588.159176916 0 0 0 0 -40436771.478847116 -96450423.098261356 0 -96450423.098261356 -102548890.59962463 0 0 0 0 13409457.903772727 -106737887.60492706 0 -106737887.60492706 -105951525.77916718 0 0 0 0 -84694730.391183034 -29504017.372676849 0 -29504017.372676849 -56991748.212890625 0 0 0 0 75423994.286193341 30086174.993965149 0 30086174.993965149 -42520333.705169678 0 0 0 0 -39795629.688297465 15767470.719154358 0 15767470.719154358 -32454752.128456116 0 0 0 0 52923293.786058515 -46643145.483428955 0 -46643145.483428955 -123313132.60210037 0 0 0 0 -45736794.259454608 -3043844.7786312103 0 -3043844.7786312103 101319675.9512291 0 0 0 0 -22057285.137829781 -35524147.508968353 0 -35524147.508968353 145865707.14341736 0 0 0 0 -90368735.265516281 96976336.372550964 0 96976336.372550964 84410135.558815002 0 0 0 0 356670.96985294868 1776576.1316156196 0 1776576.1316156196 836892.57589305192 0 0 0 0 -63954033.981745958 15652837.484570503 0 15652837.484570503 274350759.64781952 0 0 0 0 -2018974.9712077889 -2823405.7780241407 0 -2823405.7780241407 22615210.143014446 0 0 0 0 -27382968.379936278 -81541827.074747562 0 -81541827.074747562 232706768.34600067 0 0 0 0 57232120.330503464 -217847482.30728912 0 -217847482.30728912 488995518.8097229 0 0 0 0 68339910.011660099 -82807146.460229874 0 -82807146.460229874 98939454.59822464 0 0 0 0 142126836.0952723 48893106.529253006 0 48893106.529253006 -195244645.35676193 0 0 0 0 -33569638.930549264 -11523893.236881256 0 -11523893.236881256 55130963.568649292 0 0 0 0 -539309.11835169792 -21768244.763671875 0 -21768244.763671875 94635263.28319931 0 0 0 0 26711451.694191217 -19385034.987672806 0 -19385034.987672806 5807700.0118713379 0 0 0 0 15369327.845768213 10062051.747263908 0 10062051.747263908 2432126.9248275757 0 0 0 0 3042379.7821722031 27729404.660961151 0 27729404.660961151 15990889.492266655 0 0 0 0 -12665243.200325489 16215709.632225037 0 16215709.632225037 13685288.904838562 0 0 0 0 1545213.3424255205 7757030.1118383016 0 7757030.1118383016 2007757.9169391692 0 0 0 0 25708669.217105865 25931066.244718552 0 25931066.244718552 -12231348.144332886 0 0 0 0 -22052434.300705791 38816009.467394352 0 38816009.467394352 57883115.615097046 0 0 0 0 -7318561.1252632141 11546557.655105591 0 11546557.655105591 20707651.522094727 0 0 0 0 727207.81368352007 6155043.2814197578 0 6155043.2814197578 15192147.126836136 0 0 0 0 -8959083.716628015 11687506.048494339 0 11687506.048494339 26106874.533905029 0 0 0 0 4772327.2159267664 14356196.5259552 0 14356196.5259552 15681180.746307373 0 0 0 0 -96293.496524699032 -5613.8290150277317 0 -5613.8290150277317 1137878.995635882 0 0 0 0 1453702.008440733 12538248.926113129 0 12538248.926113129 33458215.518569946 0 0 0 0 4656224.3293321133 9843812.2506885529 0 9843812.2506885529 3181309.8266296387 0 0 0 0 -716634.24042882537 1086112.0025484934 0 1086112.0025484934 10234457.228768639 0 0 0 0 15535136.766398191 -3697175.1700572968 0 -3697175.1700572968 19994344.545536041 0 0 0 0 7024930.6605349779 13374925.565870285 0 13374925.565870285 41068655.349998474 0 0 0 0 -2784767.1291184425 16582144.265359879 0 16582144.265359879 51184734.526436806 0 0 0 0 7526255.223094821 3027907.9975395203 0 3027907.9975395203 30118922.275188446 0 0 0 0 -431982.48645658838 417786.83695369214 0 417786.83695369214 4598121.11296493 0 0 0 0 -9837838.6857323647 -1682798.5641059875 0 -1682798.5641059875 77056397.980228424 0 0 0 0 -11126250.827966213 43493290.214122772 0 43493290.214122772 105130314.98701286 0 0 0 0 8129761.2907783985 64548685.785816193 0 64548685.785816193 87869005.814529419 0 0 0 0 -414410.27569359588 164009.41097529791 0 164009.41097529791 606018.10207716376 0 0 0 0 -43520100.109835386 -58611721.701061249 0 -58611721.701061249 -3181828.1231541634 0 0 0 0 -34187315.715695381 -17423062.29076767 0 -17423062.29076767 59298341.907186508 0 0 0 0 -26638454.510923207 34171548.756933212 0 34171548.756933212 77124895.679561615 0 0 0 0 -17585797.410763741 36395186.938245773 0 36395186.938245773 76975973.050785065 0 0 0 0 -2797153.9723701477 36809686.159950256 0 36809686.159950256 60506143.863769531 0 0 0 0 5341989.6514569819 53111154.230351448 0 53111154.230351448 71122523.346496582 0 0 0 0 -11425459.638324976 29135458.940097809 0 29135458.940097809 40053117.069860458 0 0 0 0 -27171591.249816179 24436670.977783203 0 24436670.977783203 62401352.533882141 0 0 0 0 -27112884.838872194 21450095.8829422 0 21450095.8829422 75394415.851307392 0 0 0 0 10380246.499923468 30164501.671466827 0 30164501.671466827 59016793.162698746 0 0 0 0 -21824238.811714649 39307971.345283508 0 39307971.345283508 54760147.117893219 0 0 0 0 -19578029.482415296 24648834.559325218 0 24648834.559325218 58989752.155921936 0 0 0 0 -1362141.8961734548 29896537.65325737 0 29896537.65325737 34059333.994316101 0 0 0 0 -2735782.1283181906 24870429.219642639 0 24870429.219642639 49577570.628997803 0 0 0 0 -231578.39553269441 -34092.813738871366 0 -34092.813738871366 1405261.4136783667 0 0 0 0 -2430702.2090829611 8285879.8356351852 0 8285879.8356351852 8236702.0220947266 0 0 0 0 -7805960.8786282539 23806689.397670746 0 23806689.397670746 71016547.323413849 0 0 0 0 -3074993.3733019829 7596639.8189201355 0 7596639.8189201355 59871097.134880066 0 0 0 0 1921142.9189560413 16374334.266307831 0 16374334.266307831 33606483.94606781 0 0 0 0 -513069.55935835838 12306680.362075806 0 12306680.362075806 31736491.332532883 0 0 0 0 5670763.7715732902 23437878.276468277 0 23437878.276468277 38674811.662635803 0 0 0 0 -1385516.8841875358 1539265.8175471537 0 1539265.8175471537 6175348.1097051464 0 0 0 0 8482425.0938725471 16200582.944961548 0 16200582.944961548 31837522.864677429 0 0 0 0 -1241698.974456884 2173838.2352345865 0 2173838.2352345865 5184867.4586915821 0 0 0 0 1194663.2992324829 15147096.074638367 0 15147096.074638367 43847428.120685577 0 0 0 0 1757998.84741067 10219677.953224748 0 10219677.953224748 -2982415.1219530101 0 0 0 0 5259525.596038755 31700263.555434227 0 31700263.555434227 52220138.666542053 0 0 0 0 1502775.7788540125 7665343.3235015869 0 7665343.3235015869 28599117.679191589 0 0 0 0 746171.15970420837 -2189507.2262611389 0 -2189507.2262611389 -11856295.544235229 0 0 0 0 -4023916.4964326825 2718825.3888482898 0 2718825.3888482898 18283938.00345882 0 0 0 0 6712961.0055709183 23620786.414558411 0 23620786.414558411 3452644.6200866699 0 0 0 0 -9476928.3812212124 14387173.689929962 0 14387173.689929962 111707660.8406601 0 0 0 0 3273415.2109187283 20649705.860007286 0 20649705.860007286 61807167.448455811 0 0 0 0 12830508.699007178 434243.49934387207 0 434243.49934387207 123627436.59792137 0 0 0 0 -10538932.135760739 39602124.733978271 0 39602124.733978271 67899645.197006226 0 0 0 0 -4162166.9864118355 11240363.416004181 0 11240363.416004181 75620751.449951172 0 0 0 0 -13828327.340121895 28056522.729652405 0 28056522.729652405 120796572.08387756 0 0 0 0 21259801.073236644 45703264.426605225 0 45703264.426605225 60753850.308017731 0 0 0 0 1885741.7914740425 10214499.588446304 0 10214499.588446304 7625293.422319985 0 0 0 0 -256518.26966097951 21303768.931194305 0 21303768.931194305 -7411067.1358795166 0 0 0 0 3072207.0414139479 5558472.5847625732 0 5558472.5847625732 42234456.755004883 0 0 0 0 10220801.647354364 15274382.25485611 0 15274382.25485611 11222780.981090546 0 0 0 0 -32952350.107900426 45803348.510192871 0 45803348.510192871 67269584.185011864 0 0 0 0 -35014148.387909964 20613819.569961548 0 20613819.569961548 73041277.744533539 0 0 0 0 -852577.54947100091 53448.207333609462 0 53448.207333609462 2164134.5029352829 0 0 0 0 30639652.359665304 49631386.011940002 0 49631386.011940002 -63529.058256149292 0 0 0 0 -19656598.273634985 53091964.49215126 0 53091964.49215126 89150185.696975708 0 0 0 0 2399065.3049548711 9928134.7763379402 0 9928134.7763379402 7165341.0255626719 0 0 0 0 7050365.4809520245 5441329.8799667358 0 5441329.8799667358 -32875438.900676966 0 0 0 0 41097433.246162117 -1521257.3804779053 0 -1521257.3804779053 -32646894.959228516 0 0 0 0 8051167.2716777325 10807236.456662178 0 10807236.456662178 18663090.898849487 0 0 0 0 -44216466.808893025 16434174.789974213 0 16434174.789974213 321539774.76436615 0 0 0 0 -21467817.514416695 123883785.66932678 0 123883785.66932678 139142716.37008667 0 0 0 0 29002505.256733537 80661440.832168579 0 80661440.832168579 147083223.14125824 0 0 0 0 17460641.851079345 11435156.672935486 0 11435156.672935486 326620633.07989502 0 0 0 0 4993828.6699162126 6332626.9236679077 0 6332626.9236679077 124504025.13358307 0 0 0 0 48545127.403696537 12458293.653335571 0 12458293.653335571 125228964.63964081 0 0 0 0 1495612.2039246685 762407.79209180176 0 762407.79209180176 1463869.3872206584 0 0 0 0 -14237314.96956739 21416501.028957367 0 21416501.028957367 206537761.52122498 0 0 0 0 -38040786.907488793 -33837396.509178162 0 -33837396.509178162 273057875.60012817 0 0 0 0 159787473.94074392 -126681875.21085739 0 -126681875.21085739 298687265.844841 0 0 0 0 835430.22701081168 83911.575999546796 0 83911.575999546796 305273.40895068273 0 0 0 0 459365370.21057248 110261555.21694565 0 110261555.21694565 -419107679.91921234 0 0 0 0 -139026441.37934637 -12353669.488525391 0 -12353669.488525391 656246659.12084198 0 0 0 0 127200715.28947781 47089198.186477661 0 47089198.186477661 86346385.446060181 0 0 0 0 -172572991.82246512 -28034881.439849854 0 -28034881.439849854 92935920.820552826 0 0 0 0 -100509821.97579972 186141363.8039093 0 186141363.8039093 -160478830.55155945 0 0 0 0 -67203573.721527696 15519750.669692993 0 15519750.669692993 38231387.015869141 0 0 0 0 1569873.425825052 1173644.9566426687 0 1173644.9566426687 3143297.8171591833 0 0 0 0 -19981982.954086065 37840905.77394104 0 37840905.77394104 -68590845.833564758 0 0 0 0 -4294265.0891440213 -14122110.879070282 0 -14122110.879070282 152952788.9260788 0 0 0 0 -16737339.859286562 29206780.115180969 0 29206780.115180969 132638938.02135468 0 0 0 0 15708052.546323556 -7510630.8011016846 0 -7510630.8011016846 134442232.71868896 0 0 0 0 12750254.712753739 -51852436.893104553 0 -51852436.893104553 200910542.77886963 0 0 0 0 -66664753.347155452 4349497.7045707703 0 4349497.7045707703 65744689.817333221 0 0 0 0 -33821125.019447088 -17849375.50554657 0 -17849375.50554657 79652191.025871277 0 0 0 0 -32125185.605025291 -7107617.9285240173 0 -7107617.9285240173 56448017.875862122 0 0 0 0 -34073162.882561684 8973996.5256881714 0 8973996.5256881714 74319984.458198547 0 0 0 0 -28571572.034008026 21953648.203500748 0 21953648.203500748 57389602.773208618 0 0 0 0 -75831531.840862155 37001074.300804138 0 37001074.300804138 32939451.468513489 0 0 0 0 -32692439.483238697 7274978.1850128174 0 7274978.1850128174 27575890.596885681 0 0 0 0 -117600561.29803503 -14037183.111400604 0 -14037183.111400604 150790547.28163147 0 0 0 0 -94103067.420642614 26521345.043640137 0 26521345.043640137 54351056.197277069 0 0 0 0 -69803978.460591257 -74790928.857727051 0 -74790928.857727051 197954371.91584015 0 0 0 0 35161738.324221924 -54602541.993537903 0 -54602541.993537903 109911056.09249878 0 0 0 0 -32179823.521029413 -44774997.990898132 0 -44774997.990898132 125053545.43843079 0 0 0 0 -33545792.235943817 -62196847.095840454 0 -62196847.095840454 107841118.24189758 0 0 0 0 -21553579.856213152 -55918284.412155151 0 -55918284.412155151 71633474.234283447 0 0 0 0 30270568.680747658 -76525413.819847107 0 -76525413.819847107 73870454.954734802 0 0 0 0 -63613886.207828 -17550141.36252737 0 -17550141.36252737 102166708.23498535 0 0 0 0 -60367651.27565372 -45934821.848892212 0 -45934821.848892212 99686930.55544281 0 0 0 0 -61250922.242974877 -30175219.186149597 0 -30175219.186149597 81237031.41229248 0 0 0 0 -39607114.299394965 -29796119.014587402 0 -29796119.014587402 75931322.270317078 0 0 0 0 -44280829.089080572 -36743754.171630859 0 -36743754.171630859 67686128.574661255 0 0 0 0 -51068929.468772173 -20774490.661529541 0 -20774490.661529541 41048252.202301025 0 0 0 0 -19656209.883246422 -1475166.306388855 0 -1475166.306388855 41058836.661876678 0 0 0 0 -12754687.423560575 62293540.806884766 0 62293540.806884766 3460017.7982635498 0 0 0 0 -62873249.781474531 13650829.712554932 0 13650829.712554932 28541140.900665283 0 0 0 0 -19811945.054540813 -21406226.843261719 0 -21406226.843261719 13592922.169021606 0 0 0 0 -45244527.238846213 -11485719.5157547 0 -11485719.5157547 55360605.714447021 0 0 0 0 -31281.176477317786 117921.6362468414 0 117921.6362468414 290699.61973681301 0 0 0 0 -90425575.539905518 85485441.522632599 0 85485441.522632599 -2327943.4030914307 0 0 0 0 19743533.899677645 -79846648.821597099 0 -79846648.821597099 -149341493.58285522 0 0 0 0 -162750940.07202262 19222744.716957092 0 19222744.716957092 47792568.84431076 0 0 0 0 -11539360.699282378 47500248.047332764 0 47500248.047332764 -98655264.197629929 0 0 0 0 -70706310.114807069 -86652433.689048767 0 -86652433.689048767 13812877.28302002 0 0 0 0 -354582.21171555965 109525.57468135655 0 109525.57468135655 1133220.657641463 0 0 0 0 -21339579.490399163 91110256.389198303 0 91110256.389198303 -292627019.95112228 0 0 0 0 -30151063.807978749 -7070294.4916152954 0 -7070294.4916152954 80875427.041618347 0 0 0 0 295222.26806878817 5169503.0456026644 0 5169503.0456026644 2486787.2561824955 0 0 0 0 -1660656.6143673458 -4061010.3577203378 0 -4061010.3577203378 3431088.095300775 0 0 0 0 505086.0801589489 57489.361030578613 0 57489.361030578613 16436299.510349274 0 0 0 0 -13220091.722147942 -9625361.6981201172 0 -9625361.6981201172 71879063.954307556 0 0 0 0 -43344456.461161315 -16682419.554356575 0 -16682419.554356575 84860380.362747192 0 0 0 0 11465759.205756187 30614116.245315552 0 30614116.245315552 79367247.047164917 0 0 0 0 -2964814.6653202036 -3205467.6274993829 0 -3205467.6274993829 5743298.9499071129 0 0 0 0 1179259.6658145785 31822314.344050407 0 31822314.344050407 90731371.913589478 0 0 0 0 -8437492.7923185825 -5731486.5806884766 0 -5731486.5806884766 82600099.855583191 0 0 0 0 -9551416.8866622895 19672931.499214172 0 19672931.499214172 107140641.69529724 0 0 0 0 -940212.73607373238 1590272.7383575439 0 1590272.7383575439 15139158.088489532 0 0 0 0 -1232743.6009931564 2434920.8708782196 0 2434920.8708782196 16519137.547996521 0 0 0 0 183939.13071611989 5659402.8753168397 0 5659402.8753168397 4618921.5332845375 0 0 0 0 -2806212.0170359313 31704593.39653492 0 31704593.39653492 -67190071.117835999 0 0 0 0 -2392961.0254596472 16597430.620731354 0 16597430.620731354 -37514986.976272583 0 0 0 0 -10334212.883517742 14576182.419354439 0 14576182.419354439 -32658050.926483154 0 0 0 0 -45034141.143932104 30619486.850486755 0 30619486.850486755 -17886251.868274689 0 0 0 0 -10618244.825873444 689917.10741710663 0 689917.10741710663 2474902.9659805298 0 0 0 0 -19087313.494138718 19315255.602970123 0 19315255.602970123 3245671.7024230957 0 0 0 0 7034420.451820612 16983913.76512146 0 16983913.76512146 -37524080.364830017 0 0 0 0 663167.97147321701 10034088.915081024 0 10034088.915081024 7574246.8548660278 0 0 0 0 1060793.2540463805 1110845.9498901367 0 1110845.9498901367 9497566.4011001587 0 0 0 0 88184.600570678711 17392830.163574219 0 17392830.163574219 19013235.587226868 0 0 0 0 8223671.4077560306 25305903.268199801 0 25305903.268199801 7647640.2628250122 0 0 0 0 2011134.722195819 -8428124.0839195251 0 -8428124.0839195251 7021086.6623344421 0 0 0 0 938456.52927656099 819734.24738740921 0 819734.24738740921 9121633.5211029053 0 0 0 0 -10681958.54199259 5401278.4829444885 0 5401278.4829444885 7929978.1297492981 0 0 0 0 7477078.0800632238 -10638972.290397644 0 -10638972.290397644 7887500.2325458527 0 0 0 0 -10749748.369569438 -15813444.103873245 0 -15813444.103873245 14909556.769050598 0 0 0 0 -161516.71891905609 -75642.27411647886 0 -75642.27411647886 144578.54388638586 0 0 0 0 -1062465.8563938439 -11755691.097206116 0 -11755691.097206116 15174238.811408997 0 0 0 0 -21794332.863115147 -6330714.9592781067 0 -6330714.9592781067 22061145.750114441 0 0 0 0 -104935977.50481763 76476365.804550171 0 76476365.804550171 40612774.648727417 0 0 0 0 -14907924.079864945 51912186.167438507 0 51912186.167438507 -54197922.398895264 0 0 0 0 -105871822.55638015 139364888.74369431 0 139364888.74369431 -18167939.586135864 0 0 0 0 117302844.25405771 -43199894.885440826 0 -43199894.885440826 -20868918.82484436 0 0 0 0 12225538.547170192 -24513663.250465393 0 -24513663.250465393 2501464.539484024 0 0 0 0 -116029820.92450494 11306821.517066956 0 11306821.517066956 56602392.530021667 0 0 0 0 -36857.294974799559 -253007.82965236658 0 -253007.82965236658 374562.58276093006 0 0 0 0 -110733.21627338737 -672125.80513140024 0 -672125.80513140024 905231.53881126642 0 0 0 0 28407062.871159613 -16517072.833908081 0 -16517072.833908081 4352763.6326980591 0 0 0 0 23505623.792431265 -4674374.7911338806 0 -4674374.7911338806 19742211.387184143 0 0 0 0 7956503.6404734999 -7218239.1529896259 0 -7218239.1529896259 4293683.2137527466 0 0 0 0 33628978.094312608 -86249192.928131104 0 -86249192.928131104 -6847451.4036445618 0 0 0 0 -125118319.36112481 -9558285.4714313149 0 -9558285.4714313149 80884073.123954773 0 0 0 0 14614944.335033894 -86337813.426166534 0 -86337813.426166534 9217319.1650085449 0 0 0 0 -166269.44715277647 -862154.03353187034 0 -862154.03353187034 1001181.7929092199 0 0 0 0 -11003430.318074152 -2604272.5164718628 0 -2604272.5164718628 675684.21752929688 0 0 0 0 6596980.7299585938 -5729812.4200019836 0 -5729812.4200019836 4510991.5998382568 0 0 0 0 5442176.1132466793 -6292705.678352356 0 -6292705.678352356 5785177.9794692993 0 0 0 0 3826379.7526768446 -5526980.9418716431 0 -5526980.9418716431 5426297.5520782471 0 0 0 0 -159623.26385285216 -131879.99132502824 0 -131879.99132502824 378731.11311187362 0 0 0 0 145551000.32409286 -89410284.363866806 0 -89410284.363866806 55960404.3179245 0 0 0 0 42693783.872555733 -67888183.931915283 0 -67888183.931915283 -156208017.70234013 0 0 0 0 60940738.763502598 -116121302.69216156 0 -116121302.69216156 7520224.8053326607 0 0 0 0 20998689.126505256 -103210248.9539032 0 -103210248.9539032 7868181.4557803869 0 0 0 0 135966471.55515301 57985195.892162323 0 57985195.892162323 110290093.68417931 0 0 0 0 29826852.265819311 -147750921.44664383 0 -147750921.44664383 183042491.29136658 0 0 0 0 21000975.525879204 3331109.3650665283 0 3331109.3650665283 94130953.155639648 0 0 0 0 18010160.998201907 -14636288.256393433 0 -14636288.256393433 -13338154.762706757 0 0 0 0 -15707687.051940262 62551197.775577545 0 62551197.775577545 23607016.172613144 0 0 0 0 112501245.89535803 15510650.415477753 0 15510650.415477753 25500722.995452881 0 0 0 0 53442319.778946489 37051227.332633972 0 37051227.332633972 41194787.024147034 0 0 0 0 59404977.274122596 46915210.012367249 0 46915210.012367249 46093158.25982666 0 0 0 0 72390942.456481159 26709249.042678833 0 26709249.042678833 40314838.718791962 0 0 0 0 53777961.958069146 41662111.51750946 0 41662111.51750946 50885125.639762878 0 0 0 0 59804699.996728778 65927406.636756897 0 65927406.636756897 53677596.156569481 0 0 0 0 18932695.089041024 11124800.427829742 0 11124800.427829742 27140590.803207397 0 0 0 0 106902857.71534312 54050261.824073792 0 54050261.824073792 16390125.285676003 0 0 0 0 51763724.764053524 49733021.248626709 0 49733021.248626709 31115525.717414856 0 0 0 0 38506098.52157855 15861246.984081268 0 15861246.984081268 22952444.865768433 0 0 0 0 22031327.281352341 3519628.0313186646 0 3519628.0313186646 45777625.354503632 0 0 0 0 -1086246.8309231997 -92174056.35496521 0 -92174056.35496521 50982260.061195374 0 0 0 0 -54533228.558050931 17818340.897880554 0 17818340.897880554 27634905.003149033 0 0 0 0 -43564747.456900477 93242259.138896942 0 93242259.138896942 9620008.5514316559 0 0 0 0 -11130420.694626257 67096948.644830704 0 67096948.644830704 -37155227.844467163 0 0 0 0 292989.92640180408 485610.06364931539 0 485610.06364931539 485792.90653464943 0 0 0 0 -10122255.295378506 -27533455.843929291 0 -27533455.843929291 20101393.007324219 0 0 0 0 66381896.858667076 -9391906.954410553 0 -9391906.954410553 -51702891.829200745 0 0 0 0 197991.09107373084 307295.44033715129 0 307295.44033715129 308586.21249901503 0 0 0 0 -103589684.06159073 110454031.78905296 0 110454031.78905296 243796048.71949768 0 0 0 0 144632557.78301704 121487718.78199387 0 121487718.78199387 8737018.6028442383 0 0 0 0 43487032.152765855 -2744172.9709811211 0 -2744172.9709811211 -73656022.255554199 0 0 0 0 23484402.986062333 -99591695.986869812 0 -99591695.986869812 64234306.802749634 0 0 0 0 114079029.69923356 18291396.668308258 0 18291396.668308258 125116467.84442139 0 0 0 0 17218702.488350615 -18966585.700990677 0 -18966585.700990677 298097660.80410767 0 0 0 0 145457304.77822679 -60713097.941131592 0 -60713097.941131592 224690661.24004364 0 0 0 0 129626134.88565528 168091899.79147339 0 168091899.79147339 616608876.4805603 0 0 0 0 114362202.39256714 45297973.317512512 0 45297973.317512512 139556994.50669098 0 0 0 0 141060118.50323209 214209327.49165866 0 214209327.49165866 286319488.85380554 0 0 0 0 -78107142.438454151 26852090.668807983 0 26852090.668807983 453800148.14154816 0 0 0 0 329000.80594044924 1484533.0723190308 0 1484533.0723190308 176677854.7740078 0 0 0 0 61366996.007842779 174854848.36775208 0 174854848.36775208 300195717.78126276 0 0 0 0 -22548040.229850531 -6211583.4409675598 0 -6211583.4409675598 301054206.7124176 0 0 0 0 4453585.8007603884 35834621.641265869 0 35834621.641265869 218600284.6845932 0 0 0 0 5065561.2201480791 34038630.06934166 0 34038630.06934166 173795704.82289124 0 0 0 0 38684003.184437931 54889689.034946442 0 54889689.034946442 101920660.51690674 0 0 0 0 29736493.214759469 81897676.612091064 0 81897676.612091064 186368914.72595596 0 0 0 0 48626999.616065145 55909667.279045105 0 55909667.279045105 101744903.91016388 0 0 0 0 60373105.041606069 73573670.988071442 0 73573670.988071442 99263578.021759033 0 0 0 0 31425497.631755322 94228448.769763947 0 94228448.769763947 102847927.00621033 0 0 0 0 -11934218.475628674 51986093.65184021 0 51986093.65184021 45696617.812999725 0 0 0 0 41311212.291830122 27127030.432479858 0 27127030.432479858 73818618.838027954 0 0 0 0 29925838.71679002 50618106.647315979 0 50618106.647315979 84992729.689149857 0 0 0 0 35965668.75799042 28243927.003246307 0 28243927.003246307 172357198.5188446 0 0 0 0 -10238397.310351193 16489158.126045227 0 16489158.126045227 243732465.90857697 0 0 0 0 17793658.593023241 -35214764.36964035 0 -35214764.36964035 157921533.5178299 0 0 0 0 78486.987395167409 -33335.379750229418 0 -33335.379750229418 273986.94339009561 0 0 0 0 19997640.056294899 -34065295.375454426 0 -34065295.375454426 -19584532.449913025 0 0 0 0 -5383.2216256852553 -128294.40041525662 0 -128294.40041525662 301581.56119929254 0 0 0 0 -33548687.497547492 -107182502.88642836 0 -107182502.88642836 70960451.378997803 0 0 0 0 15027770.861004394 56153319.461610794 0 56153319.461610794 96685301.670791626 0 0 0 0 8403789.2758610249 74005480.736083984 0 74005480.736083984 159587507.63720322 0 0 0 0 -3555403.6223782897 23082782.534515381 0 23082782.534515381 43220776.520176768 0 0 0 0 -25438201.897786371 26433698.676383972 0 26433698.676383972 97028317.225715637 0 0 0 0 -35498.16173903126 -255611.1393917501 0 -255611.1393917501 610256.27717184275 0 0 0 0 -36373778.035639688 -20145716.70797348 0 -20145716.70797348 42343759.072545648 0 0 0 0 -36408638.789906129 3634744.3954916 0 3634744.3954916 61536862.237174988 0 0 0 0 10443482.373393565 15554715.697532654 0 15554715.697532654 59184523.689107895 0 0 0 0 4894617.9538341239 41145377.622595787 0 41145377.622595787 104405208.68753815 0 0 0 0 -1038226.6091604829 -6044413.3065414429 0 -6044413.3065414429 152247183.70452499 0 0 0 0 34438459.852889329 17100625.555397034 0 17100625.555397034 102413381.94802475 0 0 0 0 -2002421.7739186883 45617340.824972153 0 45617340.824972153 83292306.196685791 0 0 0 0 23627650.125499129 28404348.328746796 0 28404348.328746796 60906769.642631531 0 0 0 0 49594187.876049235 49900542.655950546 0 49900542.655950546 64442635.79775238 0 0 0 0 55884537.967724323 43126650.43636322 0 43126650.43636322 64941208.005788326 0 0 0 0 31285911.970263742 30694562.899884224 0 30694562.899884224 67719582.827453613 0 0 0 0 59657534.005449593 12225089.636837006 0 12225089.636837006 79686629.297584534 0 0 0 0 79471677.236694306 -24471693.810764313 0 -24471693.810764313 87312469.238479614 0 0 0 0 60126658.478549421 -5029917.842414856 0 -5029917.842414856 68140605.432044983 0 0 0 0 39266406.636306062 -23922545.628828049 0 -23922545.628828049 126385446.61030579 0 0 0 0 2269809.9084682018 -21967686.259046555 0 -21967686.259046555 129655505.07138062 0 0 0 0 156323478.21894008 -64642685.639625072 0 -64642685.639625072 77345616.691474915 0 0 0 0 50043416.205825448 -82028207.299160004 0 -82028207.299160004 198488650.42652893 0 0 0 0 -4779904.8854959607 35440587.920417786 0 35440587.920417786 204435957.23937988 0 0 0 0 16809006.273391291 4234561.7744827271 0 4234561.7744827271 55668527.216621399 0 0 0 0 -135408.32196218544 -146006.66089752316 0 -146006.66089752316 795652.55046719871 0 0 0 0 107265.84517872951 -313453.33954173326 0 -313453.33954173326 579742.12244135141 0 0 0 0 5905144.4325482696 899216.81992721558 0 899216.81992721558 71820360.483246088 0 0 0 0 6384.6239693366224 -24950.525497995317 0 -24950.525497995317 426854.72397610266 0 0 0 0 -12217712.56867978 9232560.86536026 0 9232560.86536026 128793856.46638489 0 0 0 0 -2131262.6606329158 -16908769.636102676 0 -16908769.636102676 133782022.66194153 0 0 0 0 5569440.5549608767 -19742196.469760895 0 -19742196.469760895 125714618.06008959 0 0 0 0 113648.98839196563 6657621.1524581909 0 6657621.1524581909 102566036.3134079 0 0 0 0 2944389.6267040223 -13860548.103351593 0 -13860548.103351593 133804592.44920349 0 0 0 0 2121943.2522154478 -19789160.103429794 0 -19789160.103429794 180477694.72737885 0 0 0 0 25929969.360156942 4533378.5559539795 0 4533378.5559539795 120813142.66642761 0 0 0 0 22834800.104852527 -25314534.281955719 0 -25314534.281955719 137862473.67657852 0 0 0 0 2127585.1614306429 -4073772.290222168 0 -4073772.290222168 118644456.49887085 0 0 0 0 8683349.9408182558 -1808074.7849330902 0 -1808074.7849330902 114378523.92778778 0 0 0 0 -3887461.7423844431 9446379.6919174194 0 9446379.6919174194 97436888.757575989 0 0 0 0 8183863.3194607981 -8600347.5184288025 0 -8600347.5184288025 106937656.12252808 0 0 0 0 4176913.9753607805 10486859.24358511 0 10486859.24358511 103347481.75002289 0 0 0 0 4936618.4233252257 1757725.0624923706 0 1757725.0624923706 93932598.007946014 0 0 0 0 -3891168.9780021347 8943901.0084152222 0 8943901.0084152222 90348784.661605835 0 0 0 0 8637013.8621780127 913449.82135391235 0 913449.82135391235 70590103.171691895 0 0 0 0 47229.865292389077 -13874.348359197378 0 -13874.348359197378 228918.08974329382 0 0 0 0 1417116.6746552873 16559306.667129517 0 16559306.667129517 65882236.001113892 0 0 0 0 1266383.5600344185 8744631.4015350342 0 8744631.4015350342 85835025.636291504 0 0 0 0 5183667.7025987841 10128538.047111511 0 10128538.047111511 81355760.615825176 0 0 0 0 24734.35553356176 -12035.111642047763 0 -12035.111642047763 81318.238460242283 0 0 0 0 -1768191.662120685 -4416123.255355835 0 -4416123.255355835 19125562.443294525 0 0 0 0 5991113.9979252014 10162966.464277744 0 10162966.464277744 86254221.590362549 0 0 0 0 -4656234.7195195025 2070315.0970840454 0 2070315.0970840454 105424172.04989624 0 0 0 0 4667.93622000497 -254319.50957489014 0 -254319.50957489014 87399528.169025421 0 0 0 0 4901768.8330726298 9553884.8358612061 0 9553884.8358612061 109365644.36369324 0 0 0 0 -11316.87898684866 -863439.86515045166 0 -863439.86515045166 122479361.7350235 0 0 0 0 1947723.1624019956 873155.54111480713 0 873155.54111480713 123833032.0880661 0 0 0 0 9945.6312642704743 -27974.968940734863 0 -27974.968940734863 124530823.91445541 0 0 0 0 7175093.0272003477 -5289591.2023048401 0 -5289591.2023048401 104122842.13179016 0 0 0 0 2296823.0957216234 3484686.9962873459 0 3484686.9962873459 139861432.56573486 0 0 0 0 9448759.7051090784 -29443217.155264497 0 -29443217.155264497 100076239.97410583 0 0 0 0 8627260.8949848637 -46993115.346837997 0 -46993115.346837997 -16745246.17382431 0 0 0 0 6438518.9599271026 54326527.737619877 0 54326527.737619877 211384703.62089539 0 0 0 0 -29165.079516926955 -119896.05809865519 0 -119896.05809865519 322416.93083018064 0 0 0 0 9335412.1138574369 -13985542.25169754 0 -13985542.25169754 136548409.13471985 0 0 0 0 50401389.620334238 -1393128.5833816528 0 -1393128.5833816528 55362321.779777527 0 0 0 0 -37358324.424194328 13113318.59017849 0 13113318.59017849 85646638.203437805 0 0 0 0 -4582819.3826927077 14142548.536533356 0 14142548.536533356 104883619.03702545 0 0 0 0 -12458136.778092161 30092060.232826233 0 30092060.232826233 73326806.49332428 0 0 0 0 -4454824.7926970832 22898867.918645859 0 22898867.918645859 175725511.03259277 0 0 0 0 -17129045.199708395 -8937402.9926528931 0 -8937402.9926528931 142409038.51858521 0 0 0 0 38146558.343828857 35211610.808803558 0 35211610.808803558 116024020.65457535 0 0 0 0 -9139.4512166382792 10633232.516460419 0 10633232.516460419 111861571.92581177 0 0 0 0 -3259914.2725654133 -15966491.196544647 0 -15966491.196544647 82560625.746292114 0 0 0 0 10308348.984375749 6295043.0451450348 0 6295043.0451450348 106210218.73647308 0 0 0 0 -498396.55271148682 18944206.470451355 0 18944206.470451355 -12157085.115739346 0 0 0 0 -1582428.7623767853 26673898.613639832 0 26673898.613639832 411871.37168121338 0 0 0 0 18167760.019262314 28972037.989746094 0 28972037.989746094 352637.39582622051 0 0 0 0 -15858092.042017937 32650640.207176208 0 32650640.207176208 14149187.08770752 0 0 0 0 -16528186.756771088 31662533.442706108 0 31662533.442706108 17282010.983703613 0 0 0 0 -20098372.832591057 23515596.29731369 0 23515596.29731369 14314910.877532959 0 0 0 0 -10600692.718379974 24608018.549968719 0 24608018.549968719 2949478.5482177734 0 0 0 0 -9719135.4547576904 24283512.635688782 0 24283512.635688782 -708375.85859680176 0 0 0 0 -694225.54328021407 35915939.955424577 0 35915939.955424577 6237669.5608215332 0 0 0 0 -15095452.408981323 21565486.695800781 0 21565486.695800781 3434315.4306983948 0 0 0 0 64554612.860323548 -78068562.778423309 0 -78068562.778423309 -140563589.30224419 0 0 0 0 -1445406.1467799647 4564694.7991793472 0 4564694.7991793472 11195148.63105179 0 0 0 0 -10949591.032962799 22667062.56502533 0 22667062.56502533 3704408.9272556305 0 0 0 0 -31311578.704092026 18544310.53767395 0 18544310.53767395 -18025657.181705475 0 0 0 0 -11790174.00810957 -22443155.93721199 0 -22443155.93721199 58885957.333847046 0 0 0 0 84052061.760280609 -339135199.36564636 0 -339135199.36564636 28578623.59277916 0 0 0 0 54006981.747245789 11932024.557067871 0 11932024.557067871 -9788772.2262001038 0 0 0 0 35726540.367718697 -8365316.5041275024 0 -8365316.5041275024 314548132.6700058 0 0 0 0 40040859.348325729 584869.50405502319 0 584869.50405502319 333114025.0945282 0 0 0 0 47207910.485167384 276427616.5438379 0 276427616.5438379 -16606798.796733856 0 0 0 0 -59335806.554145813 68942638.051208496 0 68942638.051208496 765752542.74407959 0 0 0 0 -13814415.848968506 -458880984.05932617 0 -458880984.05932617 225848488.6456852 0 0 0 0 -157985327.81857681 -418654513.27270508 0 -418654513.27270508 600056967.76621819 0 0 0 0 -18954368.32765007 3937281.7283248901 0 3937281.7283248901 -12535569.979559302 0 0 0 0 -9192215.2880058289 21613326.32585907 0 21613326.32585907 1403867.8076629639 0 0 0 0 3192266.4046506984 8419585.4052850418 0 8419585.4052850418 13680390.747552749 0 0 0 0 23054664.543201923 7670378.9621715546 0 7670378.9621715546 -62556244.659152985 0 0 0 0 -10582010.691809593 2267955.4701984264 0 2267955.4701984264 21708822.15930808 0 0 0 0 -56671211.679918289 -26659838.091501236 0 -26659838.091501236 92707779.734443665 0 0 0 0 -2906892.0841190815 8967331.8178462982 0 8967331.8178462982 19293233.100250244 0 0 0 0 -1975642.5420630188 13304465.710670076 0 13304465.710670076 12085135.231020285 0 0 0 0 -7476279.7016867083 -3501184.9255702943 0 -3501184.9255702943 27626110.834721513 0 0 0 0 19693785.535931915 -64981028.766041279 0 -64981028.766041279 -96064222.909851074 0 0 0 0 28325982.759724617 41722195.848161697 0 41722195.848161697 -18292041.505161285 0 0 0 0 27285301.699498177 24916116.780475616 0 24916116.780475616 -50392787.033924103 0 0 0 0 2905596.494535923 25327522.060079575 0 25327522.060079575 18305700.047130585 0 0 0 0 51871659.193311691 43163060.400094986 0 43163060.400094986 21998505.314746857 0 0 0 0 187807739.5443306 -69363077.071888924 0 -69363077.071888924 23033860.385559082 0 0 0 0 -19514420.340842247 5079017.6551246643 0 5079017.6551246643 1432953.3344230652 0 0 0 0 -29842062.609724045 -27005923.949235916 0 -27005923.949235916 319610060.08974838 0 0 0 0 -12679231.057980537 -4744616.6395263672 0 -4744616.6395263672 229951540.91661167 0 0 0 0 110912210.28219831 137234054.21478939 0 137234054.21478939 164373044.95960999 0 0 0 0 -15604165.892573357 -25372608.324687958 0 -25372608.324687958 84728886.35464859 0 0 0 0 -21829698.651707172 25558992.654947281 0 25558992.654947281 137349330.65667534 0 0 0 0 -1054208.5936939716 49666864.048985481 0 49666864.048985481 29041291.676719666 0 0 0 0 -26748100.347352982 29799833.192687988 0 29799833.192687988 52417497.796041489 0 0 0 0 -20618162.523347378 13316135.222314835 0 13316135.222314835 39458680.5639534 0 0 0 0 -32513510.624381065 12050759.405208588 0 12050759.405208588 54580881.621604919 0 0 0 0 -38676949.19720459 -5398800.9425582886 0 -5398800.9425582886 9917042.7517518997 0 0 0 0 33058453.682871819 52001132.509994507 0 52001132.509994507 34695013.477351189 0 0 0 0 -7233901.1671175957 2379802.9743270874 0 2379802.9743270874 23937983.268769741 0 0 0 0 -44321942.499935627 12205075.420572281 0 12205075.420572281 17514080.918270111 0 0 0 0 -2877919.4652504595 3772329.8714443892 0 3772329.8714443892 6885213.2868267074 0 0 0 0 -32074275.630887985 22417279.447948456 0 22417279.447948456 19557174.032333374 0 0 0 0 -29710350.152389765 20173899.721180916 0 20173899.721180916 21331137.387008667 0 0 0 0 -1310496.1594362247 5591167.7125628237 0 5591167.7125628237 26332150.074509606 0 0 0 0 -74015820.43969512 111399120.6002636 0 111399120.6002636 64352208.06275177 0 0 0 0 4083493.2857670784 4211332.2677497864 0 4211332.2677497864 -22862167.854673386 0 0 0 0 9011658.078110218 -3172909.509478569 0 -3172909.509478569 -32814889.729122162 0 0 0 0 492608.07880367525 1394111.0646732338 0 1394111.0646732338 -1284432.3096621931 0 0 0 0 -46686252.886248529 11066559.74653244 0 11066559.74653244 31883620.850364685 0 0 0 0 -18470356.369260818 3249370.6282110214 0 3249370.6282110214 25330961.219003677 0 0 0 0 -28677033.18607986 -15255342.434011936 0 -15255342.434011936 37993612.803045273 0 0 0 0 -863031.22063374519 -6024271.3804216385 0 -6024271.3804216385 25956647.102926254 0 0 0 0 -995003.85463632643 -19607796.290005684 0 -19607796.290005684 26922005.489276886 0 0 0 0 469856.82798929513 691744.82037448883 0 691744.82037448883 33734721.960869789 0 0 0 0 -2803580.560197277 2913036.7335801823 0 2913036.7335801823 22889906.962986525 0 0 0 0 -24414220.73764801 31038127.069706917 0 31038127.069706917 -2220669.7281799316 0 0 0 0 -1099194.7793243378 -3717100.1157991588 0 -3717100.1157991588 34418124.13394165 0 0 0 0 8948277.5876075923 -17370939.203662872 0 -17370939.203662872 50731683.38671875 0 0 0 0 -172428.46512930526 -467045.32187089045 0 -467045.32187089045 10624745.257099565 0 0 0 0 -2800748.5613828301 -609812.0962896347 0 -609812.0962896347 39126596.24858284 0 0 0 0 2516409.6172910929 1374030.1014499664 0 1374030.1014499664 21329930.632604599 0 0 0 0 2677475.471780777 -742071.86959457397 0 -742071.86959457397 31786089.108413696 0 0 0 0 36172967.268603116 -16124487.313207626 0 -16124487.313207626 17740129.989334583 0 0 0 0 26999277.767285883 41438771.614962578 0 41438771.614962578 39230991.047449112 0 0 0 0 -15759589.431332111 15267381.447033882 0 15267381.447033882 11096486.950485229 0 0 0 0 645346.41319179535 26769987.660438538 0 26769987.660438538 7576055.3620500565 0 0 0 0 -22500882.370570183 18213723.477646828 0 18213723.477646828 5804111.9666595459 0 0 0 0 -3472303.664987809 2238593.8806534819 0 2238593.8806534819 4816479.688598074 0 0 0 0 -24568906.395243645 31006054.161614418 0 31006054.161614418 6904109.8965759277 0 0 0 0 -26623789.892338753 35321213.184318542 0 35321213.184318542 24787717.898983955 0 0 0 0 -3209250.554050602 11253627.112377055 0 11253627.112377055 63557.731086164713 0 0 0 0 -8307995.2207860947 14516420.032428741 0 14516420.032428741 8577172.9460144043 0 0 0 0 -6437805.5153675079 13445287.874340057 0 13445287.874340057 -2744768.6286773682 0 0 0 0 -936448.3488082774 6991839.2832713155 0 6991839.2832713155 4912963.1618213505 0 0 0 0 -2791224.4035979509 7099596.3259420395 0 7099596.3259420395 1719733.1305885315 0 0 0 0 -2022412.4844939958 3979547.4924007561 0 3979547.4924007561 9778026.8272062279 0 0 0 0 -4676446.8528203964 646282.60117340088 0 646282.60117340088 8598644.8208656311 0 0 0 0 -3053373.9997620881 3234492.0615119934 0 3234492.0615119934 3811593.2450421453 0 0 0 0 -3599900.9024398923 2727890.6716842651 0 2727890.6716842651 7202554.4959449768 0 0 0 0 -3375769.9154977798 1981990.7338142395 0 1981990.7338142395 6015843.6848716736 0 0 0 0 -3473696.1626345143 847164.92994861864 0 847164.92994861864 12665668.751184333 0 0 0 0 -2749695.3395685731 -1202506.3242785223 0 -1202506.3242785223 26286429.488769207 0 0 0 0 -3708810.8881859779 3181940.0003833771 0 3181940.0003833771 8164834.8117294312 0 0 0 0 -98729494.193893671 20414965.133247375 0 20414965.133247375 -34081545.959827423 0 0 0 0 -826004.44434112543 4257400.9200656945 0 4257400.9200656945 -236054.18988532573 0 0 0 0 -2842826.077347503 2065472.5180015583 0 2065472.5180015583 10049867.233843014 0 0 0 0 -6346964.5886211395 11101908.245323181 0 11101908.245323181 5780048.0656890869 0 0 0 0 -2326926.5723314285 1364711.2051811218 0 1364711.2051811218 3514430.3663024902 0 0 0 0 -5857463.8214122429 8051563.6437288113 0 8051563.6437288113 10530491.544447936 0 0 0 0 -64114747.559267044 44918899.571540833 0 44918899.571540833 -34193685.585990906 0 0 0 0 -91488402.261475563 60154624.772951126 0 60154624.772951126 56248983.681777954 0 0 0 0 -6177154.3444197178 1917231.6975631714 0 1917231.6975631714 4049609.4091911316 0 0 0 0 -90825708.677023888 60219375.95753479 0 60219375.95753479 6390606.0074157715 0 0 0 0 2399714.5644479282 4090567.6575835086 0 4090567.6575835086 -2092721.507362362 0 0 0 0 7332902.649810791 -4638672.2004337311 0 -4638672.2004337311 3719609.6999661922 0 0 0 0 -6263808.5920938365 -2697149.983342886 0 -2697149.983342886 4302104.9210395813 0 0 0 0 -5013667.4214082872 6071893.3693335 0 6071893.3693335 9401838.4898001924 0 0 0 0 -2019205.6740368982 -127657.70868737623 0 -127657.70868737623 11773289.233159635 0 0 0 0 -25810261.378343582 11910837.317552567 0 11910837.317552567 10573680.634635925 0 0 0 0 -198639.87265555304 -90104.526563796215 0 -90104.526563796215 97535.072261217982 0 0 0 0 6335113.1890032291 8710933.5674190521 0 8710933.5674190521 8527859.1209449768 0 0 0 0 -6891074.9313110113 -4742269.8960409164 0 -4742269.8960409164 13081697.949729919 0 0 0 0 -13817393.046531677 6179422.8112831116 0 6179422.8112831116 16554895.574111938 0 0 0 0 22610900.839003861 -2058532.8864183426 0 -2058532.8864183426 4401566.5874710083 0 0 0 0 22782203.341826022 85006004.118143082 0 85006004.118143082 46831492.502408981 0 0 0 0 -48140715.62892437 27806025.696935654 0 27806025.696935654 141758495.56438446 0 0 0 0 -28174383.389168262 -10563721.364102364 0 -10563721.364102364 215312926.49103165 0 0 0 0 38070818.746004492 -42751604.954162478 0 -42751604.954162478 47465977.189582825 0 0 0 0 -13269690.176697016 -10816210.435288429 0 -10816210.435288429 51405468.428359985 0 0 0 0 -42547836.296092987 51116317.207481384 0 51116317.207481384 42470133.144844055 0 0 0 0 599449.77386462688 4835796.2487010956 0 4835796.2487010956 2892087.2333006859 0 0 0 0 10948996.162036538 7800460.7786884308 0 7800460.7786884308 4478803.6044139862 0 0 0 0 6721296.5113887787 3475769.4828586578 0 3475769.4828586578 10601127.728593349 0 0 0 0 3197866.6190468073 5780112.599905014 0 5780112.599905014 10782841.589199066 0 0 0 0 4591263.8337535858 1162570.6216869354 0 1162570.6216869354 13814876.498950958 0 0 0 0 10222249.886199951 -3975220.5484304428 0 -3975220.5484304428 16515514.677433968 0 0 0 0 8494928.8447136879 1972466.3502569199 0 1972466.3502569199 7222295.8428535461 0 0 0 0 18494178.282510519 -9974594.4398503304 0 -9974594.4398503304 15760450.294523239 0 0 0 0 3498204.9286108017 2135716.9268350601 0 2135716.9268350601 13476281.009878278 0 0 0 0 7132040.7423961759 2547620.7529296875 0 2547620.7529296875 13421968.679023743 0 0 0 0 -339301.78301271098 1174428.2806654917 0 1174428.2806654917 6084579.3787757214 0 0 0 0 -1144127.4678674936 13775432.214609146 0 13775432.214609146 17003581.846334457 0 0 0 0 -665572.08336019516 2591431.8436307907 0 2591431.8436307907 25764634.931582451 0 0 0 0 2248499.1512024999 1299137.9263029099 0 1299137.9263029099 8622354.0094890594 0 0 0 0 173315748.19467711 -86173553.751234055 0 -86173553.751234055 84330832.393135071 0 0 0 0 127650.72808953689 1099498.8657076368 0 1099498.8657076368 2359202.4303708151 0 0 0 0 66489778.693828046 -125162035.23085356 0 -125162035.23085356 117832436.87296486 0 0 0 0 9425967.7582373023 76599200.041324615 0 76599200.041324615 259360866.23294449 0 0 0 0 -8421207.2874099016 12179710.56075573 0 12179710.56075573 -1336161.1615467072 0 0 0 0 -25052070.626704037 23492427.175776958 0 23492427.175776958 230270922.72047806 0 0 0 0 218251.09913099988 75322.560167710297 0 75322.560167710297 581986.50482032821 0 0 0 0 3914854.6922265734 715794.21020173002 0 715794.21020173002 -54652.594745380804 0 0 0 0 59462217.684504032 53044215.489721298 0 53044215.489721298 -15815069.701577306 0 0 0 0 114411484.5983783 -51314739.376903534 0 -51314739.376903534 124738666.60159111 0 0 0 0 16336447.987884521 45328661.251987457 0 45328661.251987457 40876832.199846745 0 0 0 0 124270494.02773249 115165534.98090935 0 115165534.98090935 75361930.804611206 0 0 0 0 23082706.583403945 -26590850.885951042 0 -26590850.885951042 240026756.35229874 0 0 0 0 -255791405.52828515 84418664.364400744 0 84418664.364400744 192570537.74311447 0 0 0 0 513412574.3515749 181133881.71182346 0 181133881.71182346 -156163332.03038788 0 0 0 0 283897007.8067441 689835258.53126907 0 689835258.53126907 -144995127.13286948 0 0 0 0 -215611033.15284806 443957741.88841629 0 443957741.88841629 90428752.329498291 0 0 0 0 49707343.060043037 162954585.37014008 0 162954585.37014008 -29090235.534431458 0 0 0 0 -3867386.8725411892 -8705023.1510429382 0 -8705023.1510429382 12093276.936717987 0 0 0 0 212905887.74278903 -63176120.501589775 0 -63176120.501589775 2221298.774936676 0 0 0 0 1514908.6854202636 -82797.859476826154 0 -82797.859476826154 -191359.0666778395 0 0 0 0 -71792354.109779358 77656041.662656784 0 77656041.662656784 167812734.12073135 0 0 0 0 -96582142.726917684 -54963884.029305935 0 -54963884.029305935 314048884.81297112 0 0 0 0 410417444.36804008 -298429500.44560432 0 -298429500.44560432 -36804174.101669312 0 0 0 0 -3997374.3538105376 -5695729.423792392 0 -5695729.423792392 18981247.499955222 0 0 0 0 -31210882.645746708 -43187043.450885773 0 -43187043.450885773 -54191394.018348694 0 0 0 0 -24504789.155506432 -7742589.6983098984 0 -7742589.6983098984 6508748.4178009033 0 0 0 0 2701549.0426113605 9419990.2366676331 0 9419990.2366676331 -47008612.099845886 0 0 0 0 17938504.90159297 8664567.2148075104 0 8664567.2148075104 6417137.2811431885 0 0 0 0 11514027.711381793 19410299.722929001 0 19410299.722929001 32409069.577438354 0 0 0 0 4066469.4626848698 5230529.4469242096 0 5230529.4469242096 20334245.828765869 0 0 0 0 3540400.9946098328 7791327.030090332 0 7791327.030090332 16475080.09343338 0 0 0 0 -7724215.6229354572 -2673693.8832991449 0 -2673693.8832991449 20015136.150815897 0 0 0 0 -887060.26149702072 -534318.6735496521 0 -534318.6735496521 17724077.711959839 0 0 0 0 -15432766.946518421 -30060006.48406601 0 -30060006.48406601 -10808030.03405571 0 0 0 0 160459663.88489151 -167892814.58465576 0 -167892814.58465576 187582146.46333313 0 0 0 0 -3306923.5299360743 -7003618.2179760467 0 -7003618.2179760467 1934464.793781817 0 0 0 0 37535850.769343972 -62908954.671622574 0 -62908954.671622574 129990289.61835098 0 0 0 0 224515875.66578293 53171489.898967743 0 53171489.898967743 -94345294.286035538 0 0 0 0 1577572.6447875085 1725606.0791327469 0 1725606.0791327469 -1314983.2376929186 0 0 0 0 -3497440.2073168526 -6798549.983043192 0 -6798549.983043192 1139537.298463963 0 0 0 0 -77087129.497850418 133080284.02944946 0 133080284.02944946 -231565.66498565674 0 0 0 0 224783451.57470512 304380222.75141525 0 304380222.75141525 -286566300.05886841 0 0 0 0 -4278814.5247421265 1021367.8912963867 0 1021367.8912963867 18307677.237545013 0 0 0 0 -9441791.8105787244 -79803.872616235167 0 -79803.872616235167 19647202.318263024 0 0 0 0 -33226315.731604815 -40837448.046624184 0 -40837448.046624184 -17209575.028598785 0 0 0 0 24066247.558097124 -30531070.502719879 0 -30531070.502719879 -22574725.766281128 0 0 0 0 282773783.24355507 228054269.68858719 0 228054269.68858719 247557910.44368362 0 0 0 0 -1474269.8756065173 -1230495.5571086109 0 -1230495.5571086109 818468.25380748883 0 0 0 0 256822420.03082824 128149995.45195007 0 128149995.45195007 9552602.2868041992 0 0 0 0 -76768644.418271065 37710189.299095154 0 37710189.299095154 86108751.968681335 0 0 0 0 83392824.786314964 80748880.84022522 0 80748880.84022522 -29385204.422170639 0 0 0 0 89356967.045134544 54585054.394102097 0 54585054.394102097 31890140.810935974 0 0 0 0 -8813786.3860454559 6015332.8513088226 0 6015332.8513088226 19729879.689815521 0 0 0 0 -1460594.7144174576 7729332.8313560486 0 7729332.8313560486 19215647.055132866 0 0 0 0 -1878318.1236891747 9127404.2368812561 0 9127404.2368812561 21057763.099475861 0 0 0 0 -201823.5692101419 12761801.533113241 0 12761801.533113241 25788717.330848694 0 0 0 0 431583.8359143734 8326473.500497818 0 8326473.500497818 21233126.905702591 0 0 0 0 2778339.2915167809 13671282.680544496 0 13671282.680544496 27699358.351325989 0 0 0 0 643508.45979547501 9672683.8958969116 0 9672683.8958969116 31674787.300598145 0 0 0 0 -2776547.0300118923 11695974.652154922 0 11695974.652154922 45242590.745111465 0 0 0 0 -2840022.3290396333 8706957.2225027084 0 8706957.2225027084 30707722.750549316 0 0 0 0 -2524010.9644943476 9175694.5881099701 0 9175694.5881099701 26130725.957427979 0 0 0 0 -3001262.5424704552 10877085.63911438 0 10877085.63911438 31095063.025375366 0 0 0 0 -2695398.937371254 10358149.848180771 0 10358149.848180771 18305982.189958572 0 0 0 0 -20466882.830716133 3640501.4177818298 0 3640501.4177818298 29579089.104232788 0 0 0 0 -3613577.2549073696 7734123.6241073608 0 7734123.6241073608 29310349.693641663 0 0 0 0 -348105.09971392562 -38794.911286093295 0 -38794.911286093295 460661.02629525214 0 0 0 0 -19140715.295933008 -14597392.301841736 0 -14597392.301841736 204895.26796340942 0 0 0 0 11085186.779111564 19845233.711978912 0 19845233.711978912 60174614.488744736 0 0 0 0 -5343620.5776478518 -469537.69682073593 0 -469537.69682073593 10792934.4012146 0 0 0 0 -2634024.8611090183 5031502.755657196 0 5031502.755657196 11518275.861728668 0 0 0 0 -11943521.499772072 9229884.2621278763 0 9229884.2621278763 22871120.105422974 0 0 0 0 -787012.25459825993 11376181.215047836 0 11376181.215047836 23830689.225440979 0 0 0 0 -4000293.893876791 12187946.514186859 0 12187946.514186859 22942157.346035242 0 0 0 0 359799.15179979801 11124645.497367859 0 11124645.497367859 21097845.701381683 0 0 0 0 -4084863.5978466868 11340232.095929623 0 11340232.095929623 21182988.113437653 0 0 0 0 -2615951.7165665627 9339975.3388462067 0 9339975.3388462067 22289035.843452454 0 0 0 0 44555451.55995822 62618493.395462036 0 62618493.395462036 56422912.466739655 0 0 0 0 12164179.437719177 42344197.647673368 0 42344197.647673368 70808592.976345062 0 0 0 0 -4323736.2936453819 44792064.445495605 0 44792064.445495605 89351093.456048965 0 0 0 0 73512583.279137194 106137902.82246399 0 106137902.82246399 116643155.39535213 0 0 0 0 42645948.283574313 42475795.687673569 0 42475795.687673569 66182077.67137146 0 0 0 0 1218692.5109191537 13705338.942186356 0 13705338.942186356 44927063.618240356 0 0 0 0 -4546021.9316010773 -17608555.118510246 0 -17608555.118510246 -2517129.2115516663 0 0 0 0 -4901998.2102079038 28485022.064725876 0 28485022.064725876 39641341.234636307 0 0 0 0 -245547.92642104052 231446.37682432495 0 231446.37682432495 808887.41364020109 0 0 0 0 -695716.15322498162 102736.92313952744 0 102736.92313952744 1065034.3538145795 0 0 0 0 -1516142.7403129423 8204292.0448932648 0 8204292.0448932648 18962388.276563644 0 0 0 0 1519398.2192575932 4817495.9304790497 0 4817495.9304790497 20580352.209199905 0 0 0 0 -1073152.9143137932 8666920.456867218 0 8666920.456867218 20839254.49005127 0 0 0 0 2935526.5245506167 5223973.6336593628 0 5223973.6336593628 22360422.717193604 0 0 0 0 49782.877606473863 1196720.3140332699 0 1196720.3140332699 12523099.708248138 0 0 0 0 -817842.56080974999 443835.60745152086 0 443835.60745152086 1749778.3546085693 0 0 0 0 -332691.48015558679 724616.44689723104 0 724616.44689723104 2161215.8758940473 0 0 0 0 -8528029.0317402519 -16432002.300780654 0 -16432002.300780654 19803038.721134186 0 0 0 0 -888266.84683499415 955869.6280592829 0 955869.6280592829 3191269.7877385728 0 0 0 0 974998.00049290061 3653958.3421673775 0 3653958.3421673775 20122952.749084473 0 0 0 0 3291138.5247433186 9185948.5916824341 0 9185948.5916824341 21398165.786627769 0 0 0 0 -4531452.2300640345 32535384.825145721 0 32535384.825145721 19437400.254020691 0 0 0 0 2288158.9207104445 458373.5369720459 0 458373.5369720459 23452148.838672638 0 0 0 0 30536516.880960405 28275351.716127396 0 28275351.716127396 26564901.240493774 0 0 0 0 -4322916.1007308066 18397625.249986649 0 18397625.249986649 93218445.090446472 0 0 0 0 707099.77043294907 6462182.6531105042 0 6462182.6531105042 28269378.443916321 0 0 0 0 -3572583.7569953948 18230934.664028168 0 18230934.664028168 76117060.163101196 0 0 0 0 -1641278.071426928 6699939.1528873444 0 6699939.1528873444 29658013.651309967 0 0 0 0 909608.3142265575 10394009.87896207 0 10394009.87896207 -689714.79685970885 0 0 0 0 -2542893.5701430142 17322832.372398376 0 17322832.372398376 74132538.312232971 0 0 0 0 -1299535.4431903102 9988697.45439291 0 9988697.45439291 85104848.584823608 0 0 0 0 -2712158.6076308489 7925487.3859004974 0 7925487.3859004974 32723624.013339996 0 0 0 0 87359.398152509501 10386108.161417149 0 10386108.161417149 913758.08740934287 0 0 0 0 -2385770.5854636431 20399433.184921265 0 20399433.184921265 73109653.381656647 0 0 0 0 -796709.28257787228 14215355.832027435 0 14215355.832027435 60182136.057811737 0 0 0 0 -8453563.6341239214 7351079.577457428 0 7351079.577457428 69449918.22278595 0 0 0 0 1367047.0687904656 511658.46999502182 0 511658.46999502182 22387332.389450073 0 0 0 0 -6804313.6306778491 -5838316.9743614197 0 -5838316.9743614197 45357958.349897385 0 0 0 0 -3870887.4319902807 3526283.244726181 0 3526283.244726181 58326848.553829193 0 0 0 0 3220101.2849961892 -4875282.0350589752 0 -4875282.0350589752 38530806.294334412 0 0 0 0 1186148.810144186 15624602.134365082 0 15624602.134365082 74290355.336730957 0 0 0 0 -5806223.2914974391 -1218715.8777198792 0 -1218715.8777198792 69927994.002708435 0 0 0 0 -2003331.1845594943 3830757.645652771 0 3830757.645652771 76236306.761352539 0 0 0 0 -2072007.790353898 3746399.6091995239 0 3746399.6091995239 83764425.972732544 0 0 0 0 930556.11784692109 -12699552.594249725 0 -12699552.594249725 64311948.830993652 0 0 0 0 599986.00440836698 -11812813.048418045 0 -11812813.048418045 82233249.19392395 0 0 0 0 -349378.79607607424 -7487698.0302772522 0 -7487698.0302772522 93264283.245475769 0 0 0 0 1529324.1500405513 1539221.8490082845 0 1539221.8490082845 6211850.7225184515 0 0 0 0 1237400.6623914242 -901871.79735565186 0 -901871.79735565186 89951637.094306946 0 0 0 0 4552834.6668518782 -1138829.1853141785 0 -1138829.1853141785 87255619.9245224 0 0 0 0 -10182104.005246103 -6431693.9938430786 0 -6431693.9938430786 48675949.039048195 0 0 0 0 10308300.794607162 15405391.07882309 0 15405391.07882309 52617088.241961479 0 0 0 0 -4684076.5556768775 8477273.4686431885 0 8477273.4686431885 75392606.894706726 0 0 0 0 -3638538.1677122116 7899094.4280853271 0 7899094.4280853271 22494741.973961353 0 0 0 0 -9897281.178666532 9545622.2573719025 0 9545622.2573719025 96642751.072410583 0 0 0 0 -1339869.8467306364 10802838.396416299 0 10802838.396416299 5854797.5297697755 0 0 0 0 -4549226.7999700308 10160215.726837158 0 10160215.726837158 30071948.476982117 0 0 0 0 -5349228.4923257232 7881683.832285881 0 7881683.832285881 32889860.842433929 0 0 0 0 -669235.52966241329 10402636.375133313 0 10402636.375133313 2743145.4397745123 0 0 0 0 -3514274.242960304 5329103.4483070374 0 5329103.4483070374 89506989.302911758 0 0 0 0 -425010.35363024473 19019321.424098969 0 19019321.424098969 64733207.248420715 0 0 0 0 3006663.6991373897 968488.50286865234 0 968488.50286865234 61123096.034851074 0 0 0 0 -8880660.718398124 -1624811.261920929 0 -1624811.261920929 55432352.514308929 0 0 0 0 -2838586.2651849985 -11354162.786109924 0 -11354162.786109924 19502772.251960754 0 0 0 0 -3532820.4482985735 7783331.6707763672 0 7783331.6707763672 37254485.301170349 0 0 0 0 -6023290.7634925814 -5258642.9534127228 0 -5258642.9534127228 19824892.812159143 0 0 0 0 -91309849.243707657 -48622760.343482971 0 -48622760.343482971 10745784.316020966 0 0 0 0 1980639.7720595598 13760286.275798798 0 13760286.275798798 44346543.005466461 0 0 0 0 -10782458.53243494 -10182005.405929565 0 -10182005.405929565 28755700.989425659 0 0 0 0 -62343078.983253479 -182666827.6712532 0 -182666827.6712532 -31754338.498538971 0 0 0 0 -5397317.8010712359 -4956301.6203561537 0 -4956301.6203561537 21923921.137537811 0 0 0 0 -103789896.44654942 189021.97180938721 0 189021.97180938721 178470535.72695923 0 0 0 0 -11690754.785920143 14728866.429359436 0 14728866.429359436 6357257.8065114021 0 0 0 0 74029781.85798645 11736787.315752029 0 11736787.315752029 48913696.735702515 0 0 0 0 22187467.429411411 71988807.278659821 0 71988807.278659821 88472131.222961426 0 0 0 0 -65403262.222994804 -37178904.566265106 0 -37178904.566265106 91078335.924438477 0 0 0 0 32855752.398151398 102886878.20516586 0 102886878.20516586 50384468.529506683 0 0 0 0 -892004.15520796925 -722990.28041589819 0 -722990.28041589819 3793508.4354996756 0 0 0 0 2206808.2711267471 45960310.182811737 0 45960310.182811737 110376686.49793243 0 0 0 0 -1832336.9703354836 70924635.505655766 0 70924635.505655766 396004.92602539062 0 0 0 0 -60273287.463709831 28720736.966026306 0 28720736.966026306 57862078.024458051 0 0 0 0 -53217684.029337883 82937808.575515747 0 82937808.575515747 70539623.395233154 0 0 0 0 -11818063.690300941 46189458.166952133 0 46189458.166952133 94952112.21698761 0 0 0 0 -80811449.96363762 98404959.755968094 0 98404959.755968094 60599217.649032593 0 0 0 0 -84967576.795139313 25018306.331329346 0 25018306.331329346 84001140.917537689 0 0 0 0 -13713018.298867702 -14895805.852493286 0 -14895805.852493286 21289060.407495499 0 0 0 0 -1448086.4521128554 2143607.3930900246 0 2143607.3930900246 4721678.614447996 0 0 0 0 -7048654.4224171136 -4957045.6105289087 0 -4957045.6105289087 18444133.64564801 0 0 0 0 -14603319.56593132 8882057.4824695587 0 8882057.4824695587 29864142.378078461 0 0 0 0 -6817123.0359531678 -2760466.5985527039 0 -2760466.5985527039 24691780.796669006 0 0 0 0 6786443.7555146217 12433885.971475601 0 12433885.971475601 52454865.9858284 0 0 0 0 -14597.58938892372 3232116.6863638386 0 3232116.6863638386 9551921.5946561061 0 0 0 0 -4143088.4359950921 -2401447.9768649824 0 -2401447.9768649824 11918458.840345636 0 0 0 0 -9391076.8017482758 11253546.925445557 0 11253546.925445557 36426236.799316406 0 0 0 0 9553273.3815559149 7512277.5248980522 0 7512277.5248980522 30623371.698905945 0 0 0 0 -23637735.287795067 6145041.9910125732 0 6145041.9910125732 50913602.522544861 0 0 0 0 45408033.2797966 29643158.389900208 0 29643158.389900208 66227572.002967834 0 0 0 0 -24811352.051958084 10329579.508583069 0 10329579.508583069 107131005.85857773 0 0 0 0 -341006.20600053016 378742.89179864153 0 378742.89179864153 2980448.8421803564 0 0 0 0 8994755.2311077118 2084042.1714324951 0 2084042.1714324951 34859970.611415863 0 0 0 0 10702523.831346512 15448933.029182434 0 15448933.029182434 25031125.274642944 0 0 0 0 28247138.280017376 16651660.055034637 0 16651660.055034637 20410349.422836304 0 0 0 0 19244311.354202747 -3969164.093624115 0 -3969164.093624115 4372837.6517944336 0 0 0 0 16341247.218959808 23309929.936042786 0 23309929.936042786 17017911.3801651 0 0 0 0 -13205801.755535126 -9982709.6907310486 0 -9982709.6907310486 63243980.734367371 0 0 0 0 -4623291.782233295 639406.05079499073 0 639406.05079499073 11021833.005344849 0 0 0 0 -13154386.201795101 9994385.7191157341 0 9994385.7191157341 36138154.332504272 0 0 0 0 -16646708.445159912 -1534591.2523841858 0 -1534591.2523841858 27607880.994192123 0 0 0 0 -71175882.462089539 -122591995.266716 0 -122591995.266716 160481285.05051041 0 0 0 0 110517904.88500929 -1401473.1337585449 0 -1401473.1337585449 6419984.5077438354 0 0 0 0 -794679.83571135439 643134.70527330786 0 643134.70527330786 2633954.7870328203 0 0 0 0 -110967437.63596725 26706894.538917542 0 26706894.538917542 35674558.741127014 0 0 0 0 16565550.28629823 54092142.177215964 0 54092142.177215964 63836260.439361572 0 0 0 0 63033508.193122864 70420685.287120819 0 70420685.287120819 62084286.090873718 0 0 0 0 -205885797.04834175 -228644033.35514832 0 -228644033.35514832 181530582.13230896 0 0 0 0 47835621.737045288 25735007.126003265 0 25735007.126003265 10206318.572385788 0 0 0 0 -482263.4570731651 170678.183766542 0 170678.183766542 2495993.4154376909 0 0 0 0 -106874449.02889824 5948441.7569046021 0 5948441.7569046021 126383340.02302551 0 0 0 0 109866154.02876282 257002439.96316528 0 257002439.96316528 416165568.42166901 0 0 0 0 319612032.78300095 -238370731.02127075 0 -238370731.02127075 207297092.60801792 0 0 0 0 -6828103.3039665222 87862240.530212402 0 87862240.530212402 228958153.03549194 0 0 0 0 -1436115.9052477642 -1680505.7003128175 0 -1680505.7003128175 5416291.4489781111 0 0 0 0 -106166970.82766056 14063194.779922485 0 14063194.779922485 163268096.73054504 0 0 0 0 -105794103.75356865 -40215768.79592514 0 -40215768.79592514 85595758.077270508 0 0 0 0 -19566053.147268295 -3107472.9062814713 0 -3107472.9062814713 8767971.9538192749 0 0 0 0 -26659607.000773907 20010059.848344803 0 20010059.848344803 61122386.680267334 0 0 0 0 133835.8852853775 14341269.629550934 0 14341269.629550934 -13765103.75743103 0 0 0 0 -12559121.350029945 15142123.387638092 0 15142123.387638092 47652.677177429199 0 0 0 0 -6553473.9407329559 7726554.6995544434 0 7726554.6995544434 7822092.3435134888 0 0 0 0 -907155.37878417969 -15186810.767662048 0 -15186810.767662048 -19306823.646595478 0 0 0 0 32545965.852573395 63369639.713832855 0 63369639.713832855 28939046.772132874 0 0 0 0 2867470.6409320831 31598506.436180115 0 31598506.436180115 16288593.648986816 0 0 0 0 -3792329.8372945786 33693886.017129898 0 33693886.017129898 33927315.626182556 0 0 0 0 -10482265.03266716 38228213.72618103 0 38228213.72618103 57565280.057900906 0 0 0 0 -16335950.043718338 22539766.542098999 0 22539766.542098999 35590304.688941956 0 0 0 0 -8618811.222902298 3431913.1905822754 0 3431913.1905822754 -1245003.5578689575 0 0 0 0 -25844553.264720678 6308639.3814888 0 6308639.3814888 67333136.977096558 0 0 0 0 -9299160.025686264 6186129.3621673584 0 6186129.3621673584 66568508.525093079 0 0 0 0 -18765887.253346562 31309535.859440804 0 31309535.859440804 92618536.680679321 0 0 0 0 -7089247.0926647186 13149923.465213776 0 13149923.465213776 21528825.471824646 0 0 0 0 -21771194.995151877 18167229.892948151 0 18167229.892948151 22733518.572952271 0 0 0 0 8524047.6722414494 8250530.900604248 0 8250530.900604248 -60171667.947307587 0 0 0 0 61656480.386567116 -35932567.94808197 0 -35932567.94808197 35056813.053564548 0 0 0 0 4461547.3865098357 119561483.70514011 0 119561483.70514011 -12211748.135269165 0 0 0 0 -44948246.783396482 -9808258.380317688 0 -9808258.380317688 35531351.288665771 0 0 0 0 -22019627.788110256 23747185.136428833 0 23747185.136428833 130046485.59632874 0 0 0 0 40837051.933922291 50492071.695384979 0 50492071.695384979 71574756.894481659 0 0 0 0 -3323567.7810966922 -4077814.4035025928 0 -4077814.4035025928 3446548.0137993395 0 0 0 0 -15084500.544092178 -10327124.757553101 0 -10327124.757553101 30433536.320362091 0 0 0 0 39207923.422451258 -73007916.588859558 0 -73007916.588859558 57424245.357307434 0 0 0 0 -78192640.047175258 24814085.484399796 0 24814085.484399796 55806216.381095886 0 0 0 0 -49343195.25718689 -52307616.971679688 0 -52307616.971679688 108259191.55236053 0 0 0 0 -1963120.1704579415 -2212201.5925370976 0 -2212201.5925370976 4898503.88065245 0 0 0 0 -7642196.8054995537 589201.17929840088 0 589201.17929840088 17074081.588890076 0 0 0 0 -640133.04707260849 4498200.8120787814 0 4498200.8120787814 10714846.771749124 0 0 0 0 109943336.60663229 105878420.38922405 0 105878420.38922405 -26195142.717407227 0 0 0 0 -6069140.4661993235 -1901185.0931738131 0 -1901185.0931738131 9009584.6806102358 0 0 0 0 1866497.5867590904 1578562.0026092529 0 1578562.0026092529 6994789.4382019043 0 0 0 0 -5019438.1638050079 -2563821.5954437256 0 -2563821.5954437256 15892343.107414246 0 0 0 0 -4605386.9164437661 5286803.3860108331 0 5286803.3860108331 18980096.324963257 0 0 0 0 -5749141.6616029739 5320427.3037109375 0 5320427.3037109375 9541290.2707290649 0 0 0 0 -7077564.0411381721 443325.47518157959 0 443325.47518157959 14328600.337245941 0 0 0 0 -1434879.4486856335 -628663.76181085408 0 -628663.76181085408 10059835.924438953 0 0 0 0 -9983255.1275398731 6645314.6868245602 0 6645314.6868245602 27815909.957511902 0 0 0 0 -216461.7580242157 2208883.0294189453 0 2208883.0294189453 7250079.947845459 0 0 0 0 -2570106.8451081701 3368536.2388445362 0 3368536.2388445362 9190711.9357549176 0 0 0 0 -35090313.933238983 22618781.321678162 0 22618781.321678162 190811870.84541702 0 0 0 0 51521771.500127792 -168700481.79201126 0 -168700481.79201126 -75991204.964431763 0 0 0 0 -206046751.59041691 162127085.2706852 0 162127085.2706852 113504567.06664276 0 0 0 0 113062824.44654465 82748801.844257355 0 82748801.844257355 -137582976.48472595 0 0 0 0 137203469.17138863 13999120.198230743 0 13999120.198230743 -4672762.4070281982 0 0 0 0 -2281100.619436264 2061461.144618988 0 2061461.144618988 5551222.5823745728 0 0 0 0 -1814215.8899631791 4358072.52424963 0 4358072.52424963 11943119.68800281 0 0 0 0 34637486.366893768 10510431.748855591 0 10510431.748855591 53723094.678314209 0 0 0 0 317794.33315193653 2310693.7450523376 0 2310693.7450523376 12286733.225059509 0 0 0 0 -5705899.6406097505 -657511.23980448674 0 -657511.23980448674 8641891.8167086691 0 0 0 0 -2627754.5782546997 1552869.2698974609 0 1552869.2698974609 3390745.4512329102 0 0 0 0 -1396919.7655377788 2931774.0500437766 0 2931774.0500437766 13038511.32187824 0 0 0 0 1013633.9220717326 2408284.8074789606 0 2408284.8074789606 10925099.539535485 0 0 0 0 -5685344.3179463213 -2732352.5542899985 0 -2732352.5542899985 7359333.4725480601 0 0 0 0 -2365463.3671607971 1439082.6298675537 0 1439082.6298675537 7569871.0596389771 0 0 0 0 -651410.23001480103 1972941.4940414429 0 1972941.4940414429 7726489.7631988525 0 0 0 0 -4982744.6324986648 -1144809.4587264806 0 -1144809.4587264806 15031683.662355449 0 0 0 0 3909811.3227376938 -690465.63621520996 0 -690465.63621520996 3199328.909029007 0 0 0 0 -2005868.5906999814 2467603.9634052031 0 2467603.9634052031 9200551.9103730302 0 0 0 0 -2742071.2680846406 -2701795.1385964788 0 -2701795.1385964788 5714914.4115667343 0 0 0 0 -2119115.970844388 205940.34396839142 0 205940.34396839142 9418300.057674408 0 0 0 0 8333889.9674916267 20311628.819858551 0 20311628.819858551 49198937.224216461 0 0 0 0 -2143389.4246373177 2781805.324672699 0 2781805.324672699 14790289.145273209 0 0 0 0 -449391.18683024962 2683146.8036668785 0 2683146.8036668785 8152640.7183856145 0 0 0 0 -1662555.792216301 2833581.521531105 0 2833581.521531105 13762901.408714294 0 0 0 0 -532035.05159226479 1211752.1157201305 0 1211752.1157201305 2521815.3137793168 0 0 0 0 -6604681.1302845478 23983152.867637634 0 23983152.867637634 96204083.190074921 0 0 0 0 -17761563.103762627 19176906.417778015 0 19176906.417778015 134913405.83323669 0 0 0 0 -2529973.0011332035 15497861.268463135 0 15497861.268463135 -4246809.0747337341 0 0 0 0 23522601.271351099 20357549.449344635 0 20357549.449344635 -41161312.545272827 0 0 0 0 6422017.3821889758 28193391.539983749 0 28193391.539983749 -66987866.098556519 0 0 0 0 -17918125.853713989 46119499.643966675 0 46119499.643966675 -43553939.311645508 0 0 0 0 -231217.15546860686 6865805.5976547562 0 6865805.5976547562 8209072.316493161 0 0 0 0 -17133835.015678883 20366228.060417175 0 20366228.060417175 -40943629.521888733 0 0 0 0 8193312.1715607643 63728738.199577332 0 63728738.199577332 -81740704.212055206 0 0 0 0 10696324.064947128 9755966.3529205322 0 9755966.3529205322 -111091574.4602356 0 0 0 0 -1104409.6958463993 679575.28016519919 0 679575.28016519919 2328702.817333281 0 0 0 0 10404811.714138031 52306044.810043335 0 52306044.810043335 -58465941.802459717 0 0 0 0 45995284.938195229 42207668.759456635 0 42207668.759456635 -56665498.534820557 0 0 0 0 5524005.9363100529 30909244.483840942 0 30909244.483840942 -15787803.065856934 0 0 0 0 43281014.050012589 1034538.9222946167 0 1034538.9222946167 -6915255.9215946198 0 0 0 0 -8719758.4059915543 98055261.202299118 0 98055261.202299118 -27455177.8334198 0 0 0 0 -74058916.658899307 78519039.736692429 0 78519039.736692429 -19346655.491142273 0 0 0 0 6019691.0415155888 30203127.635650635 0 30203127.635650635 -32390832.500968933 0 0 0 0 1130961.9365853295 7791509.111484196 0 7791509.111484196 10793554.823274383 0 0 0 0 7071833.203347683 54695170.672744751 0 54695170.672744751 -45286875.959182739 0 0 0 0 -295913342.96443558 -146181039.89709473 0 -146181039.89709473 171215582.79123688 0 0 0 0 -38359488.133350372 9068314.1818695068 0 9068314.1818695068 34451288.371196747 0 0 0 0 -4609658.6879575625 4324653.2148668952 0 4324653.2148668952 9308332.8374181855 0 0 0 0 -19909317.389610291 -15079947.751508713 0 -15079947.751508713 16046405.835281372 0 0 0 0 377992.066217246 9701739.7629133537 0 9701739.7629133537 23917303.94241184 0 0 0 0 749856.06134226685 8023933.7700897083 0 8023933.7700897083 23004925.548178963 0 0 0 0 -121620764.66085529 25404503.575093269 0 25404503.575093269 49475344.96471405 0 0 0 0 -193808147.57744908 173549940.66339874 0 173549940.66339874 -89822910.620925903 0 0 0 0 64121320.596698999 77343388.373317719 0 77343388.373317719 -148778060.05728531 0 0 0 0 82385063.915010929 -21611304.015258789 0 -21611304.015258789 -103200149.7621727 0 0 0 0 65929604.938640118 99224077.50188446 0 99224077.50188446 -29885295.161933899 0 0 0 0 -61435003.012369514 7604620.252664566 0 7604620.252664566 34739295.613876343 0 0 0 0 8558285.2897648811 29324329.982002258 0 29324329.982002258 47115051.372589111 0 0 0 0 504186.11609848193 -483429.30137360841 0 -483429.30137360841 27541.016542166471 0 0 0 0 59226576.921838999 58986261.083850861 0 58986261.083850861 27733559.547302246 0 0 0 0 63643621.941285193 10838934.751176834 0 10838934.751176834 -126299127.18900681 0 0 0 0 8379035.948564291 22570404.692710876 0 22570404.692710876 28087641.443367004 0 0 0 0 37282657.531603456 18160750.587917328 0 18160750.587917328 17361715.478790283 0 0 0 0 23250077.648262024 14541165.448684692 0 14541165.448684692 -4912149.8968257904 0 0 0 0 -2009535.8333875537 24108796.882146358 0 24108796.882146358 26587898.703094482 0 0 0 0 21674100.841724396 -47747990.512180328 0 -47747990.512180328 52386918.582595825 0 0 0 0 31906722.769603729 -8714997.9818534851 0 -8714997.9818534851 5173714.7937545776 0 0 0 0 -584538.89488984086 -643685.86375954375 0 -643685.86375954375 1033768.0283231661 0 0 0 0 -1861073.0904612318 405403.95171913505 0 405403.95171913505 471023.35283121094 0 0 0 0 -2214072.9910888672 -434600.16902923584 0 -434600.16902923584 4094253.4043922424 0 0 0 0 -1623467.006652832 -379834.97846603394 0 -379834.97846603394 3104492.0404434204 0 0 0 0 -2519463.1656472683 -17288.035278320312 0 -17288.035278320312 3509175.1386947632 0 0 0 0 -2285102.0061225891 800987.51381492615 0 800987.51381492615 1981167.7224845886 0 0 0 0 -3346082.5862487275 1368063.0987948999 0 1368063.0987948999 1454075.0934699513 0 0 0 0 -2725805.6395587921 898284.14142227173 0 898284.14142227173 2749093.351020813 0 0 0 0 -1181800.6643638611 153511.68887329102 0 153511.68887329102 2492096.4448318481 0 0 0 0 -3380812.8057025559 747934.32269820943 0 747934.32269820943 1903747.4085045252 0 0 0 0 -1082519.6537628174 197733.03783416748 0 197733.03783416748 3525322.7602996826 0 0 0 0 -167874.63658046722 -1182595.6206607819 0 -1182595.6206607819 4167281.931854248 0 0 0 0 -2820921.1122894287 553819.26933288574 0 553819.26933288574 4808714.5289764404 0 0 0 0 -82237.176372242626 27370.880508154631 0 27370.880508154631 48974.89767818898 0 0 0 0 174559009.93413353 -102321963.90027618 0 -102321963.90027618 -199897062.30057144 0 0 0 0 -959274.37734079361 -1882557.3433551788 0 -1882557.3433551788 5309747.898147583 0 0 0 0 -1088327.367764473 -1632060.620059967 0 -1632060.620059967 5309762.1843643188 0 0 0 0 -2518342.7248299532 747117.31848078221 0 747117.31848078221 486757.97150557674 0 0 0 0 -931579.39091484621 -2824728.9539446086 0 -2824728.9539446086 3040376.6616761051 0 0 0 0 55763583.682008743 48440630.871574402 0 48440630.871574402 -79591178.949127197 0 0 0 0 -133343680.58109665 80954574.45426178 0 80954574.45426178 126566176.02207947 0 0 0 0 92382801.882246017 -27756073.440122604 0 -27756073.440122604 -3746459.6881942749 0 0 0 0 236194110.55999374 -292209891.4124527 0 -292209891.4124527 245943505.05628586 0 0 0 0 68324.509667115286 -226645.7972413525 0 -226645.7972413525 126159.13650968857 0 0 0 0 -120361465.88949203 -80566048.778091431 0 -80566048.778091431 7474525.924577713 0 0 0 0 67259363.422029495 123487312.21071243 0 123487312.21071243 42457144.584640503 0 0 0 0 -322971283.17164612 54285496.285125732 0 54285496.285125732 71222917.197540283 0 0 0 0 18622996.992156982 27621541.009822845 0 27621541.009822845 -129144601.84956837 0 0 0 0 -8841882.8742980957 11832941.699768066 0 11832941.699768066 -23535784.738586426 0 0 0 0 -1548277.4024828281 1081130.1453108341 0 1081130.1453108341 2815012.1007357165 0 0 0 0 -1416419.9550662693 -637901.44244107604 0 -637901.44244107604 797418.03463720158 0 0 0 0 -124083000.65356064 82178940.756378174 0 82178940.756378174 64811824.704284668 0 0 0 0 339208096.65116072 651534753.36003494 0 651534753.36003494 -296049926.34002686 0 0 0 0 -374144972.15579987 39502390.259098053 0 39502390.259098053 62703664.694885254 0 0 0 0 -48835304.523521423 -55250990.117359161 0 -55250990.117359161 7554738.9244155884 0 0 0 0 -67424354.360723495 -6669897.9611473083 0 -6669897.9611473083 23874251.842525482 0 0 0 0 -128437155.46541023 -27306604.210552216 0 -27306604.210552216 53265495.62966156 0 0 0 0 -52926847.472610474 30828919.287376404 0 30828919.287376404 61121981.802789688 0 0 0 0 -67895429.676725388 -16058320.498004913 0 -16058320.498004913 60075246.348571777 0 0 0 0 -72492164.966533661 -2694972.9800453186 0 -2694972.9800453186 55638442.974626064 0 0 0 0 16685777.882282257 -50305414.492027283 0 -50305414.492027283 56643908.293907166 0 0 0 0 -8411568.5765724182 -11466600.15807724 0 -11466600.15807724 40727075.04800415 0 0 0 0 -25816654.279099941 -17812624.904049873 0 -17812624.904049873 51113878.327377319 0 0 0 0 -37877287.015144348 -3191461.1851043701 0 -3191461.1851043701 50111050.874991894 0 0 0 0 -38475759.924196243 -22528701.267478943 0 -22528701.267478943 50865923.741874695 0 0 0 0 -21939645.755964279 35755440.84841156 0 35755440.84841156 59818625.444954872 0 0 0 0 -57800811.367288589 -6472214.1026210785 0 -6472214.1026210785 11547660.77771759 0 0 0 0 45342965.683726311 30840275.864887238 0 30840275.864887238 25994404.876995087 0 0 0 0 -11593728.801434278 893576.41950368881 0 893576.41950368881 53051876.335571289 0 0 0 0 -7842330.2332847118 -26018331.054535985 0 -26018331.054535985 121891187.89315033 0 0 0 0 51497092.098735809 36414339.827884674 0 36414339.827884674 68656768.98046875 0 0 0 0 -13617659.479453087 2016677.0498771667 0 2016677.0498771667 203643885.7943573 0 0 0 0 36576504.264506817 -11448384.93701601 0 -11448384.93701601 120322877.26015472 0 0 0 0 -17883788.744983673 16773478.645969391 0 16773478.645969391 172907878.05872726 0 0 0 0 35295624.117822647 25407942.03653717 0 25407942.03653717 15659007.332871914 0 0 0 0 36365675.309249878 20984147.293144226 0 20984147.293144226 33636296.866836548 0 0 0 0 26758755.668915033 52486672.338910103 0 52486672.338910103 13121944.499145508 0 0 0 0 27245996.500886917 47016536.991542816 0 47016536.991542816 53473630.466140747 0 0 0 0 2283788.108247757 -1423302.2058029175 0 -1423302.2058029175 -3280348.8234119415 0 0 0 0 1298015.5242786407 2086731.6433181763 0 2086731.6433181763 -2054574.8890380859 0 0 0 0 -2265352.7683029175 -3425938.8897018433 0 -3425938.8897018433 -1651485.4247913361 0 0 0 0 28685682.77897644 205515278.53489685 0 205515278.53489685 83524149.074462891 0 0 0 0 -1031127.4049654314 -334246.9530059658 0 -334246.9530059658 1763623.348391559 0 0 0 0 12426679.095241547 9775223.5539855957 0 9775223.5539855957 10700925.346008301 0 0 0 0 79035965.631666183 87736386.703643799 0 87736386.703643799 159388943.57817841 0 0 0 0 -20841901.68781662 71085948.735290527 0 71085948.735290527 201611107.14372253 0 0 0 0 -192592.48710518703 -117711.52692074329 0 -117711.52692074329 81131.173776075244 0 0 0 0 -111026330.01716757 336541150.86931801 0 336541150.86931801 -37875665.150314331 0 0 0 0 -4963039.2645778656 -95113515.770339966 0 -95113515.770339966 210793103.73740387 0 0 0 0 173156178.60312271 -188782731.85571289 0 -188782731.85571289 255899904.83552551 0 0 0 0 -42282297.581230164 89115344.90852356 0 89115344.90852356 113082379.17578125 0 0 0 0 -47202636.263118744 108881014.34874344 0 108881014.34874344 357419231.40037537 0 0 0 0 -41451353.38996315 1240143.4461746216 0 1240143.4461746216 73881111.945655823 0 0 0 0 -35754021.312177658 -41398873.108573914 0 -41398873.108573914 32289162.50252533 0 0 0 0 -34474413.317914963 -16644253.940631866 0 -16644253.940631866 19599449.451927185 0 0 0 0 -46521822.692646027 -28544668.031795502 0 -28544668.031795502 64415126.5831604 0 0 0 0 5043439.5407762527 4321450.0130195618 0 4321450.0130195618 1286890.238571167 0 0 0 0 -594592.39826083183 2513005.8104496002 0 2513005.8104496002 3138352.4472579956 0 0 0 0 -569312.53409576416 -343640.55020904541 0 -343640.55020904541 2336484.1249351501 0 0 0 0 749709.92280197144 -282726.43651199341 0 -282726.43651199341 -1370067.3273925781 0 0 0 0 30447814.01625061 -32977284.332122803 0 -32977284.332122803 34341820.513786316 0 0 0 0 539691.23883724213 -926567.29479598999 0 -926567.29479598999 270641.2338180542 0 0 0 0 -705654.84109521285 -699848.80552691966 0 -699848.80552691966 726037.27576056868 0 0 0 0 -709639.97465610504 995875.53129005432 0 995875.53129005432 173602.48469543457 0 0 0 0 -291807.43522600178 -173481.64788707718 0 -173481.64788707718 795892.48065425456 0 0 0 0 -2286131.4587229951 384643.5037568789 0 384643.5037568789 2405825.2637592629 0 0 0 0 966215.07608824968 1477543.9341418743 0 1477543.9341418743 1769728.4036712646 0 0 0 0 2420922.4777765274 25922531.204193115 0 25922531.204193115 41226627.791259766 0 0 0 0 -934721.26088104304 -419916.78976215422 0 -419916.78976215422 565832.53080839664 0 0 0 0 -1679660.1734962463 26625655.37915802 0 26625655.37915802 125083523.11109924 0 0 0 0 -13306634.32365799 35952188.114685059 0 35952188.114685059 159225039.96463013 0 0 0 0 -21016446.89147377 48366475.394081116 0 48366475.394081116 148497579.31194305 0 0 0 0 -11090596.386163712 32013540.802482605 0 32013540.802482605 166077180.06489563 0 0 0 0 -26318861.921302795 15887805.7162323 0 15887805.7162323 149601621.5141449 0 0 0 0 -23256778.184328079 52107048.542219162 0 52107048.542219162 148178572.59056091 0 0 0 0 4626809.9773683548 95642297.272426605 0 95642297.272426605 210417606.61365509 0 0 0 0 70842521.797742844 99275125.605628967 0 99275125.605628967 138175292.30269623 0 0 0 0 -56676187.753059387 19684813.342533112 0 19684813.342533112 232729606.80017853 0 0 0 0 64297029.955913544 164196264.85406494 0 164196264.85406494 249115385.67445374 0 0 0 0 11825512.839065552 43457732.809776306 0 43457732.809776306 286442382.42677307 0 0 0 0 78080560.281877518 -15056412.096992493 0 -15056412.096992493 148378817.71450806 0 0 0 0 -47801017.370131493 31487017.198863983 0 31487017.198863983 131708772.82862854 0 0 0 0 16545727.626801014 94657096.034063339 0 94657096.034063339 40312374.862670898 0 0 0 0 16687721.442897797 56380655.235797882 0 56380655.235797882 108500246.43066406 0 0 0 0 -13543186.268928528 13439092.178535461 0 13439092.178535461 63211146.556892395 0 0 0 0 37717929.576285362 18478109.390546799 0 18478109.390546799 -12903425.618431091 0 0 0 0 13947220.561374664 80513952.262355804 0 80513952.262355804 123149800.47796249 0 0 0 0 15490324.771186829 50224293.126152039 0 50224293.126152039 54548021.951156616 0 0 0 0 18886724.005125046 23390116.67791748 0 23390116.67791748 49030083.636945724 0 0 0 0 6077371.743013382 14394088.815483093 0 14394088.815483093 80288703.751480103 0 0 0 0 12426363.019692898 53641914.823085785 0 53641914.823085785 85138055.722457886 0 0 0 0 7229769.9254627228 29387003.341178894 0 29387003.341178894 124221026.2859993 0 0 0 0 -369778.62038197578 1043420.515161643 0 1043420.515161643 687261.76354489475 0 0 0 0 30088385.468875885 -62952419.72959137 0 -62952419.72959137 21083968.955566406 0 0 0 0 -1757016.2130938768 550383.71691417694 0 550383.71691417694 1655494.3606185913 0 0 0 0 -3033273.2704311572 -36490.828981738538 0 -36490.828981738538 2480534.7895888425 0 0 0 0 -159762.76854325458 100811.21779054776 0 100811.21779054776 -199424.30706401169 0 0 0 0 39143694.933012009 2218955.1487884521 0 2218955.1487884521 -173207.60725402832 0 0 0 0 -6420962.105670929 -33088756.815895081 0 -33088756.815895081 55808934.287628174 0 0 0 0 124262446.90237617 119952987.00754833 0 119952987.00754833 54931965.883201599 0 0 0 0 54522917.388114929 71578512.272636414 0 71578512.272636414 24519686.045404434 0 0 0 0 28189333.61179924 18803473.573600769 0 18803473.573600769 115284796.89688873 0 0 0 0 2808782.7420582771 106811944.54514313 0 106811944.54514313 195686659.92549133 0 0 0 0 33417052.805222511 -43496869.972945213 0 -43496869.972945213 26800146.129837036 0 0 0 0 -1971029.844195243 280876.27998860925 0 280876.27998860925 1507511.3352043927 0 0 0 0 1248036.3734664917 1298359.3546066284 0 1298359.3546066284 -2342456.0635910034 0 0 0 0 -1148444.0665669441 3369480.6868362427 0 3369480.6868362427 7040497.0584411621 0 0 0 0 201571.26573181152 5540597.6591033936 0 5540597.6591033936 -2851805.2897233963 0 0 0 0 -2730194.7803038498 2199932.448797896 0 2199932.448797896 1172733.4250574261 0 0 0 0 -2616421.6552820206 921841.26714324951 0 921841.26714324951 2479957.3688240051 0 0 0 0 -744917.26674461365 142339.92749214172 0 142339.92749214172 3234737.9848747253 0 0 0 0 8896834.1921443939 5420244.2729721069 0 5420244.2729721069 -5071574.9969062805 0 0 0 0 -7948426.2380824089 2023101.4606013298 0 2023101.4606013298 5387619.3220672607 0 0 0 0 -1102014.1423516029 1319564.0080964197 0 1319564.0080964197 73065.176749140024 0 0 0 0 -354087.28010134771 374713.57305593137 0 374713.57305593137 48829.787890270352 0 0 0 0 240965.27071905136 -19880389.721879959 0 -19880389.721879959 44883473.408409119 0 0 0 0 4579031.1444892883 -10110197.41664505 0 -10110197.41664505 8459964.158000946 0 0 0 0 4456472.3197832108 -757142.29930877686 0 -757142.29930877686 2207514.8150978088 0 0 0 0 -13269081.206479073 -7232747.3672828674 0 -7232747.3672828674 29118328.046897888 0 0 0 0 949107.86982011795 -15026389.295155525 0 -15026389.295155525 25988795.441757202 0 0 0 0 -2045773.3902320862 -3611263.0881118774 0 -3611263.0881118774 17068065.744106293 0 0 0 0 654023.61742687225 -7828480.0377883911 0 -7828480.0377883911 19951952.683273315 0 0 0 0 -2665087.0956864227 25795.862681612372 0 25795.862681612372 1224676.0401744824 0 0 0 0 -7196546.3064250946 4564414.8367614746 0 4564414.8367614746 8272693.7858161926 0 0 0 0 1200141.1894254684 -729915.18102645874 0 -729915.18102645874 2641693.8794937134 0 0 0 0 -2953779.1197986603 7282646.1260910034 0 7282646.1260910034 8118091.0853805542 0 0 0 0 -570388.32224845886 10310874.095500946 0 10310874.095500946 816770.89113998413 0 0 0 0 -1418535.4721807158 -147689.33888883889 0 -147689.33888883889 593382.13125871681 0 0 0 0 -12143689.312195063 -7365067.4489603043 0 -7365067.4489603043 18876965.696762085 0 0 0 0 2338590.3567619324 10988196.849983215 0 10988196.849983215 22526754.431945801 0 0 0 0 15033253.701562881 -5984373.4673461914 0 -5984373.4673461914 -8807431.8303604126 0 0 0 0 -14214979.697332382 45461482.590766907 0 45461482.590766907 -47086357.225708008 0 0 0 0 -879947.56820997782 -223783.20881389827 0 -223783.20881389827 789204.47032805532 0 0 0 0 57555033.379022598 28732257.941871643 0 28732257.941871643 -20592960.89932251 0 0 0 0 -39849570.592059135 -32289804.004901886 0 -32289804.004901886 110659904.75320816 0 0 0 0 -56539209.064953327 -4937273.0803623199 0 -4937273.0803623199 118578976.89315796 0 0 0 0 -172103454.74854565 91223429.406871796 0 91223429.406871796 87816337.223167419 0 0 0 0 -98861750.04531908 45395508.017757416 0 45395508.017757416 69874652.084983826 0 0 0 0 -9133563.4799213409 8744546.7854995728 0 8744546.7854995728 -4224929.7384109497 0 0 0 0 -10028699.251797438 -41169.408700942993 0 -41169.408700942993 27829418.072547913 0 0 0 0 -14109220.890548706 -6037893.8604736328 0 -6037893.8604736328 31843183.266941071 0 0 0 0 -17340711.343404293 -19352853.561676025 0 -19352853.561676025 44066461.808616638 0 0 0 0 -33894936.721246719 -6146432.9342193604 0 -6146432.9342193604 41136881.802051544 0 0 0 0 8965708.4693322182 -49627996.920501709 0 -49627996.920501709 41893149.502662659 0 0 0 0 -44454696.182528019 -56346973.956136703 0 -56346973.956136703 72248352.595214844 0 0 0 0 -19067128.493381739 -47507667.554086685 0 -47507667.554086685 66996436.733345032 0 0 0 0 -7572279.884745121 -45376911.220932007 0 -45376911.220932007 51659476.29675293 0 0 0 0 -19885845.783211946 -50492909.24853611 0 -50492909.24853611 101578640.95703125 0 0 0 0 12478655.680215836 -73321296.980096817 0 -73321296.980096817 135480052.64009476 0 0 0 0 170413843.57380342 197914986.71585846 0 197914986.71585846 197271170.48719215 0 0 0 0 44424100.959844112 -47397009.169843674 0 -47397009.169843674 -36894753.375091553 0 0 0 0 46393578.122296333 -62194591.73584342 0 -62194591.73584342 15187536.357116699 0 0 0 0 -349305.64591189334 -127168.24841493368 0 -127168.24841493368 1439497.9783179238 0 0 0 0 -18206628.804701805 69434483.125045776 0 69434483.125045776 -28405946.680318832 0 0 0 0 -838439.23126363754 16409803.63289547 0 16409803.63289547 70254060.961463928 0 0 0 0 -3168388.2136516571 7364273.519112587 0 7364273.519112587 36079083.129936218 0 0 0 0 4316321.725148201 1385370.9885902405 0 1385370.9885902405 40313709.178482056 0 0 0 0 4429559.8261909485 -12047666.34016037 0 -12047666.34016037 29656847.213912964 0 0 0 0 -25439730.044059753 -3384621.6358032227 0 -3384621.6358032227 102941149.7446804 0 0 0 0 -27604105.076023936 7192209.1491975784 0 7192209.1491975784 51627296.425804138 0 0 0 0 28170778.657027245 55709256.021682739 0 55709256.021682739 58208801.476478577 0 0 0 0 -50788147.567704916 2979642.2738208771 0 2979642.2738208771 62305142.74413681 0 0 0 0 -47429761.336145401 25569993.300468445 0 25569993.300468445 11272457.618146896 0 0 0 0 -15327474.631374836 35313306.506034851 0 35313306.506034851 30062695.957384109 0 0 0 0 -105612766.75592899 53930274.35972023 0 53930274.35972023 39348981.601707458 0 0 0 0 -84067810.478070855 -1178717.5752029419 0 -1178717.5752029419 27388667.223571777 0 0 0 0 35125093.971441507 55622962.677938461 0 55622962.677938461 13897804.268554688 0 0 0 0 -6857730.4055441618 16518829.901124954 0 16518829.901124954 15838437.172431946 0 0 0 0 40254008.621396065 35009624.381296158 0 35009624.381296158 33416940.514282227 0 0 0 0 -1052094.7416292569 1108123.7017224906 0 1108123.7017224906 3808906.9208269417 0 0 0 0 31965041.806484699 48361950.393268585 0 48361950.393268585 26168031.129310608 0 0 0 0 -81749790.213530064 -12058687.305378914 0 -12058687.305378914 37999843.69708252 0 0 0 0 -27158929.020223618 -5701061.1818618774 0 -5701061.1818618774 -5725774.9769611359 0 0 0 0 -313237.26003346057 374229.41829565447 0 374229.41829565447 1333113.2023583204 0 0 0 0 -35160627.344332457 -96499515.549048424 0 -96499515.549048424 205978388.22394562 0 0 0 0 37524560.402376175 -94783763.237260818 0 -94783763.237260818 40359283.107769966 0 0 0 0 164159481.43192625 132973415.02655029 0 132973415.02655029 93973146.078300476 0 0 0 0 -25512260.366708398 -20777442.284622192 0 -20777442.284622192 69414690.837600708 0 0 0 0 -60695253.101286888 62300788.769723892 0 62300788.769723892 227060499.72320557 0 0 0 0 395660698.88455296 -30330832.934181213 0 -30330832.934181213 -53810354.310844421 0 0 0 0 170157249.19957542 -105686483.45815277 0 -105686483.45815277 -68595416.253746033 0 0 0 0 -68720596.485723495 49964467.791992188 0 49964467.791992188 215872264.91180754 0 0 0 0 963290.43389701843 26493981.189216614 0 26493981.189216614 72228987.876960754 0 0 0 0 -476730.03121058736 -309435.5731793046 0 -309435.5731793046 275815.66469603218 0 0 0 0 -81569962.77102375 -44962813.94890213 0 -44962813.94890213 34846264.297843933 0 0 0 0 24214551.959922552 33552906.382041931 0 33552906.382041931 51275671.836906433 0 0 0 0 20850365.32699585 44684142.297042847 0 44684142.297042847 14818554.750747681 0 0 0 0 -13025988.728996277 52723450.388698578 0 52723450.388698578 51027943.217758179 0 0 0 0 64791789.924237728 14509637.24189949 0 14509637.24189949 49311734.197402954 0 0 0 0 29453034.386562347 -22471648.76892662 0 -22471648.76892662 62666523.038887024 0 0 0 0 48812627.842741966 35341345.574771881 0 35341345.574771881 40298343.885513306 0 0 0 0 -11443063.786902905 -287406.47434616089 0 -287406.47434616089 92230261.007888794 0 0 0 0 -33796025.56165266 -24224282.714225769 0 -24224282.714225769 75490288.316513062 0 0 0 0 -7372564.87215662 -24695460.479877472 0 -24695460.479877472 69846107.965023041 0 0 0 0 -11622238.814211369 -5147330.6764268875 0 -5147330.6764268875 64649079.767120361 0 0 0 0 -34093091.722119808 -13890150.532444 0 -13890150.532444 65317106.705978394 0 0 0 0 -42249189.373559713 29747.258234024048 0 29747.258234024048 55335536.600486755 0 0 0 0 -36615785.622273445 2974046.8355407715 0 2974046.8355407715 40115760.756053925 0 0 0 0 -28385459.630725861 -19484711.658046722 0 -19484711.658046722 62705266.311113358 0 0 0 0 -9211904.9996314049 -42777904.903978348 0 -42777904.903978348 71616937.504707336 0 0 0 0 -31666572.645606995 -23330613.635627747 0 -23330613.635627747 58368594.032402039 0 0 0 0 -63524779.583833218 -56989166.325021744 0 -56989166.325021744 68072033.229110718 0 0 0 0 -6446664.5660262108 -89581274.051025391 0 -89581274.051025391 67348559.876747131 0 0 0 0 -24779420.6168437 20945180.664665222 0 20945180.664665222 114670239.05174255 0 0 0 0 -69650260.280268192 -26269165.911035538 0 -26269165.911035538 86323108.588030815 0 0 0 0 -665160.09900271799 -687876.98358016089 0 -687876.98358016089 606451.74773509614 0 0 0 0 -38799495.814852715 -71777811.39132309 0 -71777811.39132309 -86820395.57449913 0 0 0 0 -117473911.13170928 -51623768.546043873 0 -51623768.546043873 17253183.434402466 0 0 0 0 -104031345.51848507 23892791.933250427 0 23892791.933250427 79656260.669548035 0 0 0 0 -51309746.097400665 -9458055.0350646973 0 -9458055.0350646973 169481806.03927612 0 0 0 0 23181139.198947906 79240768.189865112 0 79240768.189865112 65880564.47303772 0 0 0 0 -59434795.162683964 23202189.994960785 0 23202189.994960785 41835177.086029053 0 0 0 0 2985444.1836833954 44105000.444786072 0 44105000.444786072 115518290.29377747 0 0 0 0 25086864.680825233 32331396.982494354 0 32331396.982494354 86358203.524581909 0 0 0 0 11839294.134906769 30532816.242710114 0 30532816.242710114 70366991.519126892 0 0 0 0 2210970.8208286762 42671140.786356449 0 42671140.786356449 81911723.360473633 0 0 0 0 23763191.418700218 44252419.237751007 0 44252419.237751007 50076894.303134918 0 0 0 0 14741002.539147377 35012970.182720184 0 35012970.182720184 106958927.68875122 0 0 0 0 18166042.595123291 42837099.382705688 0 42837099.382705688 88739667.505649567 0 0 0 0 28422478.50680542 30564890.71833992 0 30564890.71833992 80136536.955101013 0 0 0 0 19959458.485946655 14332546.822593689 0 14332546.822593689 50278329.608802795 0 0 0 0 -1668239.5963926315 41943182.75472641 0 41943182.75472641 129108929.24638748 0 0 0 0 -3006836.3220255971 19842653.255838513 0 19842653.255838513 118716737.76858521 0 0 0 0 -1623958.6144444263 -1325120.8389434032 0 -1325120.8389434032 1541615.5080684088 0 0 0 0 -2694099.2887535095 -2340191.7048187256 0 -2340191.7048187256 142530013.71532631 0 0 0 0 3232889.4999837875 39351065.556148529 0 39351065.556148529 143847004.06115723 0 0 0 0 -11736147.974849701 -19111078.073074341 0 -19111078.073074341 -6825431.8043785095 0 0 0 0 31111980.047372818 21468033.68271637 0 21468033.68271637 133441720.04959106 0 0 0 0 14035249.058216095 56383921.045547485 0 56383921.045547485 144902768.07976532 0 0 0 0 -272284.74327037903 61231.451673522592 0 61231.451673522592 309502.22925102711 0 0 0 0 32053878.443040848 92126467.903564453 0 92126467.903564453 207357415.09561157 0 0 0 0 12887858.914524078 39350088.157051086 0 39350088.157051086 139270675.17614746 0 0 0 0 10207745.401950836 19512262.34046936 0 19512262.34046936 196874879.46192932 0 0 0 0 14043573.801721573 47353246.996429443 0 47353246.996429443 113363657.5202446 0 0 0 0 25790436.061965942 19500778.856704712 0 19500778.856704712 138899606.13389587 0 0 0 0 -3401725.4783504009 -8626385.4501228333 0 -8626385.4501228333 2467013.2472839355 0 0 0 0 -16280764.833099365 -8135793.8202705383 0 -8135793.8202705383 20375023.890098572 0 0 0 0 -36801471.659730911 -19650913.517623901 0 -19650913.517623901 29007916.834762573 0 0 0 0 -32033742.826049805 -24031249.709877014 0 -24031249.709877014 27348611.836006165 0 0 0 0 -25154621.404381752 -20214374.61788559 0 -20214374.61788559 5084073.2656555176 0 0 0 0 -22193739.451494694 -23728075.05046463 0 -23728075.05046463 3045352.1397094727 0 0 0 0 -40327872.264559746 -36249639.459537506 0 -36249639.459537506 11293548.568717957 0 0 0 0 -31199321.425927162 -20701267.144880295 0 -20701267.144880295 -3210448.3016586304 0 0 0 0 -41264936.206066132 -26012037.113025665 0 -26012037.113025665 28319318.060073853 0 0 0 0 -33576160.292623997 -24628060.143774033 0 -24628060.143774033 4934237.3179016113 0 0 0 0 -44028305.263629913 -26765143.704219818 0 -26765143.704219818 36443993.91733551 0 0 0 0 -20671506.397751808 -12416471.403541565 0 -12416471.403541565 26803280.196044922 0 0 0 0 -26687073.48279047 -995558.88240814209 0 -995558.88240814209 -38204265.486889839 0 0 0 0 -27146205.403656483 -1911128.9396629333 0 -1911128.9396629333 55935501.336036682 0 0 0 0 -22696923.744526863 85541110.780075073 0 85541110.780075073 -19258778.760936737 0 0 0 0 -30890700.236913681 87384066.834877014 0 87384066.834877014 32399146.594146729 0 0 0 0 -43564934.974230766 63272569.238731384 0 63272569.238731384 63011714.128105164 0 0 0 0 -33632222.194772243 63040061.48985672 0 63040061.48985672 21336260.655914307 0 0 0 0 -31857108.227403879 58142792.771188736 0 58142792.771188736 30411966.711654663 0 0 0 0 4221857.5974168777 -16374488.531635284 0 -16374488.531635284 12910667.390420437 0 0 0 0 -48475332.380398035 -35198594.093976974 0 -35198594.093976974 44833206.265861511 0 0 0 0 -26740183.295835495 45662546.539329529 0 45662546.539329529 4864302.3860397339 0 0 0 0 861864.27068288205 -1774258.5581009611 0 -1774258.5581009611 -1525383.0110573024 0 0 0 0 -19408360.818856731 -67302911.250647664 0 -67302911.250647664 -31182927.009567261 0 0 0 0 -22942490.511471748 -2696673.5135955811 0 -2696673.5135955811 36044578.075089455 0 0 0 0 -639229.57703123754 -8381804.2451524436 0 -8381804.2451524436 17863449.97836348 0 0 0 0 18963079.158107281 -22501094.236930847 0 -22501094.236930847 -21973226.371704102 0 0 0 0 25742681.17347312 -49538163.499584198 0 -49538163.499584198 -54398376.976383209 0 0 0 0 -15914458.902652264 -73108762.698319912 0 -73108762.698319912 -57308215.85105896 0 0 0 0 1268550.3821678276 -7481097.7364908122 0 -7481097.7364908122 15971445.532821734 0 0 0 0 -8497526.4923803806 -52330159.847846985 0 -52330159.847846985 -74287847.046081543 0 0 0 0 -25074062.454072751 -17106847.351950049 0 -17106847.351950049 22397534.91456604 0 0 0 0 -6032707.422973156 14243197.022212982 0 14243197.022212982 -123136185.05421066 0 0 0 0 6743671.1308577061 -66287121.821743011 0 -66287121.821743011 53425920.595693588 0 0 0 0 -7118925.5961019695 14391641.373876691 0 14391641.373876691 101083218.23441315 0 0 0 0 -63341246.588754654 -65281400.934978008 0 -65281400.934978008 19234066.531921387 0 0 0 0 -33226055.636413336 -20322178.889953613 0 -20322178.889953613 1561419.4294013977 0 0 0 0 5852540.7859436274 -44411604.049869537 0 -44411604.049869537 13916872.919532776 0 0 0 0 -15574089.970358849 309199.71657371521 0 309199.71657371521 60665306.536888123 0 0 0 0 -5667793.4109746814 -33811776.435381174 0 -33811776.435381174 -23623928.360946655 0 0 0 0 86115453.70737499 55120070.744541168 0 55120070.744541168 66451283.780248642 0 0 0 0 14269837.977622518 -11457139.637773514 0 -11457139.637773514 61200043.579565048 0 0 0 0 -31071766.27386713 -15298330.063661575 0 -15298330.063661575 -29897503.137435913 0 0 0 0 -52186456.757620811 -28327516.588352203 0 -28327516.588352203 7649187.7516174316 0 0 0 0 -108632857.35469246 108931006.5105629 0 108931006.5105629 -106977234.15657043 0 0 0 0 762313.80463798949 -8801816.6453091018 0 -8801816.6453091018 17692572.096960686 0 0 0 0 -36854407.801207542 -40921211.105415344 0 -40921211.105415344 -10537562.682499886 0 0 0 0 -6622403.1402698318 981336.2147164084 0 981336.2147164084 6315259.6204748526 0 0 0 0 -44549662.956281662 14753740.634040833 0 14753740.634040833 34459357.319858551 0 0 0 0 -37124501.104341507 76347645.523887634 0 76347645.523887634 -177333464.43596649 0 0 0 0 244664786.2100563 -141442476.93225098 0 -141442476.93225098 -112073768.2914238 0 0 0 0 2686611.8918552399 -61983979.671508789 0 -61983979.671508789 -53713086.584442139 0 0 0 0 87169529.556265831 -221365318.41117859 0 -221365318.41117859 -13207454.028533936 0 0 0 0 -246218761.15033269 -107133290.7089777 0 -107133290.7089777 -560154713.8485527 0 0 0 0 127219930.3133564 258061555.31715775 0 258061555.31715775 278016918.75424194 0 0 0 0 -110469869.62787819 167486604.4983139 0 167486604.4983139 554445938.71694946 0 0 0 0 17161600.307682037 -267176139.91872406 0 -267176139.91872406 505973336.84065247 0 0 0 0 800443.24882326927 -6577213.5669575157 0 -6577213.5669575157 14833901.717492364 0 0 0 0 -529379470.46199989 -356274105.25476456 0 -356274105.25476456 983765742.97463226 0 0 0 0 -89217172.852395058 -54552791.864030838 0 -54552791.864030838 30840727.050453186 0 0 0 0 2000349.8182888031 -21705453.828403473 0 -21705453.828403473 -20167766.575317383 0 0 0 0 37744743.771616459 51916906.406007767 0 51916906.406007767 27699888.540214539 0 0 0 0 13937604.524512291 71450245.34906292 0 71450245.34906292 137452882.5997467 0 0 0 0 -14397311.301029682 11976322.253259659 0 11976322.253259659 67071304.764930725 0 0 0 0 -54963937.541507721 47234599.7084198 0 47234599.7084198 59617075.520309448 0 0 0 0 -13207588.094932556 62324758.545379639 0 62324758.545379639 27491415.290557861 0 0 0 0 -277223996.11615849 -247072542.28102112 0 -247072542.28102112 -227107797.82795715 0 0 0 0 640234.00886232685 -1471735.2856276482 0 -1471735.2856276482 2112547.3527135253 0 0 0 0 724310.73566649947 -4225215.3169827871 0 -4225215.3169827871 9421150.0329951495 0 0 0 0 -65770434.345831335 -54182816.517142057 0 -54182816.517142057 41084978.0496521 0 0 0 0 71059019.098054409 125033052.39773345 0 125033052.39773345 205187521.55812454 0 0 0 0 92557555.107755631 64507261.6594944 0 64507261.6594944 86558736.229003906 0 0 0 0 37102761.780995131 64250395.14522171 0 64250395.14522171 104823660.5423336 0 0 0 0 -70223.442019224167 -10593604.885984421 0 -10593604.885984421 37220040.353878021 0 0 0 0 -4474642.2765046507 40580082.363772273 0 40580082.363772273 88599937.034263611 0 0 0 0 125774142.26292598 133457904.94018936 0 133457904.94018936 133111526.55587387 0 0 0 0 58150999.027062677 101080812.59042358 0 101080812.59042358 161011564.55874634 0 0 0 0 72747412.62811327 55371268.106647491 0 55371268.106647491 66001016.415555954 0 0 0 0 99558408.842217028 143250227.98349094 0 143250227.98349094 241152215.94412994 0 0 0 0 200667409.24313557 171836074.4751091 0 171836074.4751091 223186607.12427521 0 0 0 0 217308362.6231012 103862398.81256247 0 103862398.81256247 322744705.26291656 0 0 0 0 135034830.01476991 161074412.60724831 0 161074412.60724831 282960587.26223755 0 0 0 0 154489213.7056793 120589590.35569 0 120589590.35569 235264479.61724949 0 0 0 0 75169444.368745327 81846810.298362732 0 81846810.298362732 370043062.67484283 0 0 0 0 73057000.298534632 104930338.87843418 0 104930338.87843418 243330139.24954605 0 0 0 0 94804231.125561237 119387930.83732986 0 119387930.83732986 113950000.11672211 0 0 0 0 45718850.629889011 68464310.17035675 0 68464310.17035675 164681524.04511642 0 0 0 0 66740906.420597076 88254534.421218872 0 88254534.421218872 84011707.480369568 0 0 0 0 55262666.109939575 154077715.02091599 0 154077715.02091599 236468828.7028923 0 0 0 0 37229322.6375947 25841883.825273514 0 25841883.825273514 42443229.673660278 0 0 0 0 89955118.504552841 -17517354.239860535 0 -17517354.239860535 -71454202.795318604 0 0 0 0 122870303.80408859 101937809.02435303 0 101937809.02435303 -42213417.320344925 0 0 0 0 96931130.723432541 161088217.20625305 0 161088217.20625305 124674872.40060043 0 0 0 0 54653790.192426682 107489529.9414978 0 107489529.9414978 227558299.53836823 0 0 0 0 137001420.26128769 196017793.21130371 0 196017793.21130371 170085271.30190277 0 0 0 0 136614645.83138084 204691041.36003387 0 204691041.36003387 359473649.37382507 0 0 0 0 56279978.695632935 107613536.978508 0 107613536.978508 375392313.16745758 0 0 0 0 33004172.172366858 155500833.41170216 0 155500833.41170216 318460518.58834839 0 0 0 0 48423934.623173714 93579298.148349762 0 93579298.148349762 367996650.4747467 0 0 0 0 43461740.260847092 120305413.15898132 0 120305413.15898132 395839253.96569824 0 0 0 0 38163219.041667938 105838821.20845795 0 105838821.20845795 421826052.7017746 0 0 0 0 85150460.083864212 43994158.509647369 0 43994158.509647369 430252753.98930264 0 0 0 0 56200261.281808525 104622981.9698028 0 104622981.9698028 582587380.40824127 0 0 0 0 49550633.335839212 113359608.26775742 0 113359608.26775742 405674314.37103653 0 0 0 0 76934739.580359459 98844224.825035095 0 98844224.825035095 279014336.65659714 0 0 0 0 27232195.417637825 118709705.55529404 0 118709705.55529404 378968944.76303864 0 0 0 0 70150847.344394684 88499090.972694397 0 88499090.972694397 390621281.17365265 0 0 0 0 60914876.391476631 124790978.18121338 0 124790978.18121338 452238257.10924911 0 0 0 0 75786101.613871574 112558712.43044472 0 112558712.43044472 404987670.45050812 0 0 0 0 101762063.32096004 120816533.7475853 0 120816533.7475853 388465232.05781484 0 0 0 0 115027420.99150455 209251448.77155185 0 209251448.77155185 213065955.02719116 0 0 0 0 100583135.06202126 54944643.702531815 0 54944643.702531815 316518195.4332428 0 0 0 0 55555859.058750153 78637612.900066376 0 78637612.900066376 391450993.20619965 0 0 0 0 20202545.237694263 104100244.1675415 0 104100244.1675415 552310612.29084015 0 0 0 0 -18773254.931258678 193724479.65355682 0 193724479.65355682 416998828.43391228 0 0 0 0 118136045.06848347 9045334.2870063782 0 9045334.2870063782 696602435.79638577 0 0 0 0 133735693.16120613 294366942.77506256 0 294366942.77506256 565870528.15540791 0 0 0 0 423966988.53957844 76149325.092082977 0 76149325.092082977 304655259.5804863 0 0 0 0 111184045.93723738 85022243.240631104 0 85022243.240631104 420387673.63953018 0 0 0 0 -88273049.624300003 83836094.493855476 0 83836094.493855476 -115583105.65618896 0 0 0 0 10890093.491222143 26459397.316797256 0 26459397.316797256 18601517.23097229 0 0 0 0 -46247192.359539032 -14681008.752944946 0 -14681008.752944946 7438203.7216434479 0 0 0 0 16717234.438316345 64168457.302913666 0 64168457.302913666 -25315095.072034836 0 0 0 0 16836763.495632172 50996389.664043427 0 50996389.664043427 30415210.436861038 0 0 0 0 49588073.440315247 35424733.100471497 0 35424733.100471497 19680746.35490036 0 0 0 0 48704314.613269448 14604748.030326128 0 14604748.030326128 112465786.27999878 0 0 0 0 20348307.974237442 -20255265.845848083 0 -20255265.845848083 109044589.89618683 0 0 0 0 31115211.396402359 -26793617.776573181 0 -26793617.776573181 100496864.87236404 0 0 0 0 117271.22037696838 -88333329.577781677 0 -88333329.577781677 274082881.98986816 0 0 0 0 20660985.457434654 -29942927.187105179 0 -29942927.187105179 258974807.94667053 0 0 0 0 -53655438.911939621 -93690141.297077179 0 -93690141.297077179 507867627.65789795 0 0 0 0 -53420350.030139923 -77926526.467338562 0 -77926526.467338562 369620153.56203461 0 0 0 0 -17430063.046230316 -6405998.3179321289 0 -6405998.3179321289 287011343.78871155 0 0 0 0 -12074437.198883057 -124601294.66459656 0 -124601294.66459656 265753789.7047596 0 0 0 0 -48911285.22081086 -131465496.33209622 0 -131465496.33209622 -139809217.15194702 0 0 0 0 -25210009.590883255 -189029761.13731384 0 -189029761.13731384 224324953.40685272 0 0 0 0 -322937047.32641506 -360649029.37523651 0 -360649029.37523651 293656784.64395523 0 0 0 0 -49111633.266973495 -131166110.59499359 0 -131166110.59499359 256914097.51553726 0 0 0 0 13229467.505669594 -100016140.75998306 0 -100016140.75998306 51818050.172790527 0 0 0 0 366548112.70949841 480777729.86486053 0 480777729.86486053 335485437.77957916 0 0 0 0 -465671.2345194798 -482359.19097451121 0 -482359.19097451121 3890936.3577723205 0 0 0 0 196618696.6375494 240958196.46324348 0 240958196.46324348 64066304.654102325 0 0 0 0 20660192.695451736 271835192.32911301 0 271835192.32911301 421563771.63661575 0 0 0 0 114888517.89885807 338524614.49895859 0 338524614.49895859 379487464.71940994 0 0 0 0 -458018973.72304916 -19326373.950849533 0 -19326373.950849533 312275450.56818581 0 0 0 0 -205835490.89557505 536523352.14628029 0 536523352.14628029 580184403.15498352 0 0 0 0 316527531.77283096 71648790.165008545 0 71648790.165008545 294814210.09329987 0 0 0 0 -383335.34583114274 -2207781.3346378244 0 -2207781.3346378244 8734294.0419195145 0 0 0 0 -288098148.24700093 -91089699.256959677 0 -91089699.256959677 2617209.3513183594 0 0 0 0 -272028079.01539803 51789495.75699234 0 51789495.75699234 21995426.578575134 0 0 0 0 -78313388.070417404 38021701.689933777 0 38021701.689933777 -30923657.660011292 0 0 0 0 -109977116.82421064 -44204161.401432037 0 -44204161.401432037 -63433469.415557861 0 0 0 0 -146007270.33714294 -2553161.0294094086 0 -2553161.0294094086 45436672.213653564 0 0 0 0 487523656.75368786 -715541898.92772484 0 -715541898.92772484 -823536553.95018005 0 0 0 0 1192025294.8849382 1255216479.7449493 0 1255216479.7449493 579574807.44378662 0 0 0 0 178006234.68589211 -88533208.076026917 0 -88533208.076026917 490670334.89308929 0 0 0 0 -732345581.79727173 -409476616.12244797 0 -409476616.12244797 99222849.000717163 0 0 0 0 191307.55562039837 -1317030.2782607172 0 -1317030.2782607172 3177664.660283193 0 0 0 0 -119676986.86752391 -38194390.188333988 0 -38194390.188333988 47720437.115844727 0 0 0 0 725862.81825162098 -3179711.5144604333 0 -3179711.5144604333 6971266.6064008847 0 0 0 0 -99354327.848413467 13000810.143108368 0 13000810.143108368 17571752.141593933 0 0 0 0 -85248612.322669983 26202272.663978577 0 26202272.663978577 80338901.944488525 0 0 0 0 -81768143.352796555 36033999.59198761 0 36033999.59198761 31113462.911247253 0 0 0 0 -113168515.49512672 7683871.8570899963 0 7683871.8570899963 74777609.005401611 0 0 0 0 -59650765.419534683 32738358.146400452 0 32738358.146400452 69924027.426626205 0 0 0 0 -82270206.435720444 49176139.140769958 0 49176139.140769958 120069507.45937347 0 0 0 0 -54591344.84053421 54976654.325645447 0 54976654.325645447 87431629.393177032 0 0 0 0 -36625087.484081268 51877843.238044739 0 51877843.238044739 90954311.22403717 0 0 0 0 -58454734.973531723 63083031.560501099 0 63083031.560501099 128865674.1555481 0 0 0 0 4686760.5789337158 45630290.469703674 0 45630290.469703674 73030980.216947556 0 0 0 0 -36631065.624887466 63766478.229431152 0 63766478.229431152 144024236.79310608 0 0 0 0 -7998401.360502243 31905754.319499969 0 31905754.319499969 77285589.453536987 0 0 0 0 -76046407.01096344 59189624.470355034 0 59189624.470355034 92186150.948623657 0 0 0 0 -83860472.130462646 34858614.755517006 0 34858614.755517006 39674896.437576294 0 0 0 0 -16753542.146254539 56038502.876211166 0 56038502.876211166 22772167.335281372 0 0 0 0 53934249.961613655 35631600.650032043 0 35631600.650032043 9671779.9748153687 0 0 0 0 52538834.768198013 41297100.23740387 0 41297100.23740387 8161930.940032959 0 0 0 0 -7297438.8843708038 40617755.549110413 0 40617755.549110413 89458171.501754761 0 0 0 0 3382243.5204601288 53797522.750442505 0 53797522.750442505 85603366.303565979 0 0 0 0 -2271356.0638923645 24917604.884689331 0 24917604.884689331 149810554.21985626 0 0 0 0 -4864910.9627780914 23637976.889173508 0 23637976.889173508 321037148.93389893 0 0 0 0 26007998.22659874 164522464.07682419 0 164522464.07682419 142348482.95046997 0 0 0 0 56821092.651697159 230775295.22263336 0 230775295.22263336 272568671.77728271 0 0 0 0 29092599.194389343 132027076.22169495 0 132027076.22169495 128373399.0642662 0 0 0 0 -9386476.2020072937 126229416.22542572 0 126229416.22542572 236916611.60323334 0 0 0 0 -17117266.408359528 90849822.326019287 0 90849822.326019287 135000068.02892876 0 0 0 0 -24338907.169694424 88721950.975824356 0 88721950.975824356 156164170.71127319 0 0 0 0 -52764382.684192657 70504132.695285797 0 70504132.695285797 151959738.86407471 0 0 0 0 -23627190.618841171 67775582.429946899 0 67775582.429946899 127012869.22889328 0 0 0 0 -10330471.521764755 72086467.43116188 0 72086467.43116188 150306547.34574127 0 0 0 0 -15179066.536401749 77406937.727565765 0 77406937.727565765 147300020.38705444 0 0 0 0 43012394.673698425 112234600.47213745 0 112234600.47213745 148566781.22143364 0 0 0 0 57974562.369585037 71153715.488563538 0 71153715.488563538 143231010.03103256 0 0 0 0 -1008726.414773941 54295436.430397034 0 54295436.430397034 147360739.64605331 0 0 0 0 251738.08178825863 -108972.93946829811 0 -108972.93946829811 -105764.84864247497 0 0 0 0 66672041.744995117 124815681.8650322 0 124815681.8650322 128157604.32761383 0 0 0 0 -424256.89237785339 8395803.4321098328 0 8395803.4321098328 14911082.093444824 0 0 0 0 -37729975.860816002 10281572.409061432 0 10281572.409061432 -1864745.3217163086 0 0 0 0 -122353.77117567509 -415619.94207844511 0 -415619.94207844511 301187.28575924225 0 0 0 0 -449298.90048819128 377811.34365577996 0 377811.34365577996 263357.84913682193 0 0 0 0 112038689.35943031 119201893.21580124 0 119201893.21580124 111774184.30754852 0 0 0 0 -24814504.41852951 124967087.88046646 0 124967087.88046646 271682890.17218018 0 0 0 0 46664635.957302094 43845796.977973938 0 43845796.977973938 24922672.756034851 0 0 0 0 -19806872.720466614 -26633537.362190247 0 -26633537.362190247 2211960.975944519 0 0 0 0 -41191242.426509857 74488088.055938721 0 74488088.055938721 174230484.74199295 0 0 0 0 -40004087.588503838 74854173.808475494 0 74854173.808475494 174337693.38572693 0 0 0 0 -36954966.579065323 42479375.098197937 0 42479375.098197937 167984992.41927338 0 0 0 0 -65621962.765423775 59951895.958425522 0 59951895.958425522 162696586.28445435 0 0 0 0 -76274431.025078773 34049582.645645142 0 34049582.645645142 109019493.49812317 0 0 0 0 -44280712.895376205 51018975.02148819 0 51018975.02148819 100768848.82868958 0 0 0 0 -40025987.182588577 58840934.256362915 0 58840934.256362915 117051907.243433 0 0 0 0 -47659561.165013313 54073511.902225494 0 54073511.902225494 163094195.45693207 0 0 0 0 -4631703.8047542572 51134006.51361084 0 51134006.51361084 163267929.13462925 0 0 0 0 -29483435.520809174 12891342.087375641 0 12891342.087375641 181939643.06280136 0 0 0 0 -76026593.445892334 24163679.275375366 0 24163679.275375366 180354132.11734772 0 0 0 0 -77186290.508896828 -56502214.856513977 0 -56502214.856513977 125977880.77948761 0 0 0 0 -91619938.90987587 35592160.771003723 0 35592160.771003723 241062900.36325073 0 0 0 0 -76966908.339874268 57924852.809173584 0 57924852.809173584 260508705.91488647 0 0 0 0 -166878956.86914062 28580958.143959045 0 28580958.143959045 375124996.07878876 0 0 0 0 -161772306.04741859 -41474239.748466492 0 -41474239.748466492 257909132.1461153 0 0 0 0 -51623917.171247482 89259974.744285583 0 89259974.744285583 276107570.92713165 0 0 0 0 -87264497.865556717 61350628.974399567 0 61350628.974399567 285328311.25151062 0 0 0 0 -126947.4401210174 -138694.17863371223 0 -138694.17863371223 23594.980640161783 0 0 0 0 -1671855.6415314926 467099.85593516007 0 467099.85593516007 1380594.264591068 0 0 0 0 293705456.07336998 -252120180.13570404 0 -252120180.13570404 -126737298.98051453 0 0 0 0 -808880632.39200974 194931223.06532288 0 194931223.06532288 -80687708.378306389 0 0 0 0 -165901452.61324883 -140241370.80744171 0 -140241370.80744171 -72568993.525100708 0 0 0 0 -359920455.52273655 -6103168.4970054626 0 -6103168.4970054626 32085250.902832031 0 0 0 0 171054884.44877625 16938851.645772934 0 16938851.645772934 -93938603.435058594 0 0 0 0 -80952264.845705032 251468458.68649483 0 251468458.68649483 -201688566.16969299 0 0 0 0 -144949066.33908176 90688566.819229126 0 90688566.819229126 51535970.936496735 0 0 0 0 41008286.729214668 116912691.34262848 0 116912691.34262848 28151121.91103363 0 0 0 0 -2255844.6260788552 912788.54415054619 0 912788.54415054619 1681036.853296645 0 0 0 0 -97118922.140649796 -100824053.83799744 0 -100824053.83799744 -84784426.720664978 0 0 0 0 -55941616.210048676 52066394.211242676 0 52066394.211242676 7177520.5583076477 0 0 0 0 -26420193.369121552 -42457944.494235992 0 -42457944.494235992 -6634355.8834571838 0 0 0 0 1862087.1417598724 3110840.0988311768 0 3110840.0988311768 6499596.9911231995 0 0 0 0 3709555.9765081406 7864655.1336479187 0 7864655.1336479187 -7912468.1815795898 0 0 0 0 3883429.9933929443 8360097.132352829 0 8360097.132352829 2384948.1804046631 0 0 0 0 -1926330.3537974022 1050804.2685068846 0 1050804.2685068846 1112680.1018412709 0 0 0 0 146075718.80963326 -27767734.809894562 0 -27767734.809894562 5615283.0684022903 0 0 0 0 2696194.6837334633 -279988.65588474274 0 -279988.65588474274 573124.16562652588 0 0 0 0 -378919.21305370331 1073872.3396377563 0 1073872.3396377563 3766744.3656539917 0 0 0 0 -861130.09744262695 2356170.9343986511 0 2356170.9343986511 991984.36781311035 0 0 0 0 -2248375.8422522545 -5846693.6834692955 0 -5846693.6834692955 -11026240.621616364 0 0 0 0 -618691.83570260834 -347864.48420396075 0 -347864.48420396075 1342318.0130897127 0 0 0 0 -6046195.9002399445 7820614.1607513428 0 7820614.1607513428 6354603.6182861328 0 0 0 0 4611276.6444721222 1646790.4926681519 0 1646790.4926681519 8939704.0091667175 0 0 0 0 54169281.995064735 58415233.832679749 0 58415233.832679749 16576918.284557343 0 0 0 0 -396044.06537044048 -29053710.199107647 0 -29053710.199107647 -12056755.411735535 0 0 0 0 -402120.32820788585 -125833.3331429027 0 -125833.3331429027 654416.47492559999 0 0 0 0 -14678691.035163879 12004147.14806366 0 12004147.14806366 24943382.315807343 0 0 0 0 -23992784.759906769 51466064.877098083 0 51466064.877098083 15630264.192104101 0 0 0 0 -160381550.91808701 10741347.347572327 0 10741347.347572327 31640122.626407623 0 0 0 0 488614.71392262122 6492998.1576686595 0 6492998.1576686595 21124571.476223938 0 0 0 0 5254566.2380771637 14367484.516437531 0 14367484.516437531 5444320.7582015991 0 0 0 0 9137673.8917236328 18137566.674861908 0 18137566.674861908 -39140248.496711731 0 0 0 0 -169438460.46749306 48353368.958778381 0 48353368.958778381 50250238.352584839 0 0 0 0 -191759.23537063971 4253259.3744428921 0 4253259.3744428921 17489081.219324984 0 0 0 0 -635909836.02336574 247980127.66746902 0 247980127.66746902 266846679.34828949 0 0 0 0 -136506406.70855761 -262175332.28094673 0 -262175332.28094673 42664343.257949829 0 0 0 0 -566468.71200844878 1751617.5691437251 0 1751617.5691437251 11020077.35473159 0 0 0 0 -225545258.42759848 -212965852.91871071 0 -212965852.91871071 319559620.38307953 0 0 0 0 -91926057.248983383 102102007.21751404 0 102102007.21751404 -17106681.010528564 0 0 0 0 -208866180.56560326 94130400.140110016 0 94130400.140110016 76253178.110931396 0 0 0 0 -28752432.070711136 460781.41472625732 0 460781.41472625732 54861468.291091919 0 0 0 0 18040595.546951294 36813096.431907654 0 36813096.431907654 32701114.752357483 0 0 0 0 17538056.502527714 34414604.079794884 0 34414604.079794884 86316738.185440063 0 0 0 0 35020114.647542953 -26082538.775665283 0 -26082538.775665283 58342313.705873489 0 0 0 0 48624662.540996552 -18749932.096420288 0 -18749932.096420288 153724437.93532372 0 0 0 0 50530538.062685013 23453845.425582886 0 23453845.425582886 159021787.78190613 0 0 0 0 296428311.5521698 -5080381.541229248 0 -5080381.541229248 50965984.98797226 0 0 0 0 103009225.4753685 -90048760.124145508 0 -90048760.124145508 349242109.93742371 0 0 0 0 120097877.07682228 88703488.59765625 0 88703488.59765625 10944692.366062164 0 0 0 0 103234013.50522232 -65120273.380859375 0 -65120273.380859375 81153207.742393494 0 0 0 0 -89949.321738615632 -327776.63663540035 0 -327776.63663540035 162638.68345220666 0 0 0 0 62859875.014214516 -35210723.770936966 0 -35210723.770936966 -42036151.799491882 0 0 0 0 5911133.0218372345 14734761.757228851 0 14734761.757228851 32774145.762069702 0 0 0 0 86987029.264455795 -3257486.4561233521 0 -3257486.4561233521 -17776730.709884644 0 0 0 0 -24158703.853521347 43134604.012378693 0 43134604.012378693 32136989.461372375 0 0 0 0 59607589.520599365 -6502444.7650146484 0 -6502444.7650146484 -13668579.659810543 0 0 0 0 9306550.9176666737 -21815975.947110638 0 -21815975.947110638 15863701.962844849 0 0 0 0 35448420.622829437 -23206292.686164856 0 -23206292.686164856 1303755.5720672607 0 0 0 0 -87154235.308093786 -208556825.1418705 0 -208556825.1418705 126500362.80098724 0 0 0 0 710737.49796626635 -868732.53302332014 0 -868732.53302332014 613772.12240071595 0 0 0 0 6280043.0550999045 39992188.853368759 0 39992188.853368759 16581572.643684387 0 0 0 0 104462759.21486771 2853898.8223991394 0 2853898.8223991394 -87962728.99445343 0 0 0 0 -11437203.850117683 22452557.835151672 0 22452557.835151672 51244061.920642853 0 0 0 0 414510407.53887844 -252707989.28367233 0 -252707989.28367233 122643626.21683121 0 0 0 0 431955984.87729263 277436160.32741928 0 277436160.32741928 -97975765.13420105 0 0 0 0 -69808414.769620895 43835757.432189941 0 43835757.432189941 -31213142.829017639 0 0 0 0 -334283814.94420028 457446479.3783741 0 457446479.3783741 -43560270.539596558 0 0 0 0 -208364684.23931932 -123614429.45707703 0 -123614429.45707703 61987310.160840034 0 0 0 0 -109403114.82861328 160440808.68190575 0 160440808.68190575 856159460.07940674 0 0 0 0 37713755.664662659 -214762856.38888741 0 -214762856.38888741 130835131.95426941 0 0 0 0 -15036622.019226074 -126367345.01029968 0 -126367345.01029968 183482553.58932495 0 0 0 0 -1996908.0082457201 -1773429.6154120357 0 -1773429.6154120357 6165540.8553209156 0 0 0 0 198166279.66385722 -164217534.59213257 0 -164217534.59213257 132593552.34080887 0 0 0 0 19138437.024770975 50901304.010780334 0 50901304.010780334 115644991.51644135 0 0 0 0 190968779.00917053 364353038.2550776 0 364353038.2550776 444085212.86530304 0 0 0 0 -586825.91772994399 -888803.47041241382 0 -888803.47041241382 2189722.1381745636 0 0 0 0 610644826.82287145 -443338987.83532333 0 -443338987.83532333 214871274.52725601 0 0 0 0 -3195915.1435937881 -51334186.942214966 0 -51334186.942214966 707723390.84135437 0 0 0 0 -14771981.257388413 97182671.738078117 0 97182671.738078117 435346325.52022552 0 0 0 0 6243784.368123889 39839840.945358276 0 39839840.945358276 129895861.68701172 0 0 0 0 -2133463.8348005963 1806226.5169161186 0 1806226.5169161186 3435320.8994845208 0 0 0 0 -119502046.31458306 303230319.37512207 0 303230319.37512207 -352788909.40614319 0 0 0 0 -61096776.702697277 23694858.091552734 0 23694858.091552734 326215615.91087341 0 0 0 0 -81399201.176140189 201883661.29158401 0 201883661.29158401 372631090.96942139 0 0 0 0 -103233433.7837069 174251976.74392891 0 174251976.74392891 322234014.53775787 0 0 0 0 -68655764.044811487 168843081.62785721 0 168843081.62785721 -13503142.99571991 0 0 0 0 55723407.223455429 166517238.89025879 0 166517238.89025879 -290073531.01332092 0 0 0 0 -118521548.9766922 135245529.74513626 0 135245529.74513626 -23225427.615242004 0 0 0 0 -112399247.51657867 137027460.20208645 0 137027460.20208645 -107292117.12957764 0 0 0 0 -4772373.8365112077 1814541.6100320965 0 1814541.6100320965 6473038.7527423091 0 0 0 0 -195103903.08744144 91733335.460380554 0 91733335.460380554 39403013.877986908 0 0 0 0 -3167555.7633275609 -3012574.9053300894 0 -3012574.9053300894 12912205.713646472 0 0 0 0 -88386845.184328616 -69595253.119055986 0 -69595253.119055986 -39008045.747169495 0 0 0 0 62105123.806988716 -124568740.98765564 0 -124568740.98765564 182652623.83644485 0 0 0 0 -5157359.9121267237 659710.93543181568 0 659710.93543181568 5158484.7738960385 0 0 0 0 59159301.348449707 -133567380.28899002 0 -133567380.28899002 156872256.82595062 0 0 0 0 -24780591.274999619 -109193056.88106918 0 -109193056.88106918 -36277885.089248657 0 0 0 0 -141537871.69644833 -139076925.39367676 0 -139076925.39367676 -11778232.11422348 0 0 0 0 -348238748.34733212 -91773489.776291251 0 -91773489.776291251 82450333.893051147 0 0 0 0 -48027306.171414375 -149661199.27141762 0 -149661199.27141762 -4557397.8924102783 0 0 0 0 -1907887.6485356567 -3037948.3679923653 0 -3037948.3679923653 11795715.975215435 0 0 0 0 -336836263.79170024 16665903.933820963 0 16665903.933820963 186297315.38752747 0 0 0 0 -137227574.30233145 14662107.420879364 0 14662107.420879364 225042567.33497238 0 0 0 0 -148824608.17864752 69016341.485105515 0 69016341.485105515 -4143421.1282463074 0 0 0 0 -18328450.78021431 -142281693.07663727 0 -142281693.07663727 14896101.960136414 0 0 0 0 35399271.741060972 -345135826.66885376 0 -345135826.66885376 370068329.29795837 0 0 0 0 -131953414.41961753 58829536.746955872 0 58829536.746955872 336666059.24184418 0 0 0 0 143957745.10989571 143524506.66784286 0 143524506.66784286 -73472988.907096863 0 0 0 0 94421440.837921143 161930041.875 0 161930041.875 -63014944.303058624 0 0 0 0 59685122.915552616 33749180.371189117 0 33749180.371189117 -11048279.925788879 0 0 0 0 49844613.8673172 60788109.305732727 0 60788109.305732727 1371913.2183761597 0 0 0 0 107646090.32141495 257750884.11882019 0 257750884.11882019 277304202.93125439 0 0 0 0 19659610.914598465 -21757383.855234146 0 -21757383.855234146 52612931.828201294 0 0 0 0 -94617.927987490781 -242668.91571075842 0 -242668.91571075842 1444115.6034403145 0 0 0 0 124748811.00048304 215759998.98456001 0 215759998.98456001 36451764.343811035 0 0 0 0 36314673.896312714 172210378.35327148 0 172210378.35327148 223652520.57344818 0 0 0 0 8472225.1230974197 101128345.89891624 0 101128345.89891624 47109984.693893433 0 0 0 0 119878014.59338284 200504318.28298759 0 200504318.28298759 -9416306.5140228271 0 0 0 0 -1985707.5069599152 108934057.40696716 0 108934057.40696716 68234702.656651974 0 0 0 0 -92846346.866230011 -1166857.2320137024 0 -1166857.2320137024 -19864349.241096497 0 0 0 0 104714173.38229656 110032333.70896435 0 110032333.70896435 -26329942.99181366 0 0 0 0 -15168906.758296967 -166116473.13075256 0 -166116473.13075256 -502333828.31887245 0 0 0 0 -272205146.287673 -79364185.414440155 0 -79364185.414440155 359667423.95348358 0 0 0 0 -2033994.9671616293 588955.41515851021 0 588955.41515851021 1795281.5246557165 0 0 0 0 -429328068.61393929 -295718837.71252441 0 -295718837.71252441 309837780.68267822 0 0 0 0 -150313907.81239414 -92007320.930969238 0 -92007320.930969238 189390555.30350304 0 0 0 0 -152930806.38918114 -434798433.00854492 0 -434798433.00854492 14236084.634132385 0 0 0 0 154814227.35254288 108856394.48952103 0 108856394.48952103 -65065191.339027405 0 0 0 0 423593462.80525589 -318333362.9781456 0 -318333362.9781456 120429830.14411163 0 0 0 0 -244440.96389198303 304387746.79891968 0 304387746.79891968 -351679604.19598007 0 0 0 0 -205619.73972479161 333906.31916684238 0 333906.31916684238 3472320.5319314674 0 0 0 0 22930877.36558342 171097748.41034508 0 171097748.41034508 662569833.89144897 0 0 0 0 372230245.25863647 698820503.38308716 0 698820503.38308716 -210464446.93244553 0 0 0 0 -35142193.148108721 -56870400.600162506 0 -56870400.600162506 68586422.016174316 0 0 0 0 275081591.75731081 -188964702.81660175 0 -188964702.81660175 215688408.41420746 0 0 0 0 -34287862.259321213 28515990.714019775 0 28515990.714019775 106227032.28635216 0 0 0 0 311285709.09354401 21353534.209104538 0 21353534.209104538 -232928950.13741875 0 0 0 0 128058006.341408 255444042.59472808 0 255444042.59472808 517428724.44901276 0 0 0 0 551386.24963154085 -761731.85675997287 0 -761731.85675997287 1467686.2466902956 0 0 0 0 127632942.43388557 184938777.88781738 0 184938777.88781738 226381160.90325928 0 0 0 0 68898392.040786743 212069115.24412537 0 212069115.24412537 367382296.04276657 0 0 0 0 -29668667.929767609 126271960.6852951 0 126271960.6852951 539223036.07743073 0 0 0 0 136789031.27103615 127272309.61812592 0 127272309.61812592 38193790.922409058 0 0 0 0 56705537.282138824 99841405.221359253 0 99841405.221359253 235768108.55612183 0 0 0 0 327068.08964920137 -1001452.667161718 0 -1001452.667161718 2959322.570995301 0 0 0 0 111153676.62688255 7922356.1237182617 0 7922356.1237182617 8824899.3173913956 0 0 0 0 5140207.7293453217 -5073227.9155273438 0 -5073227.9155273438 48601313.34564209 0 0 0 0 -96940055.005889893 -288555203.36987305 0 -288555203.36987305 893338521.66210938 0 0 0 0 69574947.637500763 46746601.155738831 0 46746601.155738831 41397500.350198746 0 0 0 0 46610138.170049667 43831033.394170761 0 43831033.394170761 41843330.016426086 0 0 0 0 26956721.35146904 34430390.202339172 0 34430390.202339172 124104383.34616089 0 0 0 0 58847631.42622757 36513327.736343384 0 36513327.736343384 122096214.04098511 0 0 0 0 39424454.159187317 11158486.752052307 0 11158486.752052307 111785036.87471008 0 0 0 0 21690624.924718857 29962720.928676605 0 29962720.928676605 248206925.19714355 0 0 0 0 903943.98733520508 46510610.022399902 0 46510610.022399902 255119352.32577896 0 0 0 0 57293451.646164417 108076301.75298333 0 108076301.75298333 229978747.26179504 0 0 0 0 -37970815.846521378 79952045.045959473 0 79952045.045959473 356254410.31139374 0 0 0 0 -3774034.2890262604 56846374.514175415 0 56846374.514175415 344680832.30747223 0 0 0 0 -24295081.755947113 -9627052.2068862915 0 -9627052.2068862915 362533020.68478394 0 0 0 0 -65184101.276103973 9338320.417137146 0 9338320.417137146 372690055.13386536 0 0 0 0 -112747869.50897598 1889307.1447486877 0 1889307.1447486877 529294382.43762207 0 0 0 0 -112684247.68412971 17611638.08921051 0 17611638.08921051 587004566.92486572 0 0 0 0 -102531859.05735779 37235006.436447144 0 37235006.436447144 492756883.27522612 0 0 0 0 -63903371.545572281 44301618.744235992 0 44301618.744235992 493174662.09719849 0 0 0 0 -122423339.50638866 86945159.881557465 0 86945159.881557465 541621215.01933289 0 0 0 0 -63633545.641206741 78457800.253665924 0 78457800.253665924 536438407.04563141 0 0 0 0 -152866766.50695419 73821164.463615417 0 73821164.463615417 586777492.36988032 0 0 0 0 -99133937.583641052 174824865.18030548 0 174824865.18030548 419018993.48648834 0 0 0 0 -66187960.90519619 100673558.86271286 0 100673558.86271286 544714571.05142975 0 0 0 0 -62401266.80062294 116083704.22280121 0 116083704.22280121 498501232.98695564 0 0 0 0 146982961.68441296 91543100.093512535 0 91543100.093512535 346583009.88543701 0 0 0 0 44250470.641320229 89612291.513366699 0 89612291.513366699 503505704.19753265 0 0 0 0 -48153275.83068037 52603628.103644371 0 52603628.103644371 526659596.37013245 0 0 0 0 71204244.741755486 9255595.9476318359 0 9255595.9476318359 640894083.83314133 0 0 0 0 111204342.19462013 352874055.49939728 0 352874055.49939728 447012369.2905302 0 0 0 0 373564428.4194479 150090436.57891655 0 150090436.57891655 383127130.88187408 0 0 0 0 110837100.05176544 204146883.17583466 0 204146883.17583466 381857311.89783478 0 0 0 0 124261872.79572582 151195068.60014915 0 151195068.60014915 267118058.71954727 0 0 0 0 65865077.749640465 143865394.15108871 0 143865394.15108871 351578732.22909546 0 0 0 0 50313418.914932728 133138723.46059608 0 133138723.46059608 362516502.10316849 0 0 0 0 59197473.252059937 80260580.590782166 0 80260580.590782166 432465969.13607025 0 0 0 0 48064868.70567131 34224212.53106308 0 34224212.53106308 263226312.14250839 0 0 0 0 47166565.288743019 81643513.448968887 0 81643513.448968887 168936619.23297501 0 0 0 0 -5911257.1504077911 -5466439.9252624512 0 -5466439.9252624512 101963136.98709488 0 0 0 0 -102598356.11375427 112134563.46962357 0 112134563.46962357 208844109.79859161 0 0 0 0 -109233885.68833351 261277327.86035919 0 261277327.86035919 386047884.03991318 0 0 0 0 29986035.074781418 99038055.350879669 0 99038055.350879669 199079297.36429596 0 0 0 0 -14782414.628250122 124134634.15272141 0 124134634.15272141 340566612.54957962 0 0 0 0 161771119.61882448 -412900891.65182114 0 -412900891.65182114 267059349.34739685 0 0 0 0 108386487.5037539 -286462625.8740077 0 -286462625.8740077 169615274.32363129 0 0 0 0 -41618732.807672501 -252484444.10565376 0 -252484444.10565376 258695152.1564827 0 0 0 0 115622158.98131275 -219207221.86046219 0 -219207221.86046219 128888473.92201805 0 0 0 0 -282767.54214233026 -1322340.436864099 0 -1322340.436864099 3591996.7340913191 0 0 0 0 -141070073.21433735 -154593845.31543541 0 -154593845.31543541 175028789.88246918 0 0 0 0 -1055802.1158701612 -2650479.9203763446 0 -2650479.9203763446 9112458.2525330335 0 0 0 0 -451814352.74818277 130824358.84295082 0 130824358.84295082 257689615.78240585 0 0 0 0 11575509.658308983 490657589.28325272 0 490657589.28325272 419114702.00861931 0 0 0 0 13307241.908815026 48913582.324803829 0 48913582.324803829 51988898.006126404 0 0 0 0 97346252.978029251 -45688073.770904541 0 -45688073.770904541 1023685075.7416611 0 0 0 0 584759009.70215607 -251358234.7128334 0 -251358234.7128334 308849794.28616714 0 0 0 0 566788446.32465172 284700989.49169159 0 284700989.49169159 546051374.38025284 0 0 0 0 490751999.10483587 -633677779.78883362 0 -633677779.78883362 515057163.75447083 0 0 0 0 -62397896.231100559 -195302526.05405045 0 -195302526.05405045 1007195370.9630127 0 0 0 0 76144761.927441597 -42545825.481155396 0 -42545825.481155396 354695408.90878296 0 0 0 0 3287521.4189186096 118172970.9010849 0 118172970.9010849 268816878.49222946 0 0 0 0 -112059536.95337152 -65347466.855792999 0 -65347466.855792999 532697638.00838852 0 0 0 0 -64432399.127417162 -148601368.64253318 0 -148601368.64253318 410275673.74668884 0 0 0 0 14632332.085816145 -260176904.00350952 0 -260176904.00350952 512671552.97293091 0 0 0 0 14974880.44856286 -4037920.5996017456 0 -4037920.5996017456 -16203385.116004944 0 0 0 0 595359.78976362431 -35796.762414820492 0 -35796.762414820492 -631368.52491216362 0 0 0 0 -3421210.5899318457 46668308.767061234 0 46668308.767061234 9173974.7127227783 0 0 0 0 -233040255.50115067 4233827.174949646 0 4233827.174949646 1943520.8341903687 0 0 0 0 -233035701.90106821 23525799.208805084 0 23525799.208805084 242073147.20836639 0 0 0 0 101957544.43650746 -59444331.840945244 0 -59444331.840945244 176584730.12432861 0 0 0 0 42301277.544889927 29623292.788000107 0 29623292.788000107 -84199510.31615448 0 0 0 0 78890959.720498085 135794369.84505844 0 135794369.84505844 168036554.16820335 0 0 0 0 -163567340.28777122 179167351.30925941 0 179167351.30925941 46869341.209320068 0 0 0 0 144709566.09279358 -44678590.422249794 0 -44678590.422249794 33784347.273635864 0 0 0 0 191849381.74358082 87138008.888210297 0 87138008.888210297 6396913.7081313133 0 0 0 0 391406211.93902206 145095354.63926697 0 145095354.63926697 176969896.36258698 0 0 0 0 278946011.14495373 -86979629.756305695 0 -86979629.756305695 255169047.48309994 0 0 0 0 391371037.15292645 -151345562.11188707 0 -151345562.11188707 65995616.992012024 0 0 0 0 306000480.36416245 -42755403.667423248 0 -42755403.667423248 23999917.759415627 0 0 0 0 249895157.76329696 -107066469.16070127 0 -107066469.16070127 -40235962.102817535 0 0 0 0 296383818.32756758 -45984167.047309875 0 -45984167.047309875 -74450316.686790466 0 0 0 0 1096986.4923827834 891776.07117131352 0 891776.07117131352 92093.705390317366 0 0 0 0 98639655.925868988 -103315939.27630424 0 -103315939.27630424 -13408584.541378021 0 0 0 0 20327748.2258358 -35088300.462490082 0 -35088300.462490082 -38535557.247714996 0 0 0 0 -905822.97579471301 1350945.7096845694 0 1350945.7096845694 2310644.9040409178 0 0 0 0 -1992643.3705043793 713258.75723648071 0 713258.75723648071 919685.09735107422 0 0 0 0 628452.23052736535 2063627.0704202969 0 2063627.0704202969 3171685.8665923998 0 0 0 0 -1662380.2330384851 6433280.4844865799 0 6433280.4844865799 6591296.6670761108 0 0 0 0 10603191.393651485 93375081.534460068 0 93375081.534460068 -62674007.106688976 0 0 0 0 2926906.4148409367 5122353.3360977173 0 5122353.3360977173 5035272.6644592285 0 0 0 0 297806.27691888809 4466675.2763156891 0 4466675.2763156891 5196613.1567001343 0 0 0 0 152217.16187810898 6318191.4524593353 0 6318191.4524593353 4186963.7230491638 0 0 0 0 118839.89850068837 3711326.3827246502 0 3711326.3827246502 4832656.3547644615 0 0 0 0 -174528855.65196896 -73991114.876623154 0 -73991114.876623154 52626341.150684357 0 0 0 0 -129132619.53006458 48206085.549980164 0 48206085.549980164 94626586.477359772 0 0 0 0 -2337839.3639748096 -29940469.915322304 0 -29940469.915322304 1014208.3516120911 0 0 0 0 -1237618.6559484005 -60989447.491030693 0 -60989447.491030693 170578949.58823776 0 0 0 0 278695318.4174282 -196822830.70400935 0 -196822830.70400935 268200036.85047531 0 0 0 0 144679049.46003342 -51063394.895420074 0 -51063394.895420074 149512938.94971085 0 0 0 0 289447422.75599957 -145586123.49432755 0 -145586123.49432755 64587137.337177277 0 0 0 0 143591664.33461761 -102818974.70581436 0 -102818974.70581436 44589855.433227539 0 0 0 0 143561494.36111259 -32671827.708530426 0 -32671827.708530426 48199989.939350128 0 0 0 0 194524663.51837683 -55552359.626432419 0 -55552359.626432419 -17763994.103996277 0 0 0 0 236734830.25537109 -81966570.401256561 0 -81966570.401256561 -26726345.161231041 0 0 0 0 295526040.05342031 -46269121.937783241 0 -46269121.937783241 -40657093.577011108 0 0 0 0 238290535.0658617 -85184259.646183014 0 -85184259.646183014 19061901.992458344 0 0 0 0 157220204.22914624 -58614078.61900568 0 -58614078.61900568 -56831996.347427368 0 0 0 0 237440817.43769073 -72806517.068401337 0 -72806517.068401337 -84161228.507846832 0 0 0 0 158394319.16722202 -49578397.459686279 0 -49578397.459686279 -13389232.548786163 0 0 0 0 44802184.850702286 -44300088.716537476 0 -44300088.716537476 -35410291.909151077 0 0 0 0 15622714.503980637 1159889.9207305908 0 1159889.9207305908 -64759932.076080322 0 0 0 0 23674052.324044228 -37106008.844181061 0 -37106008.844181061 22771993.472129822 0 0 0 0 20263240.83627677 -74852514.62985003 0 -74852514.62985003 -43291195.10042572 0 0 0 0 -2098030.7945014481 -3553336.8262246195 0 -3553336.8262246195 8656327.9244319499 0 0 0 0 -112637789.87492847 -77535595.196540833 0 -77535595.196540833 4054239.7155532837 0 0 0 0 -53903099.140590668 -81499148.533924103 0 -81499148.533924103 -70038128.794158936 0 0 0 0 -14477966.546295643 -3943268.9221401215 0 -3943268.9221401215 14073992.200790405 0 0 0 0 -9798266.8931993246 -5206653.9857697487 0 -5206653.9857697487 13480477.080818176 0 0 0 0 -11126351.6808815 982895.10098648071 0 982895.10098648071 21031592.509628296 0 0 0 0 -9269460.8876428604 -1762144.6290302277 0 -1762144.6290302277 14354935.83098793 0 0 0 0 -8281742.603808403 -663560.63440132141 0 -663560.63440132141 8180106.3362426758 0 0 0 0 -14346093.475178719 -2231577.6481056213 0 -2231577.6481056213 15560598.500770569 0 0 0 0 -11319715.604066849 -5964656.9492912292 0 -5964656.9492912292 6271930.0176010132 0 0 0 0 -16635879.253901958 182711.96917724609 0 182711.96917724609 9450683.6696853638 0 0 0 0 -26320529.126963615 -8523251.9187297821 0 -8523251.9187297821 11498776.793102264 0 0 0 0 -804142.48071039375 -4255380.2350552659 0 -4255380.2350552659 9684731.4779389724 0 0 0 0 28160474.498249054 -42428333.545532227 0 -42428333.545532227 14225798.74249649 0 0 0 0 335649.04091740493 -1060170.6948291808 0 -1060170.6948291808 1038688.358434923 0 0 0 0 -14544617.858972311 -2771800.3333215714 0 -2771800.3333215714 8322703.0383987427 0 0 0 0 9435510.1482219696 -4353152.5589370728 0 -4353152.5589370728 3682801.9107646942 0 0 0 0 -409884.54983733129 -5449046.0082885884 0 -5449046.0082885884 9865258.1863345951 0 0 0 0 -11948194.222756386 -28600853.09876442 0 -28600853.09876442 20132103.707810402 0 0 0 0 3406939.408511349 -9213506.333930973 0 -9213506.333930973 -1998501.0016709156 0 0 0 0 -3562219.7990837097 -20310238.553592682 0 -20310238.553592682 -55158776.426849127 0 0 0 0 -1402120.9512300491 -21448305.227113724 0 -21448305.227113724 21076122.218353271 0 0 0 0 4965718.723657608 -37297929.330886841 0 -37297929.330886841 30740330.013965607 0 0 0 0 11892337.738616705 -6946558.3685846329 0 -6946558.3685846329 241340.37843322754 0 0 0 0 24529002.535644531 -25629425.193481445 0 -25629425.193481445 3072602.7677383423 0 0 0 0 25979372.851971626 -22908085.897985458 0 -22908085.897985458 -502869.48371505737 0 0 0 0 29955012.898933411 -14352254.835086823 0 -14352254.835086823 2268092.3763380051 0 0 0 0 -936531.96463816753 -294376.75445481203 0 -294376.75445481203 368895.64160490781 0 0 0 0 -5052542.518487215 -15056238.770819664 0 -15056238.770819664 5510680.0784912109 0 0 0 0 9781715.1056297161 -13131216.254955886 0 -13131216.254955886 6029984.8166818246 0 0 0 0 -30310288.044130325 37715680.324321747 0 37715680.324321747 3783034.5673675537 0 0 0 0 19930746.117249489 -91299564.362234116 0 -91299564.362234116 -55410938.864711285 0 0 0 0 68068456.979651451 -100216009.59753799 0 -100216009.59753799 10681846.671040773 0 0 0 0 -45530402.487028122 -88098585.722139359 0 -88098585.722139359 25999630.958295822 0 0 0 0 6829343.8859746223 -16291764.102663469 0 -16291764.102663469 15172203.406188775 0 0 0 0 58146679.973640442 -28886799.350086212 0 -28886799.350086212 -71564458.268764496 0 0 0 0 -44159133.338148117 -45755292.374530792 0 -45755292.374530792 38606627.29516983 0 0 0 0 -5836599.3230175972 -4649651.5500612259 0 -4649651.5500612259 14413242.124832153 0 0 0 0 -30930887.568510056 -4114708.6002845764 0 -4114708.6002845764 42424744.356754303 0 0 0 0 -185351.70391385397 -4734107.5795578631 0 -4734107.5795578631 4814362.9796664938 0 0 0 0 -8648257.2989559248 -3298244.1648696009 0 -3298244.1648696009 15327372.933904696 0 0 0 0 -5790707.9029119015 -5701396.0185394287 0 -5701396.0185394287 13586958.77204895 0 0 0 0 -9117257.968708992 515039.91569709778 0 515039.91569709778 19041771.221893311 0 0 0 0 -5125652.589732958 -5456821.6123124212 0 -5456821.6123124212 21847479.08750242 0 0 0 0 -30172048.922510147 -60079698.348611832 0 -60079698.348611832 107626542.04154968 0 0 0 0 57221605.055968881 -71984752.40386641 0 -71984752.40386641 41262962.277145386 0 0 0 0 59011479.193204522 -112062021.10772067 0 -112062021.10772067 76151534.177490234 0 0 0 0 -69323482.898979187 -12622320.716041565 0 -12622320.716041565 32793729.934757948 0 0 0 0 -74592853.109436035 26041543.013461113 0 26041543.013461113 29393965.230558395 0 0 0 0 -67750186.961397171 10728906.241312981 0 10728906.241312981 63237961.735019684 0 0 0 0 -133667949.36073303 94687744.00630188 0 94687744.00630188 139027826.35912514 0 0 0 0 -47303528.200055122 -63153562.229744911 0 -63153562.229744911 147706442.46491623 0 0 0 0 -147179269.05599594 45714626.255233765 0 45714626.255233765 171029620.15401459 0 0 0 0 16812630.453130722 -169950736.10376167 0 -169950736.10376167 254764627.05420685 0 0 0 0 27869130.195281982 -154261288.13422775 0 -154261288.13422775 235962676.8085289 0 0 0 0 -186837323.79411697 26807951.650196075 0 26807951.650196075 386889613.35904312 0 0 0 0 -90643792.222442627 28149369.449892044 0 28149369.449892044 136237827.70439529 0 0 0 0 241052048.613554 -228186086.05369759 0 -228186086.05369759 189300792.09728241 0 0 0 0 27592295.45169735 59166966.762160301 0 59166966.762160301 225211359.19596672 0 0 0 0 253546266.62292433 -58424860.085493565 0 -58424860.085493565 11474095.542678833 0 0 0 0 1865700.5555939395 -2396551.1187718697 0 -2396551.1187718697 -49522.022083126009 0 0 0 0 80015684.029716492 519923821.09765434 0 519923821.09765434 317448457.39906597 0 0 0 0 -111576852.92482281 -124383361.16000557 0 -124383361.16000557 638139981.39756012 0 0 0 0 70788366.491764069 -281249012.63109589 0 -281249012.63109589 462245494.64183426 0 0 0 0 161884113.1608429 -107650298.41209793 0 -107650298.41209793 53307250.922462463 0 0 0 0 26649951.508583546 37145652.349087715 0 37145652.349087715 55072231.512145042 0 0 0 0 -17135649.214909554 -147286886.40382957 0 -147286886.40382957 369944713.46277237 0 0 0 0 -8433325.3125734329 -83541469.536497116 0 -83541469.536497116 72528759.281402588 0 0 0 0 8525763.6017805338 -19543011.371367455 0 -19543011.371367455 42342583.594065666 0 0 0 0 -3059195.0343959332 -26777539.985908508 0 -26777539.985908508 47522701.47725296 0 0 0 0 365745.80078458786 -49409867.396284103 0 -49409867.396284103 148744779.34677029 0 0 0 0 -158208.42812108994 11996315.836448669 0 11996315.836448669 11235612.999904633 0 0 0 0 15455100.305000484 17390663.874788165 0 17390663.874788165 13095059.689804077 0 0 0 0 4091170.7804112434 -3480441.4016685486 0 -3480441.4016685486 7740321.1039400101 0 0 0 0 19056683.909077704 -3809883.2889202833 0 -3809883.2889202833 6195293.5059013367 0 0 0 0 4414506.7830469795 -5975923.1609189324 0 -5975923.1609189324 777356.76501637511 0 0 0 0 -7939204.3217104971 -3368896.0920724869 0 -3368896.0920724869 8536634.2929859161 0 0 0 0 1271086.2526218439 509665.76320893411 0 509665.76320893411 -964574.14893215522 0 0 0 0 59830584.641888618 -40813088.508111954 0 -40813088.508111954 -16563178.0729599 0 0 0 0 92953612.476513147 9843651.1323976517 0 9843651.1323976517 -25419038.748451233 0 0 0 0 154482628.58424473 -51964247.332828522 0 -51964247.332828522 -19047064.407951355 0 0 0 0 144371279.98429346 13577953.549992561 0 13577953.549992561 -26226377.358421326 0 0 0 0 19497112.343509674 19159869.609811187 0 19159869.609811187 17738307.753341317 0 0 0 0 10353375.861608267 7962704.2348078489 0 7962704.2348078489 10272429.659376144 0 0 0 0 18681145.127359152 7948748.1612164974 0 7948748.1612164974 7186514.6889858246 0 0 0 0 12837876.631170038 7413434.0154899154 0 7413434.0154899154 14757843.00814376 0 0 0 0 7320824.4399418011 -17905133.18456614 0 -17905133.18456614 40171804.576417923 0 0 0 0 4501868.8167971186 9725814.30502294 0 9725814.30502294 32902445.749450307 0 0 0 0 25254321.929078102 24178926.207849503 0 24178926.207849503 51479064.466833115 0 0 0 0 23871551.217546463 16388462.135115623 0 16388462.135115623 18334586.406242609 0 0 0 0 27863029.220803261 30282187.949016094 0 30282187.949016094 51591905.30799675 0 0 0 0 20956309.601243973 36856202.884765625 0 36856202.884765625 66653724.701749802 0 0 0 0 17086072.737723351 34004136.558105469 0 34004136.558105469 85746625.171451569 0 0 0 0 5171282.68227911 32586979.332519531 0 32586979.332519531 69078568.568132401 0 0 0 0 3929801.6531124115 20759186.879489899 0 20759186.879489899 56463642.458618164 0 0 0 0 12784122.849996567 33740614.757780552 0 33740614.757780552 68841577.935289383 0 0 0 0 42709938.566550493 655788.67224502563 0 655788.67224502563 -95002567.110080719 0 0 0 0 2050753.9664727706 -1958233.9573305137 0 -1958233.9573305137 -6453822.24046278 0 0 0 0 -13744600.495211078 -13868376.735145478 0 -13868376.735145478 35354595.832598805 0 0 0 0 19466076.149963379 24030236.574987411 0 24030236.574987411 79059273.863096237 0 0 0 0 18464157.363062859 42618131.942544937 0 42618131.942544937 119339239.72735596 0 0 0 0 16000869.959647179 20516899.615318298 0 20516899.615318298 97082619.570960999 0 0 0 0 -6416194.4894394428 -5317424.8384206034 0 -5317424.8384206034 23777775.670103926 0 0 0 0 -15770146.15255332 -18381457.339103699 0 -18381457.339103699 8586217.4544296265 0 0 0 0 -18962303.870653868 -23207904.972238541 0 -23207904.972238541 -24641148.755251586 0 0 0 0 -14631362.716068625 -18469399.834690094 0 -18469399.834690094 -809389.77117156982 0 0 0 0 -29070043.098303348 -33347292.422735214 0 -33347292.422735214 -24739768.633987427 0 0 0 0 -1965439.1800104666 -12682686.374651818 0 -12682686.374651818 15916622.60958191 0 0 0 0 -1184917.0734298229 -8468670.4536056519 0 -8468670.4536056519 4829415.5994186401 0 0 0 0 7787347.9583576676 4096299.7609231398 0 4096299.7609231398 8883734.2803307008 0 0 0 0 -19743755.75713706 -21942838.863735199 0 -21942838.863735199 -6833661.5149688721 0 0 0 0 -13931879.058728695 -26523586.732246399 0 -26523586.732246399 -26872842.961044312 0 0 0 0 1351253.9077241353 -15409718.54696298 0 -15409718.54696298 -7080200.7667705789 0 0 0 0 -6178986.8577973843 -11618850.784971237 0 -11618850.784971237 -113327.73370170593 0 0 0 0 -10252058.847129775 -30612372.757983625 0 -30612372.757983625 20625633.741940506 0 0 0 0 -6238256.1188832447 -19132494.79834424 0 -19132494.79834424 22543535.931554332 0 0 0 0 1280485.1766143278 -7110598.5729678273 0 -7110598.5729678273 -7205044.3857809603 0 0 0 0 3455539.5731654167 -23305674.998207092 0 -23305674.998207092 -43271695.802032471 0 0 0 0 -24990551.582504272 -33906825.104904175 0 -33906825.104904175 -40673523.208236694 0 0 0 0 -1224855.9499492452 -662913.5903477557 0 -662913.5903477557 1857252.7090531141 0 0 0 0 -19697620.337609053 -58696012.805130005 0 -58696012.805130005 -65024402.047645569 0 0 0 0 -53932850.876165271 -43130955.336486816 0 -43130955.336486816 5579845.6056747437 0 0 0 0 4151009.1450920105 -11582223.821334839 0 -11582223.821334839 -10627947.950454712 0 0 0 0 5548437.3255696772 -14092678.247332416 0 -14092678.247332416 -25938212.989599422 0 0 0 0 7764245.3485160116 -7261751.0907609835 0 -7261751.0907609835 -6606205.1094848625 0 0 0 0 3097906.0352497022 -10083598.373279057 0 -10083598.373279057 3760068.6317576766 0 0 0 0 5435818.9589436054 -19903916.974372864 0 -19903916.974372864 -26079294.056152344 0 0 0 0 3161192.1532359123 -12480624.63022995 0 -12480624.63022995 -10815027.018978119 0 0 0 0 -1190994.3912265599 -60428160.4931494 0 -60428160.4931494 -57674040.905784607 0 0 0 0 -14315170.927451611 -57214876.223567963 0 -57214876.223567963 -9912135.3982086182 0 0 0 0 -56403072.939961433 -44593298.134185791 0 -44593298.134185791 3806062.1122207642 0 0 0 0 -73658555.515684128 -22140780.900722504 0 -22140780.900722504 5463663.8005371094 0 0 0 0 10039581.59568119 -38410692.920654297 0 -38410692.920654297 -76318374.550956726 0 0 0 0 1082975.2906033993 15353209.450828552 0 15353209.450828552 -109254347.9553299 0 0 0 0 -43472206.032345057 -57387877.371883392 0 -57387877.371883392 20631230.708877563 0 0 0 0 -7243621.2187244892 23185784.753484726 0 23185784.753484726 -15035615.186742783 0 0 0 0 -55014426.642935127 -58866523.930043936 0 -58866523.930043936 2249021.6375732422 0 0 0 0 325605.78292950755 -5180618.8883089814 0 -5180618.8883089814 6349085.6371279135 0 0 0 0 8250665.437461853 -29580447.572174072 0 -29580447.572174072 -79738469.061870575 0 0 0 0 -96555374.46715641 -139749177.33927536 0 -139749177.33927536 -484658.25416564941 0 0 0 0 -26802532.560066223 -53407303.592874527 0 -53407303.592874527 143499810.38067627 0 0 0 0 23917913.522158623 -6714426.706993103 0 -6714426.706993103 69813872.895622253 0 0 0 0 -11183784.61960125 -80332516.738201141 0 -80332516.738201141 51703570.717277527 0 0 0 0 49537895.798809409 -33450023.991794586 0 -33450023.991794586 -162573235.57785034 0 0 0 0 -15395535.712183964 -20028719.981583696 0 -20028719.981583696 38019364.679735579 0 0 0 0 -69086548.680956125 -174739787.28067541 0 -174739787.28067541 -127008679.97343445 0 0 0 0 12911750.317707896 -54637373.978712082 0 -54637373.978712082 -36721058.625938416 0 0 0 0 25274880.789230108 16788816.693717957 0 16788816.693717957 -1423614.3253116608 0 0 0 0 -248300.86463301419 -1407051.6473085638 0 -1407051.6473085638 -1487850.8881333321 0 0 0 0 -106166624.8947686 -142578614.57707596 0 -142578614.57707596 129540394.07120514 0 0 0 0 102937964.69840014 41585816.573684692 0 41585816.573684692 -77265014.999610901 0 0 0 0 85592215.680350661 -3724872.5385246277 0 -3724872.5385246277 -111736668.30405617 0 0 0 0 18031921.629962862 -45198140.943169832 0 -45198140.943169832 -80944805.903884888 0 0 0 0 67819949.986035883 -64255579.668345451 0 -64255579.668345451 -81556053.745681763 0 0 0 0 92083082.451488018 11030416.253761292 0 11030416.253761292 -95333611.603149414 0 0 0 0 158808849.62547183 -687349.51410484314 0 -687349.51410484314 -41109525.230415344 0 0 0 0 82127130.546962023 10171041.210391998 0 10171041.210391998 74467675.739330292 0 0 0 0 -659788.37642576895 -2320899.4931618553 0 -2320899.4931618553 5456004.668094255 0 0 0 0 87519859.25625515 -42425920.023628235 0 -42425920.023628235 -31977910.779125214 0 0 0 0 52058952.108776212 109762783.65151596 0 109762783.65151596 -145029897.7460289 0 0 0 0 132037505.57456753 272992056.7396996 0 272992056.7396996 297301598.97014618 0 0 0 0 -696282.93200228736 -444576.00867578946 0 -444576.00867578946 2555329.6437521577 0 0 0 0 282651851.18568957 20800101.214452744 0 20800101.214452744 61250343.359542847 0 0 0 0 -35663478.082549095 38797247.394248962 0 38797247.394248962 327279029.75211459 0 0 0 0 -17443097.892261505 94284963.658924103 0 94284963.658924103 152596484.86868286 0 0 0 0 -95822615.970842361 -9126776.4075431824 0 -9126776.4075431824 167507521.32866669 0 0 0 0 -70804110.649234772 80311357.982070923 0 80311357.982070923 89930567.478355408 0 0 0 0 -37675650.129637599 18617113.732453346 0 18617113.732453346 188009625.1708374 0 0 0 0 20695080.560426712 161187153.26079559 0 161187153.26079559 268458342.53227234 0 0 0 0 10021176.865040302 51421897.142555237 0 51421897.142555237 101795651.58363724 0 0 0 0 5354406.0535030365 193448470.70157623 0 193448470.70157623 395596314.81974792 0 0 0 0 4939636.1161125079 258571017.68983102 0 258571017.68983102 475998373.11819458 0 0 0 0 -47291629.775625229 159004079.40190125 0 159004079.40190125 410564998.24273682 0 0 0 0 -6964726.3670005798 165884750.9128685 0 165884750.9128685 325856379.2804541 0 0 0 0 -46871953.18070507 138684349.46506882 0 138684349.46506882 473563585.43806458 0 0 0 0 44055036.92713356 332950389.17078972 0 332950389.17078972 576270390.01447296 0 0 0 0 -29349338.003238678 100007511.79076385 0 100007511.79076385 756098317.50105286 0 0 0 0 -21363796.917803764 152195467.84107971 0 152195467.84107971 454502135.68799591 0 0 0 0 -11736103.664833069 4924579.9895782471 0 4924579.9895782471 460274483.10155869 0 0 0 0 8533629.6016750336 -4014646.4404296875 0 -4014646.4404296875 587642731.56015015 0 0 0 0 32909914.61464119 83593667.817714691 0 83593667.817714691 541732749.14712524 0 0 0 0 26143047.734478951 34915962.066047668 0 34915962.066047668 379216253.27478027 0 0 0 0 105551080.06958008 -96918607.560470581 0 -96918607.560470581 263503839.17744446 0 0 0 0 -6229009.1339321136 71456578.975654602 0 71456578.975654602 267809047.27192688 0 0 0 0 63300640.945501328 -103655405.36721039 0 -103655405.36721039 369512587.22920227 0 0 0 0 191644366.35153961 -150182593.94940186 0 -150182593.94940186 138048410.95824432 0 0 0 0 81253909.280712128 -114721867.88452911 0 -114721867.88452911 422815399.61413574 0 0 0 0 123867767.84688759 -44608408.179656982 0 -44608408.179656982 333664642.70148468 0 0 0 0 120088455.89552307 -12226319.461959839 0 -12226319.461959839 661883265.18556213 0 0 0 0 105806883.69822693 -178439477.70988464 0 -178439477.70988464 607622319.23973083 0 0 0 0 198809691.33285141 -269644525.45368958 0 -269644525.45368958 689980082.76502228 0 0 0 0 195524998.14582729 -66261119.749853134 0 -66261119.749853134 380060914.0973053 0 0 0 0 44306637.768602371 17375494.808784485 0 17375494.808784485 1052034090.8479309 0 0 0 0 286141687.6564827 -230019609.14054871 0 -230019609.14054871 1239831616.8057404 0 0 0 0 -518727.52461242676 240826776.84659576 0 240826776.84659576 1462804078.6805267 0 0 0 0 416778937.79899549 722292662.8075304 0 722292662.8075304 918564102.93540955 0 0 0 0 100164199.44922256 297865056.4537735 0 297865056.4537735 754633254.24713135 0 0 0 0 -5458062.9342899323 6864017.5724525452 0 6864017.5724525452 933237594.83488464 0 0 0 0 22468782.606272697 345478041.27396965 0 345478041.27396965 896229608.52209473 0 0 0 0 -262389139.69302082 -166451594.20007133 0 -166451594.20007133 890612195.36573029 0 0 0 0 -16848925.856738091 223783047.84215164 0 223783047.84215164 1331453225.7643738 0 0 0 0 -187875849.56650162 -75696101.964733124 0 -75696101.964733124 999890996.15551758 0 0 0 0 -12723712.274303436 309921368.82469177 0 309921368.82469177 1257713208.977684 0 0 0 0 683456796.62812042 592455616.85491943 0 592455616.85491943 1206816314.2515182 0 0 0 0 1069929944.6002331 240737527.5866394 0 240737527.5866394 870757028.61706543 0 0 0 0 -137330709.37292099 -15905595.890647888 0 -15905595.890647888 696002629.70701599 0 0 0 0 -78927482.595310211 -37189152.192581177 0 -37189152.192581177 526931147.05709839 0 0 0 0 -45626331.926677704 -201417322.83473969 0 -201417322.83473969 531667346.30435181 0 0 0 0 -100621523.28422546 -139746363.36448669 0 -139746363.36448669 539115717.51739502 0 0 0 0 -87718604.464336395 -88459370.292106628 0 -88459370.292106628 672921484.42160034 0 0 0 0 -137265150.5025177 139283622.98137665 0 139283622.98137665 836269598.66970062 0 0 0 0 -140177714.81908035 26890091.799888611 0 26890091.799888611 1005569324.5429077 0 0 0 0 -129624294.40123749 -149901461.74930191 0 -149901461.74930191 721935156.34536743 0 0 0 0 -57922876.562446594 107481826.11920929 0 107481826.11920929 848431343.68356323 0 0 0 0 -151256849.9088316 -37191345.912952423 0 -37191345.912952423 739539157.23040771 0 0 0 0 -157161933.93442202 70615812.32686615 0 70615812.32686615 704253799.22239685 0 0 0 0 -137497955.26225662 -23640303.579280853 0 -23640303.579280853 619401609.35118103 0 0 0 0 146510018.90612888 244259647.04509735 0 244259647.04509735 283338684.55644226 0 0 0 0 -148937301.85201263 92289044.79908371 0 92289044.79908371 672036174.78713989 0 0 0 0 -141432318.28567696 198455629.06797028 0 198455629.06797028 719511576.68662262 0 0 0 0 -126008268.26230431 110640661.20111465 0 110640661.20111465 908073336.94532776 0 0 0 0 286884941.00376129 469162235.23088074 0 469162235.23088074 628886801.89381981 0 0 0 0 499893.90211052541 -186094.34261177853 0 -186094.34261177853 255147.72967797518 0 0 0 0 319339846.78249741 608334505.95025635 0 608334505.95025635 902944804.49537849 0 0 0 0 -295910227.18382168 -200583963.14852905 0 -200583963.14852905 473849453.93617249 0 0 0 0 28782747.187164307 173223946.82762909 0 173223946.82762909 866426564.35207939 0 0 0 0 145127789.44678497 231443596.83621216 0 231443596.83621216 1058607421.1190491 0 0 0 0 91397147.875310898 -139604929.45907593 0 -139604929.45907593 -40659354.13861084 0 0 0 0 2344238.0413799556 -1664924.5716540609 0 -1664924.5716540609 -938653.22270189226 0 0 0 0 28560238.979424477 119344070.33494186 0 119344070.33494186 -62026409.434448242 0 0 0 0 -152876295.50389957 25942230.658769608 0 25942230.658769608 -6658284.889251709 0 0 0 0 20715458.491876602 49510379.291500092 0 49510379.291500092 195182013.76568222 0 0 0 0 -11178678.954663515 58176678.310750961 0 58176678.310750961 192845617.66613007 0 0 0 0 114526.13550149649 -752913.71858429536 0 -752913.71858429536 1044197.5572484955 0 0 0 0 -99476808.551362753 116419182.4450736 0 116419182.4450736 -30807078.808036804 0 0 0 0 -189267393.06515503 -25383222.289783478 0 -25383222.289783478 62234404.546173096 0 0 0 0 6112197.2431545258 55852144.906556129 0 55852144.906556129 -39996224.560569763 0 0 0 0 4004765.9738541124 -6590533.2425962016 0 -6590533.2425962016 -2819168.1246175282 0 0 0 0 53535899.856713295 -30244506.224582672 0 -30244506.224582672 -34621205.082199097 0 0 0 0 7210760.4720673561 60584043.050285339 0 60584043.050285339 -22266205.777435303 0 0 0 0 48300332.58754158 -13747917.660903931 0 -13747917.660903931 -55800015.340051651 0 0 0 0 8295859.7892680168 -44970897.875535965 0 -44970897.875535965 -26363248.060302734 0 0 0 0 69576328.78742981 -33533322.54718399 0 -33533322.54718399 -32894654.346458435 0 0 0 0 47560782.666031361 -370866.82226085663 0 -370866.82226085663 18875326.686981201 0 0 0 0 29638962.219032288 -72209873.476043701 0 -72209873.476043701 203338768.36440659 0 0 0 0 48567027.30348444 142402.23563909531 0 142402.23563909531 198440816.48500061 0 0 0 0 129306425.01952934 -77192712.21598053 0 -77192712.21598053 56934810.784038544 0 0 0 0 91705662.880783081 14524083.471225739 0 14524083.471225739 109918686.07644844 0 0 0 0 103798267.95578146 -27749100.558517456 0 -27749100.558517456 -13389531.907051086 0 0 0 0 22682932.307613321 -14420720.759953976 0 -14420720.759953976 385802018.85185242 0 0 0 0 -28603104.972829953 -42170151.969753265 0 -42170151.969753265 378592161.30321503 0 0 0 0 515901.24227542977 -38980230.217544556 0 -38980230.217544556 403072951.00525665 0 0 0 0 31971820.601270139 -56296987.698127747 0 -56296987.698127747 412411906.51678467 0 0 0 0 116328453.80378629 -53252200.350183487 0 -53252200.350183487 401548858.78686523 0 0 0 0 23309468.968375131 -33204205.95790863 0 -33204205.95790863 470422932.44087982 0 0 0 0 -166359.35915690797 -187825275.52324677 0 -187825275.52324677 527911134.69064331 0 0 0 0 -12448820.704320103 -84858128.782600403 0 -84858128.782600403 395849267.61643982 0 0 0 0 -27297165.715430647 -59511913.11815834 0 -59511913.11815834 353304790.1164093 0 0 0 0 -56282874.266893387 -42444071.608795166 0 -42444071.608795166 356665209.85250092 0 0 0 0 -33273679.794222623 -75466306.798683167 0 -75466306.798683167 314516545.09873199 0 0 0 0 -57010696.954206795 -34481372.028898001 0 -34481372.028898001 304000661.95294952 0 0 0 0 -71676462.715204686 12564713.80581665 0 12564713.80581665 346763226.73906898 0 0 0 0 -30176127.513842285 -29658176.370170593 0 -29658176.370170593 326499526.64558411 0 0 0 0 -32722831.893971577 83626889.293437958 0 83626889.293437958 374469788.08171082 0 0 0 0 -32994947.755315177 -20491978.835418701 0 -20491978.835418701 353797310.46739197 0 0 0 0 -58603365.871645212 37319510.215858459 0 37319510.215858459 294563528.71908665 0 0 0 0 -103076034.41146389 -27755350.9134655 0 -27755350.9134655 302454595.59613037 0 0 0 0 -49719290.827094346 -44667804.810665131 0 -44667804.810665131 184816870.63313293 0 0 0 0 -46225541.687897861 23960126.898525238 0 23960126.898525238 255248712.34457397 0 0 0 0 -59183514.746947944 19576915.881877899 0 19576915.881877899 256788139.62860107 0 0 0 0 -33195927.326622248 56378171.943878174 0 56378171.943878174 263279700.45154095 0 0 0 0 -46836416.313140437 33854410.804702759 0 33854410.804702759 262018301.15939331 0 0 0 0 21223365.484922718 84895256.003557205 0 84895256.003557205 231901693.88085938 0 0 0 0 18636368.192433417 49582868.907592773 0 49582868.907592773 190894499.09333038 0 0 0 0 -1558462.2101235092 4890918.0567779541 0 4890918.0567779541 362032714.2945652 0 0 0 0 2360232.1870739595 -16636506.063191414 0 -16636506.063191414 453832391.24642944 0 0 0 0 -5472.1197335773213 -2443458.1238184776 0 -2443458.1238184776 -1877347.1318664551 0 0 0 0 62929129.996476486 197786676.35170364 0 197786676.35170364 529567478.95157814 0 0 0 0 -291833.74332185846 -48452.28531717509 0 -48452.28531717509 992263.65200670063 0 0 0 0 -1629662.1659561866 -1642351.350528717 0 -1642351.350528717 170359.24080657959 0 0 0 0 13453599.744888484 69635752.201984406 0 69635752.201984406 185451222.11710358 0 0 0 0 -70987.68671466739 -483929.42581316829 0 -483929.42581316829 1228471.311439231 0 0 0 0 -1588174.6500016439 -3658978.0467005372 0 -3658978.0467005372 -637205.37389373779 0 0 0 0 -2118964.1805209275 -1429088.480922699 0 -1429088.480922699 1224083.1969223022 0 0 0 0 7187.8742958448256 -3562928.7747917175 0 -3562928.7747917175 1957171.7251815796 0 0 0 0 -2346628.338535849 -1889211.1463546753 0 -1889211.1463546753 8137685.1648254395 0 0 0 0 -2278409.6766608469 -1845839.4955444336 0 -1845839.4955444336 1808133.952796936 0 0 0 0 -2653421.4044682905 -746775.42594146729 0 -746775.42594146729 3573780.2528686523 0 0 0 0 -1458468.9411655525 4737510.635187149 0 4737510.635187149 -568573.18374633789 0 0 0 0 32151.971437933345 -69782.472407527268 0 -69782.472407527268 71898.633668497205 0 0 0 0 481739.17646601796 -4472284.8331298828 0 -4472284.8331298828 18577324.747632027 0 0 0 0 -10070591.672663935 -7224645.5889587402 0 -7224645.5889587402 18250904.325195312 0 0 0 0 -1328351.7726876028 5874224.6271438599 0 5874224.6271438599 8941423.8264780045 0 0 0 0 750.62250413462834 -1063070.1984710693 0 -1063070.1984710693 47208018.462753296 0 0 0 0 14233891.215941885 1973174.9678115845 0 1973174.9678115845 1663682.2450561523 0 0 0 0 1054818.8569416404 -2426838.3115386963 0 -2426838.3115386963 8254221.4985723495 0 0 0 0 1879771.2016575933 -2336784.3126792908 0 -2336784.3126792908 7391694.8139648438 0 0 0 0 1430525.1802407727 -2622684.8126678467 0 -2622684.8126678467 7173580.3459091187 0 0 0 0 1412611.144128412 -3982701.3588638306 0 -3982701.3588638306 17999238.093139648 0 0 0 0 840022.73432967067 -1196976.125453949 0 -1196976.125453949 6257856.7060241699 0 0 0 0 -2736359.2809307156 -272096.98478889465 0 -272096.98478889465 974338.59874725342 0 0 0 0 62463.844526609231 -221159.03646053746 0 -221159.03646053746 282967.05985844135 0 0 0 0 613952.3257746473 -2209464.7660903931 0 -2209464.7660903931 8017971.7631072998 0 0 0 0 2893142.4480797052 -440929.81294631958 0 -440929.81294631958 -880560.13217163086 0 0 0 0 173690.03520206024 -30355.663508992642 0 -30355.663508992642 -219919.09966762364 0 0 0 0 6585903.078153044 17485013.165025234 0 17485013.165025234 7974266.5299530029 0 0 0 0 250485.06889460798 -1100277.0497550592 0 -1100277.0497550592 -3934.5010618343949 0 0 0 0 -5636615.6724858284 -44592012.861534119 0 -44592012.861534119 90252323.900989532 0 0 0 0 -2088943.8348438032 -1357848.0164489746 0 -1357848.0164489746 1128750.5554742813 0 0 0 0 4537295.4786661984 -16053518.193689585 0 -16053518.193689585 50649525.752990723 0 0 0 0 167258.02072816028 -847955.8749843277 0 -847955.8749843277 1092499.0866687894 0 0 0 0 19941210.754799902 45835501.671386719 0 45835501.671386719 57889851.450558662 0 0 0 0 -18616415.182186931 12287677.476968765 0 12287677.476968765 123332975.86834717 0 0 0 0 -25473521.809305012 13748488.247951508 0 13748488.247951508 189301099.09890747 0 0 0 0 -34511823.131391078 30486176.974056244 0 30486176.974056244 187141365.00671387 0 0 0 0 -30854416.483719587 17279990.190338135 0 17279990.190338135 214480075.18759918 0 0 0 0 -41811253.784189939 -22445254.528251648 0 -22445254.528251648 207267470.82444 0 0 0 0 36250513.376695633 -8272566.6819992065 0 -8272566.6819992065 223584075.61252594 0 0 0 0 48440977.076319933 -118079702.21284485 0 -118079702.21284485 84669475.249481201 0 0 0 0 180634.91027761897 -117608.12960355729 0 -117608.12960355729 -94580.570569142699 0 0 0 0 -36651045.257816076 158810.58190155029 0 158810.58190155029 235262254.61154938 0 0 0 0 -41421927.679572105 56562342.022834778 0 56562342.022834778 3645177.8833999634 0 0 0 0 -19941727.603102446 -1242342.1229934692 0 -1242342.1229934692 208441413.27441025 0 0 0 0 740293.20779550076 -36232167.105636597 0 -36232167.105636597 302395150.74801636 0 0 0 0 30215.751545120438 -35542.471897225827 0 -35542.471897225827 261109.35270107538 0 0 0 0 2988241.2735899091 -27956729.51618576 0 -27956729.51618576 303832207.38037109 0 0 0 0 -70449278.088383198 10877620.07642746 0 10877620.07642746 212778724.02346802 0 0 0 0 -77295554.844456077 -39781318.375053406 0 -39781318.375053406 44149505.970901489 0 0 0 0 -794738.255723387 -3404413.0324640274 0 -3404413.0324640274 614569.78791809082 0 0 0 0 -5717.0293544429296 -1128498.6715891138 0 -1128498.6715891138 1845170.8338505626 0 0 0 0 -6165356.2350665331 11172255.898399353 0 11172255.898399353 55130500.156778336 0 0 0 0 225860.62368988746 -1083170.0298329853 0 -1083170.0298329853 21442.950684785843 0 0 0 0 -492974.50293553248 -1935267.1680183411 0 -1935267.1680183411 -41079.973251342773 0 0 0 0 1081896.1003198028 -2260651.9922943115 0 -2260651.9922943115 25902.361034393311 0 0 0 0 -711203.58697625995 -2086245.6245384216 0 -2086245.6245384216 6026423.7823867798 0 0 0 0 1926137.8318365738 -3710832.3074035645 0 -3710832.3074035645 2335513.0868988037 0 0 0 0 -2435360.8824782968 -2715844.2397842407 0 -2715844.2397842407 2532206.7166671753 0 0 0 0 -555483.31051036716 -1182547.5385284424 0 -1182547.5385284424 1959393.5972709656 0 0 0 0 167324.27776296437 -3699426.2533683777 0 -3699426.2533683777 697739.23649597168 0 0 0 0 203774.84870019555 -95421.280103683472 0 -95421.280103683472 2404827.180557251 0 0 0 0 1200811.7462533414 595013.21811008453 0 595013.21811008453 4646406.3650817871 0 0 0 0 -560130.52158051729 -55720.92073059082 0 -55720.92073059082 5160816.0270564556 0 0 0 0 -66794880.148337066 -59417405.734977722 0 -59417405.734977722 -38185195.559638977 0 0 0 0 -8999854.5716501474 -54829012.227245331 0 -54829012.227245331 -42341888.922382355 0 0 0 0 220813.11390315034 -1092163.0778169371 0 -1092163.0778169371 1577353.6234168857 0 0 0 0 -1391610.2416169047 -781012.39719772339 0 -781012.39719772339 3346883.8811643124 0 0 0 0 119373.71402583853 -1136255.6523385011 0 -1136255.6523385011 1856334.4703759179 0 0 0 0 -93550740.057640791 -80574601.12379837 0 -80574601.12379837 -14377253.378845215 0 0 0 0 -74245350.428924441 -20887477.364497185 0 -20887477.364497185 33497108.654823303 0 0 0 0 -32307926.909549713 -36697151.205818176 0 -36697151.205818176 138186585.03610992 0 0 0 0 -34111783.952027202 6418254.0218772888 0 6418254.0218772888 12319733.435371399 0 0 0 0 -39858994.146844983 2125033.8856124878 0 2125033.8856124878 -16338619.451253414 0 0 0 0 -47154471.787118047 -32179777.512093544 0 -32179777.512093544 92526888.418548584 0 0 0 0 -46053877.326343536 977001.01279830933 0 977001.01279830933 207566294.21979523 0 0 0 0 -38309833.397903562 27281583.989143372 0 27281583.989143372 100622898.75359917 0 0 0 0 -33254067.345808044 31468978.496306419 0 31468978.496306419 139438187.7612915 0 0 0 0 -47406828.846664667 -2853745.2263412476 0 -2853745.2263412476 249986411.14717412 0 0 0 0 -81743216.980670393 -2439295.2542247772 0 -2439295.2542247772 250031518.79646301 0 0 0 0 -59102295.695044756 -50643402.272415161 0 -50643402.272415161 183175158.04516983 0 0 0 0 -54213257.991503745 64242094.243015289 0 64242094.243015289 380773715.23916626 0 0 0 0 -240352.05513985723 -87768.794800765812 0 -87768.794800765812 253658.39544460177 0 0 0 0 4029493.9678130746 14048293.107969284 0 14048293.107969284 255087717.74465942 0 0 0 0 -58886300.838787675 23705959.817531586 0 23705959.817531586 253641479.11479187 0 0 0 0 -29388382.523679674 4980.9421939849854 0 4980.9421939849854 263682414.57949829 0 0 0 0 -358615.97457921505 -5755939.3198852539 0 -5755939.3198852539 256897143.39343262 0 0 0 0 -44949282.196779847 -6425472.855178833 0 -6425472.855178833 256119564.9604187 0 0 0 0 -28266138.659609526 1390538.8179588318 0 1390538.8179588318 247456785.85577393 0 0 0 0 1466153.9052702188 -254910.42989349365 0 -254910.42989349365 244749495.10251617 0 0 0 0 -10237511.148302734 8042709.1143226624 0 8042709.1143226624 244550851.96218872 0 0 0 0 -17582031.529231429 -15098928.186796188 0 -15098928.186796188 273995376.04901123 0 0 0 0 -451515.9021594642 -180455.23178897053 0 -180455.23178897053 475725.38664781116 0 0 0 0 -16652734.003811836 20968281.645942688 0 20968281.645942688 318371470.31575012 0 0 0 0 -17009508.306710184 13393469.56602478 0 13393469.56602478 311365459.99564934 0 0 0 0 -21237935.204135761 31327945.180458069 0 31327945.180458069 405721750.62380028 0 0 0 0 -217202.87546945611 -105459.73205386847 0 -105459.73205386847 261769.18609757721 0 0 0 0 19170.407232917845 -11929634.527150631 0 -11929634.527150631 252510296.1292572 0 0 0 0 -26415195.636544913 -7579819.8964614868 0 -7579819.8964614868 252518760.03480911 0 0 0 0 -68367547.567628562 13402702.992599964 0 13402702.992599964 282745266.74939728 0 0 0 0 -73334926.196142495 -6706437.7569923401 0 -6706437.7569923401 254742815.051548 0 0 0 0 -124539559.5527727 -25929911.840103149 0 -25929911.840103149 263355251.30998993 0 0 0 0 -10373223.599606179 -6688169.1630268097 0 -6688169.1630268097 221929127.13272858 0 0 0 0 -67467310.219758213 18475379.997005463 0 18475379.997005463 289219441.66286087 0 0 0 0 -92888534.704083323 21437277.256229401 0 21437277.256229401 305548936.44179153 0 0 0 0 -75357312.306045204 32630218.270011902 0 32630218.270011902 261191908.96549988 0 0 0 0 -73535534.136065245 48839374.907859802 0 48839374.907859802 318581764.53659439 0 0 0 0 -18762570.550826907 143226339.39437866 0 143226339.39437866 366306910.48887634 0 0 0 0 -66837638.582111835 -17027990.032941818 0 -17027990.032941818 480748027.22251892 0 0 0 0 5335332.2224649787 -78744235.328193665 0 -78744235.328193665 405094474.80899811 0 0 0 0 -76703174.590776324 11660879.975728989 0 11660879.975728989 409879914.48226929 0 0 0 0 -19706353.757598519 -69317637.12348175 0 -69317637.12348175 336046945.81006241 0 0 0 0 -5848876.8826998174 -46301150.473379135 0 -46301150.473379135 315654571.34429169 0 0 0 0 67854907.187996894 -113402132.31247854 0 -113402132.31247854 239182728.151474 0 0 0 0 66068224.639627993 -124976211.24377966 0 -124976211.24377966 265011880.82266235 0 0 0 0 18444770.482462049 -70047085.003120422 0 -70047085.003120422 220117788.26176071 0 0 0 0 17766787.382003546 -70324572.728919983 0 -70324572.728919983 239332914.82279015 0 0 0 0 -38875482.231432736 -30861002.516996384 0 -30861002.516996384 262935422.96704102 0 0 0 0 -53720526.309050262 -36020719.373382568 0 -36020719.373382568 284148142.63366795 0 0 0 0 -19625465.327246189 -1595518.3464202881 0 -1595518.3464202881 148148428.02876282 0 0 0 0 -2478107.4557729065 -37697833.901453018 0 -37697833.901453018 208562315.25300598 0 0 0 0 17182433.862552129 -36529850.077738762 0 -36529850.077738762 146447168.52861023 0 0 0 0 62547427.052789509 -51766702.902065277 0 -51766702.902065277 146350672.87399292 0 0 0 0 14632734.244907498 -51409594.694904327 0 -51409594.694904327 150706954.37667918 0 0 0 0 -23744217.004772782 -56046398.032478333 0 -56046398.032478333 63445940.931468964 0 0 0 0 -898337.23047310114 -4676250.2202720642 0 -4676250.2202720642 47233404.991867065 0 0 0 0 90396719.066638231 -52393060.48077774 0 -52393060.48077774 67187830.494415283 0 0 0 0 71001698.205452263 -104423480.7950592 0 -104423480.7950592 93280969.836730957 0 0 0 0 56443992.926135778 -74761087.509971619 0 -74761087.509971619 49055737.507736206 0 0 0 0 65651957.35747958 -121404522.47397137 0 -121404522.47397137 13259859.48135376 0 0 0 0 59047579.531722724 -72858463.325031281 0 -72858463.325031281 -29121598.241661072 0 0 0 0 47710751.228023708 -134578349.0802002 0 -134578349.0802002 -17710293.056098938 0 0 0 0 -315442.4513341384 151769.03606035933 0 151769.03606035933 920086.91477376223 0 0 0 0 4000840.9870262742 -2370398.868637085 0 -2370398.868637085 3145322.0543403625 0 0 0 0 5717808.0129622221 -4974782.9775619507 0 -4974782.9775619507 4076474.9422836304 0 0 0 0 13579.717924342345 -7956.3231242224574 0 -7956.3231242224574 43141.352877408266 0 0 0 0 72336555.373823583 -60415416.69370842 0 -60415416.69370842 -360429.19924926758 0 0 0 0 175036849.11428899 -90374997.589347839 0 -90374997.589347839 8360726.6305999756 0 0 0 0 152915228.41251475 -54016772.099243164 0 -54016772.099243164 41382146.535522461 0 0 0 0 254898740.5945625 -106824965.9797256 0 -106824965.9797256 24719252.123901367 0 0 0 0 814.02172985361995 -55222.003758668317 0 -55222.003758668317 258213.15658527613 0 0 0 0 108234845.34076142 -109164730.98310852 0 -109164730.98310852 198558347.79882812 0 0 0 0 3187884.7333012833 14125025.757279158 0 14125025.757279158 62435984.290008545 0 0 0 0 15648352.412454724 -100633128.405159 0 -100633128.405159 113552107.53392792 0 0 0 0 104072931.83432834 -80077264.390731812 0 -80077264.390731812 110051088.68540192 0 0 0 0 109712895.2477881 -69048060.94260788 0 -69048060.94260788 124985038.35583496 0 0 0 0 63672230.558604717 -62695052.268611908 0 -62695052.268611908 147678916.17553329 0 0 0 0 83558445.784813583 -102227191.63891411 0 -102227191.63891411 181963106.20407104 0 0 0 0 86074358.343905464 -83922282.62109375 0 -83922282.62109375 155959772.29550934 0 0 0 0 85908052.360264778 -9511617.5887832642 0 -9511617.5887832642 133808999.10828781 0 0 0 0 95623905.515258342 -9045886.7337532043 0 -9045886.7337532043 131022150.03991699 0 0 0 0 132965671.61667269 83042257.510543823 0 83042257.510543823 180253947.22880936 0 0 0 0 51293165.73058176 -50053580.927920341 0 -50053580.927920341 98285113.537223816 0 0 0 0 6818090.7923369259 23862895.266770363 0 23862895.266770363 162339380.69672394 0 0 0 0 75300381.875006914 -103675607.83737183 0 -103675607.83737183 138165261.4317894 0 0 0 0 36847776.401405156 13813358.465003967 0 13813358.465003967 62700813.769804001 0 0 0 0 -156021.8860244517 415477.56863177568 0 415477.56863177568 863681.3923846744 0 0 0 0 10073104.799046971 -7749639.2901916504 0 -7749639.2901916504 8832291.8294067383 0 0 0 0 12996960.151831329 -4014726.6950864792 0 -4014726.6950864792 2113244.619644165 0 0 0 0 4388646.7904205434 -7027846.2249927521 0 -7027846.2249927521 7475085.0934448242 0 0 0 0 1864838.1370556094 -4088553.6562671661 0 -4088553.6562671661 8294623.7262268066 0 0 0 0 30785767.733229399 24643541.338260651 0 24643541.338260651 2899929.2666053772 0 0 0 0 22751916.095948756 1490751.3258132935 0 1490751.3258132935 5207098.195640564 0 0 0 0 18796758.63026914 43605017.173816681 0 43605017.173816681 -23634300.73752594 0 0 0 0 81427515.142842352 10660186.075618744 0 10660186.075618744 -36861161.905805588 0 0 0 0 -81288334.014645547 217126243.58405352 0 217126243.58405352 603563618.20991516 0 0 0 0 323976.44880292646 -429763.35982677899 0 -429763.35982677899 508012.6713007167 0 0 0 0 -103881785.66315818 -117976845.50374603 0 -117976845.50374603 462229276.7407074 0 0 0 0 -113879.43197954493 269388.30034308508 0 269388.30034308508 488570.67390511185 0 0 0 0 59545537.27652353 -34946630.412532806 0 -34946630.412532806 22547814.402519226 0 0 0 0 33674065.00780344 176854133.5149231 0 176854133.5149231 581959474.85079193 0 0 0 0 34209130.255315334 263986005.18535423 0 263986005.18535423 -133634848.21859741 0 0 0 0 -140152441.21842289 -8475007.1946716309 0 -8475007.1946716309 892119642.07228088 0 0 0 0 234135588.39702427 312533560.2442627 0 312533560.2442627 -729773674.69331741 0 0 0 0 130859883.17835093 34908613.900405884 0 34908613.900405884 889412950.39607811 0 0 0 0 -136104291.75662613 -121517355.14931488 0 -121517355.14931488 811433121.19369507 0 0 0 0 -499830.82165756938 893809.47275042534 0 893809.47275042534 1169311.2177193649 0 0 0 0 -134289140.24545556 142550968.10978889 0 142550968.10978889 75258719.755737305 0 0 0 0 168206214.35873628 234066781.28894043 0 234066781.28894043 -203810565.73150635 0 0 0 0 -69723075.643432647 -6937682.9568929672 0 -6937682.9568929672 -320944721.82730103 0 0 0 0 191190873.71891618 66300912.886245728 0 66300912.886245728 81371888.331343174 0 0 0 0 264017977.39901695 -109149786.21921396 0 -109149786.21921396 -15252091.568183899 0 0 0 0 188150697.49140722 -30436640.167819977 0 -30436640.167819977 156096397.58989334 0 0 0 0 303037591.21368319 -116853002.03241348 0 -116853002.03241348 127115238.34181595 0 0 0 0 184470335.3012675 -19500345.680107117 0 -19500345.680107117 86312426.971313477 0 0 0 0 149580035.70712924 -143896958.20822144 0 -143896958.20822144 200552654.08413696 0 0 0 0 -4982928.318100214 -85815705.260177612 0 -85815705.260177612 461378719.73923302 0 0 0 0 195472769.59701014 -251493042.4883461 0 -251493042.4883461 355610706.89903641 0 0 0 0 682611675.86545169 -305405082.77474213 0 -305405082.77474213 270479415.01339531 0 0 0 0 75465345.19372648 -279836749.23488426 0 -279836749.23488426 893816485.19301987 0 0 0 0 126150853.03685439 356164169.63262558 0 356164169.63262558 801268371.47534275 0 0 0 0 1709679.5192405598 -2260768.3686175086 0 -2260768.3686175086 2785025.5425298512 0 0 0 0 186873007.04781339 -580262985.33462143 0 -580262985.33462143 802215328.48804188 0 0 0 0 90738659.529650807 -329137592.02563286 0 -329137592.02563286 206191599.61734009 0 0 0 0 -17784243.075889111 -24562214.729320526 0 -24562214.729320526 345041114.91008759 0 0 0 0 590104.11609438062 83688461.333683014 0 83688461.333683014 921520387.59650421 0 0 0 0 362688876.59911358 304951303.49119949 0 304951303.49119949 404984553.54098129 0 0 0 0 179675093.23746741 -169874814.86101723 0 -169874814.86101723 11915823.657680511 0 0 0 0 148029267.55416352 -280710592.02539825 0 -280710592.02539825 254076767.38798904 0 0 0 0 119126237.97414592 -327170962.15109444 0 -327170962.15109444 203122018.80714417 0 0 0 0 483476867.08585262 -380900858.95787621 0 -380900858.95787621 -7174077.7288665771 0 0 0 0 54206980.083925992 64968610.380237579 0 64968610.380237579 204631901.74307632 0 0 0 0 8272148.2371925116 87599595.880937576 0 87599595.880937576 196020063.60858154 0 0 0 0 3195555.6449548644 -5518314.5726156421 0 -5518314.5726156421 8477746.6192426533 0 0 0 0 -202086450.71068501 -241359644.66764355 0 -241359644.66764355 -62872653.338157654 0 0 0 0 -74084688.972788811 -9299837.3244247437 0 -9299837.3244247437 -17339349.391511798 0 0 0 0 -53666520.162306428 -15891428.590618134 0 -15891428.590618134 -158829355.15276337 0 0 0 0 -60063522.847684622 -10288065.511916637 0 -10288065.511916637 119804587.7410965 0 0 0 0 -145684851.78963089 145973854.74144363 0 145973854.74144363 35365717.276199341 0 0 0 0 -252647136.49422359 87239459.558294296 0 87239459.558294296 233628256.47706604 0 0 0 0 -204711742.73853397 26249812.685209274 0 26249812.685209274 318939049.04639435 0 0 0 0 -165793670.62471962 -45096158.629068375 0 -45096158.629068375 375874704.57331085 0 0 0 0 -103729241.935727 70409898.159025192 0 70409898.159025192 169792175.85241699 0 0 0 0 -124272261.89190292 22552273.946914673 0 22552273.946914673 172032804.13748169 0 0 0 0 -128324999.06698036 60363185.923892975 0 60363185.923892975 193756061.37951279 0 0 0 0 -114342835.93268776 33565407.436443329 0 33565407.436443329 244661281.20671082 0 0 0 0 -30538583.473828316 42163105.183769226 0 42163105.183769226 251577503.91936493 0 0 0 0 -30169771.49946475 40872806.634243011 0 40872806.634243011 178631842.2808876 0 0 0 0 43526689.902475238 72819155.720676422 0 72819155.720676422 203220781.32943726 0 0 0 0 52509527.877768755 -26895100.169780731 0 -26895100.169780731 160370383.02793884 0 0 0 0 5804650.5098994188 32645725.100225449 0 32645725.100225449 84514092.160522461 0 0 0 0 37218068.992258012 -37779362.630390167 0 -37779362.630390167 343503899.93583298 0 0 0 0 27900040.401288029 -197350011.01912212 0 -197350011.01912212 197503246.08312225 0 0 0 0 -105022182.72210521 50557325.285580158 0 50557325.285580158 289240606.51473999 0 0 0 0 55152776.035682321 130345170.53107452 0 130345170.53107452 321989776.97438431 0 0 0 0 107112273.2674439 52887971.232643127 0 52887971.232643127 203147037.63465881 0 0 0 0 34887487.474341869 103494650.00270844 0 103494650.00270844 339967344.18645477 0 0 0 0 1217779.2564540196 209463.76305153966 0 209463.76305153966 -861213.91199555993 0 0 0 0 186769603.9463588 121708777.21448517 0 121708777.21448517 27798215.949996948 0 0 0 0 250139.75372249447 120939.57114302926 0 120939.57114302926 147960.10100511461 0 0 0 0 19317187.11392045 143263319.30348206 0 143263319.30348206 327978115.17357635 0 0 0 0 47222074.298701048 302281.81242752075 0 302281.81242752075 261120815.15124512 0 0 0 0 -22149641.333250523 51624041.216457367 0 51624041.216457367 133209621.57432556 0 0 0 0 39326941.065124258 80111872.022469759 0 80111872.022469759 116877151.8366394 0 0 0 0 23972279.445762157 33108835.045362473 0 33108835.045362473 19878594.474876404 0 0 0 0 3518022.9149502516 4826706.3246307373 0 4826706.3246307373 2565016.174331665 0 0 0 0 4224720.1061680177 1246057.4060463402 0 1246057.4060463402 -1896772.5504950881 0 0 0 0 45590327.474778295 1468176.4986724854 0 1468176.4986724854 24537854.166230679 0 0 0 0 -160227.55642769439 2695477.8823800385 0 2695477.8823800385 3369350.4598776847 0 0 0 0 3097973.2547149658 3877354.3921928406 0 3877354.3921928406 2735878.7350058556 0 0 0 0 6000797.8543102741 6442568.6780929565 0 6442568.6780929565 4510837.1552848816 0 0 0 0 22224907.19973135 23663844.645990372 0 23663844.645990372 18707498.239112854 0 0 0 0 3067386.9308297061 2954422.8390171155 0 2954422.8390171155 -2423691.1152012497 0 0 0 0 4793869.8038191795 4985864.9841499329 0 4985864.9841499329 4328517.4660143852 0 0 0 0 4376680.9226341397 5680250.9039713144 0 5680250.9039713144 6343794.111831665 0 0 0 0 2633310.2219053507 4993307.0446834564 0 4993307.0446834564 7301501.7995872498 0 0 0 0 -1137286.57500419 4686629.9922248665 0 4686629.9922248665 12578123.110472739 0 0 0 0 -306641872.56154394 -52254828.723552704 0 -52254828.723552704 213087471.60418701 0 0 0 0 -372650453.76384592 55972074.740188599 0 55972074.740188599 74972340.698814392 0 0 0 0 -10213397.876992702 31469202.482316971 0 31469202.482316971 7620066.3518304825 0 0 0 0 759766.19008419197 5845083.2215288654 0 5845083.2215288654 -390962.23310983926 0 0 0 0 4365198.6075484455 5485379.6339303255 0 5485379.6339303255 7225228.4071426392 0 0 0 0 17005213.482447624 11794219.653377533 0 11794219.653377533 -3900746.653842926 0 0 0 0 -627663.98011863814 2506137.7233827747 0 2506137.7233827747 8373831.6579004228 0 0 0 0 -288924266.88022232 192345233.65438843 0 192345233.65438843 62655780.443138123 0 0 0 0 1415358.5232429504 13739707.249233246 0 13739707.249233246 12079671.144592285 0 0 0 0 -58687291.928744555 28539409.461370468 0 28539409.461370468 36525049.047485352 0 0 0 0 -9619543.1930828094 22162635.622074127 0 22162635.622074127 141177584.53118134 0 0 0 0 -77240017.693553925 1398821.1932029724 0 1398821.1932029724 139277065.71420288 0 0 0 0 -66042212.847654343 -34240903.228193283 0 -34240903.228193283 251774229.16242981 0 0 0 0 -44286205.006063223 61354846.787862778 0 61354846.787862778 239739988.40422821 0 0 0 0 -157958.16080511874 787726.1972151082 0 787726.1972151082 2941159.7572402954 0 0 0 0 54184792.284133911 -167300726.03459358 0 -167300726.03459358 228728457.24137878 0 0 0 0 4368416.3232002258 -80780363.147857666 0 -80780363.147857666 85173831.209785461 0 0 0 0 -106349367.04090118 -36649900.104110718 0 -36649900.104110718 259473263.90009308 0 0 0 0 -108107805.25660241 -116848305.83897948 0 -116848305.83897948 377350946.27947235 0 0 0 0 -149032334.52449512 882308377.08312988 0 882308377.08312988 226053977.31939697 0 0 0 0 404576366.51633739 202660668.7256279 0 202660668.7256279 -120431353.76745224 0 0 0 0 -403377432.21694279 88074135.402919769 0 88074135.402919769 132551914.54777145 0 0 0 0 1749304.2537086864 -6187512.3471194506 0 -6187512.3471194506 14259035.040140465 0 0 0 0 -251632383.81919569 -95188058.755334854 0 -95188058.755334854 24773783.304649353 0 0 0 0 -57771944.043337822 122209455.12644958 0 122209455.12644958 -39462346.548007965 0 0 0 0 -57727892.463276863 117236019.19271851 0 117236019.19271851 -37130059.219882965 0 0 0 0 -92018451.885604858 113733428.69840622 0 113733428.69840622 172505949.085495 0 0 0 0 -92519509.464508057 160086110.04862595 0 160086110.04862595 -46546222.718532562 0 0 0 0 127707156.89770794 144347275.16530228 0 144347275.16530228 -49800574.5834198 0 0 0 0 94905261.147761106 123833371.8357296 0 123833371.8357296 61324064.263809204 0 0 0 0 128215495.05193043 -69584071.962396622 0 -69584071.962396622 164812720.86065674 0 0 0 0 427366728.60491848 -7940509.4045333862 0 -7940509.4045333862 99476096.970222473 0 0 0 0 316044698.19973314 -199088688.34992695 0 -199088688.34992695 251654242.2437973 0 0 0 0 -102658436.30989552 -18596841.122425079 0 -18596841.122425079 14473957.618186951 0 0 0 0 -91727936.273905754 -91129522.431812286 0 -91129522.431812286 494618729.57022476 0 0 0 0 216116390.86052847 272705851.89632225 0 272705851.89632225 219326032.28471375 0 0 0 0 1467231.0323447804 8006.0178887844086 0 8006.0178887844086 -10121.9900961034 0 0 0 0 300027523.13606215 -106433059.13100624 0 -106433059.13100624 -567405618.83592987 0 0 0 0 258661190.93432951 -108684526.07065964 0 -108684526.07065964 -565788722.29082489 0 0 0 0 -98109920.67782402 -98606226.202865601 0 -98606226.202865601 -235747536.62608337 0 0 0 0 271952101.66448975 -235076991.72932053 0 -235076991.72932053 -449874412.48492813 0 0 0 0 235225774.43017006 166185115.81032181 0 166185115.81032181 478354083.78377151 0 0 0 0 325294684.38119501 -125370613.34918213 0 -125370613.34918213 -588192536.89379883 0 0 0 0 -310334712.02610081 -287611584.27933502 0 -287611584.27933502 91218396.503204346 0 0 0 0 -118801006.47441347 311604934.38106537 0 311604934.38106537 488502704.81227875 0 0 0 0 1100745.358992124 -4341289.0239245631 0 -4341289.0239245631 10738211.580856837 0 0 0 0 -62993982.118786931 -125749065.77894592 0 -125749065.77894592 479860270.69632721 0 0 0 0 -38559863.284608305 -280474289.58446503 0 -280474289.58446503 248802014.22522736 0 0 0 0 38012884.392218806 -134619047.55535018 0 -134619047.55535018 219201395.33129883 0 0 0 0 39151803.27782169 -94748749.328913987 0 -94748749.328913987 56869462.379150391 0 0 0 0 -34342089.911870599 -74418316.219814301 0 -74418316.219814301 112776169.69937897 0 0 0 0 -35688399.779883087 -43704156.536598206 0 -43704156.536598206 -114147283.1190834 0 0 0 0 -46791620.955635101 -418356.68224334717 0 -418356.68224334717 15490807.143875122 0 0 0 0 -181267870.67502001 39515167.176244736 0 39515167.176244736 32523684.633789062 0 0 0 0 28603793.045615077 -11018246.823963165 0 -11018246.823963165 31959567.898021698 0 0 0 0 27775203.801956847 -12581428.715126514 0 -12581428.715126514 195148603.46162415 0 0 0 0 -37997814.877021283 36330027.880382538 0 36330027.880382538 114110089.28253937 0 0 0 0 30125763.493476961 45868089.959003806 0 45868089.959003806 68859141.374359131 0 0 0 0 -36020731.819846034 54259663.079277039 0 54259663.079277039 131852753.30286789 0 0 0 0 -19134532.337963283 81658092.861976624 0 81658092.861976624 121036177.07257843 0 0 0 0 3026444.340968281 47281126.900039673 0 47281126.900039673 174154508.14915466 0 0 0 0 -34512680.609652251 50896549.683929443 0 50896549.683929443 141745499.76766968 0 0 0 0 -28441779.046166718 52936292.500583649 0 52936292.500583649 64872465.355583191 0 0 0 0 -119887008.39242077 33800600.711097717 0 33800600.711097717 82257933.131965637 0 0 0 0 -78583935.437654018 29153086.514369965 0 29153086.514369965 38327862.584972382 0 0 0 0 -88473202.880957931 -42708866.562846184 0 -42708866.562846184 -23732058.23828125 0 0 0 0 3060149.7216107561 -7010382.2667995077 0 -7010382.2667995077 13032797.907506637 0 0 0 0 207763336.26601076 -767741455.62309074 0 -767741455.62309074 -100317038.24714661 0 0 0 0 -105398008.55117813 -31804305.454727173 0 -31804305.454727173 67478726.375915527 0 0 0 0 -62087282.002317458 9662933.3716468811 0 9662933.3716468811 59949318.833007812 0 0 0 0 -60994843.359732747 76745960.89409256 0 76745960.89409256 117143790.49517059 0 0 0 0 -24705375.061522722 87890002.27028656 0 87890002.27028656 143844310.31920242 0 0 0 0 -52489402.257489622 66383143.277389526 0 66383143.277389526 210869899.88121796 0 0 0 0 -1775754.5412437916 9540115.4806747437 0 9540115.4806747437 27345652.462553024 0 0 0 0 -28539278.274255514 72424431.579402924 0 72424431.579402924 211520990.00289154 0 0 0 0 -38257859.204434864 101814662.65895653 0 101814662.65895653 252504322.88861084 0 0 0 0 -29378529.810357884 69416515.55286026 0 69416515.55286026 174183197.66902924 0 0 0 0 -42101462.641752303 64455185.182682037 0 64455185.182682037 224611674.30552292 0 0 0 0 -37316306.77738741 91760514.629602432 0 91760514.629602432 171506265.89567566 0 0 0 0 20753331.096324056 -8792720.1998252869 0 -8792720.1998252869 207775845.24765015 0 0 0 0 -2866819.9707129002 22528029.449684143 0 22528029.449684143 167091859.34150696 0 0 0 0 -12950611.900565267 40085480.067586899 0 40085480.067586899 224957802.29034424 0 0 0 0 -46557558.867262989 22535054.725093842 0 22535054.725093842 231696168.34249496 0 0 0 0 -9267030.2270723432 -7611011.5859107971 0 -7611011.5859107971 208082584.72016144 0 0 0 0 8164626.1172839403 -46810993.977825165 0 -46810993.977825165 205026772.84959412 0 0 0 0 -5970453.4110580087 -20419368.785205841 0 -20419368.785205841 257475163.58725166 0 0 0 0 10429981.171312066 -35150284.166695595 0 -35150284.166695595 235508501.78448486 0 0 0 0 22373998.197847996 -49457755.11563921 0 -49457755.11563921 162467252.3507309 0 0 0 0 22813893.720530644 -51811820.116222382 0 -51811820.116222382 162217918.90588379 0 0 0 0 -4561619.3156691194 -76733437.093002319 0 -76733437.093002319 190656891.49616623 0 0 0 0 24813054.120355397 -32653985.989463806 0 -32653985.989463806 198401411.60811615 0 0 0 0 22702956.284191146 -21531022.759624481 0 -21531022.759624481 159268515.58319092 0 0 0 0 48906005.013048716 -37722854.276033401 0 -37722854.276033401 127771493.45559692 0 0 0 0 55501790.196046293 -22060694.617198944 0 -22060694.617198944 158955110.71633816 0 0 0 0 18583535.918527022 -21267691.012348175 0 -21267691.012348175 118260792.21817017 0 0 0 0 39190589.62330205 -41225201.849178314 0 -41225201.849178314 125585937.18286133 0 0 0 0 49510844.993434042 -26553750.109912872 0 -26553750.109912872 134823815.75283432 0 0 0 0 61107211.544514835 -35174421.534633636 0 -35174421.534633636 137960685.60915375 0 0 0 0 98421883.205418706 -11962366.969608307 0 -11962366.969608307 129386810.66134644 0 0 0 0 71553937.092299074 10392163.997688293 0 10392163.997688293 121703048.01620483 0 0 0 0 43408640.498294562 -2745474.98163414 0 -2745474.98163414 128232439.42098999 0 0 0 0 50151590.969684422 14464346.969844818 0 14464346.969844818 167979708.69249058 0 0 0 0 13532447.262182683 53944838.630487442 0 53944838.630487442 126493852.82258606 0 0 0 0 81161583.619870067 25264689.439395905 0 25264689.439395905 118940700.53724003 0 0 0 0 30097564.085678082 40987470.173999593 0 40987470.173999593 130092025.80860901 0 0 0 0 95490883.945560887 6543937.0106592178 0 6543937.0106592178 172036129.21664429 0 0 0 0 100252869.79304749 18823604.609924316 0 18823604.609924316 102089678.83601379 0 0 0 0 220188490.70352331 -78528919.904219151 0 -78528919.904219151 179597598.61436462 0 0 0 0 99519850.870368779 -44582279.29306221 0 -44582279.29306221 173287531.21711731 0 0 0 0 148032701.04638052 -150212.58846282959 0 -150212.58846282959 118678673.88794518 0 0 0 0 201725778.11602437 40650455.565540314 0 40650455.565540314 180062752.27880096 0 0 0 0 42640854.282465339 -82928079.189014435 0 -82928079.189014435 131303382.17333984 0 0 0 0 51995632.725628734 -31366543.704444885 0 -31366543.704444885 379861821.41024017 0 0 0 0 9045001.6023780704 -108873617.17673111 0 -108873617.17673111 246839165.97218323 0 0 0 0 37055318.988093078 -62850558.63899231 0 -62850558.63899231 90006592.697868347 0 0 0 0 83404026.662492871 -184341720.80064392 0 -184341720.80064392 247672293.09241486 0 0 0 0 143845087.28827089 -90082788.509623528 0 -90082788.509623528 32526536.953964233 0 0 0 0 251797.87185054232 -545301.20802513137 0 -545301.20802513137 399543.73291642964 0 0 0 0 -464523.15760540962 26504615.156906128 0 26504615.156906128 14535052.64756012 0 0 0 0 3280390.1233533211 -852039.81928829849 0 -852039.81928829849 472473.25743207894 0 0 0 0 76082828.391228795 -78352051.908988953 0 -78352051.908988953 54494203.043228149 0 0 0 0 -56007773.914096832 -180198073.59028625 0 -180198073.59028625 -228411379.965765 0 0 0 0 -91561068.622388884 -267561430.71443546 0 -267561430.71443546 27304791.664779663 0 0 0 0 -463861.34796423552 -606276.91646538675 0 -606276.91646538675 990886.59499514848 0 0 0 0 -195307681.56691846 97260678.011295319 0 97260678.011295319 -44511884.681255341 0 0 0 0 -4821.7641088329256 419993.48629665375 0 419993.48629665375 132962775.21425629 0 0 0 0 -320742.73468112922 -476787.36083864421 0 -476787.36083864421 709420.06662917137 0 0 0 0 3816632.8023191486 -3149423.894183293 0 -3149423.894183293 1691597.0484455265 0 0 0 0 1292598.4564462006 285408.20026016235 0 285408.20026016235 82374252.952774048 0 0 0 0 782498.55432747887 -1645856.6462671123 0 -1645856.6462671123 702541.37953869253 0 0 0 0 -15920438.335636377 7575321.4366378784 0 7575321.4366378784 -8619016.5774097443 0 0 0 0 34702731.163900107 127419198.23327255 0 127419198.23327255 332975750.0178833 0 0 0 0 26379301.214268208 57198703.106445312 0 57198703.106445312 99873505.339332581 0 0 0 0 -63440232.393926218 10552871.776092529 0 10552871.776092529 131350206.17545319 0 0 0 0 -8579571.5629045367 70262928.864303589 0 70262928.864303589 192646015.90235901 0 0 0 0 -50733904.228201568 40170359.551943302 0 40170359.551943302 182099838.51074219 0 0 0 0 -45938459.562028006 -1985159.8684654236 0 -1985159.8684654236 232942597.19698143 0 0 0 0 -153631.54429942369 5565139.9125595093 0 5565139.9125595093 198033811.51277161 0 0 0 0 53755643.915803373 -86063998.544715881 0 -86063998.544715881 344112662.49580908 0 0 0 0 27890272.201237842 -45590757.630649567 0 -45590757.630649567 203811765.61173248 0 0 0 0 91637518.82294184 -26813434.000976562 0 -26813434.000976562 137628009.42222667 0 0 0 0 -13256546.424763709 4360476.4686737061 0 4360476.4686737061 148335653.97509003 0 0 0 0 -73137965.015905812 56034028.025726318 0 56034028.025726318 171582164.14434433 0 0 0 0 -11507549.253919154 5925940.2920265198 0 5925940.2920265198 144377063.12030411 0 0 0 0 4592456.2607131079 68613525.704931259 0 68613525.704931259 87238232.66003418 0 0 0 0 -15786077.386810899 13203110.446540833 0 13203110.446540833 75692600.01725769 0 0 0 0 -134517941.24753416 114613828.15051651 0 114613828.15051651 170743881.50202847 0 0 0 0 -32369937.384016212 93525516.70498848 0 93525516.70498848 174359898.38816833 0 0 0 0 -149913323.24071434 36677765.007530212 0 36677765.007530212 207389590.15337753 0 0 0 0 -49829568.314965993 35466521.173728943 0 35466521.173728943 107419004.73716164 0 0 0 0 -19779985.829839103 92434094.283736229 0 92434094.283736229 169080645.10592651 0 0 0 0 -34068008.491298169 131377534.59738159 0 131377534.59738159 119807325.39458466 0 0 0 0 73033327.278128788 8317393.6967849731 0 8317393.6967849731 170795721.36090851 0 0 0 0 -24304684.611876942 89539544.783489227 0 89539544.783489227 216941944.9149704 0 0 0 0 -22980550.928844452 -17105915.291435242 0 -17105915.291435242 241235411.02068329 0 0 0 0 -38452610.276584893 43063140.674846649 0 43063140.674846649 125579460.11167908 0 0 0 0 -200208836.91783443 63185734.58392334 0 63185734.58392334 159826188.62614441 0 0 0 0 -211163235.40759134 114814684.635849 0 114814684.635849 84140150.225891113 0 0 0 0 -85061739.252620697 170563.91269683838 0 170563.91269683838 100519892.06798553 0 0 0 0 70022373.235984355 -3663930.6410884857 0 -3663930.6410884857 333801614.62705231 0 0 0 0 727553.94416312058 -19829641.78420639 0 -19829641.78420639 386565026.61496735 0 0 0 0 55231449.618298605 14950603.741046906 0 14950603.741046906 310390754.46539307 0 0 0 0 70057104.909217596 121882271.3821032 0 121882271.3821032 364573443.3476181 0 0 0 0 69093497.541786775 106291724.65415192 0 106291724.65415192 157100401.54053497 0 0 0 0 -14552.72870092875 -4477714.7840766907 0 -4477714.7840766907 -3887261.8801116943 0 0 0 0 -181086.24216583659 277379.9051598683 0 277379.9051598683 740471.01302015781 0 0 0 0 224336314.63394338 226089575.1950531 0 226089575.1950531 212698132.23799133 0 0 0 0 7922.5581291305325 -4443737.2806816101 0 -4443737.2806816101 -3916422.5800209045 0 0 0 0 68892289.644450605 120473388.00054932 0 120473388.00054932 118721843.51007462 0 0 0 0 65875919.63488631 82198951.672657013 0 82198951.672657013 89161354.602420807 0 0 0 0 -243312.17367182858 27023.024459507316 0 27023.024459507316 1155065.4312986434 0 0 0 0 -7021883.4499770375 -1020854.4118118286 0 -1020854.4118118286 12404946.082061768 0 0 0 0 -7535834.1937690265 -4659152.9070854187 0 -4659152.9070854187 2349164.8196563721 0 0 0 0 -9460796.6397505328 2643543.5053201015 0 2643543.5053201015 -73232310.090572998 0 0 0 0 -494649.21404712601 3324122.979927063 0 3324122.979927063 1283888.8463668823 0 0 0 0 -1601110.6217064001 1810457.1816864014 0 1810457.1816864014 1454319.6460046768 0 0 0 0 -790892.90072554071 1577455.6308364868 0 1577455.6308364868 514191.39198875427 0 0 0 0 7712198.7871367019 416179.28347623441 0 416179.28347623441 -40065.449429318309 0 0 0 0 14200348.724880662 -2850324.281873703 0 -2850324.281873703 -586056.94006347656 0 0 0 0 -1718103.9207684472 2191856.4772567749 0 2191856.4772567749 281202.28718566895 0 0 0 0 -1703887.9425359853 1318633.5451812744 0 1318633.5451812744 1181136.9835357666 0 0 0 0 -24140328.610147715 2927299.5633850098 0 2927299.5633850098 23144705.664039612 0 0 0 0 299517.97814849485 110345.35188522376 0 110345.35188522376 1483357.913397193 0 0 0 0 -8351293.6894746553 -2182503.1210289001 0 -2182503.1210289001 669206.76996707916 0 0 0 0 1391353.0962947928 -5286183.2924043089 0 -5286183.2924043089 942375.53194599971 0 0 0 0 -501048.70304946066 1099833.0518548638 0 1099833.0518548638 1314650.4099699892 0 0 0 0 17062925.02396521 12361195.43712616 0 12361195.43712616 -22085997.929260254 0 0 0 0 19088887.040572226 -62114269.85974884 0 -62114269.85974884 81356962.15322876 0 0 0 0 38355529.860036135 -12743428.070541382 0 -12743428.070541382 16147902.153839111 0 0 0 0 -9007727.0940024257 -20848418.882453918 0 -20848418.882453918 19841460.518585205 0 0 0 0 -181746.47084235487 860369.85577119887 0 860369.85577119887 975021.64791754261 0 0 0 0 29631366.716994524 -3753598.3168716431 0 -3753598.3168716431 -18963558.545883179 0 0 0 0 -941745.08461287245 73427.978538513184 0 73427.978538513184 1408682.3147888184 0 0 0 0 -3193979.8468563333 652474.76940536499 0 652474.76940536499 1400948.0644302368 0 0 0 0 -349700.2681024709 -235433.90217685327 0 -235433.90217685327 1382366.7706196159 0 0 0 0 -26172942.824698687 -1035399.0867347717 0 -1035399.0867347717 56246723.42301178 0 0 0 0 15163765.81725651 27938441.027191162 0 27938441.027191162 51777398.397796631 0 0 0 0 2717412.869849667 4972695.5818252563 0 4972695.5818252563 11219014.560142517 0 0 0 0 -173477.7038079965 106247.34054353088 0 106247.34054353088 323201.83532774635 0 0 0 0 -28230585.699907288 27664174.200271606 0 27664174.200271606 118120576.83061218 0 0 0 0 18188445.964825407 -34498276.579246521 0 -34498276.579246521 36103959.267196655 0 0 0 0 -14568376.575401142 -66078697.379707336 0 -66078697.379707336 108706976.61035919 0 0 0 0 12201408.1126858 -52650768.469612122 0 -52650768.469612122 113125086.94752502 0 0 0 0 9271799.4744551629 -75326386.186073303 0 -75326386.186073303 123991678.36624527 0 0 0 0 -25613516.594913095 -9423348.3719482422 0 -9423348.3719482422 38705370.711734772 0 0 0 0 -111811.89124209463 150502.92274518311 0 150502.92274518311 194163.53990928084 0 0 0 0 18757327.910794765 -25893447.137763977 0 -25893447.137763977 40218891.366104126 0 0 0 0 -22270683.649418719 -15921720.724843502 0 -15921720.724843502 74951944.041213989 0 0 0 0 7500929.7459068894 -64121934.940368652 0 -64121934.940368652 111775798.61514282 0 0 0 0 14154477.15323177 -31403227.569854736 0 -31403227.569854736 32065584.804336548 0 0 0 0 -10215433.261114761 -43302427.651489258 0 -43302427.651489258 94744739.687133789 0 0 0 0 -595443.45239634812 -83444402.707450867 0 -83444402.707450867 167069368.67128944 0 0 0 0 27437371.417677879 -64435503.808662415 0 -64435503.808662415 93390642.760024071 0 0 0 0 4295544.0707864314 -47730089.008132935 0 -47730089.008132935 102587785.47355652 0 0 0 0 19260791.104993373 -78519076.968292236 0 -78519076.968292236 107327472.73965454 0 0 0 0 -10939532.74345801 -93897536.805755615 0 -93897536.805755615 243546550.36557007 0 0 0 0 -15474404.954518452 -58387869.224205017 0 -58387869.224205017 169789591.68766022 0 0 0 0 -11483247.835508544 -59885648.651062965 0 -59885648.651062965 245555263.04037476 0 0 0 0 -29687074.805131167 -45451246.088142395 0 -45451246.088142395 303545160.48335028 0 0 0 0 -34984543.752997197 -69667152.023822784 0 -69667152.023822784 247622775.38581848 0 0 0 0 -15090608.472305238 -96757827.77947998 0 -96757827.77947998 243638738.03070068 0 0 0 0 -37139622.44444029 -75808594.876861572 0 -75808594.876861572 315250873.13343811 0 0 0 0 -13227292.514758706 -125350941.63729858 0 -125350941.63729858 341679329.35546875 0 0 0 0 23966096.451721027 -122703163.41597366 0 -122703163.41597366 260965490.49681091 0 0 0 0 26319205.948691547 -140507476.18843079 0 -140507476.18843079 260437845.51846266 0 0 0 0 248026330.78015643 -208720581.12083054 0 -208720581.12083054 168893031.46330261 0 0 0 0 125902.48268612365 -135677.18066242011 0 -135677.18066242011 610744.31177861989 0 0 0 0 43318448.847763151 -205684019.02993011 0 -205684019.02993011 455062193.25801563 0 0 0 0 -90696507.378028587 -18757871.917747498 0 -18757871.917747498 213250708.71018982 0 0 0 0 135445756.9285759 -57983140.605735779 0 -57983140.605735779 -4425821.2702178955 0 0 0 0 -60117.074751516266 -11035971.431093821 0 -11035971.431093821 -92668317.6171875 0 0 0 0 25459467.334840715 28075666.612976074 0 28075666.612976074 11747451.867446899 0 0 0 0 61730218.483087897 -56938888.181480408 0 -56938888.181480408 50621797.778465271 0 0 0 0 46493256.685287386 -110425640.29503632 0 -110425640.29503632 131134634.39083481 0 0 0 0 21484770.630574301 -88233398.939285278 0 -88233398.939285278 155841797.6411438 0 0 0 0 127907370.78962201 -163371950.52901459 0 -163371950.52901459 139706208.7906189 0 0 0 0 49947521.720889919 -56560592.887496471 0 -56560592.887496471 57623256.208892822 0 0 0 0 12015679.251750508 -7052605.5836524963 0 -7052605.5836524963 2641021.9866714478 0 0 0 0 2351697.849473469 -29037883.459339142 0 -29037883.459339142 66589468.224502385 0 0 0 0 -38814.573987576412 -9235284.9830093384 0 -9235284.9830093384 86264343.315177917 0 0 0 0 -2162175.1970462129 -20139326.392654419 0 -20139326.392654419 66432121.576973736 0 0 0 0 -2918497.6115882359 -17031138.474700928 0 -17031138.474700928 135828214.89019775 0 0 0 0 -4661057.1570301354 28081650.535964966 0 28081650.535964966 100935549.59490204 0 0 0 0 34998444.002041191 -56398863.498985291 0 -56398863.498985291 73560994.389350891 0 0 0 0 34715308.83363834 23726795.654325485 0 23726795.654325485 8363410.2400741577 0 0 0 0 -7634.4045901844147 183548.08625478204 0 183548.08625478204 299958.53849768639 0 0 0 0 -1701011.8535172492 2101678.1171760559 0 2101678.1171760559 1263520.2244720459 0 0 0 0 -326497.59768499434 -2344841.7703857422 0 -2344841.7703857422 11228048.496111393 0 0 0 0 -99223.404485740481 535119.35239054821 0 535119.35239054821 783303.69353537261 0 0 0 0 5063266.8560955524 -3573693.1502876282 0 -3573693.1502876282 -460802.3811416626 0 0 0 0 -2261782.254922688 18558326.655139923 0 18558326.655139923 5253010.2875061035 0 0 0 0 2276794.3985467739 568892.08771130815 0 568892.08771130815 4867808.5950303115 0 0 0 0 2701353.0171160996 3821507.1995201111 0 3821507.1995201111 -7327162.4412307739 0 0 0 0 -6587013.5693700314 3123343.2161102295 0 3123343.2161102295 11794947.342247009 0 0 0 0 3328925.7293991446 1684173.376953125 0 1684173.376953125 -1107599.746547699 0 0 0 0 -892888.54274148121 -502214.52631759644 0 -502214.52631759644 -2740187.587387085 0 0 0 0 -10073002.829172969 -1057950.6941661835 0 -1057950.6941661835 14288760.989944458 0 0 0 0 35368.492098932562 -8902967.0590362549 0 -8902967.0590362549 20592872.721496582 0 0 0 0 -67271.142466681194 -15707306.15838623 0 -15707306.15838623 5809816.1338348389 0 0 0 0 -7706831.248631347 -15082342.013355255 0 -15082342.013355255 16357789.645565033 0 0 0 0 -31396031.50415922 -26273649.99075985 0 -26273649.99075985 23665170.250411987 0 0 0 0 -24183737.73453439 14038539.372187138 0 14038539.372187138 -7095876.3702087402 0 0 0 0 -114807204.36350492 3562769.614616394 0 3562769.614616394 35068677.091741562 0 0 0 0 -197913.74016945201 1185004.0855620056 0 1185004.0855620056 973434.12065139413 0 0 0 0 -15473963.642289605 3489457.1549530029 0 3489457.1549530029 5507071.3106422424 0 0 0 0 39988270.995412678 115860286.19431496 0 115860286.19431496 323207362.79453278 0 0 0 0 296222291.6677053 -375062582.49468231 0 -375062582.49468231 365833818.05537415 0 0 0 0 449329277.91735363 -602885916.07387161 0 -602885916.07387161 704564824.20266724 0 0 0 0 -311506.39577279048 7190.0095809586346 0 7190.0095809586346 1773762.0677748471 0 0 0 0 -166230985.36715078 -95507980.264801025 0 -95507980.264801025 1462308581.6181641 0 0 0 0 -145185653.51083055 -425352564.2480278 0 -425352564.2480278 757671389.47344208 0 0 0 0 -150338.13758545151 -165635463.55382156 0 -165635463.55382156 225653208.66264343 0 0 0 0 -55588377.285044551 40179856.539611816 0 40179856.539611816 -16790679.702758789 0 0 0 0 -796592.32828538853 -218527.87151630968 0 -218527.87151630968 690789.35044314712 0 0 0 0 351702962.48010921 -475069995.30052185 0 -475069995.30052185 446425553.63340759 0 0 0 0 4941419.1913321316 -136383344.73654175 0 -136383344.73654175 656109499.84241867 0 0 0 0 73879360.300442338 -285012918.59095764 0 -285012918.59095764 674460362.56020355 0 0 0 0 490602.11346251372 -178465.2990167886 0 -178465.2990167886 1212704.7453175671 0 0 0 0 206819965.58979464 -223231012.42144966 0 -223231012.42144966 485144206.02134705 0 0 0 0 156178249.36286741 -134894251.54932976 0 -134894251.54932976 546347245.52526855 0 0 0 0 58655145.512832016 -158667642.4230423 0 -158667642.4230423 542025886.22975159 0 0 0 0 79047060.783457369 -130913624.27923584 0 -130913624.27923584 472173696.91143608 0 0 0 0 167809082.35604739 -231057521.40794373 0 -231057521.40794373 487983366.12876892 0 0 0 0 118878703.71949473 -74226381.939216614 0 -74226381.939216614 293951745.59622192 0 0 0 0 134361341.93273166 -141502141.15528488 0 -141502141.15528488 332671627.57505798 0 0 0 0 52729870.771235675 -67554375.238258362 0 -67554375.238258362 352670323.70228577 0 0 0 0 83129.638468940204 -73248099.479141682 0 -73248099.479141682 532037818.60018921 0 0 0 0 65726650.169712558 -71502457.871772766 0 -71502457.871772766 432735495.80767822 0 0 0 0 80360254.839165747 -84501036.644203186 0 -84501036.644203186 409552158.6946373 0 0 0 0 123601603.94494465 -172570217.31757355 0 -172570217.31757355 455114166.93113708 0 0 0 0 -154592321.75798786 6459679.692489624 0 6459679.692489624 2406016.8740997314 0 0 0 0 -185642635.53116357 6037143.0645675659 0 6037143.0645675659 14983690.727416992 0 0 0 0 -165091658.99657694 53435758.622058868 0 53435758.622058868 119176272.41201782 0 0 0 0 -72633762.307808936 -51460499.247108459 0 -51460499.247108459 40687613.025512695 0 0 0 0 -56842743.265084133 -104744952.43342018 0 -104744952.43342018 185423589.13261414 0 0 0 0 79511029.102257922 -67841653.668884277 0 -67841653.668884277 193360528.65129852 0 0 0 0 -34683781.845181555 -59345014.69354248 0 -59345014.69354248 269050890.20800781 0 0 0 0 -32278569.133288264 -273764511.30947876 0 -273764511.30947876 384070173.43441772 0 0 0 0 48884211.543611348 -156445777.72805786 0 -156445777.72805786 222948604.62982941 0 0 0 0 71951716.472848997 -197317058.24655151 0 -197317058.24655151 417296696.50536346 0 0 0 0 22725003.999517351 -159661078.63184357 0 -159661078.63184357 444890844.91273499 0 0 0 0 -35370627.263904154 -192210025.42717743 0 -192210025.42717743 516625634.62031555 0 0 0 0 49077131.756800145 -287081643.21463776 0 -287081643.21463776 510522880.0249238 0 0 0 0 -246121.79747888236 -56505.996402092278 0 -56505.996402092278 267453.07254140079 0 0 0 0 -210940244.08970314 -347586653.56537247 0 -347586653.56537247 69292929.868988037 0 0 0 0 -139348923.44031578 -174286868.20526123 0 -174286868.20526123 486903468.79681396 0 0 0 0 -92913210.529468179 -202931048.45287895 0 -202931048.45287895 513932798.19983673 0 0 0 0 46454165.755444676 -145557086.20561981 0 -145557086.20561981 490777943.68438721 0 0 0 0 -92672179.560323328 -187408961.73114586 0 -187408961.73114586 665085156.57562256 0 0 0 0 -37086244.033003807 -282238893.89517975 0 -282238893.89517975 612115319.29977798 0 0 0 0 -497598.35023024678 -261321738.69622803 0 -261321738.69622803 621439181.70330811 0 0 0 0 105923162.07316764 -203618623.75832748 0 -203618623.75832748 673358610.61071777 0 0 0 0 236481.7911414663 210200.55318861455 0 210200.55318861455 816792.31907104328 0 0 0 0 48193603.69791621 -232069287.36388779 0 -232069287.36388779 498074499.40097046 0 0 0 0 45838926.244701207 -284007758.36244202 0 -284007758.36244202 684740323.33872223 0 0 0 0 138574154.80150652 -170720435.7587738 0 -170720435.7587738 323403937.18493462 0 0 0 0 -532206.42879348877 311096.40909562632 0 311096.40909562632 4196981.0327940248 0 0 0 0 -1670891.0691941567 2148810.3744945526 0 2148810.3744945526 80297.707778930664 0 0 0 0 -27410379.398853123 -225797720.14457703 0 -225797720.14457703 500275515.32972527 0 0 0 0 -30677101.211476564 -183722893.85688019 0 -183722893.85688019 341815379.15049744 0 0 0 0 -115334905.02586636 -231960958.28056145 0 -231960958.28056145 601302705.08055115 0 0 0 0 -111269551.32534131 -202131037.16312647 0 -202131037.16312647 531845939.82545471 0 0 0 0 -24573703.031069696 -255075513.30788422 0 -255075513.30788422 476101232.93553162 0 0 0 0 -131290548.25743663 -152970793.39543152 0 -152970793.39543152 667234522.81147766 0 0 0 0 -180349566.45816493 -177216047.19437408 0 -177216047.19437408 662796923.52871704 0 0 0 0 -137642791.13655519 -124111923.13312531 0 -124111923.13312531 541069801.99240112 0 0 0 0 595363632.82020712 535635182.47475433 0 535635182.47475433 578772320.54848099 0 0 0 0 -150760361.18345213 -340215175.53612518 0 -340215175.53612518 1492376368.5933228 0 0 0 0 466302663.99646622 -730701238.66519356 0 -730701238.66519356 643924397.29888916 0 0 0 0 102897873.92390537 -233548622.97982788 0 -233548622.97982788 278616028.45596313 0 0 0 0 135769007.36069506 -298870434.26181412 0 -298870434.26181412 343090571.66038513 0 0 0 0 291484079.86917925 -195428837.39147186 0 -195428837.39147186 151229903.0030365 0 0 0 0 -100150164.40483952 -293274667.93317032 0 -293274667.93317032 711567625.79789543 0 0 0 0 -110565068.72913599 -244443299.65278244 0 -244443299.65278244 584764047.72769165 0 0 0 0 -8951226.9948204756 16320754.854301453 0 16320754.854301453 92825921.816215515 0 0 0 0 -65448354.927842379 -42795262.2252388 0 -42795262.2252388 568407572.13765907 0 0 0 0 -14476676.786400795 -52983847.472896576 0 -52983847.472896576 34756693.290229797 0 0 0 0 19336929.327905655 -146520946.38882446 0 -146520946.38882446 366029664.8070612 0 0 0 0 88692123.55095458 7238540.9741926193 0 7238540.9741926193 69604872.257110596 0 0 0 0 -14647062.135398149 45169195.898136139 0 45169195.898136139 -33477227.671333313 0 0 0 0 60516456.221520901 41290862.648208618 0 41290862.648208618 -52239514.999465942 0 0 0 0 -6136355.0226712804 -2110141.7835464105 0 -2110141.7835464105 6622615.9137748405 0 0 0 0 -69653330.756158829 -25546945.974315643 0 -25546945.974315643 6496349.4875202179 0 0 0 0 -240857404.65122759 -39110184.18888092 0 -39110184.18888092 2496275.3344535828 0 0 0 0 -44650477.951586127 -33695563.975162506 0 -33695563.975162506 -2277250.4690093994 0 0 0 0 -2225865.7287252191 623937.7210685052 0 623937.7210685052 1598548.0566075146 0 0 0 0 14123681.474318713 -68145193.323523521 0 -68145193.323523521 17895594.593582153 0 0 0 0 -248604564.49010932 -18622492.396316528 0 -18622492.396316528 82603338.142471313 0 0 0 0 -175455331.6828599 -81281145.118358612 0 -81281145.118358612 92726674.179275513 0 0 0 0 -222584226.11885905 -220100215.7419014 0 -220100215.7419014 348327620.56173706 0 0 0 0 -241587726.30498171 -142900398.98914719 0 -142900398.98914719 36203563.9659729 0 0 0 0 -61812116.213952541 -86818440.044857025 0 -86818440.044857025 -7917401.7025985718 0 0 0 0 -38414013.242616177 69145562.016622066 0 69145562.016622066 28867670.113937378 0 0 0 0 -361384087.02426577 165082864.49234974 0 165082864.49234974 728417304.10174561 0 0 0 0 -5662988.9661768656 -2609168.2366869599 0 -2609168.2366869599 7045055.6472793818 0 0 0 0 -357703486.73809814 311396205.5140152 0 311396205.5140152 80978910.129892945 0 0 0 0 39755158.125833988 -147832704.66301346 0 -147832704.66301346 400288865.64665222 0 0 0 0 1257172.2164912508 -6114669.3703497872 0 -6114669.3703497872 6323149.0595246553 0 0 0 0 -129940563.70815468 -46724283.615203857 0 -46724283.615203857 25113096.446713924 0 0 0 0 52143321.002570152 79567353.013736725 0 79567353.013736725 14762133.246765137 0 0 0 0 447919029.18775618 -288035701.53897929 0 -288035701.53897929 -46933352.561691284 0 0 0 0 -114836718.12589812 -610939348.75865555 0 -610939348.75865555 1365224589.0032806 0 0 0 0 719332.41490512597 -2130430.7659147531 0 -2130430.7659147531 2273107.516579859 0 0 0 0 -89226330.287061155 329141716.22706604 0 329141716.22706604 1777261958.8669434 0 0 0 0 -96963977.540167093 -142304024.12488174 0 -142304024.12488174 1008313240.5889626 0 0 0 0 -119608233.99933589 120764797.94449615 0 120764797.94449615 705118261.93553162 0 0 0 0 -4374927.4217786789 -45285192.42801857 0 -45285192.42801857 -47519600.366233826 0 0 0 0 -81866756.373710632 -28800847.975038528 0 -28800847.975038528 48090908.555549622 0 0 0 0 -12483263.717769623 9515370.6150665283 0 9515370.6150665283 61380070.029968262 0 0 0 0 -44681321.821736813 -45926724.888554573 0 -45926724.888554573 53947183.184417725 0 0 0 0 -5325395.7914611502 2886911.3085841164 0 2886911.3085841164 4944841.1754467972 0 0 0 0 -8401697.5905331373 11876014.367652893 0 11876014.367652893 14219400.083248138 0 0 0 0 6712233.2162471637 -3432814.2083229572 0 -3432814.2083229572 2349646.1478014272 0 0 0 0 -2466235.0264225006 12180623.648361206 0 12180623.648361206 26799623.208084106 0 0 0 0 48033977.324302435 -388785571.24082184 0 -388785571.24082184 536005476.27674103 0 0 0 0 9093030.7070597261 -4438951.3690380752 0 -4438951.3690380752 3869183.4540957585 0 0 0 0 236990255.27014422 -103653089.70905304 0 -103653089.70905304 -89231539.677398682 0 0 0 0 15825672.020486355 -32086967.617291451 0 -32086967.617291451 11610509.391113281 0 0 0 0 -4655232.076994407 1247434.8498262726 0 1247434.8498262726 4283662.4004163519 0 0 0 0 -213832.36668889539 -583160.53536117077 0 -583160.53536117077 1457963.7721601874 0 0 0 0 -46173640.563906431 88443649.640117645 0 88443649.640117645 282209168.34184837 0 0 0 0 2865005.9897296429 5516397.491645813 0 5516397.491645813 -27618953.697065353 0 0 0 0 -117456531.00927281 135585293.27779388 0 135585293.27779388 658337425.46959376 0 0 0 0 -9807921.0223773718 4622557.4231300354 0 4622557.4231300354 29974279.201980591 0 0 0 0 -7130934.3007489443 8654747.7771339417 0 8654747.7771339417 3047895.6535644531 0 0 0 0 956708.7693169117 8708155.1052780151 0 8708155.1052780151 2956731.9600772858 0 0 0 0 773118.2304649353 15000380.709518433 0 15000380.709518433 -8873058.7169799805 0 0 0 0 -2045071.1150801182 -1990618.8581314087 0 -1990618.8581314087 171616.23664855957 0 0 0 0 -6232437.9396464229 10464487.03811264 0 10464487.03811264 24170583.599853516 0 0 0 0 1912755.214589119 1917482.8990516663 0 1917482.8990516663 25335495.933135033 0 0 0 0 -8198824.066732347 11961137.748373032 0 11961137.748373032 42222532.460342407 0 0 0 0 -6554463.497415185 12517402.303142548 0 12517402.303142548 32264415.492938042 0 0 0 0 -13273698.43487671 9692281.642080307 0 9692281.642080307 74285164.516937256 0 0 0 0 -2977532.4469406605 -36254973.072437286 0 -36254973.072437286 99923326.864233017 0 0 0 0 7758356.0569130778 -10654627.076148987 0 -10654627.076148987 44286330.431091309 0 0 0 0 -7284430.7746322155 76605.569610595703 0 76605.569610595703 35973182.711677551 0 0 0 0 -11506265.779537797 -3796257.6403884888 0 -3796257.6403884888 55828730.35193634 0 0 0 0 -10073388.731981754 -887273.11491012573 0 -887273.11491012573 41316659.429504395 0 0 0 0 -9614472.0592043251 -1854228.9792051315 0 -1854228.9792051315 35349432.808029175 0 0 0 0 -8587411.786398381 926983.00081157684 0 926983.00081157684 33236744.449829102 0 0 0 0 -1738668.6552553177 3925263.6636428833 0 3925263.6636428833 16698807.801494598 0 0 0 0 -4357159.5232214341 4123356.9789364599 0 4123356.9789364599 4759166.3832091689 0 0 0 0 37230758.083986282 58697430.842041016 0 58697430.842041016 -18427068.574701309 0 0 0 0 -43501926.901853561 24169709.72580719 0 24169709.72580719 38768619.201538086 0 0 0 0 28057044.023353577 -25321067.422714233 0 -25321067.422714233 20615340.358058929 0 0 0 0 -12999320.446933746 -55246525.156097412 0 -55246525.156097412 28878566.131380081 0 0 0 0 -4941690.8156856922 3683760.9182822034 0 3683760.9182822034 4976133.3444981948 0 0 0 0 -8079630.0376718044 -2190420.1193122864 0 -2190420.1193122864 35724926.172222137 0 0 0 0 -4360273.7571752667 -10704173.908718109 0 -10704173.908718109 47136682.663345337 0 0 0 0 -4203800.9960355759 -9316475.7950820923 0 -9316475.7950820923 44632446.072731018 0 0 0 0 -2569185.5400789976 -9742958.1974105835 0 -9742958.1974105835 46235698.996734619 0 0 0 0 -4745893.9254582524 -10766330.786384583 0 -10766330.786384583 50762367.012252808 0 0 0 0 6085969.1447405815 -11490262.665725708 0 -11490262.665725708 46317251.765655518 0 0 0 0 17872614.73399353 -21594460.074310303 0 -21594460.074310303 52585762.287719727 0 0 0 0 1480655.2970528603 -8915498.7389526367 0 -8915498.7389526367 47526552.835083008 0 0 0 0 4562774.8102097511 -10807644.705413818 0 -10807644.705413818 47540943.202194214 0 0 0 0 1851347.9560475051 -13599197.824156761 0 -13599197.824156761 51775707.000854492 0 0 0 0 29770291.379703522 -17317338.71812439 0 -17317338.71812439 -69114553.376564026 0 0 0 0 9038405.7710216045 -17450490.401008606 0 -17450490.401008606 52624834.178710938 0 0 0 0 2487536.6439666748 -13013945.778015137 0 -13013945.778015137 55136267.058952332 0 0 0 0 -3650292.738025499 3008856.8018760569 0 3008856.8018760569 8374616.4440814927 0 0 0 0 1526307.1171483994 -26864043.605209351 0 -26864043.605209351 75639868.989700317 0 0 0 0 -3605305.3160829544 -20692159.011520386 0 -20692159.011520386 80535899.489151001 0 0 0 0 -126678.78308568965 795372.32081222162 0 795372.32081222162 -2094635.6992620826 0 0 0 0 20746547.730125427 39064594.214233398 0 39064594.214233398 -58691970.952194214 0 0 0 0 15475566.262229919 -18352454.392791748 0 -18352454.392791748 49382726.360275269 0 0 0 0 4478456.3315348625 -12272564.90385437 0 -12272564.90385437 51377697.276702881 0 0 0 0 9404444.5878477097 -24003706.092941284 0 -24003706.092941284 58588031.436584473 0 0 0 0 10750720.492220879 -24196124.733856201 0 -24196124.733856201 56555076.454498291 0 0 0 0 4245479.7801465988 -18614680.608917236 0 -18614680.608917236 59467084.021621704 0 0 0 0 4985091.4548625946 -24769313.264030457 0 -24769313.264030457 63262243.274475098 0 0 0 0 5570662.8332870007 -21443382.120193481 0 -21443382.120193481 62139782.54083252 0 0 0 0 -95036.849480628967 -16506708.331695557 0 -16506708.331695557 70760883.42700386 0 0 0 0 2700030.4175825119 -15131793.810577393 0 -15131793.810577393 58123637.727508545 0 0 0 0 1590790.1768054962 -22469959.326599121 0 -22469959.326599121 70323758.099012375 0 0 0 0 -843208.58710885048 -13124412.735183716 0 -13124412.735183716 66271771.067352295 0 0 0 0 291354.79203033447 -20167501.140289307 0 -20167501.140289307 66417861.025939941 0 0 0 0 6526007.4308152199 -27423885.884765625 0 -27423885.884765625 67229283.899963379 0 0 0 0 34367392.32509613 17260048.272216797 0 17260048.272216797 -47234621.474041939 0 0 0 0 25535141.744911194 32683876.63079834 0 32683876.63079834 -26021292.731895447 0 0 0 0 16016066.219921112 6169281.3562316895 0 6169281.3562316895 14622370.686889648 0 0 0 0 21298700.040409088 1629515.9633789062 0 1629515.9633789062 -7326297.8617858887 0 0 0 0 22143724.182125092 3520395.4609069824 0 3520395.4609069824 -32089704.657764435 0 0 0 0 24504296.890953064 -24128148.903503418 0 -24128148.903503418 -47915600.617949486 0 0 0 0 17697394.215003967 -21288791.323272705 0 -21288791.323272705 -27180278.320587158 0 0 0 0 -2194405.8006286621 -52529987.847640991 0 -52529987.847640991 -53504292.899795532 0 0 0 0 -22001009.959663391 -59653750.132537842 0 -59653750.132537842 -38246875.463684082 0 0 0 0 19299271.712842226 -26386302.240100861 0 -26386302.240100861 54761689.06817627 0 0 0 0 13217790.084007263 -30452227.272186279 0 -30452227.272186279 61044441.520874023 0 0 0 0 -8725000.9264564514 29729560.524795532 0 29729560.524795532 -56384253.750259399 0 0 0 0 -70546183.772351265 -36952235.504074097 0 -36952235.504074097 -10028062.016204834 0 0 0 0 -17422555.222255826 9350650.7798690796 0 9350650.7798690796 48808331.071716309 0 0 0 0 -20793801.155766487 -3459541.1543426514 0 -3459541.1543426514 58169654.55241394 0 0 0 0 -84894615.176021576 45896465.718170166 0 45896465.718170166 4493050.9647827148 0 0 0 0 -107367052.38148689 6330241.6562423706 0 6330241.6562423706 14788381.915588379 0 0 0 0 -5581593.1603384018 -14709058.219665527 0 -14709058.219665527 83959349.068878174 0 0 0 0 -4487839.6213874817 -4166419.1663818359 0 -4166419.1663818359 86510214.922897339 0 0 0 0 -2488012.1355776787 -13255079.113540649 0 -13255079.113540649 75380420.23425293 0 0 0 0 -45179926.015838623 60378197.132080078 0 60378197.132080078 -8267578.5063476562 0 0 0 0 12367304.236494675 21420755.977474809 0 21420755.977474809 16169455.765045166 0 0 0 0 12461728.10307312 32136744.904968262 0 32136744.904968262 -14668626.305297852 0 0 0 0 -30705261.700183868 41454474.473571777 0 41454474.473571777 31618462.586486816 0 0 0 0 9758887.0301094055 36199802.37171936 0 36199802.37171936 -6301004.7958374023 0 0 0 0 -22133298.46100235 60704125.822021484 0 60704125.822021484 -11162893.794300079 0 0 0 0 -30136411.481637955 30949137.099185944 0 30949137.099185944 8444151.1348266602 0 0 0 0 -35962123.255325317 9179372.3768310547 0 9179372.3768310547 14899354.027954102 0 0 0 0 -54618221.618625641 29533529.589233398 0 29533529.589233398 24873437.524230957 0 0 0 0 -12109004.654216766 19617257.465637207 0 19617257.465637207 25062568.561669827 0 0 0 0 -36193344.133122444 11154444.773101807 0 11154444.773101807 65309626.833374023 0 0 0 0 -5795872.8626403809 5354427.8707122803 0 5354427.8707122803 29867815.381993294 0 0 0 0 -9489975.2364616394 -18460670.676681519 0 -18460670.676681519 -7927204.338684082 0 0 0 0 -57899698.240161896 -2546185.4621582031 0 -2546185.4621582031 30475597.56414032 0 0 0 0 -6800046.4665966034 25319135.918365479 0 25319135.918365479 118205828.27857971 0 0 0 0 -28175549.10091114 -7947569.5357818604 0 -7947569.5357818604 179796143.92654419 0 0 0 0 -2298716.1352348328 -952143.46977233887 0 -952143.46977233887 68078435.441318512 0 0 0 0 -24024489.636619568 22445398.901420593 0 22445398.901420593 91442987.857849121 0 0 0 0 -11207185.943317413 -3589747.2192840576 0 -3589747.2192840576 106550840.21021271 0 0 0 0 -22495902.72372818 -2280556.4079360962 0 -2280556.4079360962 165803010.01219177 0 0 0 0 -4172456.8108062744 31960888.184890747 0 31960888.184890747 27323871.262786865 0 0 0 0 2086078.5687561035 10496475.681564331 0 10496475.681564331 51611955.388534546 0 0 0 0 -659601.99013519287 909788.0933380127 0 909788.0933380127 73045993.922729492 0 0 0 0 3195644.4484972954 8351026.1260681152 0 8351026.1260681152 18362349.620727539 0 0 0 0 -4886137.9863562584 -6346509.8560943604 0 -6346509.8560943604 83738598.625793457 0 0 0 0 -1800834.2167015076 -12325960.350830078 0 -12325960.350830078 70493124.481132507 0 0 0 0 -32757680.68916893 -37965374.367645264 0 -37965374.367645264 226838140.74995422 0 0 0 0 -27062856.032762527 -40492948.562713623 0 -40492948.562713623 175007210.75338364 0 0 0 0 -22101111.978654861 -5355428.9630508423 0 -5355428.9630508423 180386921.60383606 0 0 0 0 -45911980.605750084 -22765472.495185852 0 -22765472.495185852 285538973.61117554 0 0 0 0 -62930732.357512474 -32392904.821670532 0 -32392904.821670532 42013737.771057129 0 0 0 0 -11643100.857036591 -22984038.87197876 0 -22984038.87197876 40952268.389007568 0 0 0 0 -24701982.474964142 -41534670.35333252 0 -41534670.35333252 68123536.554748535 0 0 0 0 -36299409.146381378 -9211905.6326446533 0 -9211905.6326446533 61162205.569969177 0 0 0 0 -44158771.462020874 -59635051.432846069 0 -59635051.432846069 -1790338.1356201172 0 0 0 0 -34686101.369564056 -41906115.764297485 0 -41906115.764297485 31266532.192871094 0 0 0 0 -7603146.4417762756 -34705134.239837646 0 -34705134.239837646 4977779.0266113281 0 0 0 0 -1658887.387260437 -42444332.67363739 0 -42444332.67363739 -13224609.030334473 0 0 0 0 9563098.0989227295 -31763513.398143768 0 -31763513.398143768 4050361.7920532227 0 0 0 0 4560079.005897522 -20067322.586120605 0 -20067322.586120605 21839237.346435547 0 0 0 0 6853387.9567947388 -24946789.378250122 0 -24946789.378250122 57866254.220916748 0 0 0 0 9924264.0144805908 -13290629.164154053 0 -13290629.164154053 25339777.795028687 0 0 0 0 -9332968.5086841583 -32959770.818145752 0 -32959770.818145752 72456602.747680664 0 0 0 0 1139930.487247467 -35044893.922286987 0 -35044893.922286987 71289931.143936157 0 0 0 0 -2238380.2900657654 -42467482.450759888 0 -42467482.450759888 26485222.372314453 0 0 0 0 -17786689.656749725 -53603975.177696228 0 -53603975.177696228 132942888.52407837 0 0 0 0 -10584379.360652924 -45586742.877471924 0 -45586742.877471924 141764555.46155548 0 0 0 0 -13916287.744916916 -46698143.302841187 0 -46698143.302841187 141449098.55186462 0 0 0 0 -23563354.083040237 -65620662.668678284 0 -65620662.668678284 211459472.36361694 0 0 0 0 -1892956.8513154984 -55370505.550445557 0 -55370505.550445557 131444966.30319214 0 0 0 0 2083561.3438568115 -95907164.575363159 0 -95907164.575363159 186286630.18269348 0 0 0 0 19098102.886880875 -75125893.970695496 0 -75125893.970695496 121746274.67532349 0 0 0 0 8256531.2462043762 -49215450.4112854 0 -49215450.4112854 61360379.43359375 0 0 0 0 -3483769.6100578308 -19749925.685592651 0 -19749925.685592651 58095988.53571701 0 0 0 0 49606954.069617271 -130809069.89945984 0 -130809069.89945984 203816420.91238403 0 0 0 0 -4875340.1751506329 -59812710.876685143 0 -59812710.876685143 164981559.41409302 0 0 0 0 -30313577.192216873 -83802679.514923096 0 -83802679.514923096 252877946.78822327 0 0 0 0 -21182423.518760681 -77108640.065429688 0 -77108640.065429688 209659532.10106468 0 0 0 0 -15341353.471113205 -127379982.11853027 0 -127379982.11853027 266043353.96384048 0 0 0 0 -57360731.771803856 -129739123.05256653 0 -129739123.05256653 390341483.51426697 0 0 0 0 -80086472.940645218 -145404744.28853607 0 -145404744.28853607 384639902.95568085 0 0 0 0 -16435061.550970078 -135802528.69842529 0 -135802528.69842529 310010702.82373047 0 0 0 0 12611135.740621567 -194971030.51676941 0 -194971030.51676941 314589691.44637203 0 0 0 0 -64983349.641201496 -44452454.739995956 0 -44452454.739995956 364766981.47616577 0 0 0 0 -54240959.501904964 -38815261.247425079 0 -38815261.247425079 277818784.25268555 0 0 0 0 -58957954.389816284 -80082981.637023926 0 -80082981.637023926 289298475.9588623 0 0 0 0 -69027748.082092285 -82259346.022750854 0 -82259346.022750854 372093174.53237915 0 0 0 0 -37087154.752563477 -92715950.611114502 0 -92715950.611114502 272964753.82687378 0 0 0 0 -107757719.12706757 -75368200.385551453 0 -75368200.385551453 382632412.77874756 0 0 0 0 -97429549.976797104 -148791507.00751495 0 -148791507.00751495 496253138.47861481 0 0 0 0 -114159497.39934826 -61267848.916700363 0 -61267848.916700363 537694106.19831848 0 0 0 0 -155645059.04551601 -145745265.78295135 0 -145745265.78295135 547261946.90367126 0 0 0 0 -141588026.16259623 -134451620.04150724 0 -134451620.04150724 556202762.55023193 0 0 0 0 -145339319.68570805 -162546517.36958313 0 -162546517.36958313 532861961.66090393 0 0 0 0 -140697905.87133503 -140332528.43296719 0 -140332528.43296719 517119598.29638672 0 0 0 0 -149233455.37944889 -152407849.0251503 0 -152407849.0251503 554149352.45973206 0 0 0 0 -33732370.382881165 -227898739.78062439 0 -227898739.78062439 484788529.29172134 0 0 0 0 -34927386.81419158 -223238769.76219463 0 -223238769.76219463 482527519.71929932 0 0 0 0 -65516800.424207687 -186031188.99488068 0 -186031188.99488068 476559838.5819397 0 0 0 0 -123387938.39776421 -127461423.49607086 0 -127461423.49607086 581505101.53354645 0 0 0 0 -136744991.12209249 -192710885.23011971 0 -192710885.23011971 616423593.79928589 0 0 0 0 397779.42721939087 -330923937.8167038 0 -330923937.8167038 594621715.44567871 0 0 0 0 18354458.155833244 -428503167.23188019 0 -428503167.23188019 1120549932.8743706 0 0 0 0 122014054.76573515 -99161078.710359573 0 -99161078.710359573 202438687.40414429 0 0 0 0 409734599.71203232 -455365721.79285812 0 -455365721.79285812 261637890.71026611 0 0 0 0 51266815.451815605 -266506399.17918777 0 -266506399.17918777 446967428.97547913 0 0 0 0 51739692.828552961 13069669.054726839 0 13069669.054726839 100615322.27059937 0 0 0 0 182232941.52067947 -193220630.63251877 0 -193220630.63251877 220977337.24380493 0 0 0 0 40774201.4545964 -84382654.310560226 0 -84382654.310560226 143466311.98535156 0 0 0 0 32530403.66623497 -69385770.669975281 0 -69385770.669975281 188430513.40999031 0 0 0 0 10856950.372962952 32867259.686443329 0 32867259.686443329 33739473.954795837 0 0 0 0 162365174.66256332 -118682899.94515228 0 -118682899.94515228 90276931.56944418 0 0 0 0 24599969.412436485 23677396.582710266 0 23677396.582710266 3466801.2487030029 0 0 0 0 235932628.63126659 -159784821.91166687 0 -159784821.91166687 -183303435.4126091 0 0 0 0 2213613.8693734538 -1475430.7081871293 0 -1475430.7081871293 989983.97746854555 0 0 0 0 -205101417.98782063 -274837269.4519577 0 -274837269.4519577 1828208108.9111156 0 0 0 0 -91292891.513780072 37045251.618556738 0 37045251.618556738 1217819613.5856476 0 0 0 0 69039702.005887032 -83491405.607398987 0 -83491405.607398987 883282101.78878498 0 0 0 0 92696341.754564285 -459926982.14225769 0 -459926982.14225769 683874401.87250137 0 0 0 0 14506515.268055916 -41108062.876014709 0 -41108062.876014709 619892230.5058136 0 0 0 0 76416641.796175003 132391513.02684784 0 132391513.02684784 1070812114.6945381 0 0 0 0 678699066.90131569 -484390252.52079773 0 -484390252.52079773 956934756.99726105 0 0 0 0 564958.77940559387 -674783.20977535844 0 -674783.20977535844 377168.73783388734 0 0 0 0 87307209.27832222 154012696.26367569 0 154012696.26367569 304921306.26289368 0 0 0 0 -40292241.215546608 39402168.546218872 0 39402168.546218872 662729382.76924133 0 0 0 0 113279352.93414021 44035607.11114502 0 44035607.11114502 76195585.261978149 0 0 0 0 82683644.396261126 99884268.523908615 0 99884268.523908615 -11686338.054344177 0 0 0 0 24150246.707137108 -55447458.146133423 0 -55447458.146133423 31719410.40725708 0 0 0 0 83885002.071465969 -577952.87916183472 0 -577952.87916183472 19880958.618003845 0 0 0 0 90382826.546262741 -34381111.65460968 0 -34381111.65460968 80557968.342086792 0 0 0 0 -45025060.449285507 7083057.3908920288 0 7083057.3908920288 9139734.5097579956 0 0 0 0 51050989.088971883 36213115.397448421 0 36213115.397448421 221167349.97949982 0 0 0 0 369668.15043580858 -2364100.6714771502 0 -2364100.6714771502 1754765.2654089779 0 0 0 0 -3282662.6410102844 -34388233.946292877 0 -34388233.946292877 13323049.935689449 0 0 0 0 -442822.34103155183 -2127210.9866601191 0 -2127210.9866601191 5304985.6868720502 0 0 0 0 1180622466.8099899 -799780360.05969238 0 -799780360.05969238 890656136.05133057 0 0 0 0 -3370476.1135377884 3717615.4767074585 0 3717615.4767074585 20883688.72026062 0 0 0 0 74343189.763586044 -27910748.855808258 0 -27910748.855808258 14685669.422828674 0 0 0 0 209364.59329092829 -1143931.2711163834 0 -1143931.2711163834 2356645.359764114 0 0 0 0 85162416.632081985 24430175.755542755 0 24430175.755542755 -10141770.351135254 0 0 0 0 -246060773.92302537 1168261258.0724201 0 1168261258.0724201 -117421039.71060181 0 0 0 0 718702.66864834528 -1754771.8747511841 0 -1754771.8747511841 4058028.2782913595 0 0 0 0 274233089.96958995 -267408908.27350235 0 -267408908.27350235 -246117674.31813049 0 0 0 0 275885427.92794251 -502476928.497509 0 -502476928.497509 148517540.62031555 0 0 0 0 270982034.81449604 -437200674.1133728 0 -437200674.1133728 -26539706.694046021 0 0 0 0 -32459454.656813622 -502776624.83970642 0 -502776624.83970642 662427589.70829773 0 0 0 0 -298096853.98156166 -109910607.92999649 0 -109910607.92999649 179424914.11465836 0 0 0 0 -2443198.8940429688 -48479170.746681213 0 -48479170.746681213 -14314954.572273254 0 0 0 0 -2307276.2822967023 -33235391.815926492 0 -33235391.815926492 -47117820.046173096 0 0 0 0 285378713.9678359 -160378171.85398865 0 -160378171.85398865 26708685.178771973 0 0 0 0 230815777.15617847 52821680.430179596 0 52821680.430179596 -8409472.1289367676 0 0 0 0 173992733.79142809 -27974397.217686653 0 -27974397.217686653 -41358215.391693115 0 0 0 0 93802067.879879951 -89890425.16734314 0 -89890425.16734314 -45987715.136703491 0 0 0 0 161711579.8652153 6274574.7860412598 0 6274574.7860412598 -27812727.751617432 0 0 0 0 116769247.44039917 638349.11130523682 0 638349.11130523682 -28388209.478721619 0 0 0 0 141090037.00076485 -32099612.588632584 0 -32099612.588632584 -41574152.351623535 0 0 0 0 62325470.864709854 -64635615.846458435 0 -64635615.846458435 18205703.581306458 0 0 0 0 -52619670.778910637 -50997791.192100525 0 -50997791.192100525 9426445.5973434448 0 0 0 0 53685372.772904396 -38585940.128723145 0 -38585940.128723145 -15705002.663833618 0 0 0 0 -103937339.47903061 -139834896.18037415 0 -139834896.18037415 -75281843.316146851 0 0 0 0 -198801211.65893221 -125519874.43264198 0 -125519874.43264198 282302476.00857544 0 0 0 0 -43419819.579616547 -152881946.91361618 0 -152881946.91361618 50587167.596206665 0 0 0 0 98000028.284730911 3742320.6992340088 0 3742320.6992340088 77370780.327674866 0 0 0 0 11230480.400395393 -26590197.105419159 0 -26590197.105419159 239827201.47534943 0 0 0 0 57682812.39503479 51157165.085723877 0 51157165.085723877 329471444.0181427 0 0 0 0 38448475.969491005 -46994850.436027527 0 -46994850.436027527 137549632.20318604 0 0 0 0 -26169763.752126694 -9714426.7176132202 0 -9714426.7176132202 347375686.35889435 0 0 0 0 -68166603.013523102 -2678534.7959861755 0 -2678534.7959861755 517774765.44139862 0 0 0 0 -87756513.488516808 -131169469.59300232 0 -131169469.59300232 314257182.58737183 0 0 0 0 -147487218.6992979 -150629436.08512878 0 -150629436.08512878 561402992.21795654 0 0 0 0 -122163926.32168198 -98773514.157226562 0 -98773514.157226562 903203116.01165009 0 0 0 0 -78733514.993859291 -176779526.11216736 0 -176779526.11216736 419058292.04885483 0 0 0 0 -102018796.40296394 -51059394.104263306 0 -51059394.104263306 312331796.93003845 0 0 0 0 -160220856.5165205 -119538093.04040051 0 -119538093.04040051 552277020.04060364 0 0 0 0 -89415886.4517169 -155144089.69228745 0 -155144089.69228745 412410739.47239685 0 0 0 0 118819500.87695885 -97906749.358547211 0 -97906749.358547211 126940077.70991516 0 0 0 0 156223435.06682873 -233503519.57958984 0 -233503519.57958984 249799928.35688019 0 0 0 0 18163716.804806709 -47643359.858558655 0 -47643359.858558655 146494560.53224564 0 0 0 0 -348741339.25712895 -146133860.58249378 0 -146133860.58249378 -29722748.104469299 0 0 0 0 1839801.8962869435 1137585.1454469729 0 1137585.1454469729 2312445.3618516028 0 0 0 0 14081845.771876812 -15263991.01659584 0 -15263991.01659584 67927111.623516083 0 0 0 0 -170493793.51231241 -78939918.633134842 0 -78939918.633134842 -20495003.784744263 0 0 0 0 -302094.49917421956 908548.15943890437 0 908548.15943890437 2016097.3588963486 0 0 0 0 1308391.848096909 5359474.2036988437 0 5359474.2036988437 8244507.9651253894 0 0 0 0 3816247.9266629219 5761544.0401592255 0 5761544.0401592255 7742905.8606491089 0 0 0 0 1581929.8629646301 14539768.055267334 0 14539768.055267334 20152979.367507935 0 0 0 0 -823194.30777902529 1748897.4170479029 0 1748897.4170479029 2645494.1648380756 0 0 0 0 -294738235.03534287 -194235868.42881334 0 -194235868.42881334 -30657349.476448059 0 0 0 0 4129358.2404204346 6264811.3980560303 0 6264811.3980560303 8243450.4549179077 0 0 0 0 5639134.9938937332 5785038.1197641678 0 5785038.1197641678 3971295.6383130401 0 0 0 0 4215059.0953121185 4409596.0395622253 0 4409596.0395622253 7897124.4104766846 0 0 0 0 21791369.926558495 -120216708.75621414 0 -120216708.75621414 -107830440.00908089 0 0 0 0 3570949.121527195 5520046.495223999 0 5520046.495223999 9451073.5859298706 0 0 0 0 6058496.3050176706 4208468.3891436532 0 4208468.3891436532 3360975.9364864565 0 0 0 0 76209634.551231861 -11035607.018936157 0 -11035607.018936157 -214386965.2797699 0 0 0 0 8985384.0198440552 -71334178.974681854 0 -71334178.974681854 -268473098.09618378 0 0 0 0 451919493.87063026 -135667032.1834259 0 -135667032.1834259 -259665810.55938721 0 0 0 0 164855940.74975562 105046103.91077232 0 105046103.91077232 363300.00707244873 0 0 0 0 -7885102.700779438 -372517647.83017159 0 -372517647.83017159 -30475083.928344727 0 0 0 0 698780338.99547482 -337344139.04940033 0 -337344139.04940033 -45872725.387478828 0 0 0 0 916836752.41915822 439160500.36137295 0 439160500.36137295 128236681.44953918 0 0 0 0 124548498.86094856 -765036559.09192276 0 -765036559.09192276 1549461811.0367203 0 0 0 0 844601570.06935453 -503333743.86133385 0 -503333743.86133385 17112169.913253784 0 0 0 0 503263.74344978295 -2678286.543225782 0 -2678286.543225782 4797556.230441086 0 0 0 0 706218492.48630047 -941037574.70842552 0 -941037574.70842552 565149381.82693481 0 0 0 0 292393764.44618797 24643513.213088989 0 24643513.213088989 -305830149.97550964 0 0 0 0 319716335.27310467 -460613833.13922119 0 -460613833.13922119 176856074.05747986 0 0 0 0 500939975.11312675 -406504844.25715256 0 -406504844.25715256 62167850.665725708 0 0 0 0 146591548.4378829 483520327.57338715 0 483520327.57338715 1133275387.2346344 0 0 0 0 328294213.69351578 208957186.93808746 0 208957186.93808746 64076555.72051239 0 0 0 0 236221.53420645418 -1077.3812809567899 0 -1077.3812809567899 1806056.4164436087 0 0 0 0 -915742787.03413105 195515846.85641098 0 195515846.85641098 1594155904.5897255 0 0 0 0 -196255641.08328819 35269328.376152039 0 35269328.376152039 1350409580.4475441 0 0 0 0 421326815.03051233 -643191033.99124622 0 -643191033.99124622 863350069.70344543 0 0 0 0 -161756172.68435955 -149625193.68559647 0 -149625193.68559647 766741477.09576035 0 0 0 0 33460745.754878521 -351461519.09969521 0 -351461519.09969521 577084852.50175476 0 0 0 0 -99902014.676105499 -11386524.237312317 0 -11386524.237312317 600077616.21894073 0 0 0 0 -111386992.11035919 -6711555.0381240845 0 -6711555.0381240845 607399801.37332153 0 0 0 0 -13833519.504686356 127774781.32011604 0 127774781.32011604 343655464.55615234 0 0 0 0 -91343649.948824883 -12123188.436210632 0 -12123188.436210632 394757284.67469788 0 0 0 0 83958108.916366577 421442731.324646 0 421442731.324646 896895325.53061676 0 0 0 0 -100646433.3290031 -52063651.10785675 0 -52063651.10785675 778625593.27456665 0 0 0 0 765023.13570785522 219651582.20083618 0 219651582.20083618 639330283.93440247 0 0 0 0 -5615586.8775038719 115805483.69958115 0 115805483.69958115 279177285.79426575 0 0 0 0 92177755.95408535 154353571.44568253 0 154353571.44568253 241443594.31325531 0 0 0 0 19392549.141810417 131772910.58251953 0 131772910.58251953 264951062.20150757 0 0 0 0 85481270.799567223 147943458.15700531 0 147943458.15700531 952161.96269226074 0 0 0 0 56962076.733022928 106224814.00493908 0 106224814.00493908 165017860.93501282 0 0 0 0 76222208.630552292 49412746.532730103 0 49412746.532730103 36355784.241455078 0 0 0 0 41379809.240362167 35290074.763244629 0 35290074.763244629 60415281.433059692 0 0 0 0 46276834.483966827 29422774.193603516 0 29422774.193603516 40743630.089630127 0 0 0 0 48990796.296182632 -14028767.625175476 0 -14028767.625175476 -9124201.2250366211 0 0 0 0 68820763.128923893 -52106180.712674141 0 -52106180.712674141 -104641722.42333984 0 0 0 0 -77692451.101106644 -83754421.635887146 0 -83754421.635887146 -8285022.2263259888 0 0 0 0 -32648506.44519043 34816648.21081543 0 34816648.21081543 307627016.07116699 0 0 0 0 2139319.8542127609 22549310.369163513 0 22549310.369163513 186923088.54795837 0 0 0 0 -7064114.9015140533 53723413.059967041 0 53723413.059967041 254786300.05901337 0 0 0 0 -18308096.607891083 61544135.515914917 0 61544135.515914917 328707061.53254509 0 0 0 0 41791535.201474667 33463648.898277283 0 33463648.898277283 70695476.735809326 0 0 0 0 33892923.099487305 10072445.537788391 0 10072445.537788391 79082427.163726807 0 0 0 0 -2282216.5519275665 30609234.428031921 0 30609234.428031921 185052244.43807983 0 0 0 0 5755147.7918395996 -3847429.7681312561 0 -3847429.7681312561 84388801.248413086 0 0 0 0 -3698920.3745877948 2753949.2875740789 0 2753949.2875740789 11598566.614033163 0 0 0 0 34577923.612251282 -7866782.5795288086 0 -7866782.5795288086 -58704463.197284698 0 0 0 0 -7405833.3341503143 8086851.2330627441 0 8086851.2330627441 29266881.694778442 0 0 0 0 26258984.200769424 11414264.501373291 0 11414264.501373291 -56477536.491758347 0 0 0 0 22399270.905744553 -17980363.881546021 0 -17980363.881546021 -19876856.643157959 0 0 0 0 -1142113.1805801392 -2791094.2716293335 0 -2791094.2716293335 20486568.788421631 0 0 0 0 -8009068.6401426792 -17411524.969111443 0 -17411524.969111443 28711111.447021484 0 0 0 0 4932170.3269500732 15249012.969192505 0 15249012.969192505 75190923.791473389 0 0 0 0 32816039.535885811 -351016.55582427979 0 -351016.55582427979 16510639.094299316 0 0 0 0 35872708.238594055 341147.06622314453 0 341147.06622314453 -27740702.006973267 0 0 0 0 24669914.986831665 -2251699.7411499023 0 -2251699.7411499023 16262477.112091064 0 0 0 0 33719315.249141693 -5524571.0105895996 0 -5524571.0105895996 -22340646.154983521 0 0 0 0 36746866.680655956 -5971345.0602493286 0 -5971345.0602493286 -15207631.518920898 0 0 0 0 28677339.498390198 4517199.9970703125 0 4517199.9970703125 -17790986.66558075 0 0 0 0 39957059.726768494 4899793.3000183105 0 4899793.3000183105 -18110121.086532593 0 0 0 0 21965148.064651489 -1703054.7018585205 0 -1703054.7018585205 59473231.83165741 0 0 0 0 36121996.432949066 11007359.43283844 0 11007359.43283844 8107313.8663024902 0 0 0 0 32375851.241295815 -10850016.125415802 0 -10850016.125415802 7783794.8147277832 0 0 0 0 27787679.38243866 1555142.1231842041 0 1555142.1231842041 -30655919.172180176 0 0 0 0 20844954.650640488 -6896692.6771316528 0 -6896692.6771316528 -14700103.777313232 0 0 0 0 34215341.636264801 3403765.1907806396 0 3403765.1907806396 -28673528.879699707 0 0 0 0 24343504.045391083 2798928.753112793 0 2798928.753112793 -28633213.20993042 0 0 0 0 34174512.986749649 11895272.909461975 0 11895272.909461975 -40804196.599517822 0 0 0 0 41206522.701602936 -127455.1775970459 0 -127455.1775970459 -39676605.586456299 0 0 0 0 3148132.1622753143 -32341734.836334229 0 -32341734.836334229 -50079105.428405762 0 0 0 0 -30704853.271370888 -21264631.316581726 0 -21264631.316581726 5921573.6701202393 0 0 0 0 -41002288.464572191 -24217613.731549263 0 -24217613.731549263 19620143.259063721 0 0 0 0 -7001550.2216873169 -32370779.567732811 0 -32370779.567732811 338677.42889404297 0 0 0 0 -37621570.114068985 -42004225.020065308 0 -42004225.020065308 3501757.900138855 0 0 0 0 16201423.538768768 -40977452.31942749 0 -40977452.31942749 -8347235.515411377 0 0 0 0 8129327.9822387695 -16957040.721359253 0 -16957040.721359253 9824435.1139373779 0 0 0 0 21908203.037088394 3069025.2861633301 0 3069025.2861633301 -8524459.6045837402 0 0 0 0 19900667.685050964 -26223971.956359863 0 -26223971.956359863 -7388253.8759155273 0 0 0 0 -9880409.1547374725 -16410632.199232101 0 -16410632.199232101 -6956367.7162780762 0 0 0 0 -7357745.9925575256 -16268756.748718262 0 -16268756.748718262 -7276675.2715301514 0 0 0 0 -16936914.005374908 15824174.245620728 0 15824174.245620728 -29085974.793991089 0 0 0 0 -20011707.008953094 -10246300.178161621 0 -10246300.178161621 -10054716.508743286 0 0 0 0 1866347.459312439 3318537.797088623 0 3318537.797088623 -19425930.16708374 0 0 0 0 7755311.217830658 -2093691.806930542 0 -2093691.806930542 -18146901.047851562 0 0 0 0 7877959.4574928284 11311578.280578613 0 11311578.280578613 -33912991.856285095 0 0 0 0 -16655237.307720184 2442393.9602661133 0 2442393.9602661133 -17756866.204938889 0 0 0 0 -17290552.326333046 -16359378.807476044 0 -16359378.807476044 -12691550.592712402 0 0 0 0 -38219953.406997681 1118378.2804260254 0 1118378.2804260254 -15881910.884971619 0 0 0 0 -36755538.264743805 -15697865.420135498 0 -15697865.420135498 -9795845.56275177 0 0 0 0 -12191805.460970879 -8069205.4997177124 0 -8069205.4997177124 -12962831.079711914 0 0 0 0 -30542801.491499901 -19643615.207023621 0 -19643615.207023621 -8352962.5519714355 0 0 0 0 -27251542.820965767 -24262300.59777832 0 -24262300.59777832 -1872244.0278015137 0 0 0 0 -4100158.6660846947 548355.80918407068 0 548355.80918407068 9454695.3481869251 0 0 0 0 -647676572.19050598 70961622.041095734 0 70961622.041095734 -42279085.28868103 0 0 0 0 -4656661.0264973706 -2362554.4848262183 0 -2362554.4848262183 13584047.032332741 0 0 0 0 -440309779.21264267 132655860.41675568 0 132655860.41675568 -105916415.53282166 0 0 0 0 175677261.59675694 -229706630.14535713 0 -229706630.14535713 152352275.60541534 0 0 0 0 -658835296.34525383 245087098.02030551 0 245087098.02030551 -31198711.624984741 0 0 0 0 80941221.619606018 -237787719.75935745 0 -237787719.75935745 253671346.99720764 0 0 0 0 -2515374.9149706727 -2402307.768139299 0 -2402307.768139299 2569576.9602710754 0 0 0 0 94449574.823656082 -224816865.72770309 0 -224816865.72770309 263083251.70329285 0 0 0 0 197653274.51528454 -171092128.10343933 0 -171092128.10343933 -24794544.718460083 0 0 0 0 -355656237.3491745 128199977.52328396 0 128199977.52328396 125607182.65344238 0 0 0 0 -12291962.931682587 -153177168.1891861 0 -153177168.1891861 240990495.63512611 0 0 0 0 -697662.35534307454 -5974309.631389305 0 -5974309.631389305 13307197.942276388 0 0 0 0 -463949858.1140976 -222128403.159935 0 -222128403.159935 262204071.69989014 0 0 0 0 -68865493.497479439 -67463852.941467285 0 -67463852.941467285 -31134952.611404419 0 0 0 0 -44149518.856544495 -146131090.2747345 0 -146131090.2747345 101529067.80943155 0 0 0 0 -140931998.57134247 -11126632.46395874 0 -11126632.46395874 18070290.963205338 0 0 0 0 -1390928.1762835593 -2076539.8597280141 0 -2076539.8597280141 1556846.9519356787 0 0 0 0 -11463859.134862423 -764868.89200019836 0 -764868.89200019836 18820265.026596069 0 0 0 0 -6531357.7175245285 -2951777.2936439514 0 -2951777.2936439514 15190680.643341064 0 0 0 0 -8203625.0283679962 -2708487.7738952637 0 -2708487.7738952637 11435260.751220703 0 0 0 0 -7992385.8317210674 -1119603.3149375916 0 -1119603.3149375916 22013783.476486206 0 0 0 0 -5438956.6369886398 -9324017.0569763184 0 -9324017.0569763184 30028210.749191284 0 0 0 0 -8087694.9210758209 -3603085.6361198425 0 -3603085.6361198425 18047357.154800415 0 0 0 0 -5691404.836566925 -432369.41606903076 0 -432369.41606903076 22066806.916740417 0 0 0 0 -656844419.67692661 94872650.025448084 0 94872650.025448084 -217902201.38536072 0 0 0 0 -6156832.7711660927 -3091742.7849610653 0 -3091742.7849610653 18790997.698881604 0 0 0 0 -588902275.75008917 226332759.84783554 0 226332759.84783554 33250022.892532349 0 0 0 0 -528530706.28260231 -64316661.189746857 0 -64316661.189746857 27775097.466914177 0 0 0 0 -4499545.9814463425 -3640710.5603782851 0 -3640710.5603782851 5031457.8339044973 0 0 0 0 -641649171.41998839 645445434.63209963 0 645445434.63209963 -284736815.7220993 0 0 0 0 -333095.98136183247 -799795.51537197083 0 -799795.51537197083 2641136.004378777 0 0 0 0 105057707.10563755 -122407597.68061447 0 -122407597.68061447 -10339278.83769989 0 0 0 0 -459415466.02846718 318752089.84757996 0 318752089.84757996 -105168650.31886292 0 0 0 0 -5270561.1654028893 -125849.09084701538 0 -125849.09084701538 5996776.7244033813 0 0 0 0 -442361.44079732895 2447933.6902542114 0 2447933.6902542114 631814.01739120483 0 0 0 0 -3527532.0188139929 -2987102.8115484528 0 -2987102.8115484528 14632683.255005546 0 0 0 0 177704.37058877945 5914911.8023033142 0 5914911.8023033142 8510469.2515563965 0 0 0 0 -15678619.261481047 -5596867.124628067 0 -5596867.124628067 -3742713.7572956085 0 0 0 0 -5281297.2491284208 -3926967.4769837502 0 -3926967.4769837502 18404990.936832644 0 0 0 0 -4694854.6364383027 -5905443.8348478973 0 -5905443.8348478973 19771355.609907821 0 0 0 0 -30449399.793661118 -20183384.15990448 0 -20183384.15990448 -10224412.258514404 0 0 0 0 -6770022.1210942268 -3801834.4693603516 0 -3801834.4693603516 28479628.660394192 0 0 0 0 -9106254.1666228771 -6089940.232624054 0 -6089940.232624054 32261969.517906189 0 0 0 0 -5910751.8211832047 -1424681.6792526245 0 -1424681.6792526245 33154265.533828735 0 0 0 0 -9074027.4401320815 -5785128.6984367371 0 -5785128.6984367371 34816792.205245972 0 0 0 0 -1338504.3051199913 -3788141.874786377 0 -3788141.874786377 26322676.777378082 0 0 0 0 -302317.50545045012 -1160500.3092258982 0 -1160500.3092258982 -690411.57515826076 0 0 0 0 119739.30788356066 6523325.8399982452 0 6523325.8399982452 21255332.369094849 0 0 0 0 -9402358.9817595482 -42806213.859912872 0 -42806213.859912872 8841558.9550933838 0 0 0 0 30437843.263635635 23325867.861434937 0 23325867.861434937 6785794.1705253124 0 0 0 0 18754433.903028488 -25004767.445587158 0 -25004767.445587158 32286562.078538895 0 0 0 0 -5221951.4073448181 -3232634.7988739014 0 -3232634.7988739014 37221499.004989624 0 0 0 0 3062051.4088792801 -8217351.7620162964 0 -8217351.7620162964 15051397.051712036 0 0 0 0 188740.1776175499 -4225021.7065963745 0 -4225021.7065963745 3422551.3599319458 0 0 0 0 -5024818.5104064941 -3427999.2006149292 0 -3427999.2006149292 13701035.012771606 0 0 0 0 -29497648.654732943 693533.75651931763 0 693533.75651931763 14952659.148864746 0 0 0 0 -3834751.4549392462 -12525060.685876846 0 -12525060.685876846 23656186.859825134 0 0 0 0 -1964520.9033617261 -9188543.7400763277 0 -9188543.7400763277 14027845.982654512 0 0 0 0 -2524561.9768672506 -4973902.6398402229 0 -4973902.6398402229 11808584.465946481 0 0 0 0 60887797.082778692 -49025612.662769318 0 -49025612.662769318 -58721126.792375565 0 0 0 0 -4232458.4513551593 85778251.361743927 0 85778251.361743927 54010270.436756134 0 0 0 0 -23761322.510413647 -38263408.844280243 0 -38263408.844280243 -92177611.407264709 0 0 0 0 -78464737.38695097 130848048.21987152 0 130848048.21987152 29609097.77532959 0 0 0 0 -4547844.74740839 -6176024.8704566956 0 -6176024.8704566956 15618328.067214966 0 0 0 0 -1870653.4977053546 -4238454.4601048231 0 -4238454.4601048231 9509223.2456600592 0 0 0 0 -2056705.5223073959 -8671778.3762969971 0 -8671778.3762969971 18068493.258117676 0 0 0 0 -628178771.11132765 215882971.14347076 0 215882971.14347076 31781574.579620361 0 0 0 0 -5782034.2900477201 255321.37894013524 0 255321.37894013524 19652452.716888838 0 0 0 0 -3920644.4160289764 -5686149.5004653931 0 -5686149.5004653931 15961228.286943436 0 0 0 0 501929691.99134654 -493550941.92261505 0 -493550941.92261505 -45362093.905456543 0 0 0 0 -258333687.27921024 319003675.43195534 0 319003675.43195534 711485991.94929504 0 0 0 0 63991161.533181429 -246901422.81178284 0 -246901422.81178284 196450452.78710175 0 0 0 0 -4070624.5173051907 -7649810.0028504338 0 -7649810.0028504338 15956763.002823755 0 0 0 0 -373468936.02628487 106683835.59305191 0 106683835.59305191 140775215.19861603 0 0 0 0 -261320071.69975042 55848780.834655762 0 55848780.834655762 86342072.895442963 0 0 0 0 -435175.0022929727 -958310.98707076441 0 -958310.98707076441 2457123.777685672 0 0 0 0 -436777035.21810615 269689770.66984367 0 269689770.66984367 84090452.436782837 0 0 0 0 -248283065.99078131 209474709.78594208 0 209474709.78594208 63282490.634468079 0 0 0 0 -70769025.064564586 42623757.764347076 0 42623757.764347076 34714176.146993637 0 0 0 0 -161072050.7417686 209020019.23390198 0 209020019.23390198 -166473307.57889557 0 0 0 0 66412261.538137257 -10145130.384374619 0 -10145130.384374619 88522412.653282166 0 0 0 0 -77474403.165171877 63041549.266343892 0 63041549.266343892 113573959.76449585 0 0 0 0 -79961097.584945917 98301913.849884033 0 98301913.849884033 258050674.69216919 0 0 0 0 -74964630.482725918 -169616095.45387268 0 -169616095.45387268 703922185.76459503 0 0 0 0 10585940.3052257 -147221743.62831688 0 -147221743.62831688 243376870.56620026 0 0 0 0 -383515197.68754995 -69359911.151988983 0 -69359911.151988983 403679982.52907562 0 0 0 0 -173800257.44948924 -198364142.7652359 0 -198364142.7652359 49247790.85209465 0 0 0 0 -170017332.49532026 -82621822.563365936 0 -82621822.563365936 497371393.12650299 0 0 0 0 100477810.55583334 -488812423.56120682 0 -488812423.56120682 505150886.7272895 0 0 0 0 27683928.299035251 -112044830.98911953 0 -112044830.98911953 138019094.35162354 0 0 0 0 -188350173.82387298 -410846246.80932999 0 -410846246.80932999 1378013439.7937775 0 0 0 0 -125773423.7205531 -219255139.21169472 0 -219255139.21169472 680120577.57166672 0 0 0 0 -432051239.70161027 -479209271.12942886 0 -479209271.12942886 2205276651.7659783 0 0 0 0 -228544064.00635836 -694726220.08472347 0 -694726220.08472347 1324308896.7081375 0 0 0 0 -125643590.57150707 -999161817.83761215 0 -999161817.83761215 2201404810.8423882 0 0 0 0 -322066287.01419628 -52867820.813806534 0 -52867820.813806534 2204821437.1040459 0 0 0 0 -369941172.84058285 -283581289.01988411 0 -283581289.01988411 1511682146.9724846 0 0 0 0 -204927981.65609932 -177617009.50236893 0 -177617009.50236893 1550838293.8762875 0 0 0 0 146239684.69287574 114577634.87203741 0 114577634.87203741 213414467.23575974 0 0 0 0 81645329.819408059 280820748.47747993 0 280820748.47747993 753037253.26183701 0 0 0 0 77631368.698597685 -82573338.455088139 0 -82573338.455088139 296889399.22067261 0 0 0 0 65042889.458446622 98156307.44288826 0 98156307.44288826 343065164.40250397 0 0 0 0 68900354.808686852 81249334.678623199 0 81249334.678623199 80229587.074741364 0 0 0 0 -86554044.640561849 45772898.1689291 0 45772898.1689291 -34809419.828460693 0 0 0 0 -68933469.06115973 -86321018.478509903 0 -86321018.478509903 258123393.84207916 0 0 0 0 1153146.0299857757 -7716862.953356944 0 -7716862.953356944 6542375.8337349817 0 0 0 0 51314883.17271328 175028275.72634125 0 175028275.72634125 62079864.214506149 0 0 0 0 220877.2089882521 -2189690.9444346316 0 -2189690.9444346316 3642900.6147196591 0 0 0 0 325063005.70783031 -534571489.81099796 0 -534571489.81099796 378248873.14474487 0 0 0 0 113948129.94404957 676223467.20756912 0 676223467.20756912 1763857301.776989 0 0 0 0 572408630.83268869 -25628449.942134857 0 -25628449.942134857 2204619886.6400528 0 0 0 0 96720458.778922826 -396450258.24519157 0 -396450258.24519157 2162322398.6163464 0 0 0 0 -194765682.67741132 4081620.0393080711 0 4081620.0393080711 2204645097.8006439 0 0 0 0 -50857120.03429696 412631415.83773422 0 412631415.83773422 2140751962.7931213 0 0 0 0 -33494215.563916534 -333318278.04908943 0 -333318278.04908943 960330912.84851456 0 0 0 0 -105664731.65583697 -334980914.76729584 0 -334980914.76729584 2304731962.6639404 0 0 0 0 -426915923.88489395 133309751.91531563 0 133309751.91531563 2138414333.4535332 0 0 0 0 -91526561.75003399 -200387853.51195347 0 -200387853.51195347 620546928.56700134 0 0 0 0 -96542200.17896992 4464277.957660675 0 4464277.957660675 628208172.32196426 0 0 0 0 251655676.22663671 -135164164.3176918 0 -135164164.3176918 -136753903.87035751 0 0 0 0 -7365201.3191668093 -8460735.7617540359 0 -8460735.7617540359 39669301.63143158 0 0 0 0 59809.197897869395 -63372.689532402903 0 -63372.689532402903 -54687.827549874783 0 0 0 0 -22624577.815610711 20019762.221572816 0 20019762.221572816 14170156.871513367 0 0 0 0 -21766649.718209028 -5129497.732635498 0 -5129497.732635498 27050651.652130127 0 0 0 0 -789825.80482399464 -7518480.4369163513 0 -7518480.4369163513 25789934.100166321 0 0 0 0 -6938375.0092484355 -7701647.047539711 0 -7701647.047539711 29298426.824775696 0 0 0 0 -906453.38004553388 -7834898.7444354519 0 -7834898.7444354519 7890828.7054505628 0 0 0 0 -3764144.4886297509 -7800573.7629794553 0 -7800573.7629794553 12375038.902719952 0 0 0 0 -557481.42135357857 -8927365.3191986084 0 -8927365.3191986084 27415186.253847122 0 0 0 0 -791038.77320027351 -7443503.7668571472 0 -7443503.7668571472 24201796.879135132 0 0 0 0 -539810.1270378232 -3574184.4559345245 0 -3574184.4559345245 31115330.196716309 0 0 0 0 2072982.8745518327 -9563753.7891721725 0 -9563753.7891721725 29463812.863052368 0 0 0 0 7644337.2939641476 -5586435.4749069214 0 -5586435.4749069214 30515720.702539444 0 0 0 0 4368070.4228173494 -5327634.1611366272 0 -5327634.1611366272 30585010.786697388 0 0 0 0 3038399.5874869823 -6712996.3685874939 0 -6712996.3685874939 24291629.045360565 0 0 0 0 3201367.4257068634 -11387895.195850372 0 -11387895.195850372 20678146.93271637 0 0 0 0 4527466.4964585304 -10471416.258743286 0 -10471416.258743286 33402179.507965088 0 0 0 0 723150.75055551529 -1950629.1412353516 0 -1950629.1412353516 39771517.039558411 0 0 0 0 3040328.3201411366 -6494414.9672260284 0 -6494414.9672260284 41753552.440994263 0 0 0 0 9328288.4716392756 -799644.54454421997 0 -799644.54454421997 43204629.568481445 0 0 0 0 2827535.2356538773 -7472466.8181762695 0 -7472466.8181762695 58046753.539199829 0 0 0 0 2447825.5351324081 2632405.0599365234 0 2632405.0599365234 67999525.530647278 0 0 0 0 1490737.6285295486 6061307.5891723633 0 6061307.5891723633 81152118.804992676 0 0 0 0 -4865192.4010436535 -5925932.6403198242 0 -5925932.6403198242 47194154.811065674 0 0 0 0 4404160.0481462479 -8195966.9047775269 0 -8195966.9047775269 50148508.886535645 0 0 0 0 15713782.920052528 6930703.2635955811 0 6930703.2635955811 54349193.569946289 0 0 0 0 2640646.5633602142 -10274768.793197632 0 -10274768.793197632 48632443.868392944 0 0 0 0 -2612978.6228551865 2322960.7380523682 0 2322960.7380523682 40400625.449081421 0 0 0 0 1439383.9751827717 -5086305.3321456909 0 -5086305.3321456909 43569369.727081299 0 0 0 0 2573049.4209189415 -5037788.8080291748 0 -5037788.8080291748 41423388.917541504 0 0 0 0 4904010.2887945175 -9951472.8566436768 0 -9951472.8566436768 44037975.664344788 0 0 0 0 2102007.0416731834 -5372427.4936904907 0 -5372427.4936904907 57603326.905334473 0 0 0 0 4476552.561216116 -4548098.3182144165 0 -4548098.3182144165 50315504.432769775 0 0 0 0 871632.78950405121 -10677149.979980469 0 -10677149.979980469 66728176.656677246 0 0 0 0 2870635.0400965214 -11599217.848899841 0 -11599217.848899841 53007090.943939209 0 0 0 0 4177937.2399487495 -10582699.704566956 0 -10582699.704566956 49531580.053009033 0 0 0 0 2201560.3615345955 -11907463.535476685 0 -11907463.535476685 48680568.301971436 0 0 0 0 1383793.9482197762 -13046370.869506836 0 -13046370.869506836 59494452.759635925 0 0 0 0 -3345058.468981266 -5566814.9020462036 0 -5566814.9020462036 31582612.850631714 0 0 0 0 -1308971.4458203316 -8587757.2942657471 0 -8587757.2942657471 49854704.913970947 0 0 0 0 225617.65978813171 -7098164.3746318817 0 -7098164.3746318817 40889380.603439331 0 0 0 0 -5685782.2459824085 -4303725.2463760376 0 -4303725.2463760376 42062119.223953247 0 0 0 0 -983826.15805029869 -10054295.694290161 0 -10054295.694290161 38439737.842979431 0 0 0 0 -6106338.7828176022 -9345563.4278564453 0 -9345563.4278564453 48081121.286598206 0 0 0 0 -12756030.861075163 -7220308.5272521973 0 -7220308.5272521973 42290146.71546936 0 0 0 0 -9358448.4488565624 -1339610.1812677383 0 -1339610.1812677383 22682406.219680786 0 0 0 0 -6316947.5363459587 -4501739.7844161987 0 -4501739.7844161987 43412021.287923813 0 0 0 0 -7729765.282767415 7030358.6571979523 0 7030358.6571979523 13344444.940879822 0 0 0 0 -21176494.260847688 -402540.18625259399 0 -402540.18625259399 32632879.730857849 0 0 0 0 -41336.143706321716 -4907121.4906768799 0 -4907121.4906768799 24792573.881908417 0 0 0 0 61522.123461729148 -98487.622401822358 0 -98487.622401822358 -52775.591699287295 0 0 0 0 -2315395.4499593377 -18350787.992046356 0 -18350787.992046356 46614684.410598755 0 0 0 0 -8627445.9259502888 -7484273.8361625671 0 -7484273.8361625671 41051717.260018349 0 0 0 0 -7590166.3404366076 -5329356.981461525 0 -5329356.981461525 44256100.57749176 0 0 0 0 48476.086384917202 -60926.577180739492 0 -60926.577180739492 -37238.631699688733 0 0 0 0 -19708214.412600398 13888058.722633362 0 13888058.722633362 23736315.866508484 0 0 0 0 -17077285.551599681 -16228536.574028015 0 -16228536.574028015 44873906.097595215 0 0 0 0 -1673207.8249782026 -22486670.056423187 0 -22486670.056423187 40419506.930664062 0 0 0 0 -6305133.7066863775 -10478498.200435638 0 -10478498.200435638 31824395.45687294 0 0 0 0 -423966.60011097789 -15572090.481031418 0 -15572090.481031418 34036836.777893066 0 0 0 0 -5884105.5325811729 -17104319.531791531 0 -17104319.531791531 34184109.925331116 0 0 0 0 -5885422.9448035359 -16618925.605792999 0 -16618925.605792999 33284654.854515076 0 0 0 0 953792.13834130764 -17769393.87525177 0 -17769393.87525177 24165339.833755493 0 0 0 0 -2967269.2042301297 -17177197.169429779 0 -17177197.169429779 24109602.485473633 0 0 0 0 -1973509.4994505644 -13624626.418994904 0 -13624626.418994904 13988371.514633179 0 0 0 0 -460497.03560960293 -10719380.183334351 0 -10719380.183334351 28694712.667869568 0 0 0 0 -3947663.6678678393 -18029198.010566711 0 -18029198.010566711 22667845.20728302 0 0 0 0 4581931.4004151821 -16127177.389091492 0 -16127177.389091492 14022620.549156189 0 0 0 0 -8216998.4639533758 -6054843.512298584 0 -6054843.512298584 23705585.001235962 0 0 0 0 -3897717.1223677695 -16704328.467206955 0 -16704328.467206955 31331746.889312744 0 0 0 0 6164619.1214265823 -13038401.419929504 0 -13038401.419929504 18267737.131370544 0 0 0 0 1620084.9839820862 -10567575.506019592 0 -10567575.506019592 19000540.313392639 0 0 0 0 6924174.2956926823 -37773095.193637848 0 -37773095.193637848 55597865.187877655 0 0 0 0 12579964.07565695 -13789773.937351227 0 -13789773.937351227 31115906.074146271 0 0 0 0 6752913.1949339509 -17863923.673397064 0 -17863923.673397064 12298166.594940186 0 0 0 0 126588.66935858608 -8654773.4480673596 0 -8654773.4480673596 7119475.9225099124 0 0 0 0 59421716.269323349 -27434379.784137726 0 -27434379.784137726 -17069353.574876785 0 0 0 0 150141269.6959573 776582.45594787598 0 776582.45594787598 -37695361.767066956 0 0 0 0 -525659.19862954225 -8835022.545013763 0 -8835022.545013763 8745686.4385140985 0 0 0 0 1597283.2985311151 -1673211.7979507446 0 -1673211.7979507446 -3855883.8681182861 0 0 0 0 -183354061.80129641 268698.37627220154 0 268698.37627220154 620781616.09983826 0 0 0 0 -91991514.54446137 159284763.81921768 0 159284763.81921768 617139973.78506398 0 0 0 0 -270326206.76082444 232252599.08514023 0 232252599.08514023 1294291335.1025505 0 0 0 0 -391492975.63640225 223828479.44229698 0 223828479.44229698 1311017110.5822754 0 0 0 0 -149056825.08985427 568622484.01396942 0 568622484.01396942 1075389898.8070488 0 0 0 0 -137000344.3598249 255727837.9446373 0 255727837.9446373 974582505.15858459 0 0 0 0 -429229853.99840069 464557615.90031815 0 464557615.90031815 2205456256.8877411 0 0 0 0 1408385953.7217393 714443790.15727425 0 714443790.15727425 102086315.46617889 0 0 0 0 1810581.9091252731 -241484.87632704899 0 -241484.87632704899 4595628.6760731488 0 0 0 0 -94148823.58368063 677619810.38222122 0 677619810.38222122 1277405416.0135078 0 0 0 0 386933532.01865578 1523649594.662384 0 1523649594.662384 2200890227.0486259 0 0 0 0 130640632.31656981 -42332363.246368408 0 -42332363.246368408 61647326.577407837 0 0 0 0 63283614.231262922 192062857.37342834 0 192062857.37342834 314386951.45504808 0 0 0 0 928934635.39994347 554185217.25126648 0 554185217.25126648 259959465.91946411 0 0 0 0 -1515105.5451907429 -7537313.9610868357 0 -7537313.9610868357 8620876.1105800793 0 0 0 0 55321287.114450455 -11805872.364845276 0 -11805872.364845276 44516333.996906281 0 0 0 0 -4743365.931849122 -9517682.0729370117 0 -9517682.0729370117 28061397.173690796 0 0 0 0 164580187.55467546 300037847.18909836 0 300037847.18909836 341521148.91432953 0 0 0 0 8798584.6645197868 -19413612.08265686 0 -19413612.08265686 -14015601.902938843 0 0 0 0 -5049322.9730581492 -13715728.438884258 0 -13715728.438884258 15548695.322982788 0 0 0 0 938471.65044859191 -62266.365458685905 0 -62266.365458685905 -2219900.9157133251 0 0 0 0 2900781.9272749424 -19020992.809738159 0 -19020992.809738159 -16131321.371238708 0 0 0 0 -159741.24644877604 -245890.06206228584 0 -245890.06206228584 1761883.3798395861 0 0 0 0 -6643163.9742088318 -21261870.821998596 0 -21261870.821998596 2396835.9124755859 0 0 0 0 -4037206.6630828306 -5588652.3568840027 0 -5588652.3568840027 -1957280.8377227783 0 0 0 0 -6868058.2791111469 -14422248.381057739 0 -14422248.381057739 14018675.066473007 0 0 0 0 1597155.684902966 -14385518.613090515 0 -14385518.613090515 1924.0320434570312 0 0 0 0 -1160271.1239309013 -11598397.900043488 0 -11598397.900043488 7428119.0644836426 0 0 0 0 2583414.0725805163 -15230662.93977356 0 -15230662.93977356 10535016.452346802 0 0 0 0 5853350.8734682202 -10110015.269798279 0 -10110015.269798279 6356412.2725372314 0 0 0 0 2558825.9416549802 -10519852.031394958 0 -10519852.031394958 3933061.7063751221 0 0 0 0 3611990.1185280681 -11856741.248748779 0 -11856741.248748779 5618609.6685943604 0 0 0 0 -49324.759475588799 -15101745.055618286 0 -15101745.055618286 5980459.4046821594 0 0 0 0 -3599940.5905067921 -14478437.962329865 0 -14478437.962329865 10128479.839324951 0 0 0 0 7079398.1070400476 -6804576.9295425415 0 -6804576.9295425415 1399512.0352630615 0 0 0 0 12578726.511137515 -11041164.265884399 0 -11041164.265884399 3506914.8148193359 0 0 0 0 -387811.95000609261 -2663113.2661987655 0 -2663113.2661987655 3739821.3521057591 0 0 0 0 2086690.1795481741 -7697484.1497268677 0 -7697484.1497268677 1592935.4490318298 0 0 0 0 1174002.2055386538 -8288371.7086257935 0 -8288371.7086257935 11330706.401031494 0 0 0 0 1340983.1140007593 437999.22718048096 0 437999.22718048096 17205656.986984253 0 0 0 0 -899100.97075636231 -2717739.2036040984 0 -2717739.2036040984 3409871.9853187352 0 0 0 0 -2838189.9196406594 -5686612.851412721 0 -5686612.851412721 10405373.879781246 0 0 0 0 2598258.4671375155 -11024978.211601257 0 -11024978.211601257 -3794341.3286336064 0 0 0 0 -13132569.071517587 -156307633.64391422 0 -156307633.64391422 9260485.4946670532 0 0 0 0 1999129.2416930199 -11061896.434883118 0 -11061896.434883118 -1573753.0394744873 0 0 0 0 1183016.1743934751 -7699554.2496795654 0 -7699554.2496795654 -3817433.5462188721 0 0 0 0 -4243046.7048954442 -3681935.1914558411 0 -3681935.1914558411 8439437.7686462402 0 0 0 0 1130225.7682774067 -9154233.6366882324 0 -9154233.6366882324 3831137.186123848 0 0 0 0 -168412060.33729839 120529026.53549957 0 120529026.53549957 160795984.96245193 0 0 0 0 33292303.671704032 262522046.54693222 0 262522046.54693222 404253617.04920959 0 0 0 0 -850.84183098601352 511678.55853830278 0 511678.55853830278 11551254.893155873 0 0 0 0 -15326919.672870234 11360431.593633652 0 11360431.593633652 -14757591.785751343 0 0 0 0 -1464169.651727072 -1187459.2298126221 0 -1187459.2298126221 3319124.86353302 0 0 0 0 -1832980.7633631364 -2312676.8102344163 0 -2312676.8102344163 10728703.843106784 0 0 0 0 -9914421.5875658989 -1150449.5032806396 0 -1150449.5032806396 9710449.4470825195 0 0 0 0 -43574254.242415994 -19723375.949066162 0 -19723375.949066162 -497610981.81466675 0 0 0 0 -189525.08179200205 -25538.332271941006 0 -25538.332271941006 254274.32973006368 0 0 0 0 -212896.71025322669 -802366.2419154197 0 -802366.2419154197 4199552.0817875415 0 0 0 0 -17133354.121009529 -236830309.26248169 0 -236830309.26248169 -106965247.31376648 0 0 0 0 335323231.94729012 314248881.73830414 0 314248881.73830414 263213935.92313385 0 0 0 0 154665939.27068013 -128740558.50842285 0 -128740558.50842285 -127840308.08953094 0 0 0 0 -148403863.52823776 -97668507.367687225 0 -97668507.367687225 -3544328.0577697754 0 0 0 0 191946370.40014786 303604406.26616669 0 303604406.26616669 349619045.76938629 0 0 0 0 -250436.29718438568 -1672976.9196100216 0 -1672976.9196100216 3260287.8017143607 0 0 0 0 -320672244.32603699 196962144.01159286 0 196962144.01159286 2197460580.0333519 0 0 0 0 210525522.83909878 -760287600.86763763 0 -760287600.86763763 1031633491.704216 0 0 0 0 88748784.288385421 439044253.34592819 0 439044253.34592819 517365827.88027954 0 0 0 0 177185162.4289836 -688134334.26034546 0 -688134334.26034546 2201067236.9852357 0 0 0 0 243856.78790400951 12020601.19169426 0 12020601.19169426 198218910.54434204 0 0 0 0 -23887142.908351868 -448695691.02796555 0 -448695691.02796555 2056471683.1555023 0 0 0 0 -70374945.79794395 -78481994.079101562 0 -78481994.079101562 -54412793.444732666 0 0 0 0 169761.13619953749 -441066.31448468193 0 -441066.31448468193 1245198.5642301291 0 0 0 0 353179785.34897143 -599772189.30129433 0 -599772189.30129433 1011828156.1916351 0 0 0 0 -336436169.6311807 334654620.40968323 0 334654620.40968323 2366117225.3950062 0 0 0 0 -102315.52002462716 -887926.49762533605 0 -887926.49762533605 3155686.398372896 0 0 0 0 -1000919.8065609775 -1816688.6888321154 0 -1816688.6888321154 4719338.5135801733 0 0 0 0 -58721750.0480012 -41455092.828722 0 -41455092.828722 49636274.899307251 0 0 0 0 -47856338.807483763 12940539.613464355 0 12940539.613464355 25755243.179096222 0 0 0 0 -48077629.853627324 -50155779.601890564 0 -50155779.601890564 -23131044.914825439 0 0 0 0 -59203776.029440701 24485207.888694763 0 24485207.888694763 74223388.215766907 0 0 0 0 29771954.764963675 -8225109.0066325665 0 -8225109.0066325665 -26961826.116256714 0 0 0 0 26410739.834885165 45641926.297520638 0 45641926.297520638 -21751946.724227905 0 0 0 0 192634.51388648796 -1284949.3437933959 0 -1284949.3437933959 3167937.1896925271 0 0 0 0 -160993.84174056444 -1025084.9762341827 0 -1025084.9762341827 753720.94945734739 0 0 0 0 16638713.058186347 -28643695.715578079 0 -28643695.715578079 -28426334.053070068 0 0 0 0 4033194.8799700774 -86123.216480255127 0 -86123.216480255127 6172148.9704284668 0 0 0 0 73908.903304972686 3668414.2608108521 0 3668414.2608108521 23968676.374538422 0 0 0 0 386279.42986076622 -1104284.8442163765 0 -1104284.8442163765 2493725.4089533016 0 0 0 0 -17091784.298519403 -28395557.896102905 0 -28395557.896102905 1407248.6332244873 0 0 0 0 -31082.598260224753 -4064330.4941186835 0 -4064330.4941186835 32539503.278587341 0 0 0 0 -431303.06711869873 3570394.4902763367 0 3570394.4902763367 13472236.146686554 0 0 0 0 226924.17636734247 -15801774.510784149 0 -15801774.510784149 31459782.226119995 0 0 0 0 16811241.187677309 -16916282.122009277 0 -16916282.122009277 14289782.836158752 0 0 0 0 10377138.345468566 -9718958.2464599609 0 -9718958.2464599609 11283773.419570923 0 0 0 0 11935467.550784033 27543801.595352173 0 27543801.595352173 59044241.638641357 0 0 0 0 165227.92678330812 -553285.28343437985 0 -553285.28343437985 498662.79818338156 0 0 0 0 14433549.667641103 -8012461.5496063232 0 -8012461.5496063232 11993916.189468384 0 0 0 0 5949342.559348911 -12668334.015510559 0 -12668334.015510559 11788849.804504395 0 0 0 0 9820687.3666608334 -11165228.060081482 0 -11165228.060081482 12214424.24515152 0 0 0 0 9585024.0718678534 -14697220.735456467 0 -14697220.735456467 19895580.0990448 0 0 0 0 1691328.9077896476 -11283093.069656372 0 -11283093.069656372 12553255.08442688 0 0 0 0 4200936.2679478526 -16875061.502975464 0 -16875061.502975464 21664726.144111633 0 0 0 0 -150550.13527616858 -18810254.728881836 0 -18810254.728881836 31188893.562973022 0 0 0 0 4996852.5919214934 -15369328.208316803 0 -15369328.208316803 22209644.589508057 0 0 0 0 10464748.989706665 -22230730.384418488 0 -22230730.384418488 30195444.272766113 0 0 0 0 3940837.0537501574 -18197488.474243164 0 -18197488.474243164 31221249.008106709 0 0 0 0 11416118.07420285 -11693519.948257446 0 -11693519.948257446 28748874.345672607 0 0 0 0 17745779.074183673 -13077704.718711853 0 -13077704.718711853 20216809.691184998 0 0 0 0 26452071.965662494 -16344185.918922424 0 -16344185.918922424 30089385.181560516 0 0 0 0 11977041.49685115 -14683871.081775665 0 -14683871.081775665 48856490.766548157 0 0 0 0 23513136.332576871 -22637813.968513489 0 -22637813.968513489 36554916.60799408 0 0 0 0 -3683153.1989948303 -29961706.448158264 0 -29961706.448158264 56694386.6717453 0 0 0 0 2860320.5279651284 -17923751.374443054 0 -17923751.374443054 35660656.667610168 0 0 0 0 4029170.0529222786 -41309517.946151733 0 -41309517.946151733 102154428.62645102 0 0 0 0 -30071943.74236811 -2880492.8733282089 0 -2880492.8733282089 61321181.08089447 0 0 0 0 60912596.117507249 -16812261.253997803 0 -16812261.253997803 44387825.154762268 0 0 0 0 26860084.486368977 21725471.338912964 0 21725471.338912964 99321467.552757263 0 0 0 0 2353291.3068246637 4990886.1340637207 0 4990886.1340637207 70985154.226139069 0 0 0 0 27766.740841535364 -10838569.102631593 0 -10838569.102631593 44277782.373809814 0 0 0 0 10901418.490782492 -2080119.5600395203 0 -2080119.5600395203 47444129.794952393 0 0 0 0 8070229.3607727848 -7904216.1750707626 0 -7904216.1750707626 52894312.415710449 0 0 0 0 -22710728.696067452 -116080053.95506844 0 -116080053.95506844 -90206461.448318481 0 0 0 0 9865538.8955592699 -20306716.029409081 0 -20306716.029409081 29198078.731363259 0 0 0 0 -82205489.720184326 -126148261.22243047 0 -126148261.22243047 -70049829.14968276 0 0 0 0 29253458.645614624 362986970.29525781 0 362986970.29525781 318788943.51824367 0 0 0 0 -105083178.8573122 -29416685.848812342 0 -29416685.848812342 27745444.653125286 0 0 0 0 -698384805.12648201 -12868478.732156754 0 -12868478.732156754 166870644.95449769 0 0 0 0 -137513110.16724896 -170010896.85958865 0 -170010896.85958865 -239165134.28496361 0 0 0 0 -223610024.34296417 -199728356.96677017 0 -199728356.96677017 -40067569.613633156 0 0 0 0 -173876521.4713974 -60831792.645763397 0 -60831792.645763397 33564855.957241058 0 0 0 0 3606492.8248638157 -5823768.0430011563 0 -5823768.0430011563 -3020866.6537783453 0 0 0 0 -258876555.04811096 -148012012.79627228 0 -148012012.79627228 97692165.158034325 0 0 0 0 -161943620.7659874 -63201188.824077606 0 -63201188.824077606 33207471.022455215 0 0 0 0 -172926635.64944267 -44641356.050979614 0 -44641356.050979614 206900907.99786377 0 0 0 0 -103661876.47309566 -54923442.68189168 0 -54923442.68189168 281208573.901577 0 0 0 0 -111562863.40356255 -101844990.57290649 0 -101844990.57290649 92561480.583087921 0 0 0 0 -58779548.521383286 -231640513.24065018 0 -231640513.24065018 -155719372.90267944 0 0 0 0 -80498207.394845486 -113767058.33471394 0 -113767058.33471394 -104927359.53261185 0 0 0 0 -98722438.139688492 -101097581.2269392 0 -101097581.2269392 88052360.232292175 0 0 0 0 -87575964.197454453 -231015297.31259632 0 -231015297.31259632 19371336.505249023 0 0 0 0 -225815501.91267014 -78190401.096565247 0 -78190401.096565247 99319747.371982574 0 0 0 0 -52016433.396053389 -32237496.397608012 0 -32237496.397608012 472962877.31811094 0 0 0 0 11411518.372098843 -15501181.027382862 0 -15501181.027382862 18811527.040561371 0 0 0 0 -7721712.6751213074 227120033.20395479 0 227120033.20395479 393427064.80464458 0 0 0 0 -258437981.79655457 -326156187.21970367 0 -326156187.21970367 -70456407.080276489 0 0 0 0 202737870.42824841 474472882.05633497 0 474472882.05633497 726515135.56143427 0 0 0 0 193013140.41729879 19496815.341059208 0 19496815.341059208 424373241.02764177 0 0 0 0 274401740.07902288 365583517.90658826 0 365583517.90658826 608078729.2553091 0 0 0 0 119236818.36671591 612748310.35755634 0 612748310.35755634 770859460.6044457 0 0 0 0 -37923199.924197674 420451372.43950582 0 420451372.43950582 929886565.95968294 0 0 0 0 60480305.166783333 758633454.98954296 0 758633454.98954296 762770668.78689766 0 0 0 0 -2773386.0662567811 -1349.4859158247709 0 -1349.4859158247709 2024869.4179908521 0 0 0 0 -26380948.0254879 124026838.02911711 0 124026838.02911711 518092836.82361007 0 0 0 0 -91007033.458515167 203519406.23849726 0 203519406.23849726 901166985.07511187 0 0 0 0 -201828351.29529238 169361033.77355409 0 169361033.77355409 457376056.0829401 0 0 0 0 -87822671.965605736 326023715.97691488 0 326023715.97691488 743054509.9751153 0 0 0 0 64999147.968815804 220741367.26313019 0 220741367.26313019 431027146.52277756 0 0 0 0 241699493.44042158 238070528.54043555 0 238070528.54043555 392044556.70998263 0 0 0 0 204348989.26011443 340196163.81403565 0 340196163.81403565 1341131560.963758 0 0 0 0 89028007.133505821 97406256.242257833 0 97406256.242257833 722206602.03037453 0 0 0 0 215875672.32195044 419619973.42729425 0 419619973.42729425 1484678546.6654968 0 0 0 0 195343883.81779671 777397304.23544312 0 777397304.23544312 240955717.8663826 0 0 0 0 129387736.35321903 1080599998.3681822 0 1080599998.3681822 558789090.37557411 0 0 0 0 -52594643.10730648 760911355.86529541 0 760911355.86529541 472568634.80866337 0 0 0 0 158673939.14172906 818787466.51844883 0 818787466.51844883 140265376.24836731 0 0 0 0 63518108.483428955 538438755.1554718 0 538438755.1554718 -13423608.124480247 0 0 0 0 -363504227.75647831 395980309.08004284 0 395980309.08004284 -136502277.12514496 0 0 0 0 -126428500.9653306 -45865193.287331939 0 -45865193.287331939 1963712061.9309046 0 0 0 0 1695645.9404788162 124519.71560731297 0 124519.71560731297 887889.99825196189 0 0 0 0 50200565.477336407 78806752.259725094 0 78806752.259725094 897387612.34054554 0 0 0 0 101901952.42164254 67433166.383045733 0 67433166.383045733 731472776.99514949 0 0 0 0 69509625.550545692 -16843674.149111792 0 -16843674.149111792 683458919.57913888 0 0 0 0 -1474536.9385279519 42702.505594200047 0 42702.505594200047 1125231.6583134588 0 0 0 0 84446888.285966158 411769631.88111317 0 411769631.88111317 616657118.23250675 0 0 0 0 23264916.427124977 -56221403.659598932 0 -56221403.659598932 853028338.30054343 0 0 0 0 14174567.725449562 -29078354.362709194 0 -29078354.362709194 828518150.57230282 0 0 0 0 31131145.489535332 -67200705.88739866 0 -67200705.88739866 770572194.74488854 0 0 0 0 -23915259.287289619 -34225474.642123714 0 -34225474.642123714 1021388676.5820472 0 0 0 0 4370663.9252948547 2887610.7497818638 0 2887610.7497818638 3440801.2161157941 0 0 0 0 47363569.069468021 37008614.672383025 0 37008614.672383025 696091877.48467076 0 0 0 0 45538101.759518623 -24147644.645389795 0 -24147644.645389795 744405182.88593078 0 0 0 0 17636073.886920929 22474403.670127686 0 22474403.670127686 810636311.34674835 0 0 0 0 40024475.681886673 -39770145.323667407 0 -39770145.323667407 751848054.82654059 0 0 0 0 47481766.431381702 -47180035.602319121 0 -47180035.602319121 676699928.8527199 0 0 0 0 71009401.413171768 5201809.5312668979 0 5201809.5312668979 479579022.76493323 0 0 0 0 90914428.552140236 40346735.099100098 0 40346735.099100098 492518352.14318728 0 0 0 0 -76058469.343717098 -78522940.079107493 0 -78522940.079107493 523794819.11458075 0 0 0 0 99327156.312283397 404984603.9289909 0 404984603.9289909 395802845.27394807 0 0 0 0 330213605.67971182 259216922.14249048 0 259216922.14249048 394129064.82932264 0 0 0 0 254476320.64023423 -23828817.64399913 0 -23828817.64399913 521290509.27105176 0 0 0 0 -197588703.58393383 -233524131.16190082 0 -233524131.16190082 626600347.67796278 0 0 0 0 -185935353.01141214 -510793035.96993172 0 -510793035.96993172 269785861.52542996 0 0 0 0 467252199.12890947 139814631.57154852 0 139814631.57154852 -57723897.160473824 0 0 0 0 2044792.530379035 -1129961.4364186972 0 -1129961.4364186972 1255224.4178738582 0 0 0 0 220285625.12146193 19485575.03833437 0 19485575.03833437 -35598670.757915497 0 0 0 0 97588958.374794722 -116518259.53031445 0 -116518259.53031445 -93825893.778054118 0 0 0 0 -43354053.272380829 -115012197.85434914 0 -115012197.85434914 -1297941.7792053223 0 0 0 0 43359553.566332936 149347987.78481495 0 149347987.78481495 175801158.38204855 0 0 0 0 5963587.5876692673 -2985012.3260859116 0 -2985012.3260859116 3718252.5551541527 0 0 0 0 -155847707.21431446 -139953190.10246965 0 -139953190.10246965 127856536.21646926 0 0 0 0 55381189.560387135 -11009803.062411487 0 -11009803.062411487 -52077723.881063223 0 0 0 0 10995758.40301824 -3661356.2193118581 0 -3661356.2193118581 5760566.0566073423 0 0 0 0 -18984946.406383514 -236514948.13237071 0 -236514948.13237071 -39881695.855274022 0 0 0 0 41585362.326126806 -24866113.872902498 0 -24866113.872902498 8466408.1672153473 0 0 0 0 25855926.611437798 -30445485.467047691 0 -30445485.467047691 12141499.518843651 0 0 0 0 42702352.521290913 -8270958.828560859 0 -8270958.828560859 17548405.890624046 0 0 0 0 -87127509.304507256 -137262400.99423921 0 -137262400.99423921 -156904935.79222247 0 0 0 0 2129688.0705452696 -501746.19934260799 0 -501746.19934260799 -838054.17425906379 0 0 0 0 -77009341.491934776 -38889705.906591892 0 -38889705.906591892 36868884.659726143 0 0 0 0 -3059706.1352138519 -103679223.46197033 0 -103679223.46197033 -1155045.0495623648 0 0 0 0 61347522.258072138 -27802871.106209278 0 -27802871.106209278 -4591428.0747098923 0 0 0 0 79543435.698803782 -56951463.621778965 0 -56951463.621778965 -13161639.607461929 0 0 0 0 47194751.444168091 -65130299.421579838 0 -65130299.421579838 -8288463.5937900543 0 0 0 0 40132919.282221913 -57281738.476373672 0 -57281738.476373672 53802635.703546524 0 0 0 0 75420780.002056122 -120145385.78390503 0 -120145385.78390503 66024282.933406115 0 0 0 0 24174561.977070808 -63824717.885544777 0 -63824717.885544777 -2921135.3666367531 0 0 0 0 8016588.8931317329 -24104863.603293419 0 -24104863.603293419 -4923851.9506607056 0 0 0 0 -11561110.660777092 -25624444.4988451 0 -25624444.4988451 38708497.481685638 0 0 0 0 -28958833.363246918 31491345.775192261 0 31491345.775192261 -22217594.137598038 0 0 0 0 100103866.3029418 -40557400.760494947 0 -40557400.760494947 -191829056.45642853 0 0 0 0 237098234.85715294 -402188887.81357002 0 -402188887.81357002 9033823.9006519318 0 0 0 0 149508920.97827911 209163891.57214737 0 209163891.57214737 -521787865.0431366 0 0 0 0 -400839.20096875913 -1446489.3363645142 0 -1446489.3363645142 2368895.2870016005 0 0 0 0 -18296378.081622124 -13633219.353111506 0 -13633219.353111506 50143558.237426758 0 0 0 0 -10017042.906200686 601045.95649374463 0 601045.95649374463 15819766.903818678 0 0 0 0 -77389830.728250504 128056859.6459794 0 128056859.6459794 -88766424.252191544 0 0 0 0 -1078772.9611940384 -6777558.07721138 0 -6777558.07721138 3989308.954833746 0 0 0 0 -26007859.612594604 -2383803.1771183014 0 -2383803.1771183014 44188699.174667358 0 0 0 0 -3825772.705471064 -12009338.637635116 0 -12009338.637635116 25436470.796612181 0 0 0 0 9644185.708984375 -12663437.88586998 0 -12663437.88586998 16664029.344942093 0 0 0 0 -4213478.836500057 -9681238.4887497816 0 -9681238.4887497816 17875352.270379238 0 0 0 0 -48870619.186695099 9307140.1062088013 0 9307140.1062088013 50641257.56855011 0 0 0 0 -14964941.645464225 1349921.0817507207 0 1349921.0817507207 19304708.701716397 0 0 0 0 -70561623.400405884 24652908.366611481 0 24652908.366611481 45604769.422119141 0 0 0 0 -61548398.545578003 13628540.783494949 0 13628540.783494949 54498219.219573975 0 0 0 0 -78433518.133312225 -14840708.213253021 0 -14840708.213253021 42817657.022418976 0 0 0 0 -101160662.23068619 2730307.4309387207 0 2730307.4309387207 52759770.998373985 0 0 0 0 -41583212.355969906 -96884762.000589013 0 -96884762.000589013 9723521.4511590004 0 0 0 0 -99046204.575820923 -10910468.282236099 0 -10910468.282236099 55555152.9467659 0 0 0 0 -1815689.54270527 -7046038.5892640669 0 -7046038.5892640669 6995893.3199550407 0 0 0 0 1881731.8465897869 -20467257.019804582 0 -20467257.019804582 38221441.006690674 0 0 0 0 -46573327.909935713 -93562970.394621581 0 -93562970.394621581 7513049.6261415482 0 0 0 0 -93509981.092376709 -4066706.8051338196 0 -4066706.8051338196 52242368.235610962 0 0 0 0 -84258817.650492668 30904976.564294815 0 30904976.564294815 68193381.427124023 0 0 0 0 -139810321.83632469 -5529264.3432483673 0 -5529264.3432483673 87113559.232376099 0 0 0 0 -125532364.53089142 -46114611.929088593 0 -46114611.929088593 21761223.847232819 0 0 0 0 -184922352.80368805 -62686501.511299133 0 -62686501.511299133 71785834.677055359 0 0 0 0 8692842.2345748115 -25121728.400175381 0 -25121728.400175381 34145918.952274285 0 0 0 0 -103099155.19279861 27878799.317353249 0 27878799.317353249 137534963.06689739 0 0 0 0 -8264214.395888688 2078363.1006805613 0 2078363.1006805613 8211518.1137616374 0 0 0 0 -158169422.49645996 -577443053.19694853 0 -577443053.19694853 12437435.55927527 0 0 0 0 -100466499.7227335 38786556.499473572 0 38786556.499473572 147605716.10327911 0 0 0 0 -98287432.746758938 79172395.875644684 0 79172395.875644684 384739470.60157776 0 0 0 0 -105338823.18941879 44500801.970777512 0 44500801.970777512 143610528.04892731 0 0 0 0 -128928319.29230118 880351.97258377075 0 880351.97258377075 85221152.505060196 0 0 0 0 -141422807.60127831 24617455.231058121 0 24617455.231058121 140082836.08909988 0 0 0 0 -189900294.19199753 -40488816.458972931 0 -40488816.458972931 118240852.89264679 0 0 0 0 -93091644.579662323 43824932.042037964 0 43824932.042037964 89425799.106216431 0 0 0 0 -60959132.815181732 72972158.261772156 0 72972158.261772156 99647385.592496872 0 0 0 0 -79636127.207921982 86285445.080145836 0 86285445.080145836 176459896.471138 0 0 0 0 -1194881.103559494 114260200.26179886 0 114260200.26179886 97811697.331443787 0 0 0 0 3279787.9073433876 77078701.88615799 0 77078701.88615799 46909851.441558838 0 0 0 0 -47616504.55452919 69499089.167461395 0 69499089.167461395 57470316.460853577 0 0 0 0 -56161589.076763153 46033563.059345245 0 46033563.059345245 30747403.341995239 0 0 0 0 -40643264.717716217 49946235.233299255 0 49946235.233299255 60963308.409265161 0 0 0 0 -89233521.454237938 37393173.638254166 0 37393173.638254166 61191630.57598114 0 0 0 0 -47089610.576183319 63056030.157348633 0 63056030.157348633 39374542.709777832 0 0 0 0 -9924249.5828768648 5167238.0063700899 0 5167238.0063700899 11091304.280796722 0 0 0 0 -58055120.731681824 -9465292.6717720032 0 -9465292.6717720032 56740566.574768066 0 0 0 0 -15516894.912082672 22154118.521766663 0 22154118.521766663 45278388.733101845 0 0 0 0 -15550735.238622556 53108934.816480756 0 53108934.816480756 31870609.570388794 0 0 0 0 -5946303.6407221891 138463.70441965759 0 138463.70441965759 7350029.6194496974 0 0 0 0 -6560246.8873955375 5352805.0420860387 0 5352805.0420860387 8151730.9261443717 0 0 0 0 2536692.0227737427 28965868.793869019 0 28965868.793869019 26720543.461990356 0 0 0 0 11341081.229337692 35625418.448760986 0 35625418.448760986 6348257.9409332275 0 0 0 0 -7054057.1668624878 41816111.945358276 0 41816111.945358276 9583816.9230251312 0 0 0 0 12832279.832454681 35627529.071111679 0 35627529.071111679 -4296731.9625701904 0 0 0 0 19159030.205227852 25785504.18157196 0 25785504.18157196 3189192.9491233826 0 0 0 0 -533872.02331011835 3280408.1484086923 0 3280408.1484086923 -1325722.8480594158 0 0 0 0 -48901919.84573555 134775.48133277893 0 134775.48133277893 100380.90335083008 0 0 0 0 -104065445.05808258 801000.41268920898 0 801000.41268920898 20350736.58453846 0 0 0 0 -103742.02224459499 300302.02940483764 0 300302.02940483764 543772.82649028348 0 0 0 0 241071.79533423902 404615.56140025519 0 404615.56140025519 -899141.11736082286 0 0 0 0 69458195.274704933 30641136.570163727 0 30641136.570163727 -184655538.84562683 0 0 0 0 18586082.417062998 43594813.50210619 0 43594813.50210619 -1976901.4098129272 0 0 0 0 81862157.324430466 80763681.452518463 0 80763681.452518463 14820899.966209412 0 0 0 0 127465273.36625671 33611251.257946014 0 33611251.257946014 -36461019.540523529 0 0 0 0 -161159554.73306084 86955097.621795654 0 86955097.621795654 -23269204.976341248 0 0 0 0 -41614712.867759705 491591.60375976562 0 491591.60375976562 -31072248.44039917 0 0 0 0 -27976116.834487915 -67020781.165802002 0 -67020781.165802002 -69881188.028914928 0 0 0 0 121001764.82455635 -83293268.877746582 0 -83293268.877746582 -61041020.276021957 0 0 0 0 89085134.615524769 -2582762.3503046036 0 -2582762.3503046036 -48602113.201583862 0 0 0 0 251154328.1409626 -108974215.2943306 0 -108974215.2943306 -54204654.104496002 0 0 0 0 206818030.92238092 -33902991.261785507 0 -33902991.261785507 -87106522.437324524 0 0 0 0 276904587.91555882 -137134990.3034668 0 -137134990.3034668 -48033867.62197876 0 0 0 0 264963413.69714737 -110450833.93926811 0 -110450833.93926811 -100209070.25495148 0 0 0 0 395715125.57260323 -213239305.29321289 0 -213239305.29321289 -20430229.0181427 0 0 0 0 305003487.38324261 -127919646.50597382 0 -127919646.50597382 -100311376.44701385 0 0 0 0 147162948.52872455 -39951376.046370983 0 -39951376.046370983 -73459597.308906555 0 0 0 0 356679344.47455406 -38917019.044200897 0 -38917019.044200897 -137159360.76228333 0 0 0 0 454312055.23975754 -179082800.88196564 0 -179082800.88196564 -6962392.431388855 0 0 0 0 447579125.60030127 -62757049.309298515 0 -62757049.309298515 121608194.10644531 0 0 0 0 689329710.34218597 -253110169.19426727 0 -253110169.19426727 187487911.62354088 0 0 0 0 259721655.49289608 -134196760.75294113 0 -134196760.75294113 102252780.16506958 0 0 0 0 230553365.51963711 -161798887.7766571 0 -161798887.7766571 115247884.34024811 0 0 0 0 338760440.02797699 -293270430.68337917 0 -293270430.68337917 414842186.97193909 0 0 0 0 90522915.503768921 -132859223.63475037 0 -132859223.63475037 329210199.93184662 0 0 0 0 100965416.07937765 108224814.78814125 0 108224814.78814125 252536268.60321808 0 0 0 0 142083888.43975997 139686664.89685726 0 139686664.89685726 776582478.61910248 0 0 0 0 137424678.11007833 70560231.779972076 0 70560231.779972076 277412597.22200012 0 0 0 0 -86283107.383275986 -189440681.45225143 0 -189440681.45225143 694112047.25026608 0 0 0 0 529129036.92913723 -281256265.98210907 0 -281256265.98210907 520502027.91812134 0 0 0 0 429459769.53698921 -427307375.5810318 0 -427307375.5810318 513950381.79690933 0 0 0 0 706835489.85371113 117373225.53202629 0 117373225.53202629 310254881.13409424 0 0 0 0 84184545.056533813 -70990943.84602356 0 -70990943.84602356 970633970.89595413 0 0 0 0 532343701.09472847 -480981085.25809097 0 -480981085.25809097 630682777.15694046 0 0 0 0 39429916.82311058 -126927148.2481842 0 -126927148.2481842 589457249.29795456 0 0 0 0 32863188.790779114 -37916176.618396759 0 -37916176.618396759 224761201.19327164 0 0 0 0 120433264.25128555 82225143.157268524 0 82225143.157268524 335648112.78869247 0 0 0 0 -4691921.2814598083 177783257.82765579 0 177783257.82765579 133128117.67290497 0 0 0 0 -3415575.4579555839 111349012.23256147 0 111349012.23256147 416777460.81150818 0 0 0 0 -64403.841962337494 103845834.89930224 0 103845834.89930224 15431502.352508545 0 0 0 0 -19676358.206438065 350970425.67374802 0 350970425.67374802 34406328.008371353 0 0 0 0 329256429.56262398 148324817.40728474 0 148324817.40728474 -226148761.77347565 0 0 0 0 63421477.647821426 -170862746.37876129 0 -170862746.37876129 184074315.2568512 0 0 0 0 -70381579.478693962 221649855.36336708 0 221649855.36336708 -232463115.03419495 0 0 0 0 -29768126.225233555 12646601.904964447 0 12646601.904964447 16984290.012180328 0 0 0 0 1891259.8745836876 8078625.2972703725 0 8078625.2972703725 12104058.700017489 0 0 0 0 823843.51557958126 7026798.8204803467 0 7026798.8204803467 6403417.5428619385 0 0 0 0 -13275914.688389778 2747493.4321746826 0 2747493.4321746826 4685659.1756210327 0 0 0 0 -2414291.8356562345 4461810.6793761775 0 4461810.6793761775 6721394.2048087306 0 0 0 0 109263.06518146861 2342266.997035332 0 2342266.997035332 2706847.1554502919 0 0 0 0 -2726148.093161304 -2459375.1506003663 0 -2459375.1506003663 2015717.1618871391 0 0 0 0 4830306.8681302071 -13415690.11664772 0 -13415690.11664772 13712679.073764801 0 0 0 0 -28819400.966016293 -7127193.4393539429 0 -7127193.4393539429 33911086.336902618 0 0 0 0 -38745432.471977949 -34305585.298074722 0 -34305585.298074722 -22489710.121803284 0 0 0 0 -1794733.6225986481 -71466764.443748474 0 -71466764.443748474 14714233.480232239 0 0 0 0 62672808.255703449 41090305.083528519 0 41090305.083528519 28988318.570281982 0 0 0 0 -1350793.4137706757 -2385534.3760452271 0 -2385534.3760452271 1313968.7390975952 0 0 0 0 -1202849.7388141467 -464673.10700021684 0 -464673.10700021684 1153413.577355057 0 0 0 0 293940562.86670566 -105239270.58770466 0 -105239270.58770466 -86457006.846031189 0 0 0 0 102973097.29933357 -31969105.137756348 0 -31969105.137756348 -87321287.656110466 0 0 0 0 178732245.56605721 -85440866.436256409 0 -85440866.436256409 3807447.2358474731 0 0 0 0 260509871.47050571 -156625985.92159271 0 -156625985.92159271 3778729.8864517212 0 0 0 0 35063371.6857481 -109601542.38327026 0 -109601542.38327026 126864728.11808777 0 0 0 0 32884113.61698246 -17341081.275291443 0 -17341081.275291443 99468967.06334877 0 0 0 0 27045098.392177582 37843234.066207886 0 37843234.066207886 196620879.2485199 0 0 0 0 10459220.133273602 87363068.457639694 0 87363068.457639694 49855700.188873291 0 0 0 0 -81141970.822258949 -78045336.431592941 0 -78045336.431592941 146887411.54792786 0 0 0 0 -817244.44179205364 -731333.60071205907 0 -731333.60071205907 625558.45044930279 0 0 0 0 -12642966.079625607 -111421071.78734875 0 -111421071.78734875 79466169.723617554 0 0 0 0 -20417107.179213524 -3751667.127658844 0 -3751667.127658844 -133300.13490390778 0 0 0 0 -189797296.00273514 37342378.812404633 0 37342378.812404633 121253300.52177429 0 0 0 0 1125464.7358643641 6508103.1743858177 0 6508103.1743858177 12548164.175388299 0 0 0 0 -61289874.836249232 37673540.929103851 0 37673540.929103851 11798158.578834534 0 0 0 0 -392204876.03676224 528827801.89606094 0 528827801.89606094 76580932.556954384 0 0 0 0 -34203407.947054863 19522392.055496216 0 19522392.055496216 -76228699.025701523 0 0 0 0 181219255.22008419 55733289.026468277 0 55733289.026468277 -293355900.70979309 0 0 0 0 353809189.46782017 -553594906.98217773 0 -553594906.98217773 285396981.21040058 0 0 0 0 52985551.787610292 -580628507.97293472 0 -580628507.97293472 573275757.4478302 0 0 0 0 50787289.138484001 -490139846.7640686 0 -490139846.7640686 543294904.11756706 0 0 0 0 -24562835.15189743 241869823.77427292 0 241869823.77427292 1502962546.3332443 0 0 0 0 -26819316.756526977 290092008.1635859 0 290092008.1635859 556770415.11486816 0 0 0 0 -152715556.02410936 -447351290.50596619 0 -447351290.50596619 872859850.91475677 0 0 0 0 -207294941.19322789 -205420365.23711109 0 -205420365.23711109 339691877.4372406 0 0 0 0 -406667607.97330832 -202295865.0633812 0 -202295865.0633812 480094942.10717773 0 0 0 0 -112814593.95198989 -425261378.09371185 0 -425261378.09371185 524119612.83446884 0 0 0 0 6833242.932331562 -441105101.51480293 0 -441105101.51480293 414750168.73626709 0 0 0 0 -96038328.638163581 -139005872.25017667 0 -139005872.25017667 130421860.70072937 0 0 0 0 133103312.46217179 -368235604.05527496 0 -368235604.05527496 320257375.86992645 0 0 0 0 103644224.62469536 -346687375.25299454 0 -346687375.25299454 715001195.86134338 0 0 0 0 -511904910.81956363 101881286.88903999 0 101881286.88903999 314260852.2075119 0 0 0 0 -104188380.46305704 94964958.504211426 0 94964958.504211426 129125920.90795135 0 0 0 0 -100949436.04749966 176924013.51848412 0 176924013.51848412 -42991846.392511368 0 0 0 0 -97182.15878431173 4032486.2943936475 0 4032486.2943936475 10412656.672120981 0 0 0 0 208542427.84674835 126107438.85042953 0 126107438.85042953 -123217465.28557587 0 0 0 0 -16964137.123915672 47363619.581256866 0 47363619.581256866 29247318.153823853 0 0 0 0 130062110.26445198 179209194.29817963 0 179209194.29817963 135224142.8873806 0 0 0 0 427923071.33555222 112325852.28848648 0 112325852.28848648 -146038002.12535477 0 0 0 0 -534042.31235043705 1101760.1703079641 0 1101760.1703079641 4454810.8189444616 0 0 0 0 55404374.211557865 698466255.13729858 0 698466255.13729858 720599252.88143158 0 0 0 0 417255567.20924222 86649260.070037842 0 86649260.070037842 718712203.7911377 0 0 0 0 996825312.19706893 134153368.33452654 0 134153368.33452654 276031606.15115356 0 0 0 0 1112524912.7401443 -425445630.81099558 0 -425445630.81099558 -425625856.75914001 0 0 0 0 343439696.45382166 -645657289.16849518 0 -645657289.16849518 10405005.899888992 0 0 0 0 520407813.18625307 -353466491.50014877 0 -353466491.50014877 153014017.19336796 0 0 0 0 547840965.57674217 -200038089.7148819 0 -200038089.7148819 39329832.70483017 0 0 0 0 335086896.72677183 -110863925.1588707 0 -110863925.1588707 413908327.19599152 0 0 0 0 160599324.9974544 -266830720.81117249 0 -266830720.81117249 274619644.70671463 0 0 0 0 102408203.22222519 -203768952.29638672 0 -203768952.29638672 451018536.99726677 0 0 0 0 29004234.865740299 -438305517.56737137 0 -438305517.56737137 411896552.98099327 0 0 0 0 129589995.32109904 -224851044.33797646 0 -224851044.33797646 438006154.34593964 0 0 0 0 -23715498.510273695 -363354676.21685219 0 -363354676.21685219 523197196.03490067 0 0 0 0 71818939.111282825 -261983654.39251709 0 -261983654.39251709 414377251.12179184 0 0 0 0 72371173.51528573 -265555438.6553812 0 -265555438.6553812 275389152.54320526 0 0 0 0 59135354.845342636 -275462217.63696289 0 -275462217.63696289 268146937.3732338 0 0 0 0 19462828.071125031 -181585725.60510254 0 -181585725.60510254 196470095.99840546 0 0 0 0 83309363.933355331 -250188127.87020874 0 -250188127.87020874 248346492.55523682 0 0 0 0 98670676.172115326 -253468262.94601822 0 -253468262.94601822 244211218.02127075 0 0 0 0 88495553.237849236 -239757592.06196404 0 -239757592.06196404 225825466.42752838 0 0 0 0 57515831.289606094 -294029214.6625061 0 -294029214.6625061 358086770.95461273 0 0 0 0 120516413.26526833 -395801263.47745514 0 -395801263.47745514 332028194.6887207 0 0 0 0 134110213.32598972 -395977217.56520462 0 -395977217.56520462 250960128.08982563 0 0 0 0 282590718.80864 -323455973.30407524 0 -323455973.30407524 193874454.23348999 0 0 0 0 540403483.56430674 62193923.245339394 0 62193923.245339394 24266693.850746155 0 0 0 0 318778709.96482754 -34440682.816448212 0 -34440682.816448212 22375442.750700474 0 0 0 0 355548192.63690567 -74066591.208614349 0 -74066591.208614349 -72434486.156845093 0 0 0 0 170023398.07952309 -182467138.83115005 0 -182467138.83115005 63006588.856032848 0 0 0 0 93036830.652503967 -69892577.285524368 0 -69892577.285524368 -54532061.918136597 0 0 0 0 161985704.40188026 -56809542.355224609 0 -56809542.355224609 74395506.619233131 0 0 0 0 117878561.23331833 -205532808.04524994 0 -205532808.04524994 137632154.36497116 0 0 0 0 328685376.802948 -119730466.79000854 0 -119730466.79000854 234983158.79438782 0 0 0 0 948882020.85164928 -219698697.75657654 0 -219698697.75657654 104004110.77062988 0 0 0 0 381664918.55361938 -269796834.64302063 0 -269796834.64302063 246643796.8179245 0 0 0 0 752940.42805147253 -2872604.3490945231 0 -2872604.3490945231 2528726.2920026109 0 0 0 0 -39118146.843118668 30975319.027809143 0 30975319.027809143 19603872.960372925 0 0 0 0 302525.94354353589 -621498.7064240966 0 -621498.7064240966 1134930.8382303268 0 0 0 0 312956991.31775379 318182370.65486336 0 318182370.65486336 297955354.36168671 0 0 0 0 308478416.20770979 283629490.02801704 0 283629490.02801704 39166592.6146698 0 0 0 0 280144800.71308422 236057514.13193321 0 236057514.13193321 -26376695.839782715 0 0 0 0 199811663.04823494 284000592.12510681 0 284000592.12510681 313332803.86285114 0 0 0 0 153802427.36725903 172895412.037817 0 172895412.037817 45966668.534332275 0 0 0 0 236118915.03880811 258369990.20698977 0 258369990.20698977 48109144.184631348 0 0 0 0 27700467.428226709 81486192.542273521 0 81486192.542273521 -33299496.413269043 0 0 0 0 -353531124.04909945 44840827.137859344 0 44840827.137859344 158937852.64169788 0 0 0 0 795800.27501413389 -1839324.7319265045 0 -1839324.7319265045 2754127.029362224 0 0 0 0 -29735539.706427574 -30245255.53911972 0 -30245255.53911972 -24074889.414085388 0 0 0 0 -191880357.17973042 21311440.094171524 0 21311440.094171524 51505339.857608795 0 0 0 0 -111258345.43763161 111793973.713274 0 111793973.713274 38279405.303665161 0 0 0 0 1256913.3375714836 -5987293.8149987888 0 -5987293.8149987888 8121548.0962054804 0 0 0 0 181082842.56240463 121387835.78649616 0 121387835.78649616 64558642.556545258 0 0 0 0 926197.22503915569 -1822514.8382183984 0 -1822514.8382183984 1257799.1290108189 0 0 0 0 70414961.797719955 -56100325.077548027 0 -56100325.077548027 -87132935.442939758 0 0 0 0 21866280.823760033 -187202179.66341019 0 -187202179.66341019 -75646387.247526646 0 0 0 0 263691776.01753521 -14900363.591993332 0 -14900363.591993332 -40645450.720674515 0 0 0 0 133036109.85630417 -126916480.49481583 0 -126916480.49481583 -49874166.8117342 0 0 0 0 347753945.79021573 -47963326.979012489 0 -47963326.979012489 -81490139.425735474 0 0 0 0 145441841.0372324 -197446356.40547371 0 -197446356.40547371 -132870282.87319279 0 0 0 0 -43382476.91465044 -58710603.023787975 0 -58710603.023787975 -210402466.59806061 0 0 0 0 144425608.40688229 -222018314.41920757 0 -222018314.41920757 -177419712.22056222 0 0 0 0 7953857.3832397554 -9065793.9811908305 0 -9065793.9811908305 10654812.919312095 0 0 0 0 188215668.06716824 551443710.45294285 0 551443710.45294285 321491664.23234558 0 0 0 0 204241999.11378491 288629337.94083595 0 288629337.94083595 478024978.0714159 0 0 0 0 575456870.2471838 390600229.08076954 0 390600229.08076954 409827603.96828556 0 0 0 0 264309677.60087836 415928676.93275452 0 415928676.93275452 598028092.70379066 0 0 0 0 3031045.5521165896 -2751273.2183888908 0 -2751273.2183888908 3167479.982347209 0 0 0 0 579727287.85884202 557437414.24609923 0 557437414.24609923 893579696.65339088 0 0 0 0 606802950.43234539 449480675.84017277 0 449480675.84017277 -582618709.04403543 0 0 0 0 145849182.45788211 -199413737.63089126 0 -199413737.63089126 -150277429.23745346 0 0 0 0 44807403.621850491 -247925334.91284275 0 -247925334.91284275 -172420696.55700493 0 0 0 0 1212380.7514871745 -7183910.0250837971 0 -7183910.0250837971 13682304.804210834 0 0 0 0 -33363284.792495012 -234205525.82192039 0 -234205525.82192039 -98703151.96138382 0 0 0 0 -290739403.19815445 -98240930.517404556 0 -98240930.517404556 221975823.51838493 0 0 0 0 -144497415.20918393 69573539.705706596 0 69573539.705706596 352640704.03635788 0 0 0 0 564568987.30143094 -407936893.72167206 0 -407936893.72167206 1269900.4864559174 0 0 0 0 -841992338.71128762 -197862722.8932364 0 -197862722.8932364 1940519044.2250671 0 0 0 0 162394730.59097528 -266488922.70389175 0 -266488922.70389175 64330778.300935745 0 0 0 0 851576220.73532438 -574666670.89370251 0 -574666670.89370251 -92060441.231473923 0 0 0 0 1017013.390482871 -5655933.5157361478 0 -5655933.5157361478 14959023.928834561 0 0 0 0 779919248.46484089 12170053.076042175 0 12170053.076042175 -131991957.60046387 0 0 0 0 784603723.336151 -482902545.39604747 0 -482902545.39604747 42803013.550415039 0 0 0 0 1645157947.7883019 -465440154.34408569 0 -465440154.34408569 129797231.14541245 0 0 0 0 689246591.52817607 -333573140.71988106 0 -333573140.71988106 255452647.84990883 0 0 0 0 679874.87671184749 -1867334.3593612285 0 -1867334.3593612285 6807455.9730977044 0 0 0 0 809359473.61253345 887147219.50365257 0 887147219.50365257 -36239588.581541061 0 0 0 0 625391727.94869685 966774786.39812469 0 966774786.39812469 748165040.50503159 0 0 0 0 623963718.42727304 279789301.70217991 0 279789301.70217991 852125496.13541985 0 0 0 0 566959371.83968377 249674234.6264286 0 249674234.6264286 454018256.92753983 0 0 0 0 652848803.80252051 307372105.94183159 0 307372105.94183159 475681287.99202728 0 0 0 0 440217091.8841067 124887224.84116459 0 124887224.84116459 415310074.5579071 0 0 0 0 331974087.62444019 332995449.58407688 0 332995449.58407688 422994474.65958148 0 0 0 0 532239622.8438015 181814373.13234472 0 181814373.13234472 505855916.19587326 0 0 0 0 535167379.38541126 179039126.43206763 0 179039126.43206763 427728135.08980942 0 0 0 0 988103842.37530088 145798019.29188347 0 145798019.29188347 -550687754.94315815 0 0 0 0 530738688.80637074 -115079804.84925461 0 -115079804.84925461 1074506834.6896315 0 0 0 0 966983919.67573214 123874853.12370872 0 123874853.12370872 375587198.7088089 0 0 0 0 -187340732.33733463 -146340344.0904007 0 -146340344.0904007 48732153.081798553 0 0 0 0 -264661718.54332161 28433450.03130722 0 28433450.03130722 107132326.32680511 0 0 0 0 -48683627.11425209 37019129.381351471 0 37019129.381351471 -17351487.067390442 0 0 0 0 2729493.0596885681 -183860634.58115005 0 -183860634.58115005 197564175.75354004 0 0 0 0 -6993136.103928566 -184437719.34635925 0 -184437719.34635925 232383339.33067131 0 0 0 0 14856053.100209236 -128283538.93256378 0 -128283538.93256378 72637559.223312378 0 0 0 0 -132899484.82258701 -98096556.86464119 0 -98096556.86464119 146907996.83428955 0 0 0 0 -50879592.990921021 -179674798.79135895 0 -179674798.79135895 147680935.77611542 0 0 0 0 57905590.739443779 -168802089.29321289 0 -168802089.29321289 140535382.74156189 0 0 0 0 83472107.189389005 -284868877.23665428 0 -284868877.23665428 216461074.49881744 0 0 0 0 104080686.43458581 -188782420.16054535 0 -188782420.16054535 155708079.8739624 0 0 0 0 -66737379.952028275 -265021638.11339188 0 -265021638.11339188 159366378.20146561 0 0 0 0 -109325969.36190748 -81522848.271190643 0 -81522848.271190643 101819050.60637283 0 0 0 0 91499587.830883503 -222542084.10834503 0 -222542084.10834503 52147629.844585419 0 0 0 0 293737906.32436103 -361401306.46707916 0 -361401306.46707916 41499015.291782379 0 0 0 0 82041996.741404057 -232812243.99221802 0 -232812243.99221802 131776436.06179905 0 0 0 0 251166456.36533481 -336484662.85454559 0 -336484662.85454559 144037115.32922363 0 0 0 0 259398907.47648603 -199742477.95161819 0 -199742477.95161819 241878998.50688934 0 0 0 0 342035725.94312704 -360757848.67561436 0 -360757848.67561436 236455823.36244965 0 0 0 0 317098035.55480123 -248499821.62084484 0 -248499821.62084484 245072236.05950928 0 0 0 0 603066064.89162016 -209402201.4269104 0 -209402201.4269104 85409435.82756424 0 0 0 0 674955403.19999444 -285447941.58812141 0 -285447941.58812141 -101270772.27841949 0 0 0 0 533330888.84821665 -531881607.92422771 0 -531881607.92422771 124860076.34922409 0 0 0 0 625344304.94709778 -325418663.42984772 0 -325418663.42984772 -105262225.78052545 0 0 0 0 661892939.73498487 -465179832.20984268 0 -465179832.20984268 80648067.061562538 0 0 0 0 99931236.829549357 -395723166.94510549 0 -395723166.94510549 546158264.62472534 0 0 0 0 84274053.527601212 -201378665.38131905 0 -201378665.38131905 8422174.2876644135 0 0 0 0 -60895455.928811789 -440928762.33259964 0 -440928762.33259964 235705209.23154831 0 0 0 0 262943104.80653411 -275216397.44399166 0 -275216397.44399166 -1524814.8051300049 0 0 0 0 -211202325.41067386 -92283209.149078369 0 -92283209.149078369 -5301635.402721405 0 0 0 0 -249477391.37869358 -224904052.34853363 0 -224904052.34853363 141629888.02074432 0 0 0 0 -479504128.47081876 182024055.23898125 0 182024055.23898125 -248411810.50175095 0 0 0 0 -458894245.94052911 -235543191.15841866 0 -235543191.15841866 60206872.312278748 0 0 0 0 -542353265.18950605 58556986.46868515 0 58556986.46868515 -158732329.28173637 0 0 0 0 -4393723.3320626803 -2709909.1981592095 0 -2709909.1981592095 5548658.1175992936 0 0 0 0 -693738448.03257346 92773051.906302452 0 92773051.906302452 98069003.478782654 0 0 0 0 -589002483.77938724 245225680.41422272 0 245225680.41422272 -62145717.691055298 0 0 0 0 -233090258.50826955 59254401.902314663 0 59254401.902314663 -86004190.694499969 0 0 0 0 152841890.11882466 -7406958.6031780243 0 -7406958.6031780243 196422921.66440678 0 0 0 0 -775574.52100556577 -2110383.3285950487 0 -2110383.3285950487 5498855.1375226453 0 0 0 0 -980866.3665149617 -919988.25839023292 0 -919988.25839023292 9540525.2540160939 0 0 0 0 443382006.24708462 -244911302.95677423 0 -244911302.95677423 95410774.434631348 0 0 0 0 -700472335.50819254 442602828.75783157 0 442602828.75783157 194356337.26299286 0 0 0 0 -2441538.6449195817 -3552747.6721318662 0 -3552747.6721318662 13183127.56703854 0 0 0 0 -2804770.5080471048 -669490.71931058262 0 -669490.71931058262 4346547.4195456319 0 0 0 0 -1355425289.8280354 363785189.63054276 0 363785189.63054276 310145710.95087242 0 0 0 0 -497993246.38097793 -28507285.384337902 0 -28507285.384337902 -453441731.24718094 0 0 0 0 -872574629.72158098 -297610555.37691975 0 -297610555.37691975 141418123.47779083 0 0 0 0 -934352994.33635354 598000092.09690094 0 598000092.09690094 686005822.58090973 0 0 0 0 159708709.39278403 467910918.90100098 0 467910918.90100098 -547392152.1914444 0 0 0 0 136368530.76693484 731248636.26537704 0 731248636.26537704 943668120.64863586 0 0 0 0 -73530748.639424264 124192993.97597694 0 124192993.97597694 86192706.54535675 0 0 0 0 -496823158.30138797 -259969585.95486271 0 -259969585.95486271 371114176.70735168 0 0 0 0 -54912715.188642219 10659924.464791775 0 10659924.464791775 770199149.03047562 0 0 0 0 413074664.96114516 -70826747.88338089 0 -70826747.88338089 390872198.01458931 0 0 0 0 489710421.95062298 520155103.98297501 0 520155103.98297501 250111678.72278214 0 0 0 0 420848463.72517151 626020457.05722022 0 626020457.05722022 1572997471.8035259 0 0 0 0 269094717.59737164 962812445.68650699 0 962812445.68650699 1565702444.2450237 0 0 0 0 259368088.19019812 1062706900.9104767 0 1062706900.9104767 693746245.57873917 0 0 0 0 234514468.61755085 1163854517.2706966 0 1163854517.2706966 1478862612.2759838 0 0 0 0 86460557.380015135 1006202588.0108385 0 1006202588.0108385 1735371476.9904633 0 0 0 0 140477193.98032597 1576813281.3805847 0 1576813281.3805847 2199564503.8142014 0 0 0 0 -107229217.61302944 1280331836.460268 0 1280331836.460268 1537228622.2880764 0 0 0 0 -14032889.678265683 1315276699.3971519 0 1315276699.3971519 556040111.73047256 0 0 0 0 -432317.42945821572 752861.07851840276 0 752861.07851840276 1299584.2880373299 0 0 0 0 -362901806.55736774 -115359203.82404327 0 -115359203.82404327 -839825999.38629913 0 0 0 0 371856906.50390911 -595859922.71418858 0 -595859922.71418858 2187286755.1173973 0 0 0 0 236828251.58789074 1560101314.9146252 0 1560101314.9146252 1906826988.2894821 0 0 0 0 49497.048316414417 -374473.33630688395 0 -374473.33630688395 4104901.9226474278 0 0 0 0 -592789.13488406548 -3052440.3427867265 0 -3052440.3427867265 3996806.9955581948 0 0 0 0 1009783071.4635346 -1264338230.539793 0 -1264338230.539793 1057073060.1426048 0 0 0 0 14678263.809201449 253862925.29282856 0 253862925.29282856 195909400.57356262 0 0 0 0 399648585.4137361 -485253612.0190382 0 -485253612.0190382 83229466.302192688 0 0 0 0 779251649.82848191 -200362832.51749992 0 -200362832.51749992 1598648078.1418104 0 0 0 0 36822237.365827024 -138130672.70208931 0 -138130672.70208931 1560094018.6967373 0 0 0 0 367496100.85984653 244445827.91528833 0 244445827.91528833 1085096095.2055149 0 0 0 0 278734995.4041521 48472796.560301781 0 48472796.560301781 945234776.26435089 0 0 0 0 328319745.94620931 13159293.273158848 0 13159293.273158848 1809031694.0201435 0 0 0 0 347413446.32453728 841537408.09554482 0 841537408.09554482 1383504969.394021 0 0 0 0 1159364121.4907646 -858434521.72639751 0 -858434521.72639751 838937901.31562805 0 0 0 0 472585467.25585365 -395717846.54313993 0 -395717846.54313993 1658733809.5446434 0 0 0 0 1078605475.1369543 749788744.26826954 0 749788744.26826954 1122245209.4807529 0 0 0 0 1345326881.4573045 232811469.46552992 0 232811469.46552992 1480899701.2194004 0 0 0 0 527565111.6782105 693839513.12110329 0 693839513.12110329 2205519068.1727066 0 0 0 0 481537504.28751463 457149214.58739424 0 457149214.58739424 1459543539.2057743 0 0 0 0 427159295.47163051 268969367.2560792 0 268969367.2560792 2204246859.7325745 0 0 0 0 254226959.76349148 88523566.890580654 0 88523566.890580654 1791578585.1365318 0 0 0 0 -19995134.31373753 13314749.689973831 0 13314749.689973831 2204921184.4659176 0 0 0 0 221892030.75842741 -23435863.827904701 0 -23435863.827904701 1803924405.9241867 0 0 0 0 -105844355.49061391 -187954568.27155495 0 -187954568.27155495 1733313308.4639721 0 0 0 0 -267950574.62869337 -283930327.05418396 0 -283930327.05418396 2204469145.0179491 0 0 0 0 -32216574.354712054 -352801277.71347141 0 -352801277.71347141 1401433315.9162979 0 0 0 0 107371946.90298533 -90545601.777627945 0 -90545601.777627945 1765165467.8256307 0 0 0 0 -533934849.52487451 -698649978.18327546 0 -698649978.18327546 2205230776.0293846 0 0 0 0 -381078248.15979421 -549076045.96028662 0 -549076045.96028662 1650752631.2398472 0 0 0 0 -390073371.40788269 -302495803.57949924 0 -302495803.57949924 1678919390.4205966 0 0 0 0 -203786874.21300447 -527446094.2524538 0 -527446094.2524538 767177592.25058937 0 0 0 0 -567990.01928761695 193406.21031819656 0 193406.21031819656 2432004.9939510813 0 0 0 0 -630166073.80733383 918824172.04591227 0 918824172.04591227 338382334.89145684 0 0 0 0 -432814188.96281868 338600228.3567884 0 338600228.3567884 1819731562.3905869 0 0 0 0 263414941.91373777 731765042.7231493 0 731765042.7231493 1140768844.5386496 0 0 0 0 388290951.5513401 213062940.60092497 0 213062940.60092497 7760248.2389640808 0 0 0 0 -72487064.850593328 149625955.40692186 0 149625955.40692186 1328768356.0839119 0 0 0 0 349054088.0886817 -823428957.35769415 0 -823428957.35769415 1453083583.5360413 0 0 0 0 6907314.86475797 101850519.18654442 0 101850519.18654442 1518059329.8461523 0 0 0 0 -1014926.1979662277 -247641.14593043085 0 -247641.14593043085 3392330.4112227652 0 0 0 0 -403683189.37562263 -474159396.27942133 0 -474159396.27942133 566945050.91819 0 0 0 0 -312719073.43410707 -595314080.52242613 0 -595314080.52242613 -262568060.018116 0 0 0 0 258461983.11288038 -59071519.617448092 0 -59071519.617448092 375168044.31018829 0 0 0 0 -316466676.62276769 -197052594.62758827 0 -197052594.62758827 1279205252.8807707 0 0 0 0 126754789.02254522 74779799.905813217 0 74779799.905813217 492578996.88592052 0 0 0 0 363219472.97578132 260083089.53836632 0 260083089.53836632 254704097.62741089 0 0 0 0 109711112.33787167 283955687.26882458 0 283955687.26882458 395031617.38451195 0 0 0 0 311879393.47193515 278762183.82348347 0 278762183.82348347 317307620.53050613 0 0 0 0 24496706.5626297 353409154.34816742 0 353409154.34816742 301560053.52019215 0 0 0 0 18812710.329525709 179290834.79546833 0 179290834.79546833 14684183.741725922 0 0 0 0 114365205.11005974 224401748.76682591 0 224401748.76682591 133018019.68310165 0 0 0 0 -157384166.15778792 59407376.719459057 0 59407376.719459057 124830186.2004776 0 0 0 0 -177953412.73432517 206012028.34061813 0 206012028.34061813 261280975.83256721 0 0 0 0 126545334.50765648 62604699.644114614 0 62604699.644114614 -98406616.684864044 0 0 0 0 -492752421.17190588 -130538283.15458986 0 -130538283.15458986 118597895.07903099 0 0 0 0 -2044145.5570680741 138398.75678910222 0 138398.75678910222 5983567.9197353851 0 0 0 0 -470081901.96250796 169194714.3839426 0 169194714.3839426 219728013.26985836 0 0 0 0 10944896.496589109 229188930.39460099 0 229188930.39460099 13606616.035673141 0 0 0 0 24562780.881244898 -175577740.46754646 0 -175577740.46754646 183891345.8052268 0 0 0 0 -293830989.46369457 -30501779.079626083 0 -30501779.079626083 -45941594.207065582 0 0 0 0 -230152896.9828186 118314756.6018219 0 118314756.6018219 -30312637.10954833 0 0 0 0 -307706388.14164734 126902569.61806297 0 126902569.61806297 207207813.07046413 0 0 0 0 -197808221.89377677 75121664.882172108 0 75121664.882172108 -191157.22472953796 0 0 0 0 274857537.90673244 441132528.23157883 0 441132528.23157883 -98534300.974052429 0 0 0 0 955082.60404781299 720542.41644087853 0 720542.41644087853 336466.284613478 0 0 0 0 1584244.4446372986 95615899.610463679 0 95615899.610463679 177680377.96199608 0 0 0 0 -602181.59254820109 113643.15422070096 0 113643.15422070096 1344265.7684248537 0 0 0 0 1337620.4573287638 1891727.7239901926 0 1891727.7239901926 1894855.2556470279 0 0 0 0 -16893721.697196007 -62352660.981492043 0 -62352660.981492043 115570219.25862694 0 0 0 0 8763012.8897309303 22780098.754218102 0 22780098.754218102 72537475.802968979 0 0 0 0 -673256039.95122004 32725139.397221565 0 32725139.397221565 180453796.66856766 0 0 0 0 -145712015.11622977 -215037958.09321904 0 -215037958.09321904 -136191149.69169903 0 0 0 0 1549998.246717453 348786151.41357088 0 348786151.41357088 306398360.83971786 0 0 0 0 -554635370.75503063 561459194.00019073 0 561459194.00019073 38249729.837101936 0 0 0 0 82755888.41314888 478056525.37298107 0 478056525.37298107 -429133938.97612 0 0 0 0 79657208.440833807 93782010.644229412 0 93782010.644229412 924613410.67818069 0 0 0 0 38929276.129234314 -66173564.160990238 0 -66173564.160990238 303448998.01067734 0 0 0 0 377576052.4540658 503582737.47030354 0 503582737.47030354 563814333.88143539 0 0 0 0 172388173.37828732 537735996.34004307 0 537735996.34004307 489108920.88612413 0 0 0 0 253440863.56253958 438713788.74103069 0 438713788.74103069 604586334.32302856 0 0 0 0 -1565575.6729770661 -315880.47682447731 0 -315880.47682447731 1258279.0228855368 0 0 0 0 311935224.34343362 142237774.91494513 0 142237774.91494513 544492304.54469299 0 0 0 0 265747729.54223561 343702522.63805676 0 343702522.63805676 20324610.529183388 0 0 0 0 31728716.321360111 581564004.2003994 0 581564004.2003994 452241963.91294241 0 0 0 0 128623651.68898928 502231608.4707756 0 502231608.4707756 490684645.83577442 0 0 0 0 273806014.87360555 424682674.058882 0 424682674.058882 394870193.54149818 0 0 0 0 150655196.78758383 423690465.5410347 0 423690465.5410347 449480381.31682968 0 0 0 0 129812027.02969855 354859416.90945721 0 354859416.90945721 224177529.01494789 0 0 0 0 151432514.31589103 665281578.39740562 0 665281578.39740562 441391899.78592277 0 0 0 0 100424070.50430739 576684216.07356691 0 576684216.07356691 297608300.69180679 0 0 0 0 -63984744.994260147 73286241.695070028 0 73286241.695070028 -36640306.438079834 0 0 0 0 -55786089.311323881 101015941.1380384 0 101015941.1380384 -106034246.37779236 0 0 0 0 -133386143.76981783 130444715.8866024 0 130444715.8866024 -40067903.106822968 0 0 0 0 -56621567.606707215 72643970.738889694 0 72643970.738889694 -39783493.595323563 0 0 0 0 -56877152.923843265 48656897.974017143 0 48656897.974017143 7506054.5123682022 0 0 0 0 -67900268.642092273 22902128.299267232 0 22902128.299267232 52453462.698255539 0 0 0 0 -65482672.164956078 44684835.919638038 0 44684835.919638038 17215761.585361481 0 0 0 0 -23734070.961307161 1101920.3756660223 0 1101920.3756660223 -1003894.6544265747 0 0 0 0 -25656924.325868994 18047270.277823448 0 18047270.277823448 -35515584.839502335 0 0 0 0 -11064451.881349914 6462425.140599886 0 6462425.140599886 7756643.6647419678 0 0 0 0 -15699507.902708739 -6679100.76841259 0 -6679100.76841259 -14519631.390127182 0 0 0 0 -4001995.7844553851 -1552205.7189939618 0 -1552205.7189939618 -21276991.732917786 0 0 0 0 -50204599.493523598 24723305.527210236 0 24723305.527210236 -15024718.563896179 0 0 0 0 -8638804.2105018068 285835.58775324095 0 285835.58775324095 5818763.243808738 0 0 0 0 14370953.739494324 49655683.730395317 0 49655683.730395317 14032125.675669193 0 0 0 0 -8625655.0373398066 33325029.251152992 0 33325029.251152992 -70303712.072165012 0 0 0 0 -92983888.866242766 -73713363.146131992 0 -73713363.146131992 20068526.245532036 0 0 0 0 2004278.1491007805 -13412417.388425827 0 -13412417.388425827 -142154713.44085503 0 0 0 0 10165521.578359604 51499484.539292336 0 51499484.539292336 -375903261.58487129 0 0 0 0 -289792963.63820457 505160742.95479965 0 505160742.95479965 -510315706.49695206 0 0 0 0 -595287940.49817657 175019275.42277908 0 175019275.42277908 -100491180.31535792 0 0 0 0 -53654043.183638573 254447700.22965431 0 254447700.22965431 -693890998.38242435 0 0 0 0 -3060213.827566498 -69305.939155204222 0 -69305.939155204222 1617705.0932002713 0 0 0 0 -539536484.44083762 561598430.72497213 0 561598430.72497213 -231392277.66741562 0 0 0 0 -361828986.30083847 55666369.95886755 0 55666369.95886755 3990544.3827857971 0 0 0 0 -462164390.26198959 350889147.68311214 0 350889147.68311214 53297444.128274918 0 0 0 0 -279445297.28550339 135423735.6008606 0 135423735.6008606 55700475.169893637 0 0 0 0 -89545296.955548525 146308972.78173208 0 146308972.78173208 -124845879.66757965 0 0 0 0 -98865845.795831203 134646218.67704201 0 134646218.67704201 -130443174.07435191 0 0 0 0 -170877833.11102676 241327836.74404526 0 241327836.74404526 -224067471.67262745 0 0 0 0 -171545806.6802125 234082025.83666801 0 234082025.83666801 -298470274.6360302 0 0 0 0 -285055938.71775627 159715190.03922701 0 159715190.03922701 -13602620.076507568 0 0 0 0 -167029984.02020979 193296767.07790184 0 193296767.07790184 -112252408.67898941 0 0 0 0 -195847075.61495429 134798272.77858281 0 134798272.77858281 748044.13392925262 0 0 0 0 -145738966.98965883 180005939.08532333 0 180005939.08532333 -8069063.4924345016 0 0 0 0 -202669012.79269934 144518484.01530933 0 144518484.01530933 -10810079.328884125 0 0 0 0 -235476797.83137989 74179944.403149128 0 74179944.403149128 -3869699.9616705179 0 0 0 0 -256643525.67903352 122603527.58384228 0 122603527.58384228 -11831651.028333664 0 0 0 0 -1117734.6753030601 -258848.30524388142 0 -258848.30524388142 2432245.5048255678 0 0 0 0 62165105.680971622 -239667161.01464844 0 -239667161.01464844 339458016.29909945 0 0 0 0 -198217406.49930191 128461177.23700047 0 128461177.23700047 -53507986.027083397 0 0 0 0 -229361192.62290573 344131554.44668865 0 344131554.44668865 -50332912.067513913 0 0 0 0 -324413.30133638671 133528.69736075867 0 133528.69736075867 1071481.1371673783 0 0 0 0 -225154594.65491664 265127006.19432545 0 265127006.19432545 303649820.5597229 0 0 0 0 -151571242.73440784 154312659.6142025 0 154312659.6142025 72995694.581892014 0 0 0 0 -194465571.01090512 127836688.85362005 0 127836688.85362005 237320305.15347767 0 0 0 0 -136233572.67127335 186039493.13661575 0 186039493.13661575 69474522.552536011 0 0 0 0 -136409951.37544978 147068723.27225494 0 147068723.27225494 35035222.168096304 0 0 0 0 -99521727.351768732 102216119.4196291 0 102216119.4196291 27945390.421020508 0 0 0 0 -110311846.29660104 121426001.49440312 0 121426001.49440312 3872513.7363185883 0 0 0 0 -109430061.63406587 138167470.87612438 0 138167470.87612438 -46687004.994015694 0 0 0 0 -106066496.87079418 91415599.113404274 0 91415599.113404274 56221204.345128059 0 0 0 0 -128119451.21449161 121805902.42782211 0 121805902.42782211 111791967.97826862 0 0 0 0 -115068462.03362659 87799593.549945831 0 87799593.549945831 66256328.216312408 0 0 0 0 -178391265.78437522 112961567.85849047 0 112961567.85849047 122231491.76487064 0 0 0 0 -189240282.26137215 105069721.81286812 0 105069721.81286812 116490766.8717823 0 0 0 0 -266145542.18518287 48286931.359441757 0 48286931.359441757 174846271.57094955 0 0 0 0 -206555178.36783779 -2614221.5362272263 0 -2614221.5362272263 113961635.72923374 0 0 0 0 -220777548.54522634 101989132.15336752 0 101989132.15336752 213681417.70321274 0 0 0 0 -188463557.24618506 -2588686.355463028 0 -2588686.355463028 538026744.96721077 0 0 0 0 -197553148.76051676 -49691691.015948296 0 -49691691.015948296 360137101.53905678 0 0 0 0 -119523880.54484725 -135935833.64281893 0 -135935833.64281893 198464965.69813347 0 0 0 0 -137555205.53120002 -177460596.85904312 0 -177460596.85904312 285282704.91409779 0 0 0 0 -126343293.66745436 -155937094.76485586 0 -155937094.76485586 95605882.139628887 0 0 0 0 -343377092.89181834 -220468025.82971758 0 -220468025.82971758 56755339.15732193 0 0 0 0 -325324948.0226959 -31362646.488554031 0 -31362646.488554031 51974641.813051224 0 0 0 0 -233074683.6951676 -98126923.387160778 0 -98126923.387160778 -62757355.507910728 0 0 0 0 -283620124.03119928 -59562447.709155083 0 -59562447.709155083 189509423.56394196 0 0 0 0 -131686447.11333925 -2034345.3659024239 0 -2034345.3659024239 820768241.42520714 0 0 0 0 -60214846.716039181 -183966890.07361364 0 -183966890.07361364 851806700.78790998 0 0 0 0 -85129255.993054628 -72590713.434260845 0 -72590713.434260845 354499017.54439068 0 0 0 0 -123129492.89758475 -158189156.43009022 0 -158189156.43009022 478390811.93091106 0 0 0 0 -88264890.604358792 -364920095.69392014 0 -364920095.69392014 358212768.95808458 0 0 0 0 183551415.63754824 -229456312.0342772 0 -229456312.0342772 508848103.84752369 0 0 0 0 -508859400.02941608 -274807042.44907856 0 -274807042.44907856 1183214800.5904789 0 0 0 0 55631373.463159084 -312780492.83567715 0 -312780492.83567715 534173198.90665972 0 0 0 0 -1821494.71819068 -130798.88400277682 0 -130798.88400277682 5558606.3795651477 0 0 0 0 34007757.512408257 -241914703.28174031 0 -241914703.28174031 379360362.59787273 0 0 0 0 -2488705.1003393601 -1204431.1730285923 0 -1204431.1730285923 5532541.2711650236 0 0 0 0 466181042.03670841 -1369944781.4673254 0 -1369944781.4673254 2202540763.3408508 0 0 0 0 -395640510.76255488 119428339.93572712 0 119428339.93572712 142969614.78626347 0 0 0 0 1001794.4235385775 -692411446.65593767 0 -692411446.65593767 1221360865.0315373 0 0 0 0 -418550224.40577227 -183242344.84848928 0 -183242344.84848928 63095615.369721413 0 0 0 0 -359269196.55214429 154747684.55832481 0 154747684.55832481 -257392440.33746052 0 0 0 0 -505757664.57711333 12414556.937884331 0 12414556.937884331 -40839994.816333055 0 0 0 0 462623620.50621545 -398906388.59171009 0 -398906388.59171009 -280043905.96622378 0 0 0 0 -482077275.72060156 -354633056.41335678 0 -354633056.41335678 -351631919.79982948 0 0 0 0 -233264.23096848745 -253019.63651951915 0 -253019.63651951915 555565.88507615775 0 0 0 0 68634054.091691494 -221073672.40513182 0 -221073672.40513182 3511797.4497127533 0 0 0 0 41733630.529969037 -328999488.12650347 0 -328999488.12650347 78340211.099442959 0 0 0 0 -21961469.621092677 -417363478.58553839 0 -417363478.58553839 376606110.63847637 0 0 0 0 20101495.820344806 -311668749.15802479 0 -311668749.15802479 75027994.440652847 0 0 0 0 471645107.19775265 -789163793.34660006 0 -789163793.34660006 102103525.84386835 0 0 0 0 -225603083.18890101 -1252802067.7302632 0 -1252802067.7302632 2194065992.9378147 0 0 0 0 -497299407.32315457 -195843637.04242653 0 -195843637.04242653 615234778.90334606 0 0 0 0 -351841121.04137355 -522960497.94729722 0 -522960497.94729722 1350852275.8013439 0 0 0 0 682695992.36405635 -713334133.4343487 0 -713334133.4343487 401634047.96195507 0 0 0 0 -1520541.2627367605 2259433.5318259681 0 2259433.5318259681 5818288.5609498704 0 0 0 0 48400284.910843521 598373169.70214164 0 598373169.70214164 2200692036.6142268 0 0 0 0 -42965745.439747766 75579988.358614683 0 75579988.358614683 1232994478.4798207 0 0 0 0 -4611994.0664579589 1851318.9661929454 0 1851318.9661929454 7549863.6081528598 0 0 0 0 -15322778.28563118 -11271565.690719604 0 -11271565.690719604 31262386.657990932 0 0 0 0 -12796620.865184307 -2089221.5461850166 0 -2089221.5461850166 21341903.568460941 0 0 0 0 -13401781.347744226 -1779402.9327656031 0 -1779402.9327656031 49054925.013648987 0 0 0 0 -111820329.4322471 -227033416.4551388 0 -227033416.4551388 2205463466.5853786 0 0 0 0 7677105.1285896301 6241363.5300922394 0 6241363.5300922394 33205503.373359203 0 0 0 0 -3043185.2241514227 2458900.6026664344 0 2458900.6026664344 5064822.3246261701 0 0 0 0 -16536942.191589765 -305619637.8321147 0 -305619637.8321147 2018432196.6676464 0 0 0 0 102996680.27504271 -489008747.04811096 0 -489008747.04811096 2205583310.8844223 0 0 0 0 -3764572.2636389732 -31057764.701390266 0 -31057764.701390266 89033686.611766815 0 0 0 0 -11170595.161154747 -22583003.911005974 0 -22583003.911005974 86696835.185712814 0 0 0 0 445085.07629310153 1166295.3015697473 0 1166295.3015697473 -255247.62620178424 0 0 0 0 16534506.480371475 -35076730.974087715 0 -35076730.974087715 84962140.941621304 0 0 0 0 44815163.320192337 -29025156.366889 0 -29025156.366889 49583834.979940414 0 0 0 0 15019151.816853285 -34398219.827018261 0 -34398219.827018261 34621682.140934944 0 0 0 0 16778633.760632038 -1746370.7844462395 0 -1746370.7844462395 863642.91245377064 0 0 0 0 1912581.8307993382 -6329600.9725255957 0 -6329600.9725255957 -799416.96500277193 0 0 0 0 734636.54087632895 -33851431.846804142 0 -33851431.846804142 42389526.245997429 0 0 0 0 10130263.433509827 -26501852.160118103 0 -26501852.160118103 29376252.129193783 0 0 0 0 1101432.1307206154 -14720734.358648062 0 -14720734.358648062 7921233.5548114777 0 0 0 0 2177043.8259835336 -5078652.5397902112 0 -5078652.5397902112 -3292326.0053598918 0 0 0 0 211520.44018888474 -18454035.332060814 0 -18454035.332060814 9300533.9449093342 0 0 0 0 1192961.5637133971 -7821518.8589578141 0 -7821518.8589578141 11878237.865544669 0 0 0 0 -223862464.49554977 38243133.233317137 0 38243133.233317137 31920040.794975281 0 0 0 0 -266681307.00786111 -10728688.334603071 0 -10728688.334603071 73341510.405844688 0 0 0 0 490196.27591681341 -7572776.0254613105 0 -7572776.0254613105 13507898.482424565 0 0 0 0 -177225921.86454904 18308289.886098862 0 18308289.886098862 355790829.41072464 0 0 0 0 -273522392.28680921 50234699.8390522 0 50234699.8390522 629916563.58596039 0 0 0 0 -186032042.94416571 122712485.73937225 0 122712485.73937225 651505154.06855965 0 0 0 0 -541071621.93444788 235890241.10449481 0 235890241.10449481 2206172212.140686 0 0 0 0 -383524816.16067255 -217322066.70611 0 -217322066.70611 1653185103.5169544 0 0 0 0 -509005112.38427454 234086091.36819744 0 234086091.36819744 1241715179.4120388 0 0 0 0 -204983441.92194903 315763169.03367233 0 315763169.03367233 1250338864.6014292 0 0 0 0 -295672068.05994612 910991694.52566338 0 910991694.52566338 2200268027.400938 0 0 0 0 -14532781.365155965 -18756160.898137093 0 -18756160.898137093 11084333.681812286 0 0 0 0 462025502.03390509 406278707.47644806 0 406278707.47644806 225106103.7855072 0 0 0 0 116430050.48894453 168493581.67235374 0 168493581.67235374 158793044.25280762 0 0 0 0 5681404.3678119779 -79040417.661392212 0 -79040417.661392212 112067032.32529068 0 0 0 0 -27907645.94720459 -90450035.464586258 0 -90450035.464586258 117269384.22402954 0 0 0 0 4213448.7889297009 -24515232.801435471 0 -24515232.801435471 36067071.907556534 0 0 0 0 -1271856.2395708084 -2018330.6869186126 0 -2018330.6869186126 2013382.2713170312 0 0 0 0 -103760844.61510943 359873008.95927048 0 359873008.95927048 2203278334.8803616 0 0 0 0 711793629.06097078 600471991.61981726 0 600471991.61981726 296746836.11652565 0 0 0 0 1792871.8788746602 -104189.93588553462 0 -104189.93588553462 4061987.3071480915 0 0 0 0 -126800690.84603216 -366038264.25427818 0 -366038264.25427818 1986745665.2612841 0 0 0 0 -1122958.8267619156 1110144.9800119586 0 1110144.9800119586 2087789.4080972937 0 0 0 0 171492708.66609952 -35320870.410606384 0 -35320870.410606384 54151336.588161469 0 0 0 0 51052626.795542203 -60392425.544848919 0 -60392425.544848919 98806181.482865334 0 0 0 0 61286191.014641009 -329332618.62761688 0 -329332618.62761688 2384083922.8864059 0 0 0 0 1888438.7930041298 2146458.5768721057 0 2146458.5768721057 9372576.7143129781 0 0 0 0 -21644597.169742346 407865.1080083847 0 407865.1080083847 25493279.919178009 0 0 0 0 20816605.323712017 -19474339.99222815 0 -19474339.99222815 58731475.399209976 0 0 0 0 2604018.0997054065 -8917596.1815500706 0 -8917596.1815500706 2807678.0744822249 0 0 0 0 -348175.8251285553 -11172827.74943316 0 -11172827.74943316 28869485.53141737 0 0 0 0 6347774.2015615702 -18317077.09893924 0 -18317077.09893924 29797648.063178062 0 0 0 0 -34408682.085635543 21330787.013827324 0 21330787.013827324 22847239.942373276 0 0 0 0 -45088850.319351435 14286115.178319931 0 14286115.178319931 19378719.401426792 0 0 0 0 -6871450.4143248359 158950.11963325553 0 158950.11963325553 22722291.349337179 0 0 0 0 -46322356.71412015 46747844.227597237 0 46747844.227597237 -30651467.669750452 0 0 0 0 -3328951.055067718 -2459460.840305103 0 -2459460.840305103 6957231.2772808429 0 0 0 0 -95642366.579057217 29461651.782611847 0 29461651.782611847 45958698.926908493 0 0 0 0 -27513785.736864328 -28093211.518836021 0 -28093211.518836021 75541543.514481544 0 0 0 0 288089435.75761199 -304503293.55899811 0 -304503293.55899811 209714208.95331192 0 0 0 0 13670890.02727437 -103097225.19209099 0 -103097225.19209099 295354429.71500015 0 0 0 0 142798286.05242395 -264824145.25577164 0 -264824145.25577164 303055735.75991631 0 0 0 0 -310488221.70190907 163007180.6184597 0 163007180.6184597 -332739449.4070816 0 0 0 0 -1012122.9617027362 -505507.06215744559 0 -505507.06215744559 2060884.3192601316 0 0 0 0 -232352623.93637145 272002165.34840584 0 272002165.34840584 -198492000.86707878 0 0 0 0 -665726.60031806212 -224735.66268299613 0 -224735.66268299613 1238912.0562793873 0 0 0 0 -82731268.062255979 -110793887.80262756 0 -110793887.80262756 -106585380.65313911 0 0 0 0 -273130345.53673416 343524023.4411087 0 343524023.4411087 -312194116.7726059 0 0 0 0 -432824186.06512189 45426601.664728165 0 45426601.664728165 354562702.270913 0 0 0 0 -1368424.9676128626 -13838523.264100075 0 -13838523.264100075 65498354.778800964 0 0 0 0 18595653.173387632 -72414104.899378538 0 -72414104.899378538 60925829.804130554 0 0 0 0 1691199.3958428963 -2669804.8031137902 0 -2669804.8031137902 1530564.5219662087 0 0 0 0 1328260.9938437939 -31892696.346252441 0 -31892696.346252441 5024680.3282394409 0 0 0 0 4542522.4820120335 -19229268.224065781 0 -19229268.224065781 30410354.510122299 0 0 0 0 -8856612.08854568 -19975906.652371883 0 -19975906.652371883 41846213.459566116 0 0 0 0 -23202700.752500772 -13384066.317038536 0 -13384066.317038536 43538385.010089874 0 0 0 0 -6267834.1271237899 2037086.2580942241 0 2037086.2580942241 22184397.501134846 0 0 0 0 -48200175.660974503 3664542.0823760033 0 3664542.0823760033 37801596.469772935 0 0 0 0 -37020449.719097257 14067673.879165411 0 14067673.879165411 25546459.784749985 0 0 0 0 2150412.0825550556 -11096921.058501244 0 -11096921.058501244 23658467.080215454 0 0 0 0 -66191714.056149244 -167616387.96681166 0 -167616387.96681166 588553139.56642914 0 0 0 0 -58603242.899517059 -132326086.38900065 0 -132326086.38900065 716387595.146667 0 0 0 0 -77997195.948735327 -41846350.943378448 0 -41846350.943378448 515791819.90390491 0 0 0 0 560592.70373213291 -2680213.8261552071 0 -2680213.8261552071 2801633.2848968273 0 0 0 0 92976276.840100348 -155643937.87665176 0 -155643937.87665176 467813785.43029022 0 0 0 0 -131703305.53057185 -123115563.72977102 0 -123115563.72977102 798446465.87485981 0 0 0 0 34412107.337115154 -108231087.47363758 0 -108231087.47363758 748888476.23748875 0 0 0 0 -24591229.469924182 -303535858.64169508 0 -303535858.64169508 1154964754.5618458 0 0 0 0 243672089.46483409 -433162415.48543262 0 -433162415.48543262 1191955342.4634342 0 0 0 0 -180276068.38296807 134598861.28744221 0 134598861.28744221 1172069631.2788696 0 0 0 0 -101266535.21365593 -341698112.75717866 0 -341698112.75717866 415850634.84764099 0 0 0 0 82162099.927790046 346198755.7566967 0 346198755.7566967 131969571.81781673 0 0 0 0 251700885.09444356 -9187038.6218976974 0 -9187038.6218976974 92380431.031908035 0 0 0 0 56545690.204065323 -145162822.49766922 0 -145162822.49766922 332892324.11543274 0 0 0 0 -64689802.833960772 38862920.175270081 0 38862920.175270081 384209667.29450417 0 0 0 0 28640254.051211119 -28487498.291730404 0 -28487498.291730404 309543864.71380615 0 0 0 0 44613863.5633111 -21402731.279074669 0 -21402731.279074669 34043738.894378662 0 0 0 0 59112375.513375044 16049027.96124649 0 16049027.96124649 95914689.421460867 0 0 0 0 88115797.687452793 -56577781.839078903 0 -56577781.839078903 58176874.404474258 0 0 0 0 -22669270.38047576 -41069151.350542068 0 -41069151.350542068 125582905.51027679 0 0 0 0 -21054599.841746092 -51952357.70129776 0 -51952357.70129776 159108599.36967659 0 0 0 0 -60932616.64150846 4526074.8824481964 0 4526074.8824481964 74792389.387145996 0 0 0 0 -61534991.852822542 -2265603.430015564 0 -2265603.430015564 88883858.477085114 0 0 0 0 -126005972.17754368 61319561.413478136 0 61319561.413478136 114038058.19270706 0 0 0 0 -109524178.61360753 38876656.399589539 0 38876656.399589539 144447392.40836716 0 0 0 0 -4444220.8710558414 -38635207.969219208 0 -38635207.969219208 151728542.1390276 0 0 0 0 -119048957.9107219 29338245.976865768 0 29338245.976865768 162071624.03536844 0 0 0 0 -70915345.978755713 -37945205.347394943 0 -37945205.347394943 251596003.08685684 0 0 0 0 -68067590.940421104 123986529.92757988 0 123986529.92757988 22786827.72328949 0 0 0 0 -119724029.0367136 11646233.712159634 0 11646233.712159634 4519330.596704483 0 0 0 0 -74969260.57021451 85910366.580307007 0 85910366.580307007 185966389.73594761 0 0 0 0 -202780902.16143268 47858386.112137079 0 47858386.112137079 101995770.27398682 0 0 0 0 -125452914.38754153 19635080.9665308 0 19635080.9665308 118651313.95679855 0 0 0 0 -137915219.639063 91603862.870599747 0 91603862.870599747 131254336.99201536 0 0 0 0 55083608.841692924 -40134338.443208218 0 -40134338.443208218 33289435.997256279 0 0 0 0 152617975.86583352 -120778946.11952734 0 -120778946.11952734 53858578.194040298 0 0 0 0 96675359.103887558 116224251.22892952 0 116224251.22892952 184571269.87151527 0 0 0 0 1780998.0293239362 -1742556.356276032 0 -1742556.356276032 -1153713.1409003586 0 0 0 0 -25130.932129793917 -338460.98202998377 0 -338460.98202998377 680087.45393457077 0 0 0 0 20371083.588404059 -70059198.791036844 0 -70059198.791036844 89583928.927446365 0 0 0 0 32904147.939571023 -25540762.965339065 0 -25540762.965339065 65922044.309959412 0 0 0 0 -26824558.686894178 -37111976.812548637 0 -37111976.812548637 58310610.322998047 0 0 0 0 -73147505.227991104 56100373.064978123 0 56100373.064978123 42334232.344457626 0 0 0 0 -33315084.965291977 36306897.539347649 0 36306897.539347649 11587380.733904839 0 0 0 0 -24615096.190516949 7253587.6917219162 0 7253587.6917219162 142527708.32201195 0 0 0 0 -14643094.353629827 6420188.6093387604 0 6420188.6093387604 38704174.430145264 0 0 0 0 35930987.618870497 69901064.934803009 0 69901064.934803009 36710730.235947609 0 0 0 0 -70027992.447179317 32912309.645905972 0 32912309.645905972 58783348.261479855 0 0 0 0 -1125356.9866476059 20641525.650956154 0 20641525.650956154 -22285687.33952713 0 0 0 0 -7816689.1651322246 5961968.6165114343 0 5961968.6165114343 12794407.731063776 0 0 0 0 -1651014.6880660057 70293819.27351284 0 70293819.27351284 -55775591.110854149 0 0 0 0 67648958.955314636 -185881533.56281948 0 -185881533.56281948 456677200.61383438 0 0 0 0 -7135498.6931439042 3973938.7533257967 0 3973938.7533257967 21654973.75528935 0 0 0 0 -932155.42833126523 -3219283.7361035049 0 -3219283.7361035049 5550155.7465301044 0 0 0 0 -13240604.704557657 -1324936.232688427 0 -1324936.232688427 34676780.866725922 0 0 0 0 -69029.775504094549 83054.744675591006 0 83054.744675591006 -79187.211121590808 0 0 0 0 -20328149.183854342 -257624109.46829677 0 -257624109.46829677 744953030.99806023 0 0 0 0 106393517.80130386 -283831455.2267499 0 -283831455.2267499 485254672.17033386 0 0 0 0 84127674.815010071 -186482354.32384014 0 -186482354.32384014 446246872.85666656 0 0 0 0 -3625153.6043362617 1171701.7001848221 0 1171701.7001848221 188232735.64716339 0 0 0 0 238070675.18033791 -176834566.33052731 0 -176834566.33052731 182594901.02479744 0 0 0 0 -5684877.8324747086 -118722040.39273071 0 -118722040.39273071 347551540.33456087 0 0 0 0 320735072.94913292 -526886309.03595495 0 -526886309.03595495 612617508.60997963 0 0 0 0 -9635173.6533589773 6817956.3247335516 0 6817956.3247335516 9551170.0877531096 0 0 0 0 151795896.92514706 -164042104.46967077 0 -164042104.46967077 -67931024.243286848 0 0 0 0 -34133649.485125542 7334390.6472198963 0 7334390.6472198963 60766059.31348896 0 0 0 0 -96905233.31206131 3238967.2826776505 0 3238967.2826776505 103217962.63047504 0 0 0 0 25155852.824639857 18564337.804754257 0 18564337.804754257 -76238856.088411331 0 0 0 0 -13291465.207175374 -17295855.437638581 0 -17295855.437638581 -22854513.538711548 0 0 0 0 61026204.303004503 16687359.224095345 0 16687359.224095345 -10083969.00770092 0 0 0 0 647710.94950997829 -15283590.963511467 0 -15283590.963511467 39349883.204597473 0 0 0 0 -18453390.403508484 -11770580.830805779 0 -11770580.830805779 12945085.203697205 0 0 0 0 9495539.5030729771 -41630001.646949768 0 -41630001.646949768 38174080.979774475 0 0 0 0 -17166852.609073579 -5157928.6016654968 0 -5157928.6016654968 -4843128.9947853088 0 0 0 0 -17278911.056647182 -5175703.4099721909 0 -5175703.4099721909 -4845813.1320576668 0 0 0 0 -15400667.9865399 -6761227.0088195801 0 -6761227.0088195801 -14525455.009748459 0 0 0 0 5015880.7053475212 -2803910.244936577 0 -2803910.244936577 5122841.651304787 0 0 0 0 33230072.459480286 -39026779.004001617 0 -39026779.004001617 14387876.697961807 0 0 0 0 52839041.002391815 -52743655.866849422 0 -52743655.866849422 824581069.15287578 0 0 0 0 12959601.400642395 -46467142.230631173 0 -46467142.230631173 857606268.82128441 0 0 0 0 26164696.50436151 -52288849.04734239 0 -52288849.04734239 836128387.17664576 0 0 0 0 1829666.0482884543 -229629.38127086335 0 -229629.38127086335 1554150.472508525 0 0 0 0 53871932.805171967 16464164.396733701 0 16464164.396733701 1065932542.6179106 0 0 0 0 -51530990.135947704 -186888528.76581669 0 -186888528.76581669 1545920011.3510375 0 0 0 0 139498075.15907383 -86698901.50200659 0 -86698901.50200659 529527601.33472359 0 0 0 0 141741416.03236222 -258605016.29379624 0 -258605016.29379624 810198582.06395078 0 0 0 0 127968426.07203194 -89844453.999481946 0 -89844453.999481946 810750335.52521706 0 0 0 0 85576852.937386513 -23951072.699685156 0 -23951072.699685156 540076258.19039893 0 0 0 0 118363571.14439392 -131923723.79922915 0 -131923723.79922915 779862030.63822651 0 0 0 0 147895363.48852777 -86427481.720605016 0 -86427481.720605016 473056320.13105637 0 0 0 0 70955967.612197816 133414752.65486552 0 133414752.65486552 265457916.87841403 0 0 0 0 125309966.62605 -72989623.417024016 0 -72989623.417024016 536888448.66322267 0 0 0 0 216077421.47793651 -3185430.3447450995 0 -3185430.3447450995 173623936.3601141 0 0 0 0 -272505270.53999752 -67666969.417363644 0 -67666969.417363644 329883200.19528008 0 0 0 0 971293.25536921993 3706130.741681593 0 3706130.741681593 5351746.1455154298 0 0 0 0 -48941068.148788378 259083198.71875018 0 259083198.71875018 -96152469.315895796 0 0 0 0 -55016437.969347477 -68996192.905427098 0 -68996192.905427098 164758468.77045494 0 0 0 0 88916277.284915924 61646156.178297997 0 61646156.178297997 250604086.25980639 0 0 0 0 -65086613.042189121 -118368359.87766409 0 -118368359.87766409 109751073.22339976 0 0 0 0 14272349.419534683 -62921551.79665029 0 -62921551.79665029 530576648.32143211 0 0 0 0 -132538701.6511631 -108718615.34830332 0 -108718615.34830332 516409539.54228783 0 0 0 0 -52528280.582198143 -121032389.56725693 0 -121032389.56725693 789797137.89939451 0 0 0 0 -38929412.501837254 -116327789.06680477 0 -116327789.06680477 504387673.65569758 0 0 0 0 286684319.53946114 -160471291.33417821 0 -160471291.33417821 487055871.63520229 0 0 0 0 284802816.53315735 -459180148.65319967 0 -459180148.65319967 1023765121.6336651 0 0 0 0 358790731.1389631 -110350033.57182917 0 -110350033.57182917 743768999.27557945 0 0 0 0 -57805824.108856082 -204706283.83553529 0 -204706283.83553529 713475548.039855 0 0 0 0 -79595801.70640564 -192802925.59523749 0 -192802925.59523749 1036817549.4975703 0 0 0 0 -129489598.68811321 -175627710.28808665 0 -175627710.28808665 758623000.16484642 0 0 0 0 -109087979.2396102 -105364739.87649727 0 -105364739.87649727 557597826.94814777 0 0 0 0 -62820121.221295834 -206820896.87013578 0 -206820896.87013578 678325080.90475464 0 0 0 0 -937701.45908842236 -171762623.55381811 0 -171762623.55381811 549048557.19207239 0 0 0 0 1095392.8172777861 2483205.731171059 0 2483205.731171059 3916072.862966618 0 0 0 0 -28529232.740775645 -178018749.88761249 0 -178018749.88761249 549980517.92294502 0 0 0 0 -1673565.3419294357 -4491965.6551249027 0 -4491965.6551249027 190053690.19120824 0 0 0 0 -23569701.975999326 -207788463.79501936 0 -207788463.79501936 462676695.07283735 0 0 0 0 246422424.78042459 -577067704.62590265 0 -577067704.62590265 -82501480.877849579 0 0 0 0 131216891.23903333 -579875935.69086742 0 -579875935.69086742 1130254553.6792071 0 0 0 0 -96195.596040105331 588329.74930523522 0 588329.74930523522 1647753.3144147666 0 0 0 0 201868412.48165423 -395908871.52619076 0 -395908871.52619076 795378387.09496629 0 0 0 0 235961803.9381392 -124429695.05047035 0 -124429695.05047035 -208908182.69447708 0 0 0 0 265684475.34238732 6621181.9089446068 0 6621181.9089446068 -136007216.83242989 0 0 0 0 -332249.81148970331 879262.96644933999 0 879262.96644933999 6924012.682861506 0 0 0 0 -473484717.47643727 69248536.381341934 0 69248536.381341934 125550252.33489609 0 0 0 0 -139178984.64589882 198476140.64492321 0 198476140.64492321 12894177.1153512 0 0 0 0 -135980728.16730082 -108189027.75081635 0 -108189027.75081635 -47078495.142601013 0 0 0 0 -61659859.051292181 -7320813.1741347313 0 -7320813.1741347313 -81091114.010993719 0 0 0 0 -59395267.383779541 -52131640.68905279 0 -52131640.68905279 621206040.98651123 0 0 0 0 -392277677.43745893 47179694.401870728 0 47179694.401870728 208022233.04417133 0 0 0 0 -231368.8112339217 1023943.296278424 0 1023943.296278424 5333211.184682304 0 0 0 0 452939999.17841482 747765409.87815714 0 747765409.87815714 -47692804.694413185 0 0 0 0 1890997.022456724 4240512.950339363 0 4240512.950339363 5635181.1303340718 0 0 0 0 -156010805.53822088 134117854.37029326 0 134117854.37029326 217627364.69427934 0 0 0 0 181433123.11895013 -394679852.43532228 0 -394679852.43532228 -17369409.614555359 0 0 0 0 273323641.49529696 427829592.39928818 0 427829592.39928818 348235528.84455729 0 0 0 0 154013.21435658855 919101.14076184575 0 919101.14076184575 3541894.8209583629 0 0 0 0 539175395.87302494 259893068.12503028 0 259893068.12503028 61172966.331224442 0 0 0 0 -353074520.86216766 -317938680.82431674 0 -317938680.82431674 557247578.64133835 0 0 0 0 91480841.696548149 -337949889.19035691 0 -337949889.19035691 297911274.63284397 0 0 0 0 -186941177.69874346 -27882688.582619309 0 -27882688.582619309 45939986.788671732 0 0 0 0 199947866.55886576 329515175.387218 0 329515175.387218 73215834.772449493 0 0 0 0 239785911.83384895 96537027.676410675 0 96537027.676410675 -16982287.012752533 0 0 0 0 20809120.732322693 52436177.15189743 0 52436177.15189743 -32904004.193929672 0 0 0 0 -95442331.249605656 94695622.529765129 0 94695622.529765129 85802920.231336594 0 0 0 0 -309932521.53754628 44509068.216585755 0 44509068.216585755 193459355.01021576 0 0 0 0 654362.67476156272 3628045.7383043924 0 3628045.7383043924 9439147.4523621239 0 0 0 0 -50732825.104969263 -1449426.6769104004 0 -1449426.6769104004 15835396.800556183 0 0 0 0 -156461169.22319508 138592434.80479622 0 138592434.80479622 -39970339.394489288 0 0 0 0 -1260276.550829933 -201915.32501115743 0 -201915.32501115743 1517045.6007813364 0 0 0 0 -172096891.88442641 71582225.156275749 0 71582225.156275749 -114556675.66364633 0 0 0 0 44385756.695513964 152477993.6531992 0 152477993.6531992 -42874155.212272644 0 0 0 0 100249622.68712378 292547977.48420715 0 292547977.48420715 42717691.676338673 0 0 0 0 49305341.959136248 259449620.44914341 0 259449620.44914341 224814442.42246914 0 0 0 0 -14531257.645614147 32777966.029445648 0 32777966.029445648 571788161.24563313 0 0 0 0 21053393.312393665 132011227.43105316 0 132011227.43105316 223905580.52138233 0 0 0 0 97374933.988882542 295591184.11157799 0 295591184.11157799 81618500.385322571 0 0 0 0 -599.22773322970897 685428.82354967296 0 685428.82354967296 2063186.1006695628 0 0 0 0 85555198.169790506 361340937.40385818 0 361340937.40385818 243775633.90321541 0 0 0 0 54014670.010625407 -132160718.15886128 0 -132160718.15886128 301669507.61216927 0 0 0 0 -11908481.612833291 309586009.17030764 0 309586009.17030764 625055682.926754 0 0 0 0 353534595.81692672 -138654648.3817668 0 -138654648.3817668 64905637.058937073 0 0 0 0 54902480.92334199 50189049.153585434 0 50189049.153585434 -17945316.011252403 0 0 0 0 -13841694.876380444 41174203.72396189 0 41174203.72396189 100045694.06729698 0 0 0 0 -59946803.326468468 -54009683.621606827 0 -54009683.621606827 162999342.74972343 0 0 0 0 9694182.9817143679 -1467533.6462392807 0 -1467533.6462392807 -9503473.7691817284 0 0 0 0 64571034.270780802 -73158726.69906044 0 -73158726.69906044 45946638.071594238 0 0 0 0 16015014.726260185 -22465435.746351242 0 -22465435.746351242 -12924944.128620148 0 0 0 0 -14253996.595640182 -15059381.271871567 0 -15059381.271871567 3245769.502664566 0 0 0 0 116159664.80732763 -11862753.995204449 0 -11862753.995204449 -21047439.641773224 0 0 0 0 38666867.87524268 57869392.840035439 0 57869392.840035439 74455905.89033556 0 0 0 0 1012126.7357213248 1278318.6417624233 0 1278318.6417624233 -1605392.4135667998 0 0 0 0 -24915529.376212656 45844276.621584892 0 45844276.621584892 8913056.1371545792 0 0 0 0 3802555.4960913658 14729677.155750036 0 14729677.155750036 -10835398.261575699 0 0 0 0 2392261.3084789403 4829973.6069320748 0 4829973.6069320748 -141748.86425178871 0 0 0 0 -95299957.627835751 9102262.980386734 0 9102262.980386734 45640328.791545868 0 0 0 0 -73395856.125172138 5414137.2073326111 0 5414137.2073326111 -3843002.0327529907 0 0 0 0 -110296830.67993557 -59247402.391468048 0 -59247402.391468048 124805589.32829666 0 0 0 0 18845854.999323845 -83212828.555140495 0 -83212828.555140495 34519246.295919418 0 0 0 0 -156001057.66654766 54550845.504818708 0 54550845.504818708 108780291.62913513 0 0 0 0 -86820056.903990746 23916720.316860437 0 23916720.316860437 58353019.425508499 0 0 0 0 622410.2972714894 582857.87193085067 0 582857.87193085067 -542236.29468470439 0 0 0 0 -6939685.0880103111 560601.76818108559 0 560601.76818108559 -19644699.815185547 0 0 0 0 1695230.3978672028 -14698795.84721756 0 -14698795.84721756 -22240472.163447857 0 0 0 0 2524329.1874694228 21717830.915346742 0 21717830.915346742 -23654718.793319702 0 0 0 0 -4203431.8095016479 1995267.1356649399 0 1995267.1356649399 880154.74973964691 0 0 0 0 -1691250.1851859391 36709065.54013747 0 36709065.54013747 -15829839.491052628 0 0 0 0 -194171101.64977384 314381136.90192503 0 314381136.90192503 -95258279.7834692 0 0 0 0 2123087.9652997502 5359687.4360643616 0 5359687.4360643616 11172087.086269863 0 0 0 0 -249998452.93309665 149077291.5747416 0 149077291.5747416 2621770.9123747349 0 0 0 0 -10561378.635500431 141487118.04095745 0 141487118.04095745 -52363749.427046299 0 0 0 0 72285811.690587997 95905595.031711817 0 95905595.031711817 -255943355.11810711 0 0 0 0 313975721.48124886 116651568.14928555 0 116651568.14928555 -89233299.887183607 0 0 0 0 28212777.057143211 125624859.88607246 0 125624859.88607246 -86340192.602094471 0 0 0 0 -41744010.930621862 191174328.88934946 0 191174328.88934946 258541920.46843076 0 0 0 0 -15308482.084611416 88417091.485268593 0 88417091.485268593 -172054382.47282353 0 0 0 0 6461203.4681716645 7942781.7378726928 0 7942781.7378726928 10583928.289957903 0 0 0 0 -664137.52844047546 240083598.19222343 0 240083598.19222343 -252791681.26675689 0 0 0 0 68765708.650027275 34460772.655499697 0 34460772.655499697 -142439928.91075349 0 0 0 0 62638884.417771339 -25145164.717498541 0 -25145164.717498541 -194194086.42371595 0 0 0 0 211876057.26539612 82340508.748701274 0 82340508.748701274 -190131564.346591 0 0 0 0 43512544.732582092 32541222.133612394 0 32541222.133612394 -142334545.87342906 0 0 0 0 4842786.7540550232 -188803931.9493224 0 -188803931.9493224 -205733393.24398601 0 0 0 0 -22319068.68183136 -165332465.57327211 0 -165332465.57327211 16972461.348195288 0 0 0 0 45156431.0137043 -16826813.438118502 0 -16826813.438118502 -186088768.87468839 0 0 0 0 184304533.9648571 -12954478.400684297 0 -12954478.400684297 -216665238.96033043 0 0 0 0 40762226.36511147 -154457374.95520046 0 -154457374.95520046 -267236036.68867275 0 0 0 0 -5928107.3582782745 -46563902.571619809 0 -46563902.571619809 -143210225.53159708 0 0 0 0 20568945.166424274 -100347763.85907826 0 -100347763.85907826 -38872970.629229188 0 0 0 0 233632846.921731 -172096694.39694411 0 -172096694.39694411 -17988306.545452774 0 0 0 0 157599184.68166924 23589329.018873692 0 23589329.018873692 124726932.99723506 0 0 0 0 117988672.78339291 -3532783.0906165689 0 -3532783.0906165689 -90003924.120619953 0 0 0 0 276771451.92473316 67305088.088130713 0 67305088.088130713 -84924258.352308303 0 0 0 0 653712342.75150633 163338174.98133695 0 163338174.98133695 128329458.98108625 0 0 0 0 106412995.74394226 -129407756.39768362 0 -129407756.39768362 465719430.81507528 0 0 0 0 25515348.911480427 10862199.099327892 0 10862199.099327892 269500851.42272699 0 0 0 0 225284084.41946316 223068903.13288084 0 223068903.13288084 301637401.45393336 0 0 0 0 243092971.31705523 204074126.85368454 0 204074126.85368454 -159658851.52016526 0 0 0 0 110808586.3712368 -399834237.09737754 0 -399834237.09737754 820116695.15442574 0 0 0 0 74673.31712171156 1359031.3646319357 0 1359031.3646319357 2292107.2716748235 0 0 0 0 34849242.187813431 -74251703.664835274 0 -74251703.664835274 321907455.64287472 0 0 0 0 -184303843.8796196 -123627477.05652344 0 -123627477.05652344 408404031.20251346 0 0 0 0 -67113974.939799309 151488024.47120857 0 151488024.47120857 226830222.99300194 0 0 0 0 -186475981.92884016 117827783.64794725 0 117827783.64794725 232973396.07079124 0 0 0 0 56453780.223948479 -21333851.775066465 0 -21333851.775066465 250041581.07234955 0 0 0 0 40911889.298351288 230398662.75913161 0 230398662.75913161 798408689.28644264 0 0 0 0 -50328233.303813457 -31810722.53162384 0 -31810722.53162384 118061142.5796876 0 0 0 0 4773401.4236001968 28473772.600448608 0 28473772.600448608 -9448999.3306331635 0 0 0 0 30176645.979145646 -91038211.923242807 0 -91038211.923242807 48846100.476831436 0 0 0 0 -6222858.563544929 -8010829.8992276192 0 -8010829.8992276192 35328718.154298782 0 0 0 0 -4978474.4177736351 -3104622.3492140681 0 -3104622.3492140681 3834698.3189445352 0 0 0 0 -7128768.1364817619 -4757617.5188350677 0 -4757617.5188350677 30140766.757437706 0 0 0 0 -2890706.7336974144 -6393299.2536435127 0 -6393299.2536435127 30668371.540275574 0 0 0 0 39065646.300492048 -94490480.010894775 0 -94490480.010894775 81446987.240550995 0 0 0 0 -46156571.342958927 -92907.345955371857 0 -92907.345955371857 95316492.351923943 0 0 0 0 -8033525.6831475347 -4002133.5472044349 0 -4002133.5472044349 10897268.440419141 0 0 0 0 2076570.1320001786 3859820.9599229321 0 3859820.9599229321 14227559.141872674 0 0 0 0 -60229809.342398882 -82002855.293746948 0 -82002855.293746948 91857954.864655495 0 0 0 0 77637815.981753618 -42220504.905889988 0 -42220504.905889988 -1593516.615562439 0 0 0 0 -13851719.210857868 59601511.189630032 0 59601511.189630032 -17413797.204975128 0 0 0 0 96653986.121181726 -103193777.57903385 0 -103193777.57903385 77198236.409694672 0 0 0 0 3833017.3187382529 4070631.8884435957 0 4070631.8884435957 8374026.6899347045 0 0 0 0 40331308.021636903 -32727476.178544998 0 -32727476.178544998 81802632.305316925 0 0 0 0 75327857.544544935 -48256058.69472599 0 -48256058.69472599 86155961.560073853 0 0 0 0 -60006244.360785961 16524982.862615585 0 16524982.862615585 57121341.575418472 0 0 0 0 35569785.015304685 -41050695.949514389 0 -41050695.949514389 86890874.43687439 0 0 0 0 -9726259.0260207653 -1070668.8919000626 0 -1070668.8919000626 88970798.139778137 0 0 0 0 14969256.040808201 -27839663.0442276 0 -27839663.0442276 129975851.43921852 0 0 0 0 15421917.86970365 -38722136.68786335 0 -38722136.68786335 136904182.91438293 0 0 0 0 98796109.60899961 -108331109.30594039 0 -108331109.30594039 146686726.00190353 0 0 0 0 36257870.996515274 -72170524.391910553 0 -72170524.391910553 140678449.2559917 0 0 0 0 3520233.4961380153 3455063.6485876786 0 3455063.6485876786 5410980.5176983401 0 0 0 0 -128302425.41249561 89077997.717461586 0 89077997.717461586 -1827166.1972529888 0 0 0 0 -81459363.131564379 -10351999.606342793 0 -10351999.606342793 52705708.317522049 0 0 0 0 -86334661.390196562 150054995.09759712 0 150054995.09759712 -57488246.947086334 0 0 0 0 -64556200.48547411 59421869.392320633 0 59421869.392320633 38949695.038226128 0 0 0 0 102091759.50390291 166843509.34406567 0 166843509.34406567 108058814.78068733 0 0 0 0 100004804.98730119 149323059.87818336 0 149323059.87818336 47068338.817623138 0 0 0 0 -222209442.48419785 -150967918.68795872 0 -150967918.68795872 144035307.25909042 0 0 0 0 -161594032.46835601 162920114.49005413 0 162920114.49005413 888027624.98364258 0 0 0 0 -102061973.88623428 -25279679.063302994 0 -25279679.063302994 243248026.86452484 0 0 0 0 -102202587.3220458 -32598966.809846878 0 -32598966.809846878 31521513.220703125 0 0 0 0 -100198425.14233744 76827280.909115791 0 76827280.909115791 7663276.5124454498 0 0 0 0 3102683.4915558794 2891699.2367268233 0 2891699.2367268233 1745017.2819385454 0 0 0 0 296047978.47073817 139668608.33058167 0 139668608.33058167 -49138282.683956146 0 0 0 0 122190383.21019626 -26154266.052642822 0 -26154266.052642822 -77468564.473365307 0 0 0 0 410225173.26354182 415115421.63656998 0 415115421.63656998 245183627.50362968 0 0 0 0 -403482.77256599336 -486408.07456933614 0 -486408.07456933614 431011.26997522824 0 0 0 0 -145188185.61067861 -373493807.20619011 0 -373493807.20619011 535235674.86198425 0 0 0 0 721751580.60867786 292411719.34608459 0 292411719.34608459 826107824.68808365 0 0 0 0 397276948.19507515 109931497.6777277 0 109931497.6777277 -51575707.703477621 0 0 0 0 1539771.8685891083 962689.24707390182 0 962689.24707390182 265749.77146891132 0 0 0 0 -31293375.345624506 213383223.46870041 0 213383223.46870041 273966949.09642029 0 0 0 0 101757162.25054741 45265456.441050529 0 45265456.441050529 70390144.720231056 0 0 0 0 -423616.98405516148 190488538.10174894 0 190488538.10174894 270853062.9093647 0 0 0 0 -21065656.307729959 -76982893.918886185 0 -76982893.918886185 213835361.9116714 0 0 0 0 -23546303.712732911 -16754546.543566704 0 -16754546.543566704 55960454.631420135 0 0 0 0 -2392521.4902424216 98337053.644104481 0 98337053.644104481 -15625946.137756348 0 0 0 0 -13537941.827137828 -58427394.976423264 0 -58427394.976423264 61348581.859743118 0 0 0 0 -31950397.652246714 -34401222.834481239 0 -34401222.834481239 30275986.467384338 0 0 0 0 20493806.423516572 -63456419.057639122 0 -63456419.057639122 12359948.384487152 0 0 0 0 57194423.622074515 -75828092.052012444 0 -75828092.052012444 52338142.048337936 0 0 0 0 -3048779.2940493822 -8399086.2462263107 0 -8399086.2462263107 -2395813.1656141281 0 0 0 0 -49408281.019511461 -124462137.70018768 0 -124462137.70018768 90184150.275999069 0 0 0 0 -2254872.3446793696 -1693886.8881302793 0 -1693886.8881302793 1384610.6683159489 0 0 0 0 -5567381.2055654526 1475133.5959262848 0 1475133.5959262848 22448174.754776955 0 0 0 0 -24484153.675483704 -36221260.790973663 0 -36221260.790973663 28498125.886468887 0 0 0 0 -47124796.057029903 -27462763.422250748 0 -27462763.422250748 62112913.542934418 0 0 0 0 -21644013.616461515 -4700138.3342475891 0 -4700138.3342475891 10755093.278768539 0 0 0 0 -8653210.5574754477 -45548013.297410965 0 -45548013.297410965 62252801.701332092 0 0 0 0 -114045.73093591118 36208.388185746968 0 36208.388185746968 135711.54394148849 0 0 0 0 22068517.513488531 -14812787.843887329 0 -14812787.843887329 25257689.484462738 0 0 0 0 8550918.3379007876 -13878122.701225758 0 -13878122.701225758 21988763.693035126 0 0 0 0 -213269.29148183414 102278.42538166791 0 102278.42538166791 298748.60664811358 0 0 0 0 180357.72363093495 -31673265.728590965 0 -31673265.728590965 9884401.7172813416 0 0 0 0 11045094.367029548 -13949869.405826569 0 -13949869.405826569 13017350.075505257 0 0 0 0 14374091.616823494 -21881371.374826431 0 -21881371.374826431 23836830.923121452 0 0 0 0 31977914.245009065 3724099.8554868698 0 3724099.8554868698 31944554.394317627 0 0 0 0 -73828289.65035677 -20302422.281233191 0 -20302422.281233191 18999901.826719284 0 0 0 0 12276710.159567893 -43053503.060860634 0 -43053503.060860634 -11694206.718687057 0 0 0 0 10318625.479328752 -42797567.411769867 0 -42797567.411769867 22009622.285881042 0 0 0 0 7874316.962418735 -18404621.280544281 0 -18404621.280544281 22093992.458141327 0 0 0 0 8895750.1052313447 -20155564.333991051 0 -20155564.333991051 -3468460.0254840851 0 0 0 0 -12969299.823734522 -44949925.882153034 0 -44949925.882153034 -27628077.767020226 0 0 0 0 -308897679.45930696 -213664900.98231828 0 -213664900.98231828 -77344863.558853149 0 0 0 0 -33291855.468765914 14045983.422062874 0 14045983.422062874 5950468.5985612869 0 0 0 0 16943030.94235304 -31623600.916730881 0 -31623600.916730881 47370525.80385685 0 0 0 0 49576206.013202399 219520440.81175518 0 219520440.81175518 341654146.03711414 0 0 0 0 1866354.4003642406 -147022.35313168168 0 -147022.35313168168 439577.86362027121 0 0 0 0 66854699.28471303 -47017214.552528381 0 -47017214.552528381 -72123242.538990021 0 0 0 0 -78348456.366169006 314135983.27530599 0 314135983.27530599 733531493.09237862 0 0 0 0 -2637875.8794472814 598415154.02647018 0 598415154.02647018 520700403.18614006 0 0 0 0 614119259.43573666 92253656.891014099 0 92253656.891014099 -823295129.8199501 0 0 0 0 11435459.731960118 232818.91469287872 0 232818.91469287872 72001412.977945328 0 0 0 0 1204621.3273470402 -7536945.4962968826 0 -7536945.4962968826 69502446.723112583 0 0 0 0 50293116.275047541 19469945.781283379 0 19469945.781283379 47279837.003108025 0 0 0 0 3511726.1567504988 847620.22365420591 0 847620.22365420591 1717217.6394593483 0 0 0 0 2862720.5352540612 6640059.2219901085 0 6640059.2219901085 121068071.95254517 0 0 0 0 396292719.43759775 -221905672.51336765 0 -221905672.51336765 -203979510.78999543 0 0 0 0 -59945734.651525855 22974780.954410553 0 22974780.954410553 165219389.5389123 0 0 0 0 1716573.4833440904 1753967.0705753388 0 1753967.0705753388 4064599.3568314556 0 0 0 0 -4962160.1863158941 -1321733.5407648087 0 -1321733.5407648087 96681290.885558844 0 0 0 0 4220072.9285621643 -4750659.7797038555 0 -4750659.7797038555 77108856.677942276 0 0 0 0 -2466405.0487779379 -15460757.096899033 0 -15460757.096899033 76921523.589363948 0 0 0 0 10118174.621817291 -7387700.6351742744 0 -7387700.6351742744 40849075.97996521 0 0 0 0 1595957.8957858086 1562331.9761371613 0 1562331.9761371613 38488147.669537306 0 0 0 0 -198311.41443576291 139568.32673168927 0 139568.32673168927 336227.91920923255 0 0 0 0 -5854220.0555960983 -868970.42925429344 0 -868970.42925429344 19297262.546796799 0 0 0 0 -1571839.6641974449 -7260000.2886390686 0 -7260000.2886390686 21420401.190303802 0 0 0 0 15888021.650955558 -7714371.6622667313 0 -7714371.6622667313 7032101.7486019135 0 0 0 0 4137947.4993875027 -16541371.79240799 0 -16541371.79240799 35404351.213870138 0 0 0 0 -2584039.361713171 -862814.81811237335 0 -862814.81811237335 24204648.640557289 0 0 0 0 -6611998.0543488264 -5418119.7947540283 0 -5418119.7947540283 29688289.210302353 0 0 0 0 -4939208.7078568935 -4778683.5733232498 0 -4778683.5733232498 24505062.499673843 0 0 0 0 -6840900.6592431962 -5492661.0195555687 0 -5492661.0195555687 24248886.861694336 0 0 0 0 -3385313.6948076487 11280018.323022842 0 11280018.323022842 1303440.8717842102 0 0 0 0 -107622.60554938251 76977.614605814219 0 76977.614605814219 181705.43410228193 0 0 0 0 -3787448.9518364668 11640701.604226112 0 11640701.604226112 39894998.372162819 0 0 0 0 -9347465.3585886955 2537415.538482666 0 2537415.538482666 63913348.89345932 0 0 0 0 -640184.38715386391 -3379891.4645471573 0 -3379891.4645471573 61773134.547405243 0 0 0 0 3172594.223081708 2546447.7501444817 0 2546447.7501444817 70930305.138084412 0 0 0 0 2524380.8630244732 1055788.0181236267 0 1055788.0181236267 84398256.54108429 0 0 0 0 -2093437.6464663744 -12367451.297510982 0 -12367451.297510982 96877860.893741608 0 0 0 0 3513195.9903897643 -3436471.3441386223 0 -3436471.3441386223 78964594.380653381 0 0 0 0 169968876.86211014 -15926429.750045776 0 -15926429.750045776 212470450.52838802 0 0 0 0 -1752537.1547479783 1674811.8335138392 0 1674811.8335138392 8686783.7380720489 0 0 0 0 1071329.7988635302 -5498726.7793388367 0 -5498726.7793388367 82420742.157546043 0 0 0 0 -2381471.1462753415 -8351999.7091577053 0 -8351999.7091577053 63734353.461830139 0 0 0 0 -2003999.5128645897 -10631959.993427277 0 -10631959.993427277 75251764.532014847 0 0 0 0 -1781572.7805225849 -15618913.226908684 0 -15618913.226908684 82597251.226631165 0 0 0 0 125404326.24526978 -150624405.22415161 0 -150624405.22415161 95627467.543334961 0 0 0 0 -986249.16823182581 -2690217.9608250596 0 -2690217.9608250596 6200266.9881309755 0 0 0 0 9300153.6730937958 -25972264.245630264 0 -25972264.245630264 88870797.181785583 0 0 0 0 33565818.990884781 -51287123.907206535 0 -51287123.907206535 77305530.572727203 0 0 0 0 68705263.318621844 -217396863.85854077 0 -217396863.85854077 196245496.1860733 0 0 0 0 75512775.12047857 -180120476.56134439 0 -180120476.56134439 147602549.34826279 0 0 0 0 126152360.93854284 -156143347.76562309 0 -156143347.76562309 135441084.40380073 0 0 0 0 60939380.304076135 -155204517.01173544 0 -155204517.01173544 224643025.24644279 0 0 0 0 58430653.857471958 -7310244.5655785203 0 -7310244.5655785203 265198274.55539322 0 0 0 0 -844232.49451837107 -961996.66811516508 0 -961996.66811516508 2471793.9283073209 0 0 0 0 57436245.087695837 -47584722.192247391 0 -47584722.192247391 118845404.65747857 0 0 0 0 -72023876.962561607 52900626.250040054 0 52900626.250040054 272845840.23335266 0 0 0 0 -109623265.97800136 -29333007.311937332 0 -29333007.311937332 326850639.46751022 0 0 0 0 -155414384.14552617 -1136970.5275678635 0 -1136970.5275678635 524757675.78938293 0 0 0 0 -64457002.060322046 -26723487.895328522 0 -26723487.895328522 326601466.3832016 0 0 0 0 -34579210.522797465 -66620899.102516174 0 -66620899.102516174 286711351.23156738 0 0 0 0 -155468188.10313511 101919406.2335701 0 101919406.2335701 281429616.94114304 0 0 0 0 -183500829.52409077 -442930104.65817833 0 -442930104.65817833 855445215.92253113 0 0 0 0 -125668812.03071575 -300965542.75457382 0 -300965542.75457382 438626763.27989197 0 0 0 0 -173293565.92685854 -373017220.94912338 0 -373017220.94912338 450309503.88221741 0 0 0 0 -126439339.91794446 -248304598.92551041 0 -248304598.92551041 514122026.97766924 0 0 0 0 -29854260.346043587 -228098857.4888382 0 -228098857.4888382 370342755.62776947 0 0 0 0 -8950666.3588142395 -178478734.80124664 0 -178478734.80124664 217772765.80851936 0 0 0 0 -40110358.774321437 -291128702.17206097 0 -291128702.17206097 277539844.24451065 0 0 0 0 64859319.284877539 -338671251.69421768 0 -338671251.69421768 110330467.13464355 0 0 0 0 48694200.807685792 -359213708.74313927 0 -359213708.74313927 276765664.46756935 0 0 0 0 182840522.67740965 -329308726.56778336 0 -329308726.56778336 108519443.79373932 0 0 0 0 -24072338.197202444 -560342760.71384811 0 -560342760.71384811 164886313.89272308 0 0 0 0 -19988568.376262665 -455509676.45512581 0 -455509676.45512581 145114773.70263672 0 0 0 0 -37143629.412817001 -465000135.7230835 0 -465000135.7230835 458907419.05919051 0 0 0 0 48607146.158911228 -465591451.35037231 0 -465591451.35037231 137879617.0060463 0 0 0 0 49318030.159898043 -468390344.44961166 0 -468390344.44961166 40021937.777000427 0 0 0 0 -43719303.194424629 -545225880.56204224 0 -545225880.56204224 69469265.658290863 0 0 0 0 -34040092.555552006 -494911087.46463966 0 -494911087.46463966 167456795.58444214 0 0 0 0 71777904.585974753 -452581993.83257103 0 -452581993.83257103 -38250231.015897751 0 0 0 0 42909421.961312294 -511920248.58264351 0 -511920248.58264351 -59283329.782554626 0 0 0 0 -123701338.06103659 -357929683.34494972 0 -357929683.34494972 -15644321.998509407 0 0 0 0 148551068.58832639 -352873344.82234383 0 -352873344.82234383 30922996.881155014 0 0 0 0 176363172.51501477 -351651479.7644825 0 -351651479.7644825 79196594.791126251 0 0 0 0 211635349.58248186 -350071819.67494011 0 -350071819.67494011 23100611.233577728 0 0 0 0 146975649.43369067 -427279197.70451736 0 -427279197.70451736 -712914.87698745728 0 0 0 0 298761417.57796574 -315364804.17786026 0 -315364804.17786026 22098159.94534719 0 0 0 0 219412835.02680993 -326954398.49450684 0 -326954398.49450684 57499886.789691925 0 0 0 0 269649897.19144058 -224896312.63416672 0 -224896312.63416672 20830772.610466003 0 0 0 0 235071652.03198147 -232138093.8817234 0 -232138093.8817234 49415813.42490387 0 0 0 0 391660570.031394 -212825657.75802231 0 -212825657.75802231 16123427.247087479 0 0 0 0 237235716.31991482 -99650581.328117371 0 -99650581.328117371 12733586.847602844 0 0 0 0 313165421.3114295 -139235044.73374367 0 -139235044.73374367 20589457.192661285 0 0 0 0 187406716.59901428 -133637878.30181503 0 -133637878.30181503 47189212.881744385 0 0 0 0 192253952.36477804 -160287260.37866592 0 -160287260.37866592 87586295.403354645 0 0 0 0 123396441.74864912 -231289333.98128319 0 -231289333.98128319 127581384.83625507 0 0 0 0 125289662.21963215 -271971236.4540596 0 -271971236.4540596 181222215.87012434 0 0 0 0 176787586.70199198 -218946081.93542671 0 -218946081.93542671 71886074.037284851 0 0 0 0 821624863.60948229 12399334.328418732 0 12399334.328418732 538874240.18793201 0 0 0 0 -11370673.266348243 -625497661.92663908 0 -625497661.92663908 1402241400.6689129 0 0 0 0 -268874473.52501929 235625019.98843002 0 235625019.98843002 1543546896.9871712 0 0 0 0 200541289.0645057 -470607202.01687622 0 -470607202.01687622 1319187379.7667046 0 0 0 0 -251325533.47946602 329948219.99714851 0 329948219.99714851 779185997.57112885 0 0 0 0 -82466.545262961707 569000.98650755652 0 569000.98650755652 3648466.3078711554 0 0 0 0 -287262276.22942841 -83028074.730444908 0 -83028074.730444908 685346803.97287369 0 0 0 0 -213649723.40950298 -433595460.64480877 0 -433595460.64480877 595924440.33590126 0 0 0 0 -353940365.04433954 -22261599.045710564 0 -22261599.045710564 1182732646.3413906 0 0 0 0 -163024481.81663835 -43307191.669073582 0 -43307191.669073582 657527698.72025061 0 0 0 0 -201599494.13636339 -275498965.8083744 0 -275498965.8083744 785482441.11922455 0 0 0 0 -442566897.88999605 -73963722.996328354 0 -73963722.996328354 1232250653.849143 0 0 0 0 91669943.085574627 616579513.21848965 0 616579513.21848965 937728924.43687963 0 0 0 0 -565195.6842334331 -1043696.5059153656 0 -1043696.5059153656 3833601.4668251909 0 0 0 0 -453638227.05086374 -80744816.981477499 0 -80744816.981477499 1562188362.2909336 0 0 0 0 1048129292.4215975 -699005667.30422211 0 -699005667.30422211 295666238.1477356 0 0 0 0 -234342107.6124872 -483885065.52422786 0 -483885065.52422786 1240957966.6025963 0 0 0 0 869791732.11563349 433703229.91273022 0 433703229.91273022 462423776.88153648 0 0 0 0 -310127555.84256029 -103326852.14562225 0 -103326852.14562225 1760144350.5184879 0 0 0 0 -185015537.55151176 -147996869.57421875 0 -147996869.57421875 656522093.91862297 0 0 0 0 -237669233.62294936 233000753.77495193 0 233000753.77495193 989943533.54899597 0 0 0 0 114138610.55502129 -905722432.98322868 0 -905722432.98322868 1312560570.3180752 0 0 0 0 -75608494.258477211 -507181092.11942959 0 -507181092.11942959 481381650.09543228 0 0 0 0 -90207891.536849976 -545755854.86436462 0 -545755854.86436462 480445466.6604197 0 0 0 0 143094461.99219882 -532979920.08150053 0 -532979920.08150053 138647130.37730026 0 0 0 0 -73696012.326905489 -133938758.27738905 0 -133938758.27738905 102128214.86084747 0 0 0 0 -514672328.85179996 64096630.591797829 0 64096630.591797829 74145116.59539032 0 0 0 0 -330691820.0777483 -551608061.18420029 0 -551608061.18420029 -29187970.276199341 0 0 0 0 -275135075.68888855 -452901889.51135254 0 -452901889.51135254 135106776.07516098 0 0 0 0 -49328889.440834999 -418684215.42648888 0 -418684215.42648888 -164248148.52807617 0 0 0 0 -736119559.03049874 -303474653.55510044 0 -303474653.55510044 46700944.506441116 0 0 0 0 -239805904.36069584 -385607448.31693649 0 -385607448.31693649 1069988.8956184387 0 0 0 0 -122479078.1534214 -316193691.52836037 0 -316193691.52836037 -241970430.33030319 0 0 0 0 -250230901.74354905 -252877108.99461436 0 -252877108.99461436 -495136138.81035614 0 0 0 0 -703627667.52639508 -307044332.50185394 0 -307044332.50185394 -117404025.81473446 0 0 0 0 -73052935.504153848 8347992.9977054596 0 8347992.9977054596 24889310.224793434 0 0 0 0 -454125.79561831849 -6354255.2363982871 0 -6354255.2363982871 6021203.1452386305 0 0 0 0 -255901.09407641413 -721448.87425210327 0 -721448.87425210327 666492.13101343159 0 0 0 0 -2648952.3328850381 4860609.686683774 0 4860609.686683774 54017928.091745377 0 0 0 0 -61236241.735760689 -136091974.04726028 0 -136091974.04726028 88431182.354400635 0 0 0 0 -2036912.2851976943 -3126221.1281607603 0 -3126221.1281607603 10353172.777124744 0 0 0 0 -2387768.694500112 -4933233.1978013078 0 -4933233.1978013078 3079165.1707808021 0 0 0 0 -16178756.116618633 -146140887.07243299 0 -146140887.07243299 181440852.77686071 0 0 0 0 -20532544.747724056 38777878.47705555 0 38777878.47705555 28149883.886878967 0 0 0 0 -449119.08985111117 37642194.778383255 0 37642194.778383255 -47694556.282915115 0 0 0 0 43506667.735772133 -53508836.634928703 0 -53508836.634928703 26345878.697013855 0 0 0 0 102498263.04001695 -12967039.928713322 0 -12967039.928713322 53151303.534610748 0 0 0 0 32972870.961036321 29703922.635494173 0 29703922.635494173 -59040781.825372696 0 0 0 0 314167730.12190819 78844531.055785656 0 78844531.055785656 -246933176.82539082 0 0 0 0 1018390.1831155518 -3668366.8285042979 0 -3668366.8285042979 1357445.5643249918 0 0 0 0 185394338.58755636 -130301113.49435425 0 -130301113.49435425 186755993.53662395 0 0 0 0 131492360.58243775 -146728491.30185318 0 -146728491.30185318 204296718.49638748 0 0 0 0 144645009.34315997 -112549729.25829148 0 -112549729.25829148 109360714.22586441 0 0 0 0 283971431.38978028 -141516178.9831543 0 -141516178.9831543 151349312.85672379 0 0 0 0 203792228.21035457 -186175191.16266632 0 -186175191.16266632 153858862.82322693 0 0 0 0 143487590.65476078 -107606131.66805428 0 -107606131.66805428 159990897.84466553 0 0 0 0 97275887.910600185 -122090869.86852646 0 -122090869.86852646 177523208.37685013 0 0 0 0 82846879.924702346 -29652862.359071612 0 -29652862.359071612 66910618.440044403 0 0 0 0 -22126887.511008859 40244979.082613468 0 40244979.082613468 30399733.54236412 0 0 0 0 64143716.620425358 -52265946.296149239 0 -52265946.296149239 8579814.2844276428 0 0 0 0 34002243.535584062 -47461200.164014816 0 -47461200.164014816 71683833.488451958 0 0 0 0 62557369.100385964 -111009841.75309372 0 -111009841.75309372 152276763.85102272 0 0 0 0 9416633.8958541155 -113538222.29372597 0 -113538222.29372597 122378331.23016357 0 0 0 0 -1280848208.9221478 -392730062.82152557 0 -392730062.82152557 287279016.03294373 0 0 0 0 -828582.44321965962 -3751316.8168850001 0 -3751316.8168850001 6824060.7570327967 0 0 0 0 -542204947.22338438 -396339954.45163155 0 -396339954.45163155 18467030.631381989 0 0 0 0 -264120180.65159535 -370647494.17961884 0 -370647494.17961884 -66011507.019006729 0 0 0 0 -642760791.07431161 -24517347.42224884 0 -24517347.42224884 117530730.42225266 0 0 0 0 -494597890.24007761 -5403592.7594816685 0 -5403592.7594816685 -112960237.86631775 0 0 0 0 -516921152.49904388 213601559.06338763 0 213601559.06338763 1011255728.9908752 0 0 0 0 -1027926320.7793844 376353254.81659889 0 376353254.81659889 2200756845.1018448 0 0 0 0 538143502.15944171 -1005739786.9914901 0 -1005739786.9914901 2151429157.9227753 0 0 0 0 -721064673.27698958 850970683.07841969 0 850970683.07841969 1064721849.8928661 0 0 0 0 -848655.62046083214 -1635657.9169397412 0 -1635657.9169397412 3256148.064845629 0 0 0 0 109667032.59178472 -82981172.712211609 0 -82981172.712211609 106399714.11199188 0 0 0 0 174151586.01234102 -182760747.47278976 0 -182760747.47278976 140266018.11913872 0 0 0 0 -1679462.6364786634 -1135206.3299355526 0 -1135206.3299355526 3888898.2608584315 0 0 0 0 99785376.366634205 -851118327.56084251 0 -851118327.56084251 2200941512.7737093 0 0 0 0 180935764.68767938 -123879488.09517431 0 -123879488.09517431 124524545.85994148 0 0 0 0 -93938749.375656575 -299287291.05203152 0 -299287291.05203152 629071384.47421837 0 0 0 0 -1312134.0001924785 -526504.11238915659 0 -526504.11238915659 3166546.6302845106 0 0 0 0 168426100.41775262 -192884868.73520088 0 -192884868.73520088 172895094.71010375 0 0 0 0 -215859739.20327339 291405935.91277915 0 291405935.91277915 655803349.87352753 0 0 0 0 -212702593.5818249 122772405.22217894 0 122772405.22217894 464314766.12936974 0 0 0 0 317857906.31882274 -339727610.10289955 0 -339727610.10289955 269555208.1242981 0 0 0 0 732726755.63929522 -503032816.48789406 0 -503032816.48789406 284114152.05120301 0 0 0 0 491880293.07627416 -255344940.64227009 0 -255344940.64227009 226705636.51303101 0 0 0 0 527994680.84529781 -180239752.90393639 0 -180239752.90393639 55205112.389751434 0 0 0 0 432757009.86305022 -114023106.20106125 0 -114023106.20106125 -2941660.8071784973 0 0 0 0 365951217.82867754 -216860133.60052299 0 -216860133.60052299 48131193.559608459 0 0 0 0 493171038.74212706 -362783867.99733257 0 -362783867.99733257 120004419.26848602 0 0 0 0 365734080.29824817 -272837350.61231995 0 -272837350.61231995 57035109.271240234 0 0 0 0 312607640.43246996 -326774347.32645512 0 -326774347.32645512 26910669.477333069 0 0 0 0 317228370.64927971 -280870506.63660049 0 -280870506.63660049 126454989.17340469 0 0 0 0 194270604.98385292 -400544443.2228384 0 -400544443.2228384 39300757.148124695 0 0 0 0 328804595.51886356 -383884724.80622196 0 -383884724.80622196 19931387.355735779 0 0 0 0 -217435531.33441567 -263423670.9048214 0 -263423670.9048214 90897143.445703506 0 0 0 0 -185799071.18056089 -364642427.45323372 0 -364642427.45323372 318505938.98349762 0 0 0 0 170953392.29726279 -490339815.48480797 0 -490339815.48480797 197482236.91954041 0 0 0 0 -85267290.905401587 -176226308.67650986 0 -176226308.67650986 422152605.75842857 0 0 0 0 103282731.92894922 -548151446.70663071 0 -548151446.70663071 1076553215.5805664 0 0 0 0 -712839495.78642166 145886961.9780674 0 145886961.9780674 1070181803.6974173 0 0 0 0 -571536667.18487644 -254794676.30644655 0 -254794676.30644655 2205948560.2226601 0 0 0 0 45137523.311928704 -509975017.99756145 0 -509975017.99756145 1079747078.0746803 0 0 0 0 227779779.8781288 -982628133.11002302 0 -982628133.11002302 2200236072.9693089 0 0 0 0 565130714.13398576 -197416631.9232688 0 -197416631.9232688 269077625.05714417 0 0 0 0 2109074637.3075311 -1070946751.1233187 0 -1070946751.1233187 545417825.11907959 0 0 0 0 328225334.30916923 1190280213.888298 0 1190280213.888298 2200310524.6788712 0 0 0 0 965080450.59820259 1171766652.3221931 0 1171766652.3221931 1307583498.4026642 0 0 0 0 3365426.6989951124 -1364175.1733208816 0 -1364175.1733208816 5928215.8446049914 0 0 0 0 444462934.0515883 906831211.29959106 0 906831211.29959106 1288683073.0830383 0 0 0 0 -71623351.045128986 661923969.39346695 0 661923969.39346695 1744900496.1793976 0 0 0 0 -71676319.205767363 659315857.86969972 0 659315857.86969972 1619685226.5555038 0 0 0 0 -78067612.118873298 287826939.55710602 0 287826939.55710602 1246247307.8347588 0 0 0 0 211404751.66203016 621162426.76621246 0 621162426.76621246 1099949417.9210663 0 0 0 0 157327280.32444942 400624312.26642609 0 400624312.26642609 513118506.64233398 0 0 0 0 207922260.61707285 291863434.79047775 0 291863434.79047775 598364861.40802383 0 0 0 0 52375253.443617672 549707943.39395046 0 549707943.39395046 925203153.15701294 0 0 0 0 464346.96706268302 245606.9669120363 0 245606.9669120363 -160065.22367735952 0 0 0 0 802926360.12564528 -118519466.66733932 0 -118519466.66733932 -361721976.30715942 0 0 0 0 778039018.69517434 763628620.19271851 0 763628620.19271851 765819932.56652069 0 0 0 0 653576518.7623713 498815379.59618378 0 498815379.59618378 202696163.79931641 0 0 0 0 373704507.97382468 -23374340.652587891 0 -23374340.652587891 -314671574.09223938 0 0 0 0 -150915233.47330582 -156685914.41668892 0 -156685914.41668892 83534526.151695251 0 0 0 0 644891806.66045356 -123366514.52117348 0 -123366514.52117348 29596153.38879776 0 0 0 0 2811707.1583629618 -3591579.5570085729 0 -3591579.5570085729 16501329.183630913 0 0 0 0 2169184.3077478716 -4590921.0561247338 0 -4590921.0561247338 -2602080.6518168598 0 0 0 0 87452814.769063652 62371729.321624756 0 62371729.321624756 252701028.58086395 0 0 0 0 -91374662.407599121 98427319.650600433 0 98427319.650600433 618955389.8147049 0 0 0 0 122527065.20598513 -4314657.5670852661 0 -4314657.5670852661 11800469.704322815 0 0 0 0 54004754.624531984 30803961.984285355 0 30803961.984285355 -4146457.3410491943 0 0 0 0 -835389.20423550962 -3418352.8625281528 0 -3418352.8625281528 4153975.1229166314 0 0 0 0 -4488155.5008605123 1767047.6450500488 0 1767047.6450500488 22740099.472900391 0 0 0 0 10039709.043233454 -21511624.376243591 0 -21511624.376243591 -30846068.566896439 0 0 0 0 2475974.8392276298 -7456834.7217887696 0 -7456834.7217887696 9531504.0961102843 0 0 0 0 274755629.82488155 -6018559.7395153046 0 -6018559.7395153046 19138641.767812252 0 0 0 0 146453314.13685238 -60641630.470001459 0 -60641630.470001459 64948572.207000732 0 0 0 0 3324153.1154741179 -5202854.1727172453 0 -5202854.1727172453 7987197.4374827147 0 0 0 0 31557573.620967895 15282913.81054306 0 15282913.81054306 15017665.753940582 0 0 0 0 42590533.486397132 -16693559.673772812 0 -16693559.673772812 17902570.834503174 0 0 0 0 -4408439.98614043 -3894216.8185501099 0 -3894216.8185501099 32571803.534034729 0 0 0 0 7505229.6663119197 -17977793.465242386 0 -17977793.465242386 48864492.064933777 0 0 0 0 -7382260.9804817438 313961683.33843613 0 313961683.33843613 729402093.85186005 0 0 0 0 90314740.452330291 -91358946.814987183 0 -91358946.814987183 83046427.877613068 0 0 0 0 200624.18868646718 -310441.10110614449 0 -310441.10110614449 799367.27055574208 0 0 0 0 59582420.076938286 1118313.489880085 0 1118313.489880085 -3203066.8150024414 0 0 0 0 32858435.390303481 168585317.53836155 0 168585317.53836155 1288147059.2727585 0 0 0 0 210707.41628426313 72042012.981344223 0 72042012.981344223 1023047075.6414719 0 0 0 0 -104269124.59939706 401879389.75932693 0 401879389.75932693 1324517973.3533669 0 0 0 0 -292668905.87261313 108492840.33810806 0 108492840.33810806 1485846858.9689636 0 0 0 0 -345958765.9681831 410599995.63650131 0 410599995.63650131 2206837733.3566184 0 0 0 0 -245984714.1603151 -207038867.44508743 0 -207038867.44508743 2199492659.1530266 0 0 0 0 -149950530.40723115 -510495323.72235298 0 -510495323.72235298 873422380.97049713 0 0 0 0 -613170.39797194838 -963715.3154338561 0 -963715.3154338561 3751313.5481964871 0 0 0 0 77297270.179961517 -380560707.15694427 0 -380560707.15694427 11842063.069694519 0 0 0 0 193076969.47828665 723609925.86884308 0 723609925.86884308 2204526369.7535648 0 0 0 0 -117038428.09396642 153479189.49987793 0 153479189.49987793 419582921.36539459 0 0 0 0 -161486062.37637413 -75227361.738735199 0 -75227361.738735199 733021178.38807678 0 0 0 0 -192721523.76004732 71142665.702508926 0 71142665.702508926 868475880.97314453 0 0 0 0 -175427646.31747067 102748993.48143768 0 102748993.48143768 1060437083.5383625 0 0 0 0 66521509.094791964 235163485.07063675 0 235163485.07063675 910005465.88147545 0 0 0 0 -409170570.83992946 -347399872.1239357 0 -347399872.1239357 206149542.52523041 0 0 0 0 -129986758.29811323 169535193.84863377 0 169535193.84863377 1254632953.8483162 0 0 0 0 -159447350.25266328 118431909.06907177 0 118431909.06907177 916060400.6417923 0 0 0 0 -655146686.05694389 8572989.9703216553 0 8572989.9703216553 2204335305.0987816 0 0 0 0 -7952.1410086997203 -1559650.0146941207 0 -1559650.0146941207 3509395.9079235047 0 0 0 0 -123732883.28733155 -30893532.894669533 0 -30893532.894669533 890865914.52586746 0 0 0 0 14995720.941540837 -47371817.51190567 0 -47371817.51190567 809414413.1652832 0 0 0 0 264444.39097434928 -675597.88528313115 0 -675597.88528313115 1399919.3736050278 0 0 0 0 -264129281.77605271 -895185.47541809082 0 -895185.47541809082 2497298003.0218201 0 0 0 0 -37140926.685040891 -1156371371.5722847 0 -1156371371.5722847 -102232599.72381783 0 0 0 0 76194522.893000126 283888199.45962334 0 283888199.45962334 1390809874.5590439 0 0 0 0 18327471.968233109 62693524.578590393 0 62693524.578590393 249669223.54698753 0 0 0 0 81980986.269812196 -630909355.99245453 0 -630909355.99245453 730851738.05181122 0 0 0 0 -94508162.404476881 87977215.857906342 0 87977215.857906342 719698901.9065876 0 0 0 0 -482950.7208122015 178635.84201812744 0 178635.84201812744 7441703.4725780487 0 0 0 0 1516773.3606917635 -1303903.0888485685 0 -1303903.0888485685 3023574.5094614811 0 0 0 0 111676839.72911575 -176979533.94494438 0 -176979533.94494438 332719254.16667938 0 0 0 0 -94363008.670253575 114369814.04486656 0 114369814.04486656 9147608.6385421753 0 0 0 0 168746157.94778663 -39033807.009269714 0 -39033807.009269714 -57001864.376472473 0 0 0 0 611011.73499745398 -284920.30937794223 0 -284920.30937794223 803038.42844748497 0 0 0 0 208260085.25407958 105109833.17733002 0 105109833.17733002 3468953.5072669983 0 0 0 0 261392.20747762485 -70449.896832484752 0 -70449.896832484752 2642490.2440019995 0 0 0 0 -93251406.602842569 72439591.799510956 0 72439591.799510956 885000532.26429749 0 0 0 0 793393.26588439895 -994179.1694806926 0 -994179.1694806926 2065641.6737887338 0 0 0 0 -62021323.373709589 50023662.925491333 0 50023662.925491333 855196665.25092316 0 0 0 0 -933754.32151603699 172411.68465995789 0 172411.68465995789 8915649.2758407593 0 0 0 0 -671979.20641446114 1011890.9448661804 0 1011890.9448661804 11560772.038894653 0 0 0 0 -549711.60160720348 -7425303.9394226074 0 -7425303.9394226074 4134657.2991027832 0 0 0 0 -4427846.0875185207 -5227251.4915084839 0 -5227251.4915084839 15960261.103347778 0 0 0 0 4421167.3923720717 8953035.1234703064 0 8953035.1234703064 21381252.183837891 0 0 0 0 2337319.4258112013 7568290.7709388733 0 7568290.7709388733 27417898.001613617 0 0 0 0 12399164.997729652 2596101.765460968 0 2596101.765460968 13336614.024032593 0 0 0 0 6222291.1781201363 3521182.5258102417 0 3521182.5258102417 10918187.390899658 0 0 0 0 9888235.838340953 7090699.8030529022 0 7090699.8030529022 13077904.037719727 0 0 0 0 5830433.4814307988 6259337.8300018311 0 6259337.8300018311 8222487.9788894653 0 0 0 0 231670.59593018889 1038246.6040248871 0 1038246.6040248871 10588503.902549744 0 0 0 0 725022.48531731963 3795276.7384757996 0 3795276.7384757996 4843130.8149414062 0 0 0 0 -603387.07598638535 1980977.5657920837 0 1980977.5657920837 10052764.575450897 0 0 0 0 1276340.9810267687 6298597.9804458618 0 6298597.9804458618 14280002.956848145 0 0 0 0 -41820028.141307354 46693079.126605988 0 46693079.126605988 22448558.826370239 0 0 0 0 248409.09970110469 9372739.1207630634 0 9372739.1207630634 8083041.3675384521 0 0 0 0 2845089.9433513638 4931687.5370046534 0 4931687.5370046534 3840549.2810114399 0 0 0 0 84701.958220656961 6719131.8053517342 0 6719131.8053517342 2037274.6415405273 0 0 0 0 -78169.304194185243 34394.273481845856 0 34394.273481845856 695132.54954482988 0 0 0 0 -2694235.7458141446 8928222.157409668 0 8928222.157409668 11545861.721969604 0 0 0 0 2005648.5562595725 3736287.1637191772 0 3736287.1637191772 9287045.8238220215 0 0 0 0 5926328.2413884997 4800823.8068237305 0 4800823.8068237305 6549583.9607391357 0 0 0 0 10009302.521424092 4051733.1491355896 0 4051733.1491355896 7626209.5953826904 0 0 0 0 5909734.6856479216 4688825.539311409 0 4688825.539311409 8813349.0683135986 0 0 0 0 6116939.3640357852 6773667.4648666382 0 6773667.4648666382 9483515.946975708 0 0 0 0 -369803.78135287762 7865255.4008979797 0 7865255.4008979797 10615809.925048828 0 0 0 0 34309024.905968428 22254148.480129242 0 22254148.480129242 -96525087.289764404 0 0 0 0 -234592660.9588441 74773413.232198715 0 74773413.232198715 422075.80696868896 0 0 0 0 -110683791.89139557 -54691562.531425476 0 -54691562.531425476 -121220218.91320801 0 0 0 0 1902394.8876887872 2840766.6255229823 0 2840766.6255229823 3497029.7292465195 0 0 0 0 -747725.77570152283 1346370.0071411133 0 1346370.0071411133 8162524.8572998047 0 0 0 0 19239018.803397059 -35681817.721876144 0 -35681817.721876144 -75063812.123344421 0 0 0 0 8899717.6613061428 98900139.635890961 0 98900139.635890961 -32933435.731080055 0 0 0 0 -37041983.821377188 75462767.862198353 0 75462767.862198353 111676726.07561493 0 0 0 0 -50903668.267186165 -24694423.805747986 0 -24694423.805747986 109427113.57785916 0 0 0 0 2809634.4089589119 68983976.526725769 0 68983976.526725769 -179873408.30149841 0 0 0 0 19148068.253910542 -91715090.15430069 0 -91715090.15430069 195156727.1410141 0 0 0 0 806022.91251374269 -10234.337098091841 0 -10234.337098091841 383734.70040155947 0 0 0 0 -1908189.3164558411 11653226.836761475 0 11653226.836761475 6270846.8365192413 0 0 0 0 -3447382.5821099281 75656546.261360168 0 75656546.261360168 115153599.74838066 0 0 0 0 14080091.635501146 24664803.417208672 0 24664803.417208672 -53434037.959106445 0 0 0 0 -131331.05044851266 319756.03123812005 0 319756.03123812005 -421168.91337240115 0 0 0 0 -2292689.2361519337 85870.166557312012 0 85870.166557312012 14715202.524860382 0 0 0 0 -2658769.7567281704 9649131.8151232824 0 9649131.8151232824 5090789.3025140278 0 0 0 0 -2320530.1360360393 243209.4878636077 0 243209.4878636077 8206541.4576374888 0 0 0 0 93064667.729217291 -50076660.050643921 0 -50076660.050643921 -73034700.044769287 0 0 0 0 3236272.18390131 21670266.398666382 0 21670266.398666382 18610545.663225174 0 0 0 0 -2624557.4406231022 10071201.374717128 0 10071201.374717128 2329305.4333809204 0 0 0 0 10739292.689721882 18719274.751419067 0 18719274.751419067 18848076.660354614 0 0 0 0 -7667235.9299021959 27667951.28862381 0 27667951.28862381 67718342.634338379 0 0 0 0 3388422.8238891959 4743933.4693145752 0 4743933.4693145752 11048661.555286407 0 0 0 0 -698297.5326012671 540503.20808315277 0 540503.20808315277 10329071.738147736 0 0 0 0 687924.58266847488 2864680.0897178072 0 2864680.0897178072 7678504.2817656733 0 0 0 0 4344956.6072262898 4528620.4104385376 0 4528620.4104385376 10631766.187973022 0 0 0 0 6404017.0979855806 5059983.9832992554 0 5059983.9832992554 8382395.2117843628 0 0 0 0 990575.95090103149 -933383.51074981689 0 -933383.51074981689 7996808.20470047 0 0 0 0 -2749126.8290387765 1639708.4779319018 0 1639708.4779319018 7520115.0698706619 0 0 0 0 -44922546.729375362 -41184711.457557678 0 -41184711.457557678 -27704269.872486115 0 0 0 0 -14091489.500715852 15759445.552036285 0 15759445.552036285 60897090.668586731 0 0 0 0 -7607459.037607193 17470598.746669769 0 17470598.746669769 34440895.933250427 0 0 0 0 -3883805.2180658621 7989118.5458262116 0 7989118.5458262116 14011009.283237657 0 0 0 0 -1874528.7557604313 3907209.8718757629 0 3907209.8718757629 16158730.981086731 0 0 0 0 1984013.7499932065 -597538.955332838 0 -597538.955332838 16973802.457047265 0 0 0 0 -3406158.2929071728 8159766.5882222895 0 8159766.5882222895 18723629.199279755 0 0 0 0 4656657.4225594401 61708.418167114258 0 61708.418167114258 12962818.143283844 0 0 0 0 8988539.0520018339 558303.53500747681 0 558303.53500747681 10462226.072166443 0 0 0 0 4003232.3810919374 2028155.1444146633 0 2028155.1444146633 10937954.856613159 0 0 0 0 6646474.719354108 2347605.8834571838 0 2347605.8834571838 9099648.2255935669 0 0 0 0 8184310.9786341786 -3627808.7728843689 0 -3627808.7728843689 10861037.572746277 0 0 0 0 6994295.8711288571 -951108.60200119019 0 -951108.60200119019 9666009.3645324707 0 0 0 0 1509218.9257166528 -2074690.8938033283 0 -2074690.8938033283 16927742.008160926 0 0 0 0 4828140.2700545453 -2701814.259974122 0 -2701814.259974122 13706763.377784729 0 0 0 0 -8020728.3279393911 -695516.86312866211 0 -695516.86312866211 30758262.683685303 0 0 0 0 2387658.1665526628 -490837.11435508728 0 -490837.11435508728 14196021.899253845 0 0 0 0 -2888084.1818778515 -4698651.4830245972 0 -4698651.4830245972 25835713.412689209 0 0 0 0 4027054.8555824757 -4375943.6609191895 0 -4375943.6609191895 31712651.73046875 0 0 0 0 -7186348.5273733139 -419794.51928710938 0 -419794.51928710938 10428892.306158066 0 0 0 0 -3909329.1179101467 7495713.3085784912 0 7495713.3085784912 13685822.769573212 0 0 0 0 -88519223.021911621 2838158.242433548 0 2838158.242433548 65990064.874225616 0 0 0 0 -3602984.8338359543 1857866.2365900427 0 1857866.2365900427 22757257.177146215 0 0 0 0 54461.802788932284 -427207.95981073752 0 -427207.95981073752 1008553.9181326898 0 0 0 0 354248.49047967105 9859898.0116861276 0 9859898.0116861276 11085739.627177157 0 0 0 0 -23052091.395585537 15333971.46092701 0 15333971.46092701 30301968.336585999 0 0 0 0 1452666.5206898367 -11202753.2181271 0 -11202753.2181271 25659989.963530302 0 0 0 0 -2778811.528503418 10138482.734687805 0 10138482.734687805 30145009.466001511 0 0 0 0 -10417984.315376282 21262194.656913757 0 21262194.656913757 32958352.857757568 0 0 0 0 -6548561.0454041101 2957943.8411568645 0 2957943.8411568645 18404824.773418304 0 0 0 0 -1183521.8311694972 400224.2364997929 0 400224.2364997929 1532658.5156503767 0 0 0 0 -34261104.346340179 -10040547.402362823 0 -10040547.402362823 45644750.324493408 0 0 0 0 -8785881.9339370728 592692.16384506226 0 592692.16384506226 91555500.217656136 0 0 0 0 -5659534.9915849324 1037293.6666642558 0 1037293.6666642558 18795412.404734623 0 0 0 0 5816652.429019928 -11823359.125377655 0 -11823359.125377655 81330394.462863922 0 0 0 0 -24858162.470932007 16117421.554519653 0 16117421.554519653 77916111.190242767 0 0 0 0 -1296819.3226451874 19177781.599891663 0 19177781.599891663 73430255.516921997 0 0 0 0 2378300.5239086151 1993536.0765151978 0 1993536.0765151978 66352591.933502197 0 0 0 0 -14557984.225250244 19342447.909923553 0 19342447.909923553 48941621.437206268 0 0 0 0 27231811.043449402 -3068510.1407394409 0 -3068510.1407394409 41861578.043041229 0 0 0 0 15673061.358711243 4624220.8085708618 0 4624220.8085708618 37065621.019763947 0 0 0 0 6378291.2248096466 -7782151.3199214935 0 -7782151.3199214935 52127208.997688293 0 0 0 0 8774231.9373207092 -14661512.5583992 0 -14661512.5583992 68045832.789025307 0 0 0 0 578596.60750198364 -16870.754091262817 0 -16870.754091262817 65427560.478427887 0 0 0 0 -21818325.904817581 -19814345.162158966 0 -19814345.162158966 61821558.524688721 0 0 0 0 1639333.7443976896 -3809791.5869534123 0 -3809791.5869534123 -511029.59361265972 0 0 0 0 8753652.3183172941 -17343912.337614179 0 -17343912.337614179 65080366.46282959 0 0 0 0 9302130.6527862549 -25100471.864707947 0 -25100471.864707947 75709220.414914131 0 0 0 0 8977135.9164581299 -28841182.872466087 0 -28841182.872466087 46703975.952453613 0 0 0 0 15588004.310901642 -13924641.674201965 0 -13924641.674201965 55591543.334381104 0 0 0 0 42161887.778835297 -63263923.37469101 0 -63263923.37469101 82118520.066917419 0 0 0 0 -9270292.6793622971 -36110230.623130798 0 -36110230.623130798 82626032.159172058 0 0 0 0 5228851.1394863129 -23892414.290496826 0 -23892414.290496826 56472619.381148338 0 0 0 0 1186486.3449001312 -22704384.553430557 0 -22704384.553430557 56797818.060310364 0 0 0 0 2155950.3319854736 -28721701.019645691 0 -28721701.019645691 75229766.810907364 0 0 0 0 27961326.132160664 -29022587.374510765 0 -29022587.374510765 41988754.21219635 0 0 0 0 -62353891.424059033 -5430239.9721608162 0 -5430239.9721608162 2498291.3642578125 0 0 0 0 -63630670.898413658 -20272517.07964325 0 -20272517.07964325 5764934.7889099121 0 0 0 0 -10408523.452072144 -122958278.1068325 0 -122958278.1068325 21506874.097075939 0 0 0 0 707671.94865851698 -2991708.9439378646 0 -2991708.9439378646 8247784.8942369074 0 0 0 0 150495.97129527805 -1200074.289246307 0 -1200074.289246307 14295727.22057151 0 0 0 0 5204392.1685467064 -3718874.9832229614 0 -3718874.9832229614 11448048.719783783 0 0 0 0 -31834840.4774189 71293058.803133011 0 71293058.803133011 22229363.753234863 0 0 0 0 179112789.13287926 76414700.626899719 0 76414700.626899719 -57283899.373687744 0 0 0 0 -48150693.93794632 -16648667.717193604 0 -16648667.717193604 5569846.917427063 0 0 0 0 -1495370.5015756481 -586150.60651591234 0 -586150.60651591234 12333558.612267032 0 0 0 0 4251467.8023078442 -3175599.9090805054 0 -3175599.9090805054 11615685.874969482 0 0 0 0 -1615162.7540709376 -6780672.9495716095 0 -6780672.9495716095 16533479.689987183 0 0 0 0 9790813.1304779053 -21494185.920623779 0 -21494185.920623779 25927448.26714325 0 0 0 0 -946837.37065971177 -5387587.2493184581 0 -5387587.2493184581 11241695.279952507 0 0 0 0 16098160.554323196 -9768841.2222976685 0 -9768841.2222976685 13986684.739440918 0 0 0 0 17790477.451293945 -25204681.601093292 0 -25204681.601093292 16866982.067288399 0 0 0 0 -9776292.0607213974 1197470.4143257141 0 1197470.4143257141 20945457.021438599 0 0 0 0 9210902.3576316833 -26986688.720966339 0 -26986688.720966339 31054376.808364868 0 0 0 0 23410491.222595215 -23937408.184368134 0 -23937408.184368134 -25723140.451229095 0 0 0 0 5768967.0598956607 -10036362.887578081 0 -10036362.887578081 7161326.9861535355 0 0 0 0 -1015256.5809811447 1134788.7728756012 0 1134788.7728756012 840055.96043244004 0 0 0 0 175618216.24848992 -54787866.94912219 0 -54787866.94912219 32269166.139316559 0 0 0 0 -9350357.7096281052 -6063340.11951828 0 -6063340.11951828 -127362.12808227539 0 0 0 0 -48034441.774356365 -8775748.479341507 0 -8775748.479341507 2176600.3066101074 0 0 0 0 -1447389.3707690639 -14907912.357844744 0 -14907912.357844744 19164696.251007996 0 0 0 0 251074452.31401062 -75880421.498329163 0 -75880421.498329163 25122471.763014793 0 0 0 0 4651910.3794030547 -8478006.4877128601 0 -8478006.4877128601 16321347.330272675 0 0 0 0 5511445.0508972928 -5852165.6468772888 0 -5852165.6468772888 14988825.607284546 0 0 0 0 18824073.893143862 -16803005.843605042 0 -16803005.843605042 23718942.205789566 0 0 0 0 18881126.004462473 -3604463.6708071232 0 -3604463.6708071232 10784143.058067322 0 0 0 0 18982433.329668254 2249996.7948303223 0 2249996.7948303223 8086698.8483047485 0 0 0 0 15967315.13011983 -3907570.0791969299 0 -3907570.0791969299 11130374.348899841 0 0 0 0 9337019.5006695613 2792460.45860672 0 2792460.45860672 8689947.4477329254 0 0 0 0 12215800.96248927 1898741.9056305885 0 1898741.9056305885 8066041.4448928833 0 0 0 0 11529225.876485873 -2148139.6125397682 0 -2148139.6125397682 9753669.2245407104 0 0 0 0 10850087.32548666 -7663613.9605674744 0 -7663613.9605674744 13713976.59668541 0 0 0 0 14272276.805960149 -2127515.7709388733 0 -2127515.7709388733 9321021.2369766235 0 0 0 0 13410343.646610148 194498420.33016396 0 194498420.33016396 1053039733.0950699 0 0 0 0 718584.45476504171 87218862.362549469 0 87218862.362549469 408689675.13104248 0 0 0 0 144053404.004071 36885057.457127571 0 36885057.457127571 77107170.702636719 0 0 0 0 -121738.9722304547 -26548.149398565292 0 -26548.149398565292 870066.59339798987 0 0 0 0 -235992511.17343232 718861236.30628204 0 718861236.30628204 2198335224.692791 0 0 0 0 149027714.34733117 453461289.34698868 0 453461289.34698868 956878182.79759979 0 0 0 0 491184670.1652385 1165725539.298748 0 1165725539.298748 708147044.44934082 0 0 0 0 1956330.5649697452 1117491.7033710517 0 1117491.7033710517 3748273.4364518896 0 0 0 0 615185624.79419231 818005315.5693903 0 818005315.5693903 -60881881.232643127 0 0 0 0 75535609.313312531 -36797762.101316929 0 -36797762.101316929 -126523779.35391235 0 0 0 0 95128750.236445934 -126898558.70921135 0 -126898558.70921135 50036857.317230225 0 0 0 0 -176882.82530560507 -61734.386825785041 0 -61734.386825785041 549752.73780047894 0 0 0 0 53211062.287032783 -95676337.287693024 0 -95676337.287693024 422408542.38054276 0 0 0 0 17972318.215896845 4458911.7311058044 0 4458911.7311058044 72786918.825202942 0 0 0 0 147774878.93671012 77477499.114871979 0 77477499.114871979 93981161.18044281 0 0 0 0 -219808292.11375308 -12979785.762107849 0 -12979785.762107849 129842929.31577682 0 0 0 0 -28183655.203631401 -1673429.5476799011 0 -1673429.5476799011 130489639.98538685 0 0 0 0 -144524430.49085462 -33422644.170711517 0 -33422644.170711517 -36250545.912963867 0 0 0 0 -549340.50090283446 866963.72261269391 0 866963.72261269391 13848130.096666932 0 0 0 0 -273035335.98716015 94890354.701919556 0 94890354.701919556 90481727.38924408 0 0 0 0 21887715.865709972 -12889706.660633087 0 -12889706.660633087 -11426667.934177399 0 0 0 0 -30878630.659243032 19588243.100282669 0 19588243.100282669 24240031.865188599 0 0 0 0 -421954495.13022947 59192.790344238281 0 59192.790344238281 215483158.13737106 0 0 0 0 -468510108.33346105 304043382.44847488 0 304043382.44847488 -25087000.692453146 0 0 0 0 2344944.6329179392 2758131.5608926006 0 2758131.5608926006 8443709.5534287989 0 0 0 0 -55857724.366810098 -584693170.93127823 0 -584693170.93127823 2201692650.0531693 0 0 0 0 -243741620.55593342 253994858.02086639 0 253994858.02086639 2201954380.163208 0 0 0 0 -132072837.62802215 -148969799.52085304 0 -148969799.52085304 594668663.91407776 0 0 0 0 137220605.51933923 273903278.49069977 0 273903278.49069977 331157591.47230911 0 0 0 0 102260220.22077769 -167173900.34994626 0 -167173900.34994626 -39509312.614120483 0 0 0 0 157689874.31073475 -78786097.236076355 0 -78786097.236076355 -190819097.64626884 0 0 0 0 1419428129.7175765 -1216685810.1598799 0 -1216685810.1598799 498965734.99809265 0 0 0 0 338961444.66581422 611539874.72333527 0 611539874.72333527 731584272.71678925 0 0 0 0 925044.40695975523 -2055828.9667764676 0 -2055828.9667764676 4528730.3044771552 0 0 0 0 70812574.814366996 -1388918077.1190376 0 -1388918077.1190376 2201286399.5055418 0 0 0 0 -387048779.0839237 -507180745.74534607 0 -507180745.74534607 1177017877.1062317 0 0 0 0 -243108243.29343852 -1230381192.9560699 0 -1230381192.9560699 529352174.85852051 0 0 0 0 405134054.25343275 -1528960620.7999268 0 -1528960620.7999268 666124365.63205338 0 0 0 0 860808547.75371659 -725396017.30857849 0 -725396017.30857849 78103268.109725952 0 0 0 0 339462547.37348932 -557410190.35890961 0 -557410190.35890961 1022451592.2828064 0 0 0 0 680300055.47024226 -557312446.81819916 0 -557312446.81819916 851665170.75302124 0 0 0 0 776856276.608042 -699936266.93977356 0 -699936266.93977356 992092919.45883179 0 0 0 0 135924849.65219381 -118445927.36480999 0 -118445927.36480999 1248610482.8923645 0 0 0 0 -7261.8926269398362 44088.633173217997 0 44088.633173217997 1249242.6281799749 0 0 0 0 -20905444.436322093 44977543.07623291 0 44977543.07623291 6352351.1051878929 0 0 0 0 316122464.18151742 -187702189.72245026 0 -187702189.72245026 21995130.208709717 0 0 0 0 102273510.86495656 366016868.43951035 0 366016868.43951035 516666431.75491333 0 0 0 0 -74563131.299731493 -76742944.650211334 0 -76742944.650211334 -52642438.502479553 0 0 0 0 181964.21285788601 -1735368.4532382446 0 -1735368.4532382446 10923369.893394783 0 0 0 0 -552382465.06611431 46465365.199249268 0 46465365.199249268 635880147.2228775 0 0 0 0 -1266438.7186321951 -763249.56658536941 0 -763249.56658536941 2183551.0219708905 0 0 0 0 -64008225.118355989 -35168973.377420425 0 -35168973.377420425 -107663080.41614532 0 0 0 0 -7684733.1949170232 -4896431.6534957886 0 -4896431.6534957886 12091343.654180527 0 0 0 0 -664917.17726508877 4290532.8528635213 0 4290532.8528635213 11029736.582686111 0 0 0 0 -15676109.032673649 -18301654.245685577 0 -18301654.245685577 14144417.4243927 0 0 0 0 -1442240.9918228581 -1774343.8604674712 0 -1774343.8604674712 6483430.7325218022 0 0 0 0 -223468514.78067127 -97644458.54076004 0 -97644458.54076004 1852906.5579833984 0 0 0 0 -180833342.4961139 320995618.42631149 0 320995618.42631149 -247458731.46111298 0 0 0 0 59520178.731890798 -227026457.20746613 0 -227026457.20746613 -396416180.43732262 0 0 0 0 -37580054.093725801 33783937.04857254 0 33783937.04857254 41539310.771903992 0 0 0 0 11049328.975366592 -44714350.126617432 0 -44714350.126617432 65760101.015861511 0 0 0 0 220397880.0328548 457788045.6426239 0 457788045.6426239 -217545251.45202637 0 0 0 0 979927.44867112709 -323297.65587059408 0 -323297.65587059408 2418020.4236089587 0 0 0 0 11832250.144950431 4871863.8388396502 0 4871863.8388396502 1446429.3035736084 0 0 0 0 -2195534.839633985 -2363749.589273788 0 -2363749.589273788 4333369.1147153303 0 0 0 0 -1633884.6209440208 2484267.7104655663 0 2484267.7104655663 20653761.586257078 0 0 0 0 -20122611.956043415 -28899832.821989536 0 -28899832.821989536 46849285.62487793 0 0 0 0 -44069616.163678646 -8020472.4889602661 0 -8020472.4889602661 82935504.740491867 0 0 0 0 15923260.37541512 -20100337.609460711 0 -20100337.609460711 48502998.050964355 0 0 0 0 7162332.5300902426 62815081.315093994 0 62815081.315093994 18751047.61013031 0 0 0 0 -17974171.8979913 15430348.535549164 0 15430348.535549164 21373206.203922272 0 0 0 0 -18562755.978912234 18004439.379253387 0 18004439.379253387 82030678.037368774 0 0 0 0 -2251871.7462972403 16562759.888973236 0 16562759.888973236 -2681602.8389892578 0 0 0 0 -5246147.734249413 9598381.0017604828 0 9598381.0017604828 14781350.027366638 0 0 0 0 -975977.54093298758 8288370.0006888919 0 8288370.0006888919 -461611.70215927064 0 0 0 0 20311814.83468008 23861243.832336426 0 23861243.832336426 21317818.94033432 0 0 0 0 -13283.538534210762 379334.4745407179 0 379334.4745407179 794296.58284160122 0 0 0 0 -8353920.8559513986 48524349.113045692 0 48524349.113045692 -77950817.835479736 0 0 0 0 121809.10974473153 1099728.4152575503 0 1099728.4152575503 130255.63768351078 0 0 0 0 -25365397.354966998 16615812.747550964 0 16615812.747550964 23953167.692930222 0 0 0 0 -3295238.9286246737 1132277.1446780921 0 1132277.1446780921 19281379.930132739 0 0 0 0 -123857885.63312507 -17909437.052204132 0 -17909437.052204132 25192956.011360168 0 0 0 0 -208064241.02973056 20772071.290154457 0 20772071.290154457 65976070.576370239 0 0 0 0 -79579596.988230467 4830781.7170715332 0 4830781.7170715332 121358520.4216156 0 0 0 0 -78190143.81846261 6711419.6228179932 0 6711419.6228179932 -49980719.055679321 0 0 0 0 -304497897.46267605 -54931006.273254395 0 -54931006.273254395 14005450.330688477 0 0 0 0 28084969.267497063 -57315501.294643402 0 -57315501.294643402 59204591.815153122 0 0 0 0 -96507035.813271582 24660438.643278122 0 24660438.643278122 81443266.820526123 0 0 0 0 -73425161.429251552 -29041350.773418427 0 -29041350.773418427 -21571386.17074585 0 0 0 0 -155190862.4149949 10573525.150208473 0 10573525.150208473 8417053.9949874878 0 0 0 0 -138049486.68293071 25797990.000926971 0 25797990.000926971 21741058.305912495 0 0 0 0 -153208010.30455208 9061067.8902931213 0 9061067.8902931213 9544191.7852287292 0 0 0 0 -199570.99211831251 -269543.91647367179 0 -269543.91647367179 491755.80176266283 0 0 0 0 -169684409.66537637 -55779988.420320034 0 -55779988.420320034 -26802131.702308655 0 0 0 0 -13072502.882326484 35237691.738725662 0 35237691.738725662 42884836.526367188 0 0 0 0 -29464219.28234005 -69564020.323448181 0 -69564020.323448181 -210821.56432151794 0 0 0 0 -120958.53357261396 -567890.05982828513 0 -567890.05982828513 866317.39071243256 0 0 0 0 -19963159.287371755 -48452190.210708618 0 -48452190.210708618 -15431785.518936157 0 0 0 0 -39018116.893401384 5254559.3333778381 0 5254559.3333778381 7445674.9069976807 0 0 0 0 -4071325.6448242664 -26781181.546497345 0 -26781181.546497345 13927096.533192635 0 0 0 0 -32843727.475122571 -23222158.556617737 0 -23222158.556617737 142021979.32069397 0 0 0 0 -24582429.742522836 -72049548.113250732 0 -72049548.113250732 203374632.90359497 0 0 0 0 64447984.373456955 -106034333.01789856 0 -106034333.01789856 142046388.44038314 0 0 0 0 6362647.1437902451 -112979597.06487274 0 -112979597.06487274 249829315.47720337 0 0 0 0 3294344.8772140741 7558373.4764175415 0 7558373.4764175415 21583473.456638336 0 0 0 0 -24502.306540631456 -320356.95739386231 0 -320356.95739386231 485452.61859504133 0 0 0 0 -27181986.718346987 -53391523.871072769 0 -53391523.871072769 273496178.04357147 0 0 0 0 72771005.867423236 -157570166.80069733 0 -157570166.80069733 227823782.78473663 0 0 0 0 97629818.743248373 -142789658.1682148 0 -142789658.1682148 148791746.46117401 0 0 0 0 -42059.515858943363 -131499447.96538696 0 -131499447.96538696 254475177.5852356 0 0 0 0 288424.53000862122 -131402783.38311005 0 -131402783.38311005 254502808.47201538 0 0 0 0 58824131.97539103 102490319.4033699 0 102490319.4033699 144583354.23258781 0 0 0 0 69390744.700817406 -138312429.07662582 0 -138312429.07662582 41393556.091831207 0 0 0 0 -47574505.999711551 22681352.135285854 0 22681352.135285854 108209139.22657013 0 0 0 0 62946877.784899622 124160592.21860123 0 124160592.21860123 127445711.19037628 0 0 0 0 -62516.737134125899 152652.84813642502 0 152652.84813642502 740923.96047019213 0 0 0 0 -3032177.6895188801 -9161983.4400901794 0 -9161983.4400901794 49693720.739345551 0 0 0 0 -2318449.5449497905 -11370007.765291214 0 -11370007.765291214 55934238.273590088 0 0 0 0 -7034.3271844774272 -9387161.7957763672 0 -9387161.7957763672 48880057.945095062 0 0 0 0 14340.715913944852 -8341203.0366737787 0 -8341203.0366737787 39021147.936958313 0 0 0 0 -132818.1329609027 -367760.70978426188 0 -367760.70978426188 530643.21938315034 0 0 0 0 1931024.0202726852 -13441719.444988251 0 -13441719.444988251 44887406.944641113 0 0 0 0 1921550.0691718273 -14370625.022338271 0 -14370625.022338271 46483204.780158997 0 0 0 0 -761954.35058311606 -346567.62213465571 0 -346567.62213465571 786666.7235904038 0 0 0 0 63090769.981575847 -197095663.88169479 0 -197095663.88169479 296456566.72748947 0 0 0 0 84865228.711838663 -80741076.828011036 0 -80741076.828011036 195125810.78147888 0 0 0 0 4035404.2827173779 -20139425.445542037 0 -20139425.445542037 42030239.731201172 0 0 0 0 3918407.592800796 -17288701.091285706 0 -17288701.091285706 49632435.697685242 0 0 0 0 -3750453.2347019389 -14396404.450252533 0 -14396404.450252533 50198162.532308578 0 0 0 0 -2088757.8639411628 -20057627.236938477 0 -20057627.236938477 62511532.361610413 0 0 0 0 -8391432.2440072224 -10597806.705177307 0 -10597806.705177307 60927610.783248901 0 0 0 0 -18196875.387353674 -17610139.581882477 0 -17610139.581882477 78175411.081787586 0 0 0 0 23775616.051014654 -35353058.831020355 0 -35353058.831020355 -7465001.4429168701 0 0 0 0 -1073474.3870215672 631129.6631604135 0 631129.6631604135 2171254.848870784 0 0 0 0 -2456598.7546081468 -27389870.023420334 0 -27389870.023420334 48793636.012653351 0 0 0 0 604343.47666449845 -36776394.347755432 0 -36776394.347755432 75063268.620954037 0 0 0 0 4400455.2721879482 -194457123.94432831 0 -194457123.94432831 386499208.32699585 0 0 0 0 -1199228.0179736591 -12270.078127503395 0 -12270.078127503395 1332990.7108327597 0 0 0 0 -116005531.79147649 -120461973.87545013 0 -120461973.87545013 195640875.30289459 0 0 0 0 -29893262.567638874 -88187254.765769958 0 -88187254.765769958 86495606.340232849 0 0 0 0 -243024501.4060975 -121396984.31724501 0 -121396984.31724501 84467160.26133728 0 0 0 0 -286104961.26313543 183218071.9163208 0 183218071.9163208 33475127.07396698 0 0 0 0 -127857683.42354345 72295477.524505615 0 72295477.524505615 121057818.88961792 0 0 0 0 -96116295.575063765 -16048367.325786591 0 -16048367.325786591 324660505.65994263 0 0 0 0 77732964.935868263 -81993062.343574524 0 -81993062.343574524 196653476.63961029 0 0 0 0 -1693511.6266320944 -147064689.07753754 0 -147064689.07753754 390493019.57027626 0 0 0 0 40528813.69510448 -40873407.49017334 0 -40873407.49017334 216370037.07250118 0 0 0 0 -28204769.937748849 24012251.030536652 0 24012251.030536652 202269980.28913879 0 0 0 0 -116043991.15109682 60221041.103302002 0 60221041.103302002 133305226.7645874 0 0 0 0 8727315.7596225142 -37558751.768302917 0 -37558751.768302917 192363890.00538635 0 0 0 0 -97447341.694527149 36198271.040283203 0 36198271.040283203 130025963.41799927 0 0 0 0 6714237.8144731671 17308141.720090389 0 17308141.720090389 25506045.200149536 0 0 0 0 -100155718.24758625 48045607.461181641 0 48045607.461181641 103997924.02151489 0 0 0 0 -9097799.942358315 20141708.293048859 0 20141708.293048859 86942518.261566162 0 0 0 0 7669794.5203984678 28991811.715986252 0 28991811.715986252 86338179.537666321 0 0 0 0 -2691125.7008563578 4874301.3665161133 0 4874301.3665161133 199161194.20084381 0 0 0 0 892614.88295763731 -12448012.564380646 0 -12448012.564380646 178048209.13792419 0 0 0 0 -476385.15174474334 1283077.2384659797 0 1283077.2384659797 3399731.2504934408 0 0 0 0 10438401.495307684 -78598226.130096436 0 -78598226.130096436 258360538.89601898 0 0 0 0 29682267.622246042 -80001835.628404617 0 -80001835.628404617 102036548.66551208 0 0 0 0 95162983.722103402 27411518.997079849 0 27411518.997079849 -26023857.065460205 0 0 0 0 -52064081.019140631 -9824390.0169372559 0 -9824390.0169372559 250499561.1370163 0 0 0 0 46555357.705823034 -163294527.6709404 0 -163294527.6709404 248848877.23098755 0 0 0 0 -20025787.79546994 -38660760.360980988 0 -38660760.360980988 183467177.9805069 0 0 0 0 1986552.6030657329 74619932.184656143 0 74619932.184656143 135634589.3157959 0 0 0 0 22364891.898187384 37933731.253874779 0 37933731.253874779 56229091.269775391 0 0 0 0 2418962.6251627803 -2736018.284324646 0 -2736018.284324646 8994324.7008962631 0 0 0 0 43066357.715847999 53833353.009555817 0 53833353.009555817 16633815.220756531 0 0 0 0 -302777.22357412352 -130866.74166700989 0 -130866.74166700989 1405587.8833371922 0 0 0 0 -23830595.721240498 149100.41835403442 0 149100.41835403442 20816220.671127319 0 0 0 0 -3582602.6906529069 -869228.39792633057 0 -869228.39792633057 14174603.15271759 0 0 0 0 -17925195.147871494 -1639216.8319473267 0 -1639216.8319473267 18850456.100341797 0 0 0 0 -5946733.5468167067 -4025842.5279769897 0 -4025842.5279769897 11264274.596466064 0 0 0 0 -19204193.74526152 755189.1106338501 0 755189.1106338501 11308057.953994751 0 0 0 0 6191599.0253125345 6174710.8569972515 0 6174710.8569972515 18256918.051925659 0 0 0 0 -14706201.838185221 -353434.26739501953 0 -353434.26739501953 15457106.412750244 0 0 0 0 6906231.2229918838 106846.91181945801 0 106846.91181945801 8959358.580619812 0 0 0 0 -7499388.9082814343 2241420.9926557541 0 2241420.9926557541 18627695.080245972 0 0 0 0 9049604.9708927497 13797992.129136086 0 13797992.129136086 29713638.820098877 0 0 0 0 12302336.556654155 801162.40624237061 0 801162.40624237061 15345826.562202454 0 0 0 0 28661581.364244968 12865385.977973938 0 12865385.977973938 11553508.696304321 0 0 0 0 -3842484.6941160718 4090962.0699594021 0 4090962.0699594021 23286633.78453064 0 0 0 0 11492742.206001014 14085467.294746399 0 14085467.294746399 29216488.582881927 0 0 0 0 8114608.2210326269 8597398.4837760925 0 8597398.4837760925 35718108.887077332 0 0 0 0 11526608.629694492 21684982.259048462 0 21684982.259048462 41417099.266399384 0 0 0 0 11642643.846384987 5335656.8654289246 0 5335656.8654289246 17687786.267478943 0 0 0 0 12652092.118189484 -288124.73121643066 0 -288124.73121643066 12945975.114746094 0 0 0 0 6281494.2887156308 1233474.3098907471 0 1233474.3098907471 27009299.014650345 0 0 0 0 7244411.6542866826 5111970.6351890564 0 5111970.6351890564 26584601.778850079 0 0 0 0 2470146.2788669206 8550351.2688579559 0 8550351.2688579559 40854681.150100708 0 0 0 0 -1519708.0386244189 13358545.039383888 0 13358545.039383888 60200511.417884827 0 0 0 0 -9042936.4440270811 -227003.93009185791 0 -227003.93009185791 78223635.480905533 0 0 0 0 -1917232.3901076168 14994711.881057739 0 14994711.881057739 80933944.405128479 0 0 0 0 35086.081962242723 11105538.508995056 0 11105538.508995056 57448266.23475647 0 0 0 0 -9987486.5624137111 -13951539.383220673 0 -13951539.383220673 72978294.593788147 0 0 0 0 -6206389.8240632173 -8967620.608373642 0 -8967620.608373642 62045493.80247879 0 0 0 0 -8679575.9182445481 -1989465.0652961731 0 -1989465.0652961731 52235380.208480835 0 0 0 0 -2090158.1309244633 1856463.7958335876 0 1856463.7958335876 45352290.994831085 0 0 0 0 -4233743.1072283387 4115804.2659187317 0 4115804.2659187317 53890010.841256142 0 0 0 0 615969.89238446578 1277633.7213821411 0 1277633.7213821411 30090715.357200623 0 0 0 0 -565306.87320352718 5579201.7329139709 0 5579201.7329139709 34906178.787223816 0 0 0 0 -3704495.6407388486 -845857.45946884155 0 -845857.45946884155 41392040.468009949 0 0 0 0 -3850677.7730493401 1071054.6204209328 0 1071054.6204209328 40598592.37878418 0 0 0 0 -2082432.9418172596 -1538050.5702476501 0 -1538050.5702476501 33815270.503738403 0 0 0 0 -2270309.8081703857 2447923.5030517578 0 2447923.5030517578 31061673.715351105 0 0 0 0 -2301.7583764004166 -1432839.3599853516 0 -1432839.3599853516 29263149.429893494 0 0 0 0 -3339383.0913317739 1251375.3968715668 0 1251375.3968715668 38094274.686027527 0 0 0 0 -3050.7348967677108 -3467317.777256012 0 -3467317.777256012 39915653.168751717 0 0 0 0 -5093731.8401536141 -2373556.8334331512 0 -2373556.8334331512 49764081.413032532 0 0 0 0 -3059157.7890189886 -5108566.4592819214 0 -5108566.4592819214 48666787.450624466 0 0 0 0 -6776437.8856467782 -6381739.7008152008 0 -6381739.7008152008 52365595.809196472 0 0 0 0 -3822.9660947290822 -7514997.8703803029 0 -7514997.8703803029 50562084.386650085 0 0 0 0 -11859866.882484436 46744270.189090729 0 46744270.189090729 154519230.8462069 0 0 0 0 -104305498.02507997 21571345.023462296 0 21571345.023462296 237354516.03522491 0 0 0 0 647641.26558771299 -1391130.7309217053 0 -1391130.7309217053 23599018.77588658 0 0 0 0 -1741669.4153211692 654365.97320595756 0 654365.97320595756 5375025.4416985996 0 0 0 0 237197078.67070687 348122556.23143005 0 348122556.23143005 -77601020.861846924 0 0 0 0 -170660898.51562405 118612605.70952606 0 118612605.70952606 -22796073.382873535 0 0 0 0 -33289496.48161602 7240386.6971473694 0 7240386.6971473694 50030210.997131348 0 0 0 0 380133566.09898686 -149969681.0182724 0 -149969681.0182724 -54553300.882164001 0 0 0 0 -551122220.00300932 27918588.18838501 0 27918588.18838501 154071443.05627537 0 0 0 0 75987362.415913582 -48807577.356658936 0 -48807577.356658936 130471771.34550858 0 0 0 0 -18199107.923637509 295605339.26017904 0 295605339.26017904 598852590.41040802 0 0 0 0 317849993.7319923 420871184.45595765 0 420871184.45595765 309271285.88519287 0 0 0 0 -170827363.17230868 36297449.808224805 0 36297449.808224805 166802488.48574829 0 0 0 0 -7077474.4111955166 -98174899.413764954 0 -98174899.413764954 42397911.643203735 0 0 0 0 -137084366.37064219 19142987.271217346 0 19142987.271217346 135906837.21226501 0 0 0 0 -14667857.452235267 -10959748.456897736 0 -10959748.456897736 50612248.625095367 0 0 0 0 -154909476.16089487 -2558848.1699447632 0 -2558848.1699447632 113901196.21892548 0 0 0 0 -5363245.883044051 1688868.7402849123 0 1688868.7402849123 40708198.566717818 0 0 0 0 -3658698.9038316491 -4487996.6941679753 0 -4487996.6941679753 19648534.497907687 0 0 0 0 -11688541.934408307 -6348291.2927904129 0 -6348291.2927904129 57523465.555599213 0 0 0 0 -5649073.8413672447 -1566641.4912261963 0 -1566641.4912261963 50095765.206764221 0 0 0 0 387336.83416050673 -16019407.92192173 0 -16019407.92192173 77755348.653305054 0 0 0 0 -560946.93258344755 -3572417.99716473 0 -3572417.99716473 16638324.802141264 0 0 0 0 -7762225.1965913773 -19480187.924682617 0 -19480187.924682617 95467440.660987854 0 0 0 0 -6612862.8024337292 1386572.6742782593 0 1386572.6742782593 23969536.849716187 0 0 0 0 -4781061.33097215 1450796.6773540229 0 1450796.6773540229 21474298.958155729 0 0 0 0 -5294820.6676995754 2431876.774641037 0 2431876.774641037 39378734.570965052 0 0 0 0 -5171722.0843573213 5202024.9504327774 0 5202024.9504327774 39025071.704940796 0 0 0 0 -3338352.4539704323 -5428146.8745307922 0 -5428146.8745307922 18785815.942090988 0 0 0 0 -6179786.8813506877 -239709.60353654344 0 -239709.60353654344 33061184.952630129 0 0 0 0 -5744596.7262656689 1347563.3030490875 0 1347563.3030490875 15638713.542595863 0 0 0 0 -9490700.423193872 2466908.4319264889 0 2466908.4319264889 55374209.582435608 0 0 0 0 -4671671.9242072105 1867113.2267980576 0 1867113.2267980576 55336750.491615295 0 0 0 0 -7163061.6356978919 1684279.2624441022 0 1684279.2624441022 29799615.402174879 0 0 0 0 -10235142.444360465 73496.379609584808 0 73496.379609584808 57093468.331167221 0 0 0 0 -6809593.8049659729 -1411996.0722980499 0 -1411996.0722980499 57144700.384963453 0 0 0 0 -6846740.5863170624 -7275780.3262748718 0 -7275780.3262748718 64289160.909376144 0 0 0 0 -9373878.4613685608 -4270779.2444200516 0 -4270779.2444200516 68203783.465705872 0 0 0 0 -9210704.5644166321 -1079650.294491291 0 -1079650.294491291 60333519.924125671 0 0 0 0 -6291208.0807290077 -8559351.3913879395 0 -8559351.3913879395 61917796.152622223 0 0 0 0 -26379166.999744892 524041.39185333252 0 524041.39185333252 4286893.9214324951 0 0 0 0 -29686637.926817894 -3227624.1817398071 0 -3227624.1817398071 1992572.6419219971 0 0 0 0 -8848327.1968142111 12791612.809008557 0 12791612.809008557 24659882.112347513 0 0 0 0 -7202935.4148335457 -133704.72390556335 0 -133704.72390556335 54349136.024208069 0 0 0 0 -5401181.7031672001 -6875719.3275060654 0 -6875719.3275060654 54093653.923885345 0 0 0 0 1104962.7366427211 3343371.3200347219 0 3343371.3200347219 4672054.7535058632 0 0 0 0 -8940815.1703653336 2864183.1731567383 0 2864183.1731567383 7690279.6442260742 0 0 0 0 -5046168.9886338767 -1373666.7004926689 0 -1373666.7004926689 28309181.711688202 0 0 0 0 -559902.92950213468 4993183.291802736 0 4993183.291802736 7273531.2749313116 0 0 0 0 -8981329.5284695625 5324712.0232658386 0 5324712.0232658386 13448568.311302185 0 0 0 0 -7627483.1673955917 -5467283.6104812622 0 -5467283.6104812622 47281639.020056963 0 0 0 0 -7898604.5501320362 4672208.5560436249 0 4672208.5560436249 13788100.676818848 0 0 0 0 -8231549.1693844795 3007273.3503875732 0 3007273.3503875732 20329180.654777527 0 0 0 0 489807.7670674324 4826682.4672050476 0 4826682.4672050476 9134525.8865890503 0 0 0 0 -6746462.0180036649 7290231.4113688469 0 7290231.4113688469 9927154.1822509766 0 0 0 0 -5608902.4204084622 4645325.1272748113 0 4645325.1272748113 26740534.518425323 0 0 0 0 -6899541.7820260525 3570885.4591941833 0 3570885.4591941833 10224919.335075378 0 0 0 0 -3673762.32594941 12635688.849762926 0 12635688.849762926 19538713.074221902 0 0 0 0 -4734304.0831486247 7179812.9104471728 0 7179812.9104471728 8083307.5656108558 0 0 0 0 -2630393.2347416235 7448837.8732894063 0 7448837.8732894063 5796727.6559027359 0 0 0 0 -31664710.37868309 -3541848.0027923584 0 -3541848.0027923584 -28983886.784912109 0 0 0 0 -26453836.47536993 751386.27606201172 0 751386.27606201172 4949030.9583129883 0 0 0 0 -3538694.0615561884 830605.0425353013 0 830605.0425353013 22815437.816304445 0 0 0 0 -17596060.308240891 2406007.6831741333 0 2406007.6831741333 11206267.959411621 0 0 0 0 4166380.6486558914 7400852.1956863403 0 7400852.1956863403 30509701.115905762 0 0 0 0 692967.38579059229 -6500103.0522896051 0 -6500103.0522896051 28927959.3782451 0 0 0 0 -5460349.7385272197 -9897536.9280249327 0 -9897536.9280249327 41501449.086385638 0 0 0 0 -9816467.7300357819 4595760.6268501282 0 4595760.6268501282 48502136.695571899 0 0 0 0 -21580300.738267899 -8170943.8366546631 0 -8170943.8366546631 47400173.724754333 0 0 0 0 -28954530.242729187 -8015113.7671279907 0 -8015113.7671279907 49116839.765029907 0 0 0 0 -17019365.193560719 7384534.0581769943 0 7384534.0581769943 49209018.667617798 0 0 0 0 -11122120.372938633 12002533.453834534 0 12002533.453834534 42826709.834251404 0 0 0 0 -14926267.438925743 4302499.7091751099 0 4302499.7091751099 51036583.343307495 0 0 0 0 -10870507.06781435 10445447.752662659 0 10445447.752662659 51324529.471725464 0 0 0 0 -11104903.93360281 8160493.3545379639 0 8160493.3545379639 49482288.377601624 0 0 0 0 -12859023.912733078 4156547.3144874573 0 4156547.3144874573 73207080.508560181 0 0 0 0 -7617772.3771463633 9262542.7694282532 0 9262542.7694282532 58101846.787971497 0 0 0 0 -16803456.42055583 -20750487.969659805 0 -20750487.969659805 110350189.08462524 0 0 0 0 4324.6792492866516 -17883453.434814453 0 -17883453.434814453 70772934.011165619 0 0 0 0 -5520570.6551463604 -6345558.107383728 0 -6345558.107383728 46801124.866661072 0 0 0 0 -8583429.690605402 -1110628.9072589874 0 -1110628.9072589874 61670552.030456543 0 0 0 0 -158909.9997484684 4255952.4781417847 0 4255952.4781417847 76781636.491062164 0 0 0 0 -14718882.611243844 11398102.797147751 0 11398102.797147751 100632736.52313232 0 0 0 0 -20701712.839072943 -13566458.824848175 0 -13566458.824848175 97110948.869432449 0 0 0 0 -22317023.923075795 -3719815.8199043274 0 -3719815.8199043274 163580387.12844849 0 0 0 0 1813956.2975767255 21668256.539989471 0 21668256.539989471 102182992.78612137 0 0 0 0 15624364.226660609 -27157711.048084259 0 -27157711.048084259 145987737.63399124 0 0 0 0 30767192.523060799 31901579.286903381 0 31901579.286903381 -61012329.370849609 0 0 0 0 195445.3999872217 1421597.2010961324 0 1421597.2010961324 5442675.4992743619 0 0 0 0 -55285923.199791893 -36983014.221039772 0 -36983014.221039772 183471190.22640991 0 0 0 0 -52238275.311304539 42787234.232758477 0 42787234.232758477 101909565.3132782 0 0 0 0 36133880.191663027 -41923349.559484482 0 -41923349.559484482 64247517.856811523 0 0 0 0 8338232.7533307076 3023541.9461555481 0 3023541.9461555481 8170673.7956008911 0 0 0 0 -8764842.4719033241 -71199350.475273132 0 -71199350.475273132 123761093.79608917 0 0 0 0 -6713155.1645855904 -69084753.578853607 0 -69084753.578853607 50989134.375999451 0 0 0 0 4739239.2299523354 -134010301.90174484 0 -134010301.90174484 114378011.23604584 0 0 0 0 -77690291.657459259 -96448031.355747223 0 -96448031.355747223 122047252.62110901 0 0 0 0 81407056.775929451 -108991663.94059753 0 -108991663.94059753 68144536.488674164 0 0 0 0 271711.17616142007 -81656.403023693711 0 -81656.403023693711 5441604.8897367492 0 0 0 0 -435870322.5050478 -138598189.91452026 0 -138598189.91452026 827478390.63793945 0 0 0 0 74675694.81951952 -45828880.966506958 0 -45828880.966506958 25340471.615543365 0 0 0 0 -524936677.43296027 -667445691.91008759 0 -667445691.91008759 588588982.0093689 0 0 0 0 -73090062.599422693 -450834381.78656006 0 -450834381.78656006 -92260187.987854004 0 0 0 0 -20747107.723342896 56080047.130004883 0 56080047.130004883 122947359.4905777 0 0 0 0 -351669.78952608258 -82495661.456310749 0 -82495661.456310749 146054357.57219696 0 0 0 0 306965216.33571434 526709036.26385498 0 526709036.26385498 242764588.28402901 0 0 0 0 -2535354.2000308684 117117.62502422929 0 117117.62502422929 5158312.8610662147 0 0 0 0 533618.5759177648 376848.10136798397 0 376848.10136798397 9420726.7874834612 0 0 0 0 48788510.41103816 124165905.2889328 0 124165905.2889328 -33056776.26984024 0 0 0 0 6874309.1842842102 325968840.15829468 0 325968840.15829468 269981409.7734642 0 0 0 0 75849288.684678078 -120755365.8296814 0 -120755365.8296814 133147469.0063324 0 0 0 0 79482818.621977746 -147498723.50944328 0 -147498723.50944328 328503888.26647949 0 0 0 0 14705080.298870087 -78329192.136489868 0 -78329192.136489868 103803123.24042511 0 0 0 0 6797381.797337532 -53926943.123668671 0 -53926943.123668671 54582785.115882874 0 0 0 0 -47092643.710323334 -25353326.466651917 0 -25353326.466651917 62952749.04309845 0 0 0 0 -73822248.362668991 -24999678.72882843 0 -24999678.72882843 71598849.120452881 0 0 0 0 -32276896.422843933 -57926097.586715698 0 -57926097.586715698 71030374.553253174 0 0 0 0 -47182408.835151672 -49542905.941162109 0 -49542905.941162109 74545477.790130615 0 0 0 0 -41995194.521877289 -30393082.714233398 0 -30393082.714233398 65669953.886993408 0 0 0 0 -28809713.715758801 -110193045.75762939 0 -110193045.75762939 188338144.18091583 0 0 0 0 -36178880.360053897 -92822955.741241455 0 -92822955.741241455 205742639.01894379 0 0 0 0 98393791.948776007 -127548738.58026123 0 -127548738.58026123 -134872417.40704346 0 0 0 0 -142865531.85563827 -120243879.36794281 0 -120243879.36794281 684263943.7073288 0 0 0 0 -24370737.524672747 -124100800.1558609 0 -124100800.1558609 228613677.93023491 0 0 0 0 -72242767.033986568 -123939470.94160461 0 -123939470.94160461 228825735.88887978 0 0 0 0 -14943689.206818342 -15458656.767913818 0 -15458656.767913818 -1451349.8348693848 0 0 0 0 -386077.75536823273 -700187932.32154846 0 -700187932.32154846 236712724.13658905 0 0 0 0 -46881469.55608654 543864179.30158997 0 543864179.30158997 1157552781.4176636 0 0 0 0 68930384.34301579 163763151.25177765 0 163763151.25177765 378884067.91552734 0 0 0 0 160679215.73334485 -94069522.419622421 0 -94069522.419622421 49962840.41217804 0 0 0 0 127129828.24281979 -34650480.63041687 0 -34650480.63041687 -982443.11707305908 0 0 0 0 1480120.7867364711 -1947099.6224926785 0 -1947099.6224926785 235643.38871438056 0 0 0 0 74087483.005637169 33137631.466926575 0 33137631.466926575 27041903.402648926 0 0 0 0 -610111.87964017782 -418086.09064941853 0 -418086.09064941853 831287.57142440975 0 0 0 0 -2576201.2800192237 -61085942.336513519 0 -61085942.336513519 154271002.37149048 0 0 0 0 -2578793.9581056833 -13334835.586639404 0 -13334835.586639404 58137103.106586456 0 0 0 0 -65402564.811322734 36322754.328567505 0 36322754.328567505 243618847.14038086 0 0 0 0 -52834825.746075213 -79295024.526823997 0 -79295024.526823997 194757716.7718811 0 0 0 0 -53400831.137640953 -81835162.565856934 0 -81835162.565856934 316224038.06741333 0 0 0 0 -64858895.958221436 43086529.550369263 0 43086529.550369263 322375449.53318357 0 0 0 0 -5280067.7403008938 332898.19758605957 0 332898.19758605957 60054269.463575363 0 0 0 0 -1807232.2055339965 -784777.29561428353 0 -784777.29561428353 5049439.2322720587 0 0 0 0 -25988250.855550922 8801346.0970973969 0 8801346.0970973969 13149310.35357666 0 0 0 0 -5247536.1948136091 -813753.4884147644 0 -813753.4884147644 7423138.9020385742 0 0 0 0 -17957865.711584337 -995519.6947221756 0 -995519.6947221756 6963727.7995605469 0 0 0 0 -976668.23351002077 -908635.30784601718 0 -908635.30784601718 6921837.4776141942 0 0 0 0 -1665031.3871394161 -4152241.9998262785 0 -4152241.9998262785 5141164.1973425373 0 0 0 0 -1874177.8636705875 -8823113.7227687836 0 -8823113.7227687836 9218968.5458297729 0 0 0 0 28877130.695586205 -9916518.8763847351 0 -9916518.8763847351 3760984.3719367981 0 0 0 0 -2125591.9335589139 -2160099.7569331564 0 -2160099.7569331564 3025701.026866436 0 0 0 0 -22423044.553529501 1205197.8088722229 0 1205197.8088722229 21791636.719024658 0 0 0 0 -3308798.2465393543 -4909077.5546913147 0 -4909077.5546913147 -7021849.7344589233 0 0 0 0 -22083239.505847603 -6637918.5048370361 0 -6637918.5048370361 12103863.611495972 0 0 0 0 -3770152.1357972622 -10968216.762550592 0 -10968216.762550592 -30757676.297637939 0 0 0 0 -1435149.4741909383 -1169046.774188228 0 -1169046.774188228 8683019.4866647199 0 0 0 0 -13571201.001656532 -45268279.785747528 0 -45268279.785747528 52048390.925201416 0 0 0 0 -8130327.5162744522 -29751727.771413803 0 -29751727.771413803 49546501.982040405 0 0 0 0 42611856.73023057 -38121632.749458313 0 -38121632.749458313 22079701.473236084 0 0 0 0 407895.08005457721 -1795807.5980491377 0 -1795807.5980491377 9659721.6324183494 0 0 0 0 15572931.832621098 -29718740.047943115 0 -29718740.047943115 19566013.115814209 0 0 0 0 16340740.085418701 -14101685.890285492 0 -14101685.890285492 -2148529.1118927002 0 0 0 0 8290855.9236636162 -12501973.571081161 0 -12501973.571081161 20026581.832580566 0 0 0 0 1143649.2671733587 -11173604.55906821 0 -11173604.55906821 33928098.404816024 0 0 0 0 -56437935.425699115 -32526783.93626976 0 -32526783.93626976 53676440.090492249 0 0 0 0 -20943213.161423683 -28076180.318195343 0 -28076180.318195343 35520101.91795826 0 0 0 0 -22915335.783963442 -16549110.24252224 0 -16549110.24252224 34464889.238922119 0 0 0 0 -16904762.523319364 -27808032.808560371 0 -27808032.808560371 55415590.301593781 0 0 0 0 -8912011.5127211809 -30816458.236039162 0 -30816458.236039162 28146394.216953278 0 0 0 0 -21377837.450940371 -33693647.332969666 0 -33693647.332969666 37239507.130088806 0 0 0 0 -10357085.827015162 -33956704.563390732 0 -33956704.563390732 34144271.258720398 0 0 0 0 -18710311.120231628 -16078116.763397217 0 -16078116.763397217 32589801.550113678 0 0 0 0 -20804799.045135498 -9819155.8992538452 0 -9819155.8992538452 49751016.036872864 0 0 0 0 -397243.0860687769 -15302867.773218822 0 -15302867.773218822 38147505.331546389 0 0 0 0 -6331955.0228534341 -2914239.3622289374 0 -2914239.3622289374 17029194.705484454 0 0 0 0 -27404537.712443352 -9281087.9356422424 0 -9281087.9356422424 52412553.143821716 0 0 0 0 -43878652.588891029 -5558685.5411453247 0 -5558685.5411453247 51760774.254180908 0 0 0 0 2122532.7121505737 -31253302.573059082 0 -31253302.573059082 116942405.23486328 0 0 0 0 -8985417.8091154695 -22319108.332637787 0 -22319108.332637787 42295021.998615265 0 0 0 0 -1920360.7114926577 -38308201.777656555 0 -38308201.777656555 39650980.979011536 0 0 0 0 -3838915.6103812461 9208213.4937587827 0 9208213.4937587827 21903352.396995116 0 0 0 0 -6789920.7019466758 5332176.0156459808 0 5332176.0156459808 52516248.046724319 0 0 0 0 -1595520.6131801605 939349.28521728516 0 939349.28521728516 9309929.3510665894 0 0 0 0 564896.70821918733 -11242529.588632781 0 -11242529.588632781 9286134.5688546263 0 0 0 0 1183766.1352032435 -1929338.086026229 0 -1929338.086026229 21344303.046182737 0 0 0 0 -6254197.3847153513 1215509.2731388696 0 1215509.2731388696 44171916.715818673 0 0 0 0 -14888986.961190954 6321690.0408725739 0 6321690.0408725739 55066859.148231506 0 0 0 0 -110482773.05449006 -52341235.798476219 0 -52341235.798476219 25393068.635650635 0 0 0 0 -8406886.8996332139 3160591.1157665253 0 3160591.1157665253 39185748.901344299 0 0 0 0 54815287.864584923 -59424889.904922485 0 -59424889.904922485 -251617395.98734283 0 0 0 0 -13643065.581671238 12612708.575264215 0 12612708.575264215 126100365.85961151 0 0 0 0 -3595202.0502584442 -1247963.3091757074 0 -1247963.3091757074 19904032.096298032 0 0 0 0 21208505.543949127 54835863.613815308 0 54835863.613815308 215254370.60195923 0 0 0 0 -11667745.738443375 -15955169.300617218 0 -15955169.300617218 86603026.030305862 0 0 0 0 7076978.685074687 -9659617.7822170258 0 -9659617.7822170258 80995680.040657043 0 0 0 0 -23320603.622835755 10605032.358642578 0 10605032.358642578 65836114.884078979 0 0 0 0 -8511900.9338325262 728330.74450492859 0 728330.74450492859 61581623.565345764 0 0 0 0 -6862950.4707156681 12333487.025692046 0 12333487.025692046 54689645.426803589 0 0 0 0 -7799780.6986150742 11071054.299373627 0 11071054.299373627 53273174.89006424 0 0 0 0 -9158408.2949057817 13357740.816699982 0 13357740.816699982 54525631.598144531 0 0 0 0 -7173309.650580883 12696091.04139328 0 12696091.04139328 54590730.173344612 0 0 0 0 -1172725.6601851182 -1579856.4604778886 0 -1579856.4604778886 18205172.342021059 0 0 0 0 -7504989.4391567707 11142670.75881958 0 11142670.75881958 57768610.343460083 0 0 0 0 -476825.46510759695 -668597.72570511885 0 -668597.72570511885 7195956.0510232514 0 0 0 0 -28168800.231007695 32489800.898460388 0 32489800.898460388 35941109.595821381 0 0 0 0 -78293917.95573616 13907058.078739166 0 13907058.078739166 75689955.909523964 0 0 0 0 -30726265.715847015 -79175772.088560104 0 -79175772.088560104 -15917371.095903397 0 0 0 0 -87748661.916567683 -59753346.151958466 0 -59753346.151958466 75009826.956813812 0 0 0 0 -64650995.491684437 -35022023.440105438 0 -35022023.440105438 95310366.035041809 0 0 0 0 -14041627.72858119 -38983608.336410522 0 -38983608.336410522 48080373.397171021 0 0 0 0 -2811705.0084266663 -42360999.284435272 0 -42360999.284435272 32633799.428821564 0 0 0 0 -2631871.0283303261 -34312390.695392609 0 -34312390.695392609 32438546.30134201 0 0 0 0 -27707374.259366035 -54805439.497215271 0 -54805439.497215271 30469136.020655632 0 0 0 0 -11831142.626606941 -22704988.363832474 0 -22704988.363832474 52312131.400372505 0 0 0 0 -38253777.331806302 -20710834.613670349 0 -20710834.613670349 89548219.026832581 0 0 0 0 -41223107.618250012 -13319644.116778374 0 -13319644.116778374 126198108.62704849 0 0 0 0 -32491008.963495493 -15247048.560806274 0 -15247048.560806274 85129998.949110985 0 0 0 0 -27977937.551742077 12970253.902481079 0 12970253.902481079 115002736.30034351 0 0 0 0 -30992012.712786078 12302903.757764816 0 12302903.757764816 117589725.80627823 0 0 0 0 -28305789.789742708 5035829.5538158417 0 5035829.5538158417 104257343.48243904 0 0 0 0 -19180394.872250557 4478643.9594097137 0 4478643.9594097137 100617164.35810947 0 0 0 0 -23358803.239706218 -9311331.7835488319 0 -9311331.7835488319 111883949.40865326 0 0 0 0 -37124762.846288919 2753529.2530899048 0 2753529.2530899048 119967227.47223663 0 0 0 0 -34999432.36675936 -1243824.9802694321 0 -1243824.9802694321 98540187.84412384 0 0 0 0 -3212052.4381561279 1066145.8871746063 0 1066145.8871746063 96648414.184833527 0 0 0 0 -29499575.954909801 29973389.152351379 0 29973389.152351379 100023746.26414299 0 0 0 0 -8177197.9494726658 19014987.44543457 0 19014987.44543457 89022221.14655304 0 0 0 0 -15205045.796329498 11973347.443662643 0 11973347.443662643 197507813.20845413 0 0 0 0 -933193.00305855856 -527823.25897004642 0 -527823.25897004642 2688834.6346800737 0 0 0 0 -5389972.784517765 46481642.883296967 0 46481642.883296967 52612561.727939606 0 0 0 0 -25814922.75167799 58567920.801837921 0 58567920.801837921 270604866.49457169 0 0 0 0 191407641.00835419 41782633.209945679 0 41782633.209945679 263315420.72093201 0 0 0 0 43237217.064177036 20193199.455102921 0 20193199.455102921 92885887.514316559 0 0 0 0 -414062.03270251164 4634387.8049597815 0 4634387.8049597815 5417271.1658929363 0 0 0 0 -2772076.003640091 -1240671.7938829232 0 -1240671.7938829232 9116065.3021653965 0 0 0 0 -6666405.5891685486 -6283528.37890625 0 -6283528.37890625 129485995.73667336 0 0 0 0 -3216941.533911705 14189899.692653656 0 14189899.692653656 111071363.68240356 0 0 0 0 -11303349.151022911 31858258.865432739 0 31858258.865432739 81484641.25446701 0 0 0 0 -923274.46741467668 2920332.1479893178 0 2920332.1479893178 10617188.982272709 0 0 0 0 1397506.4680233002 22639.068851470947 0 22639.068851470947 15755072.548583984 0 0 0 0 4794427.1066503525 8929097.5266036987 0 8929097.5266036987 71618144.857665062 0 0 0 0 -315203.62255239487 1833653.9071350098 0 1833653.9071350098 13077914.914096832 0 0 0 0 486307.28991723061 2336436.0883522034 0 2336436.0883522034 14557343.224502563 0 0 0 0 754188.31324601173 2234336.0457172394 0 2234336.0457172394 13226464.322761536 0 0 0 0 -61912.605803489685 1627645.8126144409 0 1627645.8126144409 14450732.642127991 0 0 0 0 -20488529.451553345 19066186.928565979 0 19066186.928565979 11408055.061012268 0 0 0 0 -9170449.609418869 6387165.6249389648 0 6387165.6249389648 11435744.030975342 0 0 0 0 -25392432.384496689 17256254.492294312 0 17256254.492294312 14385188.289459229 0 0 0 0 -25422065.414582253 16479871.335079432 0 16479871.335079432 6709730.7337188721 0 0 0 0 -21489172.399784088 27266255.683423042 0 27266255.683423042 -4435873.7616348267 0 0 0 0 -25927260.626101494 17999905.375173569 0 17999905.375173569 11633534.673065186 0 0 0 0 -29324799.31558609 25854927.539245605 0 25854927.539245605 -206772.0753326416 0 0 0 0 -31478634.110313416 11759342.463012695 0 11759342.463012695 13031911.926086426 0 0 0 0 -29621759.472583771 12649734.756698608 0 12649734.756698608 9322815.1496734619 0 0 0 0 -36220274.969949722 11620340.858631134 0 11620340.858631134 14919134.53112793 0 0 0 0 -1681297.2551242001 7155066.7722028811 0 7155066.7722028811 19274185.205853157 0 0 0 0 -17284768.326681137 -7079692.7568244934 0 -7079692.7568244934 19745758.189331055 0 0 0 0 -25091794.21113205 -5664044.3657045364 0 -5664044.3657045364 25979378.079818726 0 0 0 0 -38732092.566200256 1811998.1300964355 0 1811998.1300964355 33789942.745895386 0 0 0 0 2998720.4631619998 2204289.8719155844 0 2204289.8719155844 -4942169.0926359445 0 0 0 0 -8097806.2281313837 26334451.360237122 0 26334451.360237122 84410378.118171692 0 0 0 0 -43130599.58165741 21990390.994186401 0 21990390.994186401 -36945803.614089966 0 0 0 0 -12018885.881734053 10428249.109988321 0 10428249.109988321 22217640.574362066 0 0 0 0 -8362244.5725479126 18811575.81602478 0 18811575.81602478 78838985.322967529 0 0 0 0 20294658.123958588 39895998.649559021 0 39895998.649559021 72454809.251571655 0 0 0 0 1768165.5862066746 34222758.320761681 0 34222758.320761681 85622058.281562805 0 0 0 0 -24794.686838150024 23487612.763786316 0 23487612.763786316 71435986.031105042 0 0 0 0 -20493576.502916336 65902762.974910736 0 65902762.974910736 47076035.840919495 0 0 0 0 27161550.520610809 35943993.032951355 0 35943993.032951355 -20955236.135196686 0 0 0 0 -12255012.85062027 -20531044.391395569 0 -20531044.391395569 34605374.428253174 0 0 0 0 12431772.51499176 -1155046.6277351379 0 -1155046.6277351379 49651248.419445038 0 0 0 0 -29031384.885801315 -13699900.985881805 0 -13699900.985881805 56066967.498596191 0 0 0 0 16227556.092264175 -12053027.941516876 0 -12053027.941516876 77052836.835920334 0 0 0 0 11113677.836001396 26491559.212116241 0 26491559.212116241 55385351.929588318 0 0 0 0 10992759.371112823 21709178.993907928 0 21709178.993907928 71095831.775840759 0 0 0 0 -10219890.246582031 2032188.8229141235 0 2032188.8229141235 69181384.259033203 0 0 0 0 -4413319.3430815311 -1932757.5132210795 0 -1932757.5132210795 19275598.869663961 0 0 0 0 -23103719.793663025 -404869.93870162964 0 -404869.93870162964 72812951.038221359 0 0 0 0 -28781917.59289822 -5091996.892419219 0 -5091996.892419219 69676584.118904114 0 0 0 0 -6773722.4514728077 4462710.6304642092 0 4462710.6304642092 23640251.090677701 0 0 0 0 -24570574.473021507 14301323.828836441 0 14301323.828836441 9428467.7659759521 0 0 0 0 -25293810.189884186 13961578.421363831 0 13961578.421363831 10861221.679039001 0 0 0 0 -26012119.271780014 10174467.286262512 0 10174467.286262512 -2358435.1078491211 0 0 0 0 -9678376.3671290614 3748084.0115661025 0 3748084.0115661025 28431689.645614401 0 0 0 0 -6007295.0703392029 1826086.7698364258 0 1826086.7698364258 5285593.2498817444 0 0 0 0 965616.93673577812 -5634826.2706710976 0 -5634826.2706710976 30156378.998796977 0 0 0 0 6875704.1421097517 -712866.23141479492 0 -712866.23141479492 65114003.163396835 0 0 0 0 -4887613.3372854264 -1281195.7408310995 0 -1281195.7408310995 18756625.362773642 0 0 0 0 -40432445.659999132 6491844.1636924744 0 6491844.1636924744 69910773.765385628 0 0 0 0 -1238871.9443184421 2601214.8790736338 0 2601214.8790736338 4730908.4731137305 0 0 0 0 -4814543.8835649472 1185505.889865065 0 1185505.889865065 24489147.377643213 0 0 0 0 -894445.851849664 132327.00139656663 0 132327.00139656663 5071137.5895249303 0 0 0 0 20833165.869481802 18642344.02249527 0 18642344.02249527 59322576.671596527 0 0 0 0 -22301727.194211543 -40064938.296864271 0 -40064938.296864271 36889664.992027283 0 0 0 0 -19732741.064506054 -12399698.665458679 0 -12399698.665458679 91760406.203798294 0 0 0 0 -26421882.781583786 46805226.892555237 0 46805226.892555237 150392392.98454285 0 0 0 0 -14558895.064392 -27582870.393695593 0 -27582870.393695593 36805427.156845093 0 0 0 0 7312030.511570096 32824249.118812561 0 32824249.118812561 60436109.220569611 0 0 0 0 -5287965.1227025986 3860825.9657478333 0 3860825.9657478333 66947507.365303993 0 0 0 0 -4110549.1769624949 -19774429.143871307 0 -19774429.143871307 23156647.238868713 0 0 0 0 -226638.15721078299 -501404.7753700763 0 -501404.7753700763 461475.89672701061 0 0 0 0 -42377023.521358967 10518518.711112976 0 10518518.711112976 33072492.922691345 0 0 0 0 25465968.014866352 4474481.823009491 0 4474481.823009491 -23078193.159881592 0 0 0 0 15728711.38954401 -17015936.449020386 0 -17015936.449020386 6132132.0335845947 0 0 0 0 -39145374.565190792 -8085040.7646942139 0 -8085040.7646942139 64545227.703842163 0 0 0 0 21161003.807580471 29492447.173660278 0 29492447.173660278 77598051.27255249 0 0 0 0 -1618548.6393465996 3256633.626739502 0 3256633.626739502 83021891.61832428 0 0 0 0 -44804033.583930328 42045133.44812727 0 42045133.44812727 59424937.209945679 0 0 0 0 23568047.21360755 -2382003.8842468262 0 -2382003.8842468262 38257260.923934937 0 0 0 0 -915574.21488083585 -2428289.3082337193 0 -2428289.3082337193 20772941.08458101 0 0 0 0 -1559519.2935848236 19920960.318359375 0 19920960.318359375 74776028.749801636 0 0 0 0 3852811.7709999084 2332399.6725616455 0 2332399.6725616455 43938759.31413269 0 0 0 0 -2397666.8844255833 -2503476.2121833339 0 -2503476.2121833339 21251758.866423007 0 0 0 0 -22439338.620019913 22338870.956130981 0 22338870.956130981 -6483359.6125106812 0 0 0 0 -9000074.4004223347 -3654810.817363739 0 -3654810.817363739 31308229.345336914 0 0 0 0 -2405058.4245903492 11179435.089069366 0 11179435.089069366 363043.76205444336 0 0 0 0 -3473503.2643632889 6372940.9492492676 0 6372940.9492492676 5803585.0620651245 0 0 0 0 1008717.6665863991 -3383607.6287994385 0 -3383607.6287994385 -9127043.1161231995 0 0 0 0 14250122.613845348 7038212.38256073 0 7038212.38256073 -5139248.4672393799 0 0 0 0 49063139.831894398 -19646923.428672791 0 -19646923.428672791 56681982.277481079 0 0 0 0 2332008.4467449188 -8954588.5222091675 0 -8954588.5222091675 54630336.047714233 0 0 0 0 -268311.97506904602 -1616093.5283050537 0 -1616093.5283050537 58685609.200836182 0 0 0 0 -6312592.4711480141 -16877522.621643066 0 -16877522.621643066 51513478.486068726 0 0 0 0 14375250.574495077 -9561584.4143753052 0 -9561584.4143753052 24651959.655426025 0 0 0 0 -84711.462427854538 -8632076.2764759064 0 -8632076.2764759064 25821839.679473877 0 0 0 0 -2566100.7131464481 -17188070.794803619 0 -17188070.794803619 37084411.213699341 0 0 0 0 -11525020.463288784 -10923702.081130981 0 -10923702.081130981 44906833.622169495 0 0 0 0 -10262326.189313352 -24015992.662585258 0 -24015992.662585258 30087630.594741821 0 0 0 0 -22952039.651874989 -21706983.665579796 0 -21706983.665579796 50896984.524627686 0 0 0 0 -21952458.80095768 -6294884.6317214966 0 -6294884.6317214966 31631240.70174408 0 0 0 0 -710267.63151192665 691049.59418106079 0 691049.59418106079 46278877.61882019 0 0 0 0 -6312399.0206599236 -12875795.987762451 0 -12875795.987762451 44548740.896911621 0 0 0 0 -3133190.4774112701 8680680.5144615173 0 8680680.5144615173 71691176.843612671 0 0 0 0 5908005.6171965599 6221843.0674438477 0 6221843.0674438477 46486115.096436501 0 0 0 0 -355467.9517804333 1950548.3290158398 0 1950548.3290158398 8016378.6667339131 0 0 0 0 16931876.666512311 20344129.573059082 0 20344129.573059082 50726949.311882019 0 0 0 0 12214098.831364155 26582981.533157349 0 26582981.533157349 58246348.546401978 0 0 0 0 -2381639.4199132919 -799223.78049468994 0 -799223.78049468994 58441594.078056335 0 0 0 0 34874827.440952301 52778635.012458801 0 52778635.012458801 63510660.882141113 0 0 0 0 -2376260.2685801685 -2617147.5496268272 0 -2617147.5496268272 120199516.70657349 0 0 0 0 1004138.0343227386 13612098.111526489 0 13612098.111526489 7558325.3527088165 0 0 0 0 4267118.137567997 12319013.322425842 0 12319013.322425842 -3017439.0233917236 0 0 0 0 5246731.022282362 8520092.846622467 0 8520092.846622467 5491060.9329528809 0 0 0 0 21303543.604888916 30959988.670017242 0 30959988.670017242 39763941.191746712 0 0 0 0 6759429.9746383429 7287726.5798130035 0 7287726.5798130035 -7859823.6776428223 0 0 0 0 -207769.45129478304 1056002.4746747427 0 1056002.4746747427 3847840.8330754377 0 0 0 0 7564558.6227238178 32125887.74597168 0 32125887.74597168 71108462.92288208 0 0 0 0 -2944292.8373636864 1224055.7523992546 0 1224055.7523992546 22287621.826403506 0 0 0 0 -1899211.7189073563 9514898.5453872681 0 9514898.5453872681 8541690.1158218384 0 0 0 0 5137716.2738208771 15563351.191665649 0 15563351.191665649 76634211.996399403 0 0 0 0 -2318439.519624365 13250181.092247836 0 13250181.092247836 7488933.7932182997 0 0 0 0 -2058413.7122039795 8485920.0824432373 0 8485920.0824432373 14794978.448022842 0 0 0 0 -840617.13146515563 4602472.5892760381 0 4602472.5892760381 14703210.310531184 0 0 0 0 -679895.88096427917 2143237.2808074951 0 2143237.2808074951 6450557.1698913574 0 0 0 0 -95377.021240516799 1196521.3599008583 0 1196521.3599008583 3024014.1704967623 0 0 0 0 -18146139.344860315 16371550.543701172 0 16371550.543701172 89470524.326711655 0 0 0 0 -8705863.4282565117 -12995354.674438477 0 -12995354.674438477 145063433.48260498 0 0 0 0 -1870296.2790659182 -307805.51509987935 0 -307805.51509987935 2737419.4357057661 0 0 0 0 1544871.7226576805 14180800.857009888 0 14180800.857009888 4363056.7775726318 0 0 0 0 1568005.3959608944 7235017.6575191729 0 7235017.6575191729 6477410.6843008399 0 0 0 0 810650.81673125178 7998912.4431929588 0 7998912.4431929588 10095243.857978821 0 0 0 0 -1888226.2251462936 7831089.4651298523 0 7831089.4651298523 7824378.0368423462 0 0 0 0 442948.5359062585 12842734.635942146 0 12842734.635942146 4929796.3752633631 0 0 0 0 -12258607.826766968 18873183.714412689 0 18873183.714412689 3192498.0760650635 0 0 0 0 -21155354.965303898 25388978.824398041 0 25388978.824398041 1820796.9849090576 0 0 0 0 13499235.266026855 21592874.352993011 0 21592874.352993011 -31127096.996780396 0 0 0 0 77987.927271014021 3939056.3212476308 0 3939056.3212476308 1663758.1241461486 0 0 0 0 -13370951.732269764 16647853.967193604 0 16647853.967193604 10674497.684147358 0 0 0 0 -5027046.2897105217 31562553.159488678 0 31562553.159488678 -19491308.254058838 0 0 0 0 7891355.280582428 15684360.42313385 0 15684360.42313385 -3382748.3411278725 0 0 0 0 5863245.2643812895 20892178.236074448 0 20892178.236074448 -10314943.71383667 0 0 0 0 14626099.30085209 16905433.835905075 0 16905433.835905075 -18740289.799308777 0 0 0 0 14694030.021631241 12821865.478652954 0 12821865.478652954 -28940273.677074432 0 0 0 0 -6118463.9463713169 36858885.444385529 0 36858885.444385529 -24821442.099594116 0 0 0 0 7057477.1694567204 32068181.603378296 0 32068181.603378296 -38128880.011817932 0 0 0 0 7923258.0847400427 11806987.305749893 0 11806987.305749893 -6669982.75730896 0 0 0 0 4790460.076851368 8975084.6492462158 0 8975084.6492462158 -9209477.8389625549 0 0 0 0 2717600.7328019142 4937761.0560722351 0 4937761.0560722351 -14380561.912918091 0 0 0 0 8650493.75624156 12919110.573310852 0 12919110.573310852 -13159300.843887329 0 0 0 0 13058048.084000111 10877755.660469055 0 10877755.660469055 -14593921.696643829 0 0 0 0 18005746.570312738 5663194.1914291382 0 5663194.1914291382 -9874659.9175872803 0 0 0 0 11800049.825733423 8020579.3343200684 0 8020579.3343200684 -10459568.747329712 0 0 0 0 6417341.8247652054 9877296.1294174194 0 9877296.1294174194 -6599478.5635108948 0 0 0 0 6258388.336796999 7605289.8293533325 0 7605289.8293533325 -1518162.1851654053 0 0 0 0 1913936.0609369278 3308708.7773895264 0 3308708.7773895264 9328723.1097602844 0 0 0 0 11543504.503228903 3026743.2098007202 0 3026743.2098007202 -1596674.4458808899 0 0 0 0 858410.40733933449 4641668.8962669373 0 4641668.8962669373 8260600.9097671509 0 0 0 0 3107723.0958626047 3454900.4108535051 0 3454900.4108535051 7191485.4283294678 0 0 0 0 3062561.9874890074 2149376.492356658 0 2149376.492356658 8726636.7189178467 0 0 0 0 18417495.417999506 -3324392.2709541321 0 -3324392.2709541321 2313387.8891372681 0 0 0 0 11299907.789646149 5139895.2449874878 0 5139895.2449874878 -7320208.2682762146 0 0 0 0 2358023.5028319359 4155701.4934005737 0 4155701.4934005737 12244299.539497375 0 0 0 0 19808559.844939947 -4345140.0672721863 0 -4345140.0672721863 2288430.6359405518 0 0 0 0 3680587.6654500961 -2861927.0996170044 0 -2861927.0996170044 17970299.826225281 0 0 0 0 8712081.4220471382 -7714787.2926940918 0 -7714787.2926940918 29695904.477443695 0 0 0 0 375053.20308327675 2568535.7379436493 0 2568535.7379436493 10297331.622177124 0 0 0 0 703480.37224626541 2660289.5949058533 0 2660289.5949058533 10253767.127845764 0 0 0 0 8472924.0264575481 24292777.25630188 0 24292777.25630188 -18913599.54384613 0 0 0 0 12444301.859547138 21015121.876731873 0 21015121.876731873 -10926072.140319824 0 0 0 0 23818347.65054512 27889572.115242004 0 27889572.115242004 -19460397.351524353 0 0 0 0 33867209.397692204 7320027.3857192993 0 7320027.3857192993 -17493650.240020752 0 0 0 0 12977866.330189347 17034408.153297424 0 17034408.153297424 -5729882.1340637207 0 0 0 0 34726476.849450111 3463230.4574508667 0 3463230.4574508667 -2277799.4421424866 0 0 0 0 48007863.702617899 21637111.08937788 0 21637111.08937788 18330930.988586426 0 0 0 0 42354899.338945866 -21124581.260482788 0 -21124581.260482788 14645943.727355957 0 0 0 0 59793979.066197395 -27298587.523963928 0 -27298587.523963928 31821090.50242424 0 0 0 0 28854943.956235349 26425503.327577591 0 26425503.327577591 -10134841.806533813 0 0 0 0 36090237.898219109 -393707.65718078613 0 -393707.65718078613 -4935089.9535903931 0 0 0 0 16655413.903791904 11773684.367080688 0 11773684.367080688 10038176.658309937 0 0 0 0 10079415.776774406 11923798.661117554 0 11923798.661117554 -8617049.4438171387 0 0 0 0 8607895.4165437222 29541396.570793152 0 29541396.570793152 -34827000.851165771 0 0 0 0 18289182.21644181 21780945.318381786 0 21780945.318381786 -22112210.887527466 0 0 0 0 -49901.407098770142 30182465.205917358 0 30182465.205917358 -11843576.159957886 0 0 0 0 14338269.584206969 28942321.62772274 0 28942321.62772274 -22671023.974090576 0 0 0 0 -14582210.535226107 41761864.24439621 0 41761864.24439621 -18893601.582183838 0 0 0 0 1688358.7217365503 30451042.399148941 0 30451042.399148941 -30209742.753417969 0 0 0 0 527081.81659066677 35645888.360340118 0 35645888.360340118 -25729847.286773682 0 0 0 0 2282416.8379514217 38858206.545700073 0 38858206.545700073 -19867206.82711792 0 0 0 0 -18681061.796067238 34592428.682495117 0 34592428.682495117 -28295760.027761459 0 0 0 0 -42327992.833255172 37126180.069869995 0 37126180.069869995 -20996026.269073486 0 0 0 0 -11876556.105008364 42079715.032764435 0 42079715.032764435 -31612883.542312622 0 0 0 0 -9821682.3573489189 25446050.710845947 0 25446050.710845947 -24529753.886943817 0 0 0 0 -29035607.152950644 48633357.319736481 0 48633357.319736481 -37521914.699295044 0 0 0 0 -50223956.89341706 53992795.28298378 0 53992795.28298378 -29480655.178710938 0 0 0 0 49005256.501786828 16204534.881813049 0 16204534.881813049 -43288964.321228027 0 0 0 0 -38305742.307876825 33458764.57572937 0 33458764.57572937 -46851644.502750397 0 0 0 0 -45831705.671455979 37834398.619565964 0 37834398.619565964 11876221.312023163 0 0 0 0 -74338190.947319984 41545628.59526062 0 41545628.59526062 -59707022.189628601 0 0 0 0 3924594.4650989817 2681105.0932175815 0 2681105.0932175815 516401.8083518967 0 0 0 0 -61722149.516077995 70334682.559700012 0 70334682.559700012 -40007778.940742493 0 0 0 0 -63578462.379095078 64774563.739486694 0 64774563.739486694 -55453365.200393677 0 0 0 0 -207664.31755192787 7745345.3202738427 0 7745345.3202738427 16446593.254514538 0 0 0 0 -82289587.171665192 65503509.180480957 0 65503509.180480957 -57168136.010246277 0 0 0 0 -3457219.3245122433 5165885.9382972717 0 5165885.9382972717 17542825.532440186 0 0 0 0 -56342163.125154495 74982251.691131592 0 74982251.691131592 -55909740.663239002 0 0 0 0 -56576619.120848656 75179797.369514465 0 75179797.369514465 -53522060.113189697 0 0 0 0 -43897849.534418106 48993298.009887695 0 48993298.009887695 -76929769.312072754 0 0 0 0 -64621675.139221191 31645192.065963745 0 31645192.065963745 -77801599.742610931 0 0 0 0 4234049.2370554265 2337852.4694917649 0 2337852.4694917649 -3578458.1385565698 0 0 0 0 5800643.7995108906 4495781.8470644355 0 4495781.8470644355 1404142.697547324 0 0 0 0 -92848532.881567955 52728852.128108978 0 52728852.128108978 -16130321.657791138 0 0 0 0 -19876659.290969849 21178527.374130249 0 21178527.374130249 -78461976.711608887 0 0 0 0 -96749180.100473404 1684512.1515274048 0 1684512.1515274048 -54032040.081954956 0 0 0 0 -108902656.21024036 24188500.034484863 0 24188500.034484863 -50143208.695663452 0 0 0 0 65466630.566987991 15744462.976898193 0 15744462.976898193 -111784162.59443665 0 0 0 0 12292361.512708187 153960113.55014515 0 153960113.55014515 55106011.23248291 0 0 0 0 -69474635.513141632 89263695.797164917 0 89263695.797164917 108735290.37913513 0 0 0 0 140497.40472841263 3646293.1179885864 0 3646293.1179885864 16004895.756153107 0 0 0 0 4739369.1657290459 3112617.9950218201 0 3112617.9950218201 15434530.044742584 0 0 0 0 -2276618.1259002686 2555901.4015769958 0 2555901.4015769958 17262202.112579346 0 0 0 0 -531789.23146104813 1262466.3906784058 0 1262466.3906784058 16373145.531162739 0 0 0 0 -1098044.394288063 1263444.260345459 0 1263444.260345459 16374567.489570618 0 0 0 0 352581.78741359711 2464227.2255172729 0 2464227.2255172729 17259506.221847296 0 0 0 0 892240.77790176868 1558260.4706411362 0 1558260.4706411362 15445615.934005737 0 0 0 0 2768628.1202836037 1970999.4522285461 0 1970999.4522285461 15401410.80959177 0 0 0 0 646692.45547048748 1006400.7630987167 0 1006400.7630987167 15304741.25743866 0 0 0 0 682659.92348542809 1698185.3411502838 0 1698185.3411502838 14389830.858535767 0 0 0 0 3070382.9761781693 -917256.97920227051 0 -917256.97920227051 15265118.79082489 0 0 0 0 -22497.700429637916 6234589.3113778345 0 6234589.3113778345 11335862.84922405 0 0 0 0 5187085.017457962 -636153.02241897583 0 -636153.02241897583 14653991.10408783 0 0 0 0 -20072500.237895966 22224763.027961731 0 22224763.027961731 25719265.315093994 0 0 0 0 -20949070.084529877 109377804.65455627 0 109377804.65455627 29771720.848175049 0 0 0 0 3940561.6858831383 3440167.4633405507 0 3440167.4633405507 -6694100.7338177636 0 0 0 0 -55132288.558757782 60211749.159164429 0 60211749.159164429 94690604.608467102 0 0 0 0 -8190977.3175811768 27886895.517915726 0 27886895.517915726 -51740870.858306885 0 0 0 0 -68956196.718666077 45346753.477294922 0 45346753.477294922 -49237956.604309082 0 0 0 0 -8150938.7156915665 30620287.855388641 0 30620287.855388641 -79115487.57019043 0 0 0 0 -61211985.492004395 108102997.39530945 0 108102997.39530945 1115335.3870544434 0 0 0 0 -26617153.778423309 42145134.026229858 0 42145134.026229858 -10583351.808563232 0 0 0 0 -51563370.543876648 80183256.257644653 0 80183256.257644653 120657.63428497314 0 0 0 0 -43368229.78459549 62828316.860527039 0 62828316.860527039 31076790.514556885 0 0 0 0 -28801313.191368103 78713155.550750732 0 78713155.550750732 -47472263.057861328 0 0 0 0 -17708097.568019867 56756908.212799072 0 56756908.212799072 -61305739.173248291 0 0 0 0 -27067435.777561903 53840992.59240675 0 53840992.59240675 -58342647.803527832 0 0 0 0 -10137554.192382812 58177746.382019043 0 58177746.382019043 -61702508.560546875 0 0 0 0 -43212378.834152222 14054271.81086731 0 14054271.81086731 33413238.807034016 0 0 0 0 1571689.5146446228 32932730.210159302 0 32932730.210159302 -94834741.410675049 0 0 0 0 1740643.5401954651 45440568.302391052 0 45440568.302391052 -95924447.770446777 0 0 0 0 12538821.181369781 61437505.335601807 0 61437505.335601807 -86574092.719772339 0 0 0 0 -1869171.4769017119 -925105.02434463426 0 -925105.02434463426 3826484.8076148033 0 0 0 0 -5415638.8656768799 42050109.575531006 0 42050109.575531006 -62122415.153335571 0 0 0 0 -18807021.11504364 52226576.747711182 0 52226576.747711182 -59566281.525177002 0 0 0 0 -36989540.066957474 33980344.835319519 0 33980344.835319519 -2007162.2400054932 0 0 0 0 -54301726.358451843 30909614.79536438 0 30909614.79536438 14934227.858566284 0 0 0 0 -32604840.084018707 21504894.166435242 0 21504894.166435242 -2709526.0647201538 0 0 0 0 10385408.397405088 17479384.700942993 0 17479384.700942993 -24961823.233795166 0 0 0 0 -31907568.325304031 34445290.051513672 0 34445290.051513672 -38603209.69909668 0 0 0 0 7540600.7823018786 9116859.3320275024 0 9116859.3320275024 3709925.9902357012 0 0 0 0 -98690896.189430237 3552414.6296081543 0 3552414.6296081543 91773531.187988281 0 0 0 0 -54889751.324432373 -14808936.079528809 0 -14808936.079528809 -31317598.605434418 0 0 0 0 -27775315.407791138 31529887.00958252 0 31529887.00958252 -5728724.8828315735 0 0 0 0 -38749499.357067108 38796282.68939209 0 38796282.68939209 36385957.877380371 0 0 0 0 -46451924.038589478 76208468.302368164 0 76208468.302368164 82184809.175496101 0 0 0 0 5488109.3157198429 26408461.764518738 0 26408461.764518738 -22700859.712175369 0 0 0 0 -16792656.459132284 35376784.609725952 0 35376784.609725952 -22618886.684707642 0 0 0 0 66971265.664367676 10911754.873443604 0 10911754.873443604 -33594864.723571777 0 0 0 0 6430217.1446776763 6428624.253886953 0 6428624.253886953 2562701.987156786 0 0 0 0 -15289146.858335018 42896263.878635406 0 42896263.878635406 -25837881.370985031 0 0 0 0 4241352.8966518231 2416404.4810754713 0 2416404.4810754713 -3041770.9015885592 0 0 0 0 -83681673.568443298 108734422.23767853 0 108734422.23767853 27178965.047241211 0 0 0 0 -75618535.909942627 104661530.1569519 0 104661530.1569519 72932159.052955627 0 0 0 0 734.04186746847154 1862932.0559997559 0 1862932.0559997559 4073556.930305481 0 0 0 0 -302563.46152960765 1579430.9451419115 0 1579430.9451419115 5115362.3544464111 0 0 0 0 -3887468.6516322009 4277854.3853721619 0 4277854.3853721619 6724440.8114013672 0 0 0 0 -281242.54027388105 4190895.921005249 0 4190895.921005249 3957193.5712127686 0 0 0 0 -3244903.1096535311 5483430.9468612671 0 5483430.9468612671 1709850.5424346924 0 0 0 0 -3679078.76969878 4498493.6566524506 0 4498493.6566524506 4037803.1347045898 0 0 0 0 -2976194.0883464487 2055755.8209114075 0 2055755.8209114075 5467012.1579055786 0 0 0 0 -1436.6320027619456 -110573.82350921631 0 -110573.82350921631 16528131.652999878 0 0 0 0 -464615.66476772365 4496876.559425354 0 4496876.559425354 2166334.0359802246 0 0 0 0 -2341503.2944896477 5083288.4002304077 0 5083288.4002304077 20908525.37638855 0 0 0 0 -855521.8227173083 116821.2910194397 0 116821.2910194397 22787557.763763428 0 0 0 0 372463.13370856829 617621.06142234802 0 617621.06142234802 15262822.272361755 0 0 0 0 3400337.3303742595 4159805.0171966553 0 4159805.0171966553 -569464.43282318115 0 0 0 0 -2976555.7669702061 1421798.0121917725 0 1421798.0121917725 22273986.342926025 0 0 0 0 -21694.386048751225 10672.206542320549 0 10672.206542320549 37426.814617923461 0 0 0 0 -3971505.8517512716 670449.18541717529 0 670449.18541717529 7751297.7297744751 0 0 0 0 -348008.21587213129 1246752.4124412537 0 1246752.4124412537 23814550.670700073 0 0 0 0 -1554488.8894386552 2841039.5774126053 0 2841039.5774126053 24817722.785614014 0 0 0 0 -881129.04677070491 463684.08348274231 0 463684.08348274231 26288769.713439941 0 0 0 0 -1243065.511126034 3752893.6654663086 0 3752893.6654663086 23192888.06413269 0 0 0 0 -2856045.4475984275 2946999.6168708801 0 2946999.6168708801 24920586.917770386 0 0 0 0 3003846.3540705293 4701147.7366104126 0 4701147.7366104126 25342363.551490784 0 0 0 0 -77692.283860201263 39566.577303349972 0 39566.577303349972 120979.88937472925 0 0 0 0 -688633.37734699249 -245093.90473175049 0 -245093.90473175049 4106038.2743682861 0 0 0 0 1738714.0644057468 -1260549.63697052 0 -1260549.63697052 4074938.8681259155 0 0 0 0 1546566.881624721 1813210.453245163 0 1813210.453245163 16113175.031112671 0 0 0 0 1324129.6188767087 -1078577.6142492294 0 -1078577.6142492294 3146125.0378723145 0 0 0 0 -16594.135279873113 -76390.270679041743 0 -76390.270679041743 400145.8511367701 0 0 0 0 378155.34257837385 -3730938.4940185547 0 -3730938.4940185547 8111740.1745376587 0 0 0 0 -3279316.2105894708 8313949.4692270756 0 8313949.4692270756 -1777381.403755188 0 0 0 0 -571435.48560495302 3261226.2345581055 0 3261226.2345581055 -1476314.6332092285 0 0 0 0 -3466105.9845757559 2653747.243850708 0 2653747.243850708 4244851.920211792 0 0 0 0 -3910997.0177064463 1625995.9235496521 0 1625995.9235496521 3867818.7766876221 0 0 0 0 -3132679.0803191066 793275.8374710083 0 793275.8374710083 2306216.6569671631 0 0 0 0 -734638.20808725059 -2274475.12915802 0 -2274475.12915802 3898099.5411148071 0 0 0 0 -376991.06441473815 -67117.6650852561 0 -67117.6650852561 1815275.0902898796 0 0 0 0 -2280711.0136177242 2756537.3932189941 0 2756537.3932189941 2494484.5319900513 0 0 0 0 -511574.08941611275 -2492838.7360658646 0 -2492838.7360658646 2719078.6918029785 0 0 0 0 -1637855.6755772447 587782.10980636254 0 587782.10980636254 7227015.8737932444 0 0 0 0 -255990.48581849717 -1786654.2270533405 0 -1786654.2270533405 -235108.30624112487 0 0 0 0 -3125753.7388175428 -2454192.2055130005 0 -2454192.2055130005 -1766286.6120185852 0 0 0 0 -4350548.3134790976 -9006371.4135241508 0 -9006371.4135241508 -5440619.9624633789 0 0 0 0 -2854992.3233710751 -1454856.9712890834 0 -1454856.9712890834 6856313.7092934065 0 0 0 0 -3485735.5685407221 2494850.0552558899 0 2494850.0552558899 -2455746.697555542 0 0 0 0 -256138.09880764782 -1584520.4653244019 0 -1584520.4653244019 1724929.9818191528 0 0 0 0 -623211.63923084736 19863.81282043457 0 19863.81282043457 2051475.7429981232 0 0 0 0 -358081.99108318985 -1187518.9528045654 0 -1187518.9528045654 3858395.5055375099 0 0 0 0 -198781.55588119477 122151.50535583496 0 122151.50535583496 1485190.8232803345 0 0 0 0 5881659.9119337201 20893.341934204102 0 20893.341934204102 13658361.805122375 0 0 0 0 -160709.44318752806 101883.21517170966 0 101883.21517170966 245628.89059810899 0 0 0 0 -314041.9589523226 -141393.20488739014 0 -141393.20488739014 1181932.0633010864 0 0 0 0 64568.808549955487 -2711950.0946731567 0 -2711950.0946731567 19924258.229644775 0 0 0 0 2677284.2601961792 925226.64430236816 0 925226.64430236816 23539653.124488831 0 0 0 0 3384593.4037717823 -1283804.9470627308 0 -1283804.9470627308 24822896.894882202 0 0 0 0 11653199.200226367 -33625.182182312012 0 -33625.182182312012 19469168.102325439 0 0 0 0 12952570.730765551 -5691866.9209747314 0 -5691866.9209747314 20341077.66163826 0 0 0 0 -5977026.5732271671 9389909.3691253662 0 9389909.3691253662 25351539.286428452 0 0 0 0 5874089.8224769458 -5321206.8533172607 0 -5321206.8533172607 26425672.459625244 0 0 0 0 12246091.085845537 -3264155.6349430084 0 -3264155.6349430084 15700280.593429565 0 0 0 0 -282755.69791772804 -728158.21347912122 0 -728158.21347912122 3498.6575220674276 0 0 0 0 11476747.911100633 -19154255.317642212 0 -19154255.317642212 29594223.608261108 0 0 0 0 5459479.6842737496 4228326.9725646973 0 4228326.9725646973 4754773.6934051514 0 0 0 0 23427.951515708613 -79640.640845142305 0 -79640.640845142305 -14498.223684721626 0 0 0 0 4889385.100273937 -293801.79030799866 0 -293801.79030799866 -5238175.8753662109 0 0 0 0 -707550.55171246082 -200358.99159622192 0 -200358.99159622192 1675494.9757537842 0 0 0 0 -17011.646688664085 -35983.27822307311 0 -35983.27822307311 2030.7545724064112 0 0 0 0 -23484506.272874266 -28087485.139938354 0 -28087485.139938354 1759301.293182373 0 0 0 0 15473812.165005349 -31861270.801188469 0 -31861270.801188469 -3414968.7082519531 0 0 0 0 -1693912.8650117489 -294864.85235619918 0 -294864.85235619918 7889532.8094561398 0 0 0 0 13916120.949025691 -6396414.5631103516 0 -6396414.5631103516 9511024.2200622559 0 0 0 0 15911261.499953181 -16719158.247947693 0 -16719158.247947693 30901204.232940674 0 0 0 0 -18278279.01169318 10330145.162071228 0 10330145.162071228 9150844.6359786987 0 0 0 0 10821062.222121 -3250118.8935241699 0 -3250118.8935241699 16134327.129920959 0 0 0 0 5381332.9435534179 6888733.4025421143 0 6888733.4025421143 7329025.8683929443 0 0 0 0 -1611757.8756667734 -860864.97492793575 0 -860864.97492793575 8422101.8729785383 0 0 0 0 -36717442.500949234 -20454754.24206543 0 -20454754.24206543 13651075.443920135 0 0 0 0 12602480.631763458 -79297444.70375061 0 -79297444.70375061 160544935.38272095 0 0 0 0 -9445945.8618880957 -8012128.3378601074 0 -8012128.3378601074 -1082714.1077728271 0 0 0 0 -37411984.208185673 12179014.218900681 0 12179014.218900681 49608506.006851196 0 0 0 0 -27673406.030767918 -28892967.761207581 0 -28892967.761207581 51106848.621948242 0 0 0 0 -29336899.646719933 -42631011.544837952 0 -42631011.544837952 25310477.359558105 0 0 0 0 15273951.968509197 77244530.521903992 0 77244530.521903992 -68086815.369850159 0 0 0 0 -28427619.055175781 -22230822.449554443 0 -22230822.449554443 63337989.110359192 0 0 0 0 99525.760913094738 676994.2266175095 0 676994.2266175095 935296.77437246591 0 0 0 0 -23060788.024525642 -30221956.292114258 0 -30221956.292114258 40424603.564598083 0 0 0 0 -10039364.88517952 -20061514.435264587 0 -20061514.435264587 34615732.33216095 0 0 0 0 8259371.8906974792 -3110071.0686721802 0 -3110071.0686721802 10900850.761352539 0 0 0 0 -3722578.1625566483 2849411.285118103 0 2849411.285118103 33608317.375823975 0 0 0 0 2094781.3938055038 11904070.577293396 0 11904070.577293396 -23310452.796236038 0 0 0 0 -7000191.1102542877 -33636440.933504105 0 -33636440.933504105 -11231174.789382935 0 0 0 0 58295824.010188103 -20551944.342338562 0 -20551944.342338562 22830292.413635254 0 0 0 0 358162.41921284376 2557281.8176965602 0 2557281.8176965602 3248661.1022686586 0 0 0 0 -45429498.89863801 16951462.982254028 0 16951462.982254028 32328666.23046875 0 0 0 0 17211542.78754425 16055775.53578186 0 16055775.53578186 8948038.0690612793 0 0 0 0 -15221514.051968575 1400260.3041000366 0 1400260.3041000366 39257128.002165794 0 0 0 0 -30236208.192835808 -1480300.5690841675 0 -1480300.5690841675 20945430.540893555 0 0 0 0 -9648570.9282951355 27096741.257194519 0 27096741.257194519 15191564.042785645 0 0 0 0 -4973730.4454879761 38207559.920822144 0 38207559.920822144 35980021.627212524 0 0 0 0 -22000799.595801353 23399742.177703857 0 23399742.177703857 25751737.894714355 0 0 0 0 6674324.1129684448 42904974.571838379 0 42904974.571838379 26413449.431152344 0 0 0 0 -16131200.819626808 43582018.820510864 0 43582018.820510864 84624193.357040405 0 0 0 0 20023793.670480326 11045606.903651953 0 11045606.903651953 25325756.650543213 0 0 0 0 -19818122.646531105 13236057.843795776 0 13236057.843795776 74084029.802330017 0 0 0 0 3923392.4410972595 4428703.5895080566 0 4428703.5895080566 -27880705.00982666 0 0 0 0 -151300.94805664197 279855.03649593517 0 279855.03649593517 1207621.4474965781 0 0 0 0 8559627.056517601 15053590.32598877 0 15053590.32598877 -57949653.197219849 0 0 0 0 -2157312.2056913376 2910185.7281112671 0 2910185.7281112671 2897000.32721138 0 0 0 0 -6156469.8271970749 15651638.512107849 0 15651638.512107849 -8224962.172492981 0 0 0 0 -38804559.139045715 60530137.157928467 0 60530137.157928467 15212789.853881836 0 0 0 0 2049900.5522456169 4393104.8246192932 0 4393104.8246192932 11570801.856685638 0 0 0 0 8603172.8336783648 28883339.739778519 0 28883339.739778519 -12765618.57472229 0 0 0 0 12718883.134380341 -16282532.701446533 0 -16282532.701446533 -7098011.0320091248 0 0 0 0 -550905.52820501989 358317.34061769769 0 358317.34061769769 939593.16700813547 0 0 0 0 68016.966735866852 1414522.313309567 0 1414522.313309567 387634.66702969372 0 0 0 0 -3945040.9012336731 -5626596.7599563599 0 -5626596.7599563599 -16542806.429595947 0 0 0 0 3234518.6041522389 3756321.8530438431 0 3756321.8530438431 4079683.9837820753 0 0 0 0 1410659.5637900829 7097366.0997428894 0 7097366.0997428894 2753528.5707702637 0 0 0 0 -507626.17453583435 1757362.5101405699 0 1757362.5101405699 6803467.3489056379 0 0 0 0 3672254.7848167419 1158294.4480552673 0 1158294.4480552673 7331912.0222511292 0 0 0 0 -2887205.2931876183 8629322.6402816772 0 8629322.6402816772 2592110.9831237793 0 0 0 0 544749.00778198242 14249261.512901306 0 14249261.512901306 -8648274.7434120178 0 0 0 0 655277.20712566376 8510166.4302978516 0 8510166.4302978516 2218739.8842163086 0 0 0 0 1926208.7017426491 6159839.6569213867 0 6159839.6569213867 1851119.8981246948 0 0 0 0 331832.11302804947 6338784.0480232239 0 6338784.0480232239 7881476.0704040527 0 0 0 0 1793575.2448494434 3317897.0749340057 0 3317897.0749340057 9007802.4265136719 0 0 0 0 251414.50938987732 5155870.6258354187 0 5155870.6258354187 12223069.289810181 0 0 0 0 531563.59255123138 2247507.9760742188 0 2247507.9760742188 11067036.339836121 0 0 0 0 534594.68679374456 2428263.2076487541 0 2428263.2076487541 15146883.698852539 0 0 0 0 5179492.7118407488 5753609.3085193634 0 5753609.3085193634 11962360.147659302 0 0 0 0 3519.3755769729614 697424.54055786133 0 697424.54055786133 7469283.8128662109 0 0 0 0 6613604.2426309586 989869.25402832031 0 989869.25402832031 8848494.1975879669 0 0 0 0 5798241.4821109772 7452398.2844619751 0 7452398.2844619751 13264201.39588356 0 0 0 0 7297894.7462835312 854429.22159290314 0 854429.22159290314 9850661.837310791 0 0 0 0 152637.51133212121 538950.91220727563 0 538950.91220727563 811690.98920701072 0 0 0 0 5672534.9244296551 2573573.693195343 0 2573573.693195343 8043034.30859375 0 0 0 0 -668068.3240726518 2210518.2411536966 0 2210518.2411536966 6854309.6194462478 0 0 0 0 -23185574.826790214 -4904474.6896820068 0 -4904474.6896820068 8931913.5811309814 0 0 0 0 -34668071.595817387 -8647202.8638801575 0 -8647202.8638801575 41681939.462051392 0 0 0 0 -21085311.828475088 24409613.33065033 0 24409613.33065033 47476227.402137756 0 0 0 0 53355941.564494938 -33391681.256713867 0 -33391681.256713867 -67248983.564941406 0 0 0 0 38897922.839057945 44906393.347076416 0 44906393.347076416 6872962.5244140625 0 0 0 0 21596068.870286226 58925695.291893005 0 58925695.291893005 74118657.169540405 0 0 0 0 -21047368.671502583 -19673232.401859283 0 -19673232.401859283 -46158280.831176758 0 0 0 0 -52708436.11825408 -19693881.598648071 0 -19693881.598648071 93438436.984405518 0 0 0 0 -1272275.2711758399 845020.36638681591 0 845020.36638681591 3716207.9059159365 0 0 0 0 -2271644.4432910681 5858847.6143112183 0 5858847.6143112183 -3471272.8909072876 0 0 0 0 -663343.70773252938 1781793.4892701954 0 1781793.4892701954 3112186.5475031137 0 0 0 0 -850327.196372509 1412041.2143554688 0 1412041.2143554688 1510935.7818222046 0 0 0 0 -163780.18958182639 1174151.4498705268 0 1174151.4498705268 4271274.0700255036 0 0 0 0 50287426.190161623 57608915.412071228 0 57608915.412071228 40824235.624954224 0 0 0 0 -20801.9330495678 537036.1382202208 0 537036.1382202208 1895682.2628904842 0 0 0 0 10655585.664452165 -3002353.4968643188 0 -3002353.4968643188 8527496.527759552 0 0 0 0 -805215.24401339435 151259.16149432957 0 151259.16149432957 1270468.6765673161 0 0 0 0 5678731.7507639974 4435833.1939544678 0 4435833.1939544678 7573075.2412528992 0 0 0 0 113595154.90014932 46240196.856178284 0 46240196.856178284 -12819945.057601929 0 0 0 0 84312.881186761428 359451.32021614537 0 359451.32021614537 340845.13332492113 0 0 0 0 3609646.8117652014 -19906706.024303436 0 -19906706.024303436 16183725.606338501 0 0 0 0 20497281.173170812 -11221437.96855545 0 -11221437.96855545 4940522.9725036621 0 0 0 0 -1043008.2265887521 -4029062.9579620361 0 -4029062.9579620361 6815303.3381958008 0 0 0 0 -1997764.5046698675 2156453.3019104004 0 2156453.3019104004 5497521.8214111328 0 0 0 0 -1068860.672451593 -3447305.3885765076 0 -3447305.3885765076 3061830.1915435791 0 0 0 0 229276.25950919738 1197721.6994744409 0 1197721.6994744409 1166322.8697716892 0 0 0 0 -3382923.9952812232 651808.25864028931 0 651808.25864028931 9095619.9761657715 0 0 0 0 -2293258.8073873408 -1658666.9556598663 0 -1658666.9556598663 9380711.0952911377 0 0 0 0 -2951793.6600940824 995587.52021026611 0 995587.52021026611 6439028.692779541 0 0 0 0 -2068539.7193888873 687209.41397094727 0 687209.41397094727 6367654.1903686523 0 0 0 0 -2405193.9519373551 -790638.77700805664 0 -790638.77700805664 3827258.2124481201 0 0 0 0 21810370.892127901 28639268.671401978 0 28639268.671401978 -10364888.094268799 0 0 0 0 -7028707.4807892554 7466238.4538898468 0 7466238.4538898468 12445146.723464966 0 0 0 0 -34574155.926601112 9339623.6155204773 0 9339623.6155204773 50251595.661598206 0 0 0 0 46362.125255636223 679123.14642478712 0 679123.14642478712 508063.52543891221 0 0 0 0 22633857.082041636 10359394.198867798 0 10359394.198867798 -2150814.5736083984 0 0 0 0 9377220.6263731122 28398306.405914307 0 28398306.405914307 -2068162.3327178955 0 0 0 0 14877397.376818717 16464711.835418701 0 16464711.835418701 -15751915.974693298 0 0 0 0 21948755.526766479 21885582.999473572 0 21885582.999473572 -12267584.710044861 0 0 0 0 -1648558.1427565217 9439609.4561157227 0 9439609.4561157227 6624928.5333862305 0 0 0 0 184212.67683400156 2135165.0404324792 0 2135165.0404324792 1612046.1241076887 0 0 0 0 7449670.8852701187 6080884.8213195801 0 6080884.8213195801 -227024.14246749878 0 0 0 0 -2444861.7705596089 4406755.2783813477 0 4406755.2783813477 6808560.472076416 0 0 0 0 2059428.5222017001 3930407.3342478089 0 3930407.3342478089 7074390.1008953787 0 0 0 0 3651581.5043267012 3753979.185874939 0 3753979.185874939 5346182.2407150269 0 0 0 0 964825.81191076525 1968268.634201318 0 1968268.634201318 1222231.5736234337 0 0 0 0 -1310851.4495320434 392214.36665157508 0 392214.36665157508 2737912.8359047174 0 0 0 0 4091190.5378110409 9277301.8363876343 0 9277301.8363876343 5465181.7861938477 0 0 0 0 -2166714.0818573236 710285.86516571045 0 710285.86516571045 1802963.0120315552 0 0 0 0 -1482443.3174851108 1398284.5032291412 0 1398284.5032291412 3771694.0987243652 0 0 0 0 -2317459.8106963634 1713110.5967407227 0 1713110.5967407227 4049922.3164520264 0 0 0 0 -2505491.5431971997 1801474.0508308411 0 1801474.0508308411 5426148.5176086426 0 0 0 0 -3575599.8665992022 492548.40902709961 0 492548.40902709961 6131218.8648681641 0 0 0 0 -2834824.9575839937 1196083.827331543 0 1196083.827331543 4711982.8260803223 0 0 0 0 -4413386.7044904381 -719237.20240020752 0 -719237.20240020752 4404958.7867126465 0 0 0 0 -111409.53850194244 183107.33180448413 0 183107.33180448413 266931.27911117673 0 0 0 0 -3552949.3454191536 208422.05070495605 0 208422.05070495605 9066452.1960487366 0 0 0 0 -3317756.546859324 2047046.7018127441 0 2047046.7018127441 6898291.6146240234 0 0 0 0 -2612238.8366015553 1337387.6082992554 0 1337387.6082992554 6532073.3378181458 0 0 0 0 -3093211.7514014393 2527701.8638153076 0 2527701.8638153076 4399353.5158081055 0 0 0 0 -4141282.6471604649 2196585.4327449799 0 2196585.4327449799 8026349.552444458 0 0 0 0 -3845675.7226043604 3223367.3171730042 0 3223367.3171730042 4182036.2011375427 0 0 0 0 -4777379.2352550123 -286157.26116323471 0 -286157.26116323471 6807451.0237197876 0 0 0 0 -4383858.5325338766 4575808.2413196564 0 4575808.2413196564 16879969.094429016 0 0 0 0 -5737092.482803762 1686664.8240814209 0 1686664.8240814209 10741354.003154755 0 0 0 0 -5174797.2869836576 -2729277.508518219 0 -2729277.508518219 19184576.370010376 0 0 0 0 -24565105.851988435 -6253254.9148025513 0 -6253254.9148025513 18778851.636173248 0 0 0 0 -7628903.569515489 6563944.8543205261 0 6563944.8543205261 27858279.602279663 0 0 0 0 823297.649452243 10187100.825077057 0 10187100.825077057 24888729.362091064 0 0 0 0 90466.980024424935 143741.91151288897 0 143741.91151288897 1067423.6813746337 0 0 0 0 -2690176.3170991624 7130287.7475605011 0 7130287.7475605011 23108156.565170288 0 0 0 0 -1160166.8996554874 6544750.9365844727 0 6544750.9365844727 22711337.424770355 0 0 0 0 -3543617.0440607071 2710518.2856292725 0 2710518.2856292725 17232961.992754936 0 0 0 0 537625.91478947923 2245694.0938072205 0 2245694.0938072205 17998891.51129055 0 0 0 0 -470067.10837152414 2092401.9113388062 0 2092401.9113388062 22573670.987773895 0 0 0 0 -6975.6309603327727 5556857.2053632941 0 5556857.2053632941 26609099.543609619 0 0 0 0 12738.194972042238 5277933.3413085938 0 5277933.3413085938 18150737.531791687 0 0 0 0 3782.1887853897042 6255.5173154249787 0 6255.5173154249787 10694.224651761353 0 0 0 0 297210.79846687429 4297820.4648246765 0 4297820.4648246765 16730498.558319092 0 0 0 0 -1134647.9439299707 1921006.5487098694 0 1921006.5487098694 7431965.5010528564 0 0 0 0 -7279.1945761088282 5576197.1920394897 0 5576197.1920394897 16660105.612005234 0 0 0 0 3256.2085650202198 2737.5868634618819 0 2737.5868634618819 3575.3731452971697 0 0 0 0 2578834.8074908992 6132841.4267959595 0 6132841.4267959595 6167929.0122089386 0 0 0 0 2115.7054185315365 1654497.6862449646 0 1654497.6862449646 4710981.8223800659 0 0 0 0 871330.48200576485 2006556.9961242676 0 2006556.9961242676 4832889.1744155884 0 0 0 0 -10742835.841947116 9075043.7345733643 0 9075043.7345733643 71629903.514678955 0 0 0 0 5425721.3438784853 29046830.389778137 0 29046830.389778137 -626268.55198669434 0 0 0 0 -11228170.708632417 12226993.15637207 0 12226993.15637207 127840450.49468994 0 0 0 0 -2896360.8474191278 9404375.4488296509 0 9404375.4488296509 71146014.222763062 0 0 0 0 31280024.597042322 -2851502.7094039917 0 -2851502.7094039917 -47515605.65473175 0 0 0 0 20474855.018045068 65729533.00213623 0 65729533.00213623 214679377.57736206 0 0 0 0 17201841.813512623 14926059.541244507 0 14926059.541244507 70977226.34072876 0 0 0 0 73750024.993704081 -5056574.8288269043 0 -5056574.8288269043 124511298.67012024 0 0 0 0 13145754.566746116 2683171.2733764648 0 2683171.2733764648 125181679.1319809 0 0 0 0 99628337.714575291 51062693.392578125 0 51062693.392578125 102607479.88890076 0 0 0 0 49696494.151239812 56284644.858001709 0 56284644.858001709 103868350.01850128 0 0 0 0 9014255.6116312593 5590295.1738128662 0 5590295.1738128662 67457337.805145264 0 0 0 0 5988187.5774789155 50153113.940032959 0 50153113.940032959 41524891.74130249 0 0 0 0 1439768.6683456898 -2752741.4340362549 0 -2752741.4340362549 65528108.528499603 0 0 0 0 -490308.89467894542 122842.39583370462 0 122842.39583370462 933027.12112275511 0 0 0 0 38849441.9561795 -83220131.11958313 0 -83220131.11958313 118055945.19368839 0 0 0 0 -32784858.826832995 17455097.851863861 0 17455097.851863861 -4141864.4339370728 0 0 0 0 -14259310.736340396 86090716.056419373 0 86090716.056419373 -66113705.103126526 0 0 0 0 2687536.3395361826 -782589.09610748291 0 -782589.09610748291 -43189451.634849548 0 0 0 0 -2039.3955715386423 29476688.068338446 0 29476688.068338446 3221067.6652526855 0 0 0 0 45098788.364326522 -121842048.8588028 0 -121842048.8588028 225964007.45730877 0 0 0 0 -21085.842426733034 30992345.732016928 0 30992345.732016928 -63191344.157043457 0 0 0 0 -253113.1341219038 4392.2087416872382 0 4392.2087416872382 612506.4387864694 0 0 0 0 337330.06146948272 -32843214.883851677 0 -32843214.883851677 224684089.91810608 0 0 0 0 37062833.0501251 -58432051.429756165 0 -58432051.429756165 189992484.66164398 0 0 0 0 57721.471905622326 24776.152140296996 0 24776.152140296996 785751.3865830861 0 0 0 0 -26989216.730137117 -8505455.5608177185 0 -8505455.5608177185 158190413.12761688 0 0 0 0 20002797.008421134 -59437668.270545959 0 -59437668.270545959 122545435.46689701 0 0 0 0 67960318.942429602 -77695675.094869614 0 -77695675.094869614 126229879.54150391 0 0 0 0 16316207.811869202 -32669995.896902561 0 -32669995.896902561 91036890.676177979 0 0 0 0 16971106.193200268 -10490470.409000397 0 -10490470.409000397 44575864.888784409 0 0 0 0 -499595.78540851176 3248391.8650054932 0 3248391.8650054932 32574842.221496582 0 0 0 0 -7103999.6694582254 -10663233.262794495 0 -10663233.262794495 81305778.434417725 0 0 0 0 14803716.002464131 -39816145.243896484 0 -39816145.243896484 77490977.677857399 0 0 0 0 4478598.4374963641 -27200143.22328949 0 -27200143.22328949 68609315.584472656 0 0 0 0 220114.95459057391 -31771559.600914001 0 -31771559.600914001 88229865.734725952 0 0 0 0 17893324.846182197 -45054506.646827698 0 -45054506.646827698 80226755.441764832 0 0 0 0 21219033.583995081 -40911574.279323578 0 -40911574.279323578 81238962.978019714 0 0 0 0 7088412.8383916616 -36912878.240058899 0 -36912878.240058899 78500655.806259155 0 0 0 0 47699985.787947275 -60448072.481384277 0 -60448072.481384277 89147157.529857635 0 0 0 0 -65233914.522444487 -46195145.850837708 0 -46195145.850837708 8129533.5226707458 0 0 0 0 255635.64870318811 49930.412922952324 0 49930.412922952324 34102.954497717321 0 0 0 0 -14584378.30364567 101354329.67453003 0 101354329.67453003 196198964.12770748 0 0 0 0 -34174027.446243465 58555291.078407288 0 58555291.078407288 29559019.060180664 0 0 0 0 -95009227.605553031 -22310530.65265274 0 -22310530.65265274 122460067.76358795 0 0 0 0 -51421262.907830715 66314772.4158535 0 66314772.4158535 194479325.1373291 0 0 0 0 -938991.16360289394 29041.287704095244 0 29041.287704095244 1168709.1685722321 0 0 0 0 21532705.573942944 -50583347.416461945 0 -50583347.416461945 82476653.854811192 0 0 0 0 23928614.848166324 -45007997.723875046 0 -45007997.723875046 70398410.521194458 0 0 0 0 7213225.8117130399 -34596013.568206787 0 -34596013.568206787 75602833.81098938 0 0 0 0 15583226.466372371 -32453502.863059998 0 -32453502.863059998 51628988.969489895 0 0 0 0 1381981.6708686948 -31187344.703926086 0 -31187344.703926086 87489470.989315033 0 0 0 0 4942775.9379857779 -26828370.238456726 0 -26828370.238456726 61224040.423904419 0 0 0 0 15832390.147840559 -45209115.315670013 0 -45209115.315670013 78989631.566711426 0 0 0 0 8308827.8438289762 -36105227.317554474 0 -36105227.317554474 68271935.436767578 0 0 0 0 22082880.136923671 -26288834.324287415 0 -26288834.324287415 67201865.393005371 0 0 0 0 15261767.107159734 -28689410.459274292 0 -28689410.459274292 70450963.950370789 0 0 0 0 3493867.2406356335 -28038563.948574066 0 -28038563.948574066 74953581.370574951 0 0 0 0 7638603.8710117936 -35863615.922363281 0 -35863615.922363281 74781097.546798706 0 0 0 0 7603422.7794055939 -36563776.403991699 0 -36563776.403991699 76634720.872016907 0 0 0 0 225568.141282022 -30383614.475730896 0 -30383614.475730896 79944864.394721985 0 0 0 0 334125.22186458111 -26137244.957817078 0 -26137244.957817078 70743943.824777603 0 0 0 0 4269895.991512537 -31237712.2420578 0 -31237712.2420578 69724056.526397705 0 0 0 0 4570121.9123139977 -21110868.963394165 0 -21110868.963394165 54189640.904708862 0 0 0 0 6844234.4381210804 -27504614.582763672 0 -27504614.582763672 51957491.315322876 0 0 0 0 3429409.2073668838 -30436086.25151062 0 -30436086.25151062 64104249.323898315 0 0 0 0 6748727.7204799652 -11441903.99067688 0 -11441903.99067688 29174293.084533691 0 0 0 0 114722.94340264797 -2822600.6644973755 0 -2822600.6644973755 21166885.621505737 0 0 0 0 -1741100.6553502679 -11424963.363960266 0 -11424963.363960266 66304252.735303879 0 0 0 0 10400010.028290033 -14357086.244125366 0 -14357086.244125366 25551126.073104858 0 0 0 0 4799316.276576817 -6238390.8540840149 0 -6238390.8540840149 21858236.748657227 0 0 0 0 -11926837.490918875 2273401.1484527588 0 2273401.1484527588 16290558.65512085 0 0 0 0 -89019.308680570975 1040086.8835497433 0 1040086.8835497433 2013815.5719897598 0 0 0 0 -3232342.1710073948 6940524.9017505646 0 6940524.9017505646 13540070.729156494 0 0 0 0 -5256496.1337801218 6803834.3132781982 0 6803834.3132781982 9241680.8047485352 0 0 0 0 8912900.6572623253 -6376518.2608337402 0 -6376518.2608337402 10953367.268119812 0 0 0 0 13666122.981394291 -24397583.725265503 0 -24397583.725265503 26357141.138034821 0 0 0 0 27983300.486728191 -10732317.551681519 0 -10732317.551681519 -8354946.8738708496 0 0 0 0 36945862.216237545 -35597645.898460388 0 -35597645.898460388 20738366.095108032 0 0 0 0 130311.33558265463 452646.52400638722 0 452646.52400638722 184127.70736530423 0 0 0 0 -15890299.512978658 16700167.879211426 0 16700167.879211426 30574647.632415771 0 0 0 0 11434594.894395351 -19257018.973358154 0 -19257018.973358154 28617061.616943359 0 0 0 0 21306661.183365107 -45280584.863975525 0 -45280584.863975525 49999559.581825256 0 0 0 0 10150680.518314183 -24732912.029506683 0 -24732912.029506683 80902756.720367432 0 0 0 0 7044364.7894687057 -32341229.083877563 0 -32341229.083877563 68783052.094711304 0 0 0 0 20912674.287952855 -31894279.405099869 0 -31894279.405099869 51122335.799179077 0 0 0 0 11125681.304169476 -15830616.903100967 0 -15830616.903100967 7927187.7054901123 0 0 0 0 -3705638.7551290989 -19252362.567337036 0 -19252362.567337036 60537028.802444458 0 0 0 0 18496804.161156893 -2151848.4543991089 0 -2151848.4543991089 -8216439.7062530518 0 0 0 0 1273154.7711386252 2211408.9235963523 0 2211408.9235963523 1811906.1769755185 0 0 0 0 959803.77556007216 898891.6677698791 0 898891.6677698791 396882.1982993558 0 0 0 0 -54599.360517412424 387120.1731543541 0 387120.1731543541 55552.133728027344 0 0 0 0 4900694.5193271637 5375954.2410049438 0 5375954.2410049438 6297823.6435661316 0 0 0 0 2338080.2495288849 2412560.123292923 0 2412560.123292923 5186110.0355377197 0 0 0 0 1619147.4634144406 2633627.82714542 0 2633627.82714542 1215285.3745716112 0 0 0 0 1473719.9195480347 3138158.8686141968 0 3138158.8686141968 8969534.6800310612 0 0 0 0 640668.1584609003 -134641.91618749872 0 -134641.91618749872 -1071944.411188826 0 0 0 0 11650836.628768295 10575077.341921806 0 10575077.341921806 5127801.1187057495 0 0 0 0 -1031305.4991607666 -15058850.787193298 0 -15058850.787193298 34105845.870254517 0 0 0 0 32067375.05758059 -37348442.476150513 0 -37348442.476150513 49154774.009994507 0 0 0 0 22584769.82931608 -12183117.864550591 0 -12183117.864550591 37419878.925552368 0 0 0 0 17836416.895998359 -15948459.110366821 0 -15948459.110366821 30612945.482398987 0 0 0 0 24516511.293910503 -38976623.147758484 0 -38976623.147758484 58824700.293437958 0 0 0 0 11316869.347737908 -35102660.583045959 0 -35102660.583045959 61594836.906990051 0 0 0 0 50124955.699113846 -71735546.411331177 0 -71735546.411331177 84226301.845417023 0 0 0 0 15920848.303870499 -34475313.130550385 0 -34475313.130550385 71529200.591583252 0 0 0 0 37830570.97510159 -38091842.123298645 0 -38091842.123298645 69808417.767959595 0 0 0 0 39996534.307272911 -44610928.776721954 0 -44610928.776721954 49446454.627700806 0 0 0 0 46548983.576883793 -86306329.926872253 0 -86306329.926872253 101505752.89942932 0 0 0 0 38091890.152884007 -71301448.214355469 0 -71301448.214355469 74884732.114038467 0 0 0 0 31113241.509900779 -52032986.852127075 0 -52032986.852127075 -80686672.872192383 0 0 0 0 -1949047.2604869604 -31996711.472496033 0 -31996711.472496033 182368865.10077667 0 0 0 0 75917.628220341052 -23009.068418323994 0 -23009.068418323994 102119.09790660813 0 0 0 0 -28746055.526396036 -3932239.6094818115 0 -3932239.6094818115 34983278.762931824 0 0 0 0 31825264.97335577 -87795849.430400848 0 -87795849.430400848 36450252.030410767 0 0 0 0 -11272809.295997662 -8246472.3871038556 0 -8246472.3871038556 88297715.465515137 0 0 0 0 -10797855.098241393 -29141383.259897947 0 -29141383.259897947 54515924.807983398 0 0 0 0 19695869.278505325 -32266648.991767883 0 -32266648.991767883 106145531.22180939 0 0 0 0 24451591.941379696 -8555369.9428281784 0 -8555369.9428281784 146527405.81010437 0 0 0 0 -32024444.213718116 32882301.676841736 0 32882301.676841736 310266980.27127838 0 0 0 0 29718249.744815707 101204171.48737335 0 101204171.48737335 268068063.22987366 0 0 0 0 -22225767.027220212 30484798.560905457 0 30484798.560905457 103182461.73970795 0 0 0 0 -18143987.558602512 50954384.238876343 0 50954384.238876343 205270371.11165237 0 0 0 0 -14021227.170883805 19028494.812534332 0 19028494.812534332 75940719.518165588 0 0 0 0 -14428877.281077087 72664982.958108902 0 72664982.958108902 321522492.42475891 0 0 0 0 -34617.136560924933 187334.96349219978 0 187334.96349219978 159123.60531043075 0 0 0 0 -27661.846669525548 285268.77512591332 0 285268.77512591332 231686.79771151952 0 0 0 0 2503394.480097793 -7351676.5709056854 0 -7351676.5709056854 91786326.35144043 0 0 0 0 -9821155.5071824342 14970.001239776611 0 14970.001239776611 120889525.39994812 0 0 0 0 -12404198.258512497 5565232.5514373779 0 5565232.5514373779 90045276.319009781 0 0 0 0 4731988.1725272238 -3158404.2341403961 0 -3158404.2341403961 53462517.086479187 0 0 0 0 -1805071.709194541 7235650.6082611084 0 7235650.6082611084 37326225.242980957 0 0 0 0 -38021861.078212023 -11433343.821029663 0 -11433343.821029663 115270267.79943275 0 0 0 0 -23375057.962774813 -12163382.250457764 0 -12163382.250457764 69843226.391738892 0 0 0 0 -19481727.204598427 -1831730.3359832764 0 -1831730.3359832764 53135855.998260498 0 0 0 0 44069.559175693197 -193675.12725074589 0 -193675.12725074589 384324.13484232686 0 0 0 0 -6481539.0300748348 -11056388.848419189 0 -11056388.848419189 -14278394.965744019 0 0 0 0 6902773.1154325008 -22575115.033180237 0 -22575115.033180237 60631353.614456177 0 0 0 0 -12456.845724243671 -31668.345934689045 0 -31668.345934689045 91764.825377389789 0 0 0 0 -27410733.888042331 -35707677.391822815 0 -35707677.391822815 28317721.054851532 0 0 0 0 -3712840.9277423024 -17685135.64229393 0 -17685135.64229393 70846436.841796875 0 0 0 0 1226318.5864197107 -403360.50060519576 0 -403360.50060519576 -110625.96419207379 0 0 0 0 -1128645.1848268022 -359974.03718445078 0 -359974.03718445078 954852.68818840384 0 0 0 0 8081366.7969802618 -16837434.962669373 0 -16837434.962669373 51613355.502374463 0 0 0 0 4239558.0503156781 -22049791.624412537 0 -22049791.624412537 66103335.327323914 0 0 0 0 -9791687.6316037178 -8263877.3226356506 0 -8263877.3226356506 -2374989.612903595 0 0 0 0 1761123.5935789347 -18433752.767620087 0 -18433752.767620087 -36166394.106689453 0 0 0 0 -37826400.241988242 -52715793.638393402 0 -52715793.638393402 -57894860.762779236 0 0 0 0 -52012652.29344099 -60269631.625072479 0 -60269631.625072479 -53571083.647666931 0 0 0 0 -60701781.540555894 -39934040.777801514 0 -39934040.777801514 -50142755.94909668 0 0 0 0 461430.66966202896 1044.65683414042 0 1044.65683414042 -83179.579352803528 0 0 0 0 -60008676.659940749 -55652499.352142334 0 -55652499.352142334 -58007243.194522858 0 0 0 0 -887585.90948298201 -600646.0414390564 0 -600646.0414390564 115966571.26582336 0 0 0 0 11393001.556917429 2266046.6568756104 0 2266046.6568756104 55304319.138160706 0 0 0 0 -4286565.750648886 8728596.6575889587 0 8728596.6575889587 93435094.803123474 0 0 0 0 23883932.579249173 -2757693.7218399048 0 -2757693.7218399048 91157204.255348206 0 0 0 0 -935875.48103000224 75926465.153862 0 75926465.153862 133564921.21683121 0 0 0 0 13665726.362985015 79750546.503967285 0 79750546.503967285 -65842378.380405426 0 0 0 0 36922686.37843056 61821092.027469635 0 61821092.027469635 -57155784.322235107 0 0 0 0 -15685617.663008288 30030223.313480377 0 30030223.313480377 82707761.449914932 0 0 0 0 5273.2616627726238 106514.57465637475 0 106514.57465637475 93182.966030007228 0 0 0 0 8521286.2939303964 -15610480.054559708 0 -15610480.054559708 108660609.24475098 0 0 0 0 -73737893.756750688 8975948.8988647461 0 8975948.8988647461 157676695.74763489 0 0 0 0 -138165539.27309895 -36839175.95349884 0 -36839175.95349884 54956597.886268616 0 0 0 0 -101262.63833745258 -171014.3211787818 0 -171014.3211787818 1627759.9850876927 0 0 0 0 -125308170.72219096 67111445.03074646 0 67111445.03074646 102976198.66906738 0 0 0 0 -112366468.27323586 13304596.372009277 0 13304596.372009277 -48320705.000671387 0 0 0 0 -17977674.727584928 58345526.322742462 0 58345526.322742462 -28879113.383499146 0 0 0 0 -23492257.377140731 38016934.914558411 0 38016934.914558411 35491548.612251282 0 0 0 0 -68918739.840577513 19268733.632598877 0 19268733.632598877 33182779.638015747 0 0 0 0 -135636.61011551024 90804.112842238508 0 90804.112842238508 1410078.4119536877 0 0 0 0 6175.4059124987289 5008401.2662773132 0 5008401.2662773132 -3239732.3882446289 0 0 0 0 -5707.6792595492889 2444024.2750053406 0 2444024.2750053406 -1595899.9187660217 0 0 0 0 -6687660.1572212353 2574666.8921451569 0 2574666.8921451569 266324.49751281738 0 0 0 0 -4943493.8064302523 4907964.9949417114 0 4907964.9949417114 -2689001.282119751 0 0 0 0 -3257943.7331557251 -69227.432586669922 0 -69227.432586669922 1533303.9700927734 0 0 0 0 -39818984.848629624 -14932570.278465271 0 -14932570.278465271 110690979.71319962 0 0 0 0 36686360.476882398 46978383.71811676 0 46978383.71811676 -185787491.10641479 0 0 0 0 -78416473.606936455 -53622129.423202515 0 -53622129.423202515 -43664831.309173584 0 0 0 0 -91597198.508915424 -86494429.367874146 0 -86494429.367874146 -7980706.7098388672 0 0 0 0 -14674357.904639244 -179497458.26541138 0 -179497458.26541138 82336507.666931152 0 0 0 0 -75483466.419828728 -37683148.205535889 0 -37683148.205535889 -49430573.293731689 0 0 0 0 -100296173.39349179 -72989921.222831726 0 -72989921.222831726 -16462586.566467285 0 0 0 0 34079.899819510494 -479237.99015494529 0 -479237.99015494529 1124044.269167468 0 0 0 0 -76758345.537308216 -47630192.38343811 0 -47630192.38343811 -46405762.131210327 0 0 0 0 -94875500.459085524 -43813703.309814453 0 -43813703.309814453 -41544497.562240601 0 0 0 0 -70915714.171555609 -55549814.77406311 0 -55549814.77406311 -36081018.501068115 0 0 0 0 7648.9343560400739 -15927.817234107293 0 -15927.817234107293 35127.757391884923 0 0 0 0 19113956.150842726 34642856.573318481 0 34642856.573318481 112848634.20936584 0 0 0 0 35115387.976408064 99478783.964050293 0 99478783.964050293 248981773.23126221 0 0 0 0 14893.842943308571 36384768.646736145 0 36384768.646736145 103133526.65552902 0 0 0 0 114422.48021450253 201150.28739330173 0 201150.28739330173 441874.58386110887 0 0 0 0 -660850.47137849312 364422.47874927521 0 364422.47874927521 1074291.7328186035 0 0 0 0 -4718013.336627326 35372121.125671387 0 35372121.125671387 115767488.20118713 0 0 0 0 58797385.533258379 14344152.254854202 0 14344152.254854202 46518229.660797119 0 0 0 0 22697843.715219498 17735488.782020569 0 17735488.782020569 5321037.4501104355 0 0 0 0 84127700.821571648 24232562.115753174 0 24232562.115753174 5898352.9696273804 0 0 0 0 83985212.486683369 -4765828.8550872803 0 -4765828.8550872803 -849902.46767616272 0 0 0 0 48804383.399223804 -7858809.4711608887 0 -7858809.4711608887 2369626.1269493103 0 0 0 0 96481996.12602222 -1034026.4435958862 0 -1034026.4435958862 52553828.913448334 0 0 0 0 86540999.434215665 53596476.38425827 0 53596476.38425827 97103184.980026245 0 0 0 0 85016837.059816241 42522711.764667511 0 42522711.764667511 27234084.458435059 0 0 0 0 68782908.518410683 14084724.271064758 0 14084724.271064758 51705179.602836609 0 0 0 0 52044382.53158474 65018431.485717773 0 65018431.485717773 73110894.631923676 0 0 0 0 29542699.942263842 44669018.589389801 0 44669018.589389801 67713247.216079712 0 0 0 0 58007403.757310152 34990357.239151001 0 34990357.239151001 96063349.864433289 0 0 0 0 31987186.246429443 64139871.953533173 0 64139871.953533173 126302953.25265503 0 0 0 0 56027963.041049004 50597752.616256714 0 50597752.616256714 1924962.7984466553 0 0 0 0 15079229.200581431 54078152.69467926 0 54078152.69467926 67600745.203475952 0 0 0 0 38459684.919421434 68802322.296005249 0 68802322.296005249 3803532.2829809189 0 0 0 0 36888077.546719193 91458828.353851318 0 91458828.353851318 -32968604.975990295 0 0 0 0 42622880.480385065 31400221.155464172 0 31400221.155464172 47167548.090873718 0 0 0 0 53005253.611040115 63677242.041648865 0 63677242.041648865 17329297.912204742 0 0 0 0 46564881.491772294 53747518.614257812 0 53747518.614257812 7619912.583656311 0 0 0 0 45151406.434058726 31047832.720508575 0 31047832.720508575 -19404503.310882568 0 0 0 0 10978354.144303143 75111327.958459854 0 75111327.958459854 -4339889.2845611572 0 0 0 0 5107848.6192609072 73402752.179756165 0 73402752.179756165 -61398803.237785339 0 0 0 0 -22411894.03568536 44015626.899515152 0 44015626.899515152 -18989977.153305054 0 0 0 0 45229678.133512899 116521829.18470681 0 116521829.18470681 -12644362.791687012 0 0 0 0 -6090980.6593776941 54355900.437416077 0 54355900.437416077 -24440694.840713501 0 0 0 0 -13580914.196086645 100853661.28311539 0 100853661.28311539 14112482.851280212 0 0 0 0 -8698317.2334916592 124181432.68667603 0 124181432.68667603 65578977.896057129 0 0 0 0 77442669.188383341 -5542558.2900676727 0 -5542558.2900676727 -57949237.869400024 0 0 0 0 -48754299.202647805 19052569.115131378 0 19052569.115131378 24033922.62865448 0 0 0 0 918329.77974078129 452845.85231116042 0 452845.85231116042 -768104.3723090589 0 0 0 0 -113428294.39564848 101246881.85399628 0 101246881.85399628 -26637648.469238281 0 0 0 0 -73040501.688184977 100796029.44057465 0 100796029.44057465 -52404931.104499817 0 0 0 0 -17780321.917512178 50137587.109195709 0 50137587.109195709 -44998691.262084961 0 0 0 0 -103863544.39290428 48649617.264985085 0 48649617.264985085 -27786958.65397644 0 0 0 0 4116163.6067225933 24806291.802261353 0 24806291.802261353 -42107468.201202393 0 0 0 0 -965724.34365522861 17207734.435144424 0 17207734.435144424 -21588355.436798096 0 0 0 0 29348766.402364492 13672788.550678253 0 13672788.550678253 -31755467.659378052 0 0 0 0 -28556083.736970663 40122231.35578537 0 40122231.35578537 -33037897.004394531 0 0 0 0 18215771.441653013 24919492.41254425 0 24919492.41254425 -37646910.445960999 0 0 0 0 53866295.892562389 13744798.963844299 0 13744798.963844299 -19275159.39364624 0 0 0 0 7009274.4376719594 12185677.557312012 0 12185677.557312012 -15932390.118927002 0 0 0 0 44601933.932467103 -16035532.978820801 0 -16035532.978820801 -7526345.0486907959 0 0 0 0 40828993.825914621 -5046198.5547561646 0 -5046198.5547561646 -17251525.683067322 0 0 0 0 23923357.306510925 -3860918.0042266846 0 -3860918.0042266846 -9613065.6904907227 0 0 0 0 29372485.362275124 4879143.9255590439 0 4879143.9255590439 -23145473.102172852 0 0 0 0 26672257.362964809 -4674722.257771492 0 -4674722.257771492 5878487.4496917725 0 0 0 0 41963330.778170586 -16287692.645904541 0 -16287692.645904541 -9498909.4996032715 0 0 0 0 42305801.200895071 -14721278.249507904 0 -14721278.249507904 -2704695.8238220215 0 0 0 0 47960328.271844864 -22895289.053695679 0 -22895289.053695679 9058365.3383331299 0 0 0 0 63131687.51107502 -17367111.335250854 0 -17367111.335250854 3410361.2607574463 0 0 0 0 34421344.230353475 -2625768.7485923767 0 -2625768.7485923767 20229852.308227539 0 0 0 0 99363711.520162106 -13739052.467987061 0 -13739052.467987061 2518369.8343811035 0 0 0 0 86201395.497842789 -12316266.86416626 0 -12316266.86416626 11696926.406738281 0 0 0 0 69021460.853335142 -413418.4837474823 0 -413418.4837474823 11706946.3699646 0 0 0 0 129000.88769465804 1106770.5910424362 0 1106770.5910424362 217853.64814473689 0 0 0 0 1511638.5134741962 11379198.818546295 0 11379198.818546295 13762045.285568237 0 0 0 0 14111.616762251826 53422.115888033062 0 53422.115888033062 101633.84576077946 0 0 0 0 46781424.071240902 -8010434.2470092773 0 -8010434.2470092773 13989448.381462097 0 0 0 0 82443247.199214935 5720706.2326202393 0 5720706.2326202393 -7024765.6029014587 0 0 0 0 -783870.94097074389 197235.81122814026 0 197235.81122814026 5475078.9522136599 0 0 0 0 29044968.692807555 -11692193.152584076 0 -11692193.152584076 1469978.8407516479 0 0 0 0 41324880.229546666 -21553680.898736954 0 -21553680.898736954 -4803926.7010421753 0 0 0 0 -13181280.033244371 8119840.7729682922 0 8119840.7729682922 6198629.4175720215 0 0 0 0 51236627.650533795 -23196166.363404751 0 -23196166.363404751 -6642028.2838897705 0 0 0 0 40738588.019905083 -19011979.732492894 0 -19011979.732492894 -5757756.5552520752 0 0 0 0 41681790.33029294 -19761369.211044312 0 -19761369.211044312 -7848783.143901825 0 0 0 0 41856311.333044291 -20764602.974132538 0 -20764602.974132538 -4020078.4980163574 0 0 0 0 -1231266.9240684509 5262195.8867721558 0 5262195.8867721558 9832854.3175315857 0 0 0 0 8848166.9487791061 2559833.1092300415 0 2559833.1092300415 648098.35543823242 0 0 0 0 456053.43687969563 2150141.8686473146 0 2150141.8686473146 1153595.2371892296 0 0 0 0 -3188380.536192894 6795638.370513916 0 6795638.370513916 -1894872.6229400635 0 0 0 0 -1137392.7618994117 1034116.1826925874 0 1034116.1826925874 10575307.030715942 0 0 0 0 8363003.1249251366 -2562764.7648620605 0 -2562764.7648620605 -7424799.5005168915 0 0 0 0 4481455.7019696236 12312569.11423111 0 12312569.11423111 1661421.1774978638 0 0 0 0 26353423.137242198 -16083280.56280899 0 -16083280.56280899 22071431.416805267 0 0 0 0 11387948.139103591 8316959.1675682068 0 8316959.1675682068 5568973.3319244385 0 0 0 0 -383127.84877753258 2332050.0945281982 0 2332050.0945281982 10384055.536510468 0 0 0 0 -36403957.573444366 3189604.7086448669 0 3189604.7086448669 20827832.434127808 0 0 0 0 -2233197.9130846858 8403970.0063467026 0 8403970.0063467026 -648165.63331604004 0 0 0 0 16693812.029116035 12613468.971927643 0 12613468.971927643 -7763251.9569473267 0 0 0 0 31297130.132194519 -27687286.071796417 0 -27687286.071796417 28412264.140125275 0 0 0 0 29530011.215414613 -23227766.621770859 0 -23227766.621770859 44796391.412521362 0 0 0 0 36877462.820561647 -20202250.707633972 0 -20202250.707633972 7702134.1928024292 0 0 0 0 -26394553.45675981 -28020766.754454374 0 -28020766.754454374 21975420.64125061 0 0 0 0 -387252.2973971155 -131866.43074164074 0 -131866.43074164074 4666854.0876396149 0 0 0 0 36923185.254039288 -13166584.488716125 0 -13166584.488716125 -9069246.3253650665 0 0 0 0 57239819.567613602 -14184019.487064362 0 -14184019.487064362 -22285573.004577637 0 0 0 0 60723368.238801241 27055966.054573059 0 27055966.054573059 54478348.162250519 0 0 0 0 61862440.527600169 -28635338.181112289 0 -28635338.181112289 7961693.8788452148 0 0 0 0 -167688.12878263081 -114548.69137302088 0 -114548.69137302088 3580168.2280378789 0 0 0 0 -62887430.035399079 -8837605.7859992981 0 -8837605.7859992981 78563784.180099487 0 0 0 0 147506169.74076462 66568480.386301041 0 66568480.386301041 -40395321.527023315 0 0 0 0 197998020.06119633 261891551.5790329 0 261891551.5790329 274472675.34467316 0 0 0 0 -16123.193363167651 -17370.042963269167 0 -17370.042963269167 1461643.1690426171 0 0 0 0 63267798.519425154 119629849.76576424 0 119629849.76576424 288214249.74641418 0 0 0 0 78325011.287122071 115098914.4684906 0 115098914.4684906 155334942.65325928 0 0 0 0 65587688.770402074 -64526841.05790329 0 -64526841.05790329 34312882.423469543 0 0 0 0 -39719854.852924578 -11057726.951137781 0 -11057726.951137781 40428908.70500946 0 0 0 0 129225438.70126486 -174443653.09240723 0 -174443653.09240723 199908335.96059418 0 0 0 0 116322218.23506892 -21256676.006355286 0 -21256676.006355286 -44089810.345108032 0 0 0 0 68361820.533937931 -105649774.52297688 0 -105649774.52297688 162204785.2926178 0 0 0 0 30451077.681236863 -43866655.960494995 0 -43866655.960494995 212685031.72348022 0 0 0 0 40492653.730407834 -11721712.77853775 0 -11721712.77853775 217617915.69910431 0 0 0 0 -4430823.7767363787 -95414601.043216705 0 -95414601.043216705 541883709.99008179 0 0 0 0 128655769.00147712 196444828.65797234 0 196444828.65797234 421326403.31886292 0 0 0 0 267735109.44085884 103789942.46079254 0 103789942.46079254 266587582.54039025 0 0 0 0 41894393.529665589 80741756.505142212 0 80741756.505142212 302428638.03206635 0 0 0 0 12472249.551354706 146369424.90010262 0 146369424.90010262 411778395.5477066 0 0 0 0 36258354.935609579 152232709.01939011 0 152232709.01939011 281858319.7308569 0 0 0 0 -31798787.143100858 92574306.084323883 0 92574306.084323883 467130453.32317352 0 0 0 0 32341355.39493382 206232505.79714394 0 206232505.79714394 575616664.63965607 0 0 0 0 119373148.80070519 -20042253.231046677 0 -20042253.231046677 537805067.32466125 0 0 0 0 69341001.796272099 79601054.376848221 0 79601054.376848221 388379803.86748505 0 0 0 0 2417649.1363782492 86379880.712055445 0 86379880.712055445 374644540.36387634 0 0 0 0 -34772864.483575881 123122466.1734314 0 123122466.1734314 445831990.64476013 0 0 0 0 -15649378.250386357 91247944.493759155 0 91247944.493759155 488092347.96148682 0 0 0 0 5781960.7197889686 196917166.98523331 0 196917166.98523331 409314138.05143738 0 0 0 0 -26211637.975585997 100381093.66785812 0 100381093.66785812 540336723.45509338 0 0 0 0 14659129.043946803 56065194.293569565 0 56065194.293569565 392416823.57985687 0 0 0 0 73748940.619051456 -48782530.059345245 0 -48782530.059345245 577547432.29296875 0 0 0 0 -22550917.665405393 76156449.84437561 0 76156449.84437561 486576907.39202118 0 0 0 0 47792716.316997886 56893499.778518677 0 56893499.778518677 306211413.37329865 0 0 0 0 49744527.694063544 76338013.877590179 0 76338013.877590179 263054788.49806976 0 0 0 0 74416138.454214096 -1202805.2894515991 0 -1202805.2894515991 394022215.54607368 0 0 0 0 102467921.05473804 55995794.469491959 0 55995794.469491959 278740633.13829041 0 0 0 0 118855595.90483689 12088225.495063782 0 12088225.495063782 234187394.14607239 0 0 0 0 97231068.966202646 57708785.962762654 0 57708785.962762654 176648991.30143738 0 0 0 0 98214801.953007489 -1619878.4582729936 0 -1619878.4582729936 194944404.3114624 0 0 0 0 81075974.131725788 50033410.506267548 0 50033410.506267548 129555426.87498856 0 0 0 0 78503716.389491916 -2088020.7943954468 0 -2088020.7943954468 91972289.449142456 0 0 0 0 35120409.581442237 84453793.214061737 0 84453793.214061737 240171345.45094299 0 0 0 0 70601288.311454535 57378497.168067932 0 57378497.168067932 184179270.30269289 0 0 0 0 32196584.392020106 68326180.173473358 0 68326180.173473358 192837738.67915344 0 0 0 0 6569794.7437291145 66871280.800682068 0 66871280.800682068 192760851.16664124 0 0 0 0 45048528.008386612 64439440.737781525 0 64439440.737781525 183848946.38624573 0 0 0 0 47063519.291130066 52168363.308280945 0 52168363.308280945 128594259.04693604 0 0 0 0 83632301.842745066 62642463.640693665 0 62642463.640693665 114591958.51462555 0 0 0 0 111617981.9012562 18673573.481300354 0 18673573.481300354 115946018.98940277 0 0 0 0 67479197.297953188 52316851.204471588 0 52316851.204471588 169162640.53529358 0 0 0 0 68094534.230396748 72917525.211410522 0 72917525.211410522 246911496.63011169 0 0 0 0 115802599.31633234 43422763.042526245 0 43422763.042526245 170671269.87598038 0 0 0 0 109353564.31719196 62040918.767082214 0 62040918.767082214 247028404.99189758 0 0 0 0 108215652.25754023 64059366.265140533 0 64059366.265140533 231646242.65989685 0 0 0 0 153961307.83160591 24808248.819862366 0 24808248.819862366 264956458.83439636 0 0 0 0 107476207.14776641 14577573.426422119 0 14577573.426422119 375007874.16783142 0 0 0 0 123584480.72967231 100432623.70832062 0 100432623.70832062 334971048.02528381 0 0 0 0 88189019.31711781 123522236.92224121 0 123522236.92224121 320227692.33601379 0 0 0 0 20246764.570760727 117556733.52586365 0 117556733.52586365 382639319.35046387 0 0 0 0 55672444.635076642 73221883.763908386 0 73221883.763908386 242674469.33035278 0 0 0 0 1536664.607399106 81617244.460266113 0 81617244.460266113 282994966.35148621 0 0 0 0 3182931.6220690012 92037544.334323883 0 92037544.334323883 348951821.92059326 0 0 0 0 92218908.10106194 191874992.02975655 0 191874992.02975655 559895425.00782776 0 0 0 0 49353000.852502823 97359742.343727112 0 97359742.343727112 378676860.34132576 0 0 0 0 -38156670.34804225 62681442.166618347 0 62681442.166618347 538518880.98262024 0 0 0 0 217962674.58323824 10526147.40625 0 10526147.40625 375140595.4009614 0 0 0 0 254295167.39837897 81694226.019126892 0 81694226.019126892 336983070.49657822 0 0 0 0 504873465.07641149 -22913206.48601532 0 -22913206.48601532 443470768.75850487 0 0 0 0 184176361.18202025 23759428.863307953 0 23759428.863307953 437995687.88943481 0 0 0 0 139197815.58651763 -345531304.25453949 0 -345531304.25453949 436904479.15319824 0 0 0 0 90100069.441090882 -111210333.87820053 0 -111210333.87820053 897130015.21377563 0 0 0 0 127144383.9279446 243035799.94056129 0 243035799.94056129 1021578227.4304199 0 0 0 0 -17100260.849092275 299948335.19446182 0 299948335.19446182 582286198.59426117 0 0 0 0 -30688289.466903925 -22375970.533180237 0 -22375970.533180237 508862122.22093201 0 0 0 0 -11663740.986799598 2758618.6890449524 0 2758618.6890449524 613524566.27843285 0 0 0 0 -6390675.3905638456 -3972440.036529541 0 -3972440.036529541 454008541.66029358 0 0 0 0 25126563.861356258 -178259970.40309906 0 -178259970.40309906 502966118.52233887 0 0 0 0 -6607455.951918602 -96763808.864776611 0 -96763808.864776611 330467101.55756378 0 0 0 0 -55125422.681050539 -23949113.049835205 0 -23949113.049835205 395228059.55063629 0 0 0 0 -9872096.8717926741 -103486198.31112671 0 -103486198.31112671 328895105.49636841 0 0 0 0 -30395079.31655255 -29314131.563153267 0 -29314131.563153267 391698295.68959045 0 0 0 0 -86367395.117720127 40817889.337509155 0 40817889.337509155 346518018.65359402 0 0 0 0 -54478883.968801916 -15715321.477708817 0 -15715321.477708817 296210457.79884338 0 0 0 0 -55691850.629198551 38743951.747779846 0 38743951.747779846 282294716.24534607 0 0 0 0 -62760151.073833942 20651246.940704346 0 20651246.940704346 242970125.77194214 0 0 0 0 -90434283.158914447 70030510.834718704 0 70030510.834718704 284068689.20738983 0 0 0 0 -70272659.570205927 -9490663.5217285156 0 -9490663.5217285156 339821851.57746887 0 0 0 0 -88538655.454113841 46825203.646347046 0 46825203.646347046 365149354.17687988 0 0 0 0 -124633358.55636525 61456718.725990295 0 61456718.725990295 366803144.13606262 0 0 0 0 -108605413.80747247 65589832.228210449 0 65589832.228210449 362178948.31259918 0 0 0 0 -87693131.331159592 52340469.676891327 0 52340469.676891327 356097695.81733704 0 0 0 0 -80283097.292359114 69258614.52481842 0 69258614.52481842 394532302.63812065 0 0 0 0 -61102599.098498106 46377893.306053162 0 46377893.306053162 386864684.54814148 0 0 0 0 -38048131.839514986 62131997.369086504 0 62131997.369086504 392403302.76023865 0 0 0 0 -74233591.50168395 36686910.89302063 0 36686910.89302063 454992480.06018066 0 0 0 0 -75932557.363098621 22398069.422264099 0 22398069.422264099 378066476.67724609 0 0 0 0 54499380.63022615 108889103.25673437 0 108889103.25673437 154532071.60419464 0 0 0 0 54705167.337946892 180504801.93569946 0 180504801.93569946 151535383.95543337 0 0 0 0 -106430358.13898158 98289821.652557373 0 98289821.652557373 351932240.12497711 0 0 0 0 -113096233.75049043 139761665.9796896 0 139761665.9796896 385134171.21960449 0 0 0 0 -123573869.46467161 67022449.732524872 0 67022449.732524872 386298490.90860367 0 0 0 0 -85256472.707372665 221882626.43756104 0 221882626.43756104 553450177.9274292 0 0 0 0 99038331.934593201 285864712.2091713 0 285864712.2091713 320512348.79486847 0 0 0 0 103262484.55370516 181208771.69239676 0 181208771.69239676 32284053.960037231 0 0 0 0 -138749677.39594424 179485089.75271606 0 179485089.75271606 961356139.9028244 0 0 0 0 -187124897.86870241 20406003.735874176 0 20406003.735874176 481854653.42210388 0 0 0 0 -91497164.708902359 -7817207.4975662231 0 -7817207.4975662231 342286643.59417629 0 0 0 0 -116507000.33166647 41400998.603088379 0 41400998.603088379 347105210.25322723 0 0 0 0 -123721417.00510895 34342454.252620697 0 34342454.252620697 351952791.35943604 0 0 0 0 -91658482.464255333 20665500.061832428 0 20665500.061832428 205547165.59005737 0 0 0 0 -94141505.47883749 63234262.473571777 0 63234262.473571777 186387532.89917755 0 0 0 0 -40103553.560526609 35231995.856758118 0 35231995.856758118 116089959.2917099 0 0 0 0 -58096756.338766575 64064918.141059875 0 64064918.141059875 131804757.27025318 0 0 0 0 -6245967.6066375226 41647236.695745289 0 41647236.695745289 59021724.273139954 0 0 0 0 -2737906.4833593369 -46103395.501560211 0 -46103395.501560211 144666514.06703186 0 0 0 0 -69559267.32862854 69824707.318359375 0 69824707.318359375 297933232.76631927 0 0 0 0 -66627705.443632126 70526230.936386108 0 70526230.936386108 264422041.16547394 0 0 0 0 -47919925.179160595 98072151.807701111 0 98072151.807701111 373969413.25704956 0 0 0 0 -60217225.466279984 67136239.698158264 0 67136239.698158264 296245472.30673218 0 0 0 0 -96572768.527270079 75819662.8932724 0 75819662.8932724 371572803.53123474 0 0 0 0 -101041825.52637911 61451856.791900635 0 61451856.791900635 332228670.54026794 0 0 0 0 -98896420.683763266 59397405.241218567 0 59397405.241218567 309234079.37557983 0 0 0 0 -114833861.85286713 52160722.844276428 0 52160722.844276428 327583376.55223083 0 0 0 0 -85549732.580919236 40626877.807097912 0 40626877.807097912 233213792.38265991 0 0 0 0 -83869428.378967762 67217306.640693665 0 67217306.640693665 215049390.52281952 0 0 0 0 -111657905.67496443 26224664.586204529 0 26224664.586204529 294236804.79828262 0 0 0 0 -103273792.02440453 75286457.918167114 0 75286457.918167114 153415876.44235992 0 0 0 0 -82364989.070152521 35336596.484050751 0 35336596.484050751 176125819.62979126 0 0 0 0 -56272546.368395329 69111922.345703125 0 69111922.345703125 180016509.74647522 0 0 0 0 -44296198.850528955 41532425.504030228 0 41532425.504030228 154705704.25587463 0 0 0 0 -23446052.600320339 77394659.026908875 0 77394659.026908875 282727704.27373505 0 0 0 0 -26670549.654694438 60182334.375522614 0 60182334.375522614 217867142.94589233 0 0 0 0 4566220.3585830927 50329718.270053864 0 50329718.270053864 138953136.97348022 0 0 0 0 -36094206.014410496 68324341.110183716 0 68324341.110183716 218489059.39945698 0 0 0 0 -13559090.788550377 54455491.462005615 0 54455491.462005615 139199338.50713778 0 0 0 0 -14000092.709057331 42013006.316116333 0 42013006.316116333 82220857.637786865 0 0 0 0 -56500763.144391537 54134407.737503052 0 54134407.737503052 151827441.26089096 0 0 0 0 -51972990.725195289 54926233.048412323 0 54926233.048412323 104503231.00915527 0 0 0 0 -39715397.486936569 38229567.657058716 0 38229567.657058716 24619232.555175781 0 0 0 0 12889781.140244603 39583125.993873596 0 39583125.993873596 -1358281.5942077637 0 0 0 0 -44928190.490645885 41152484.753456116 0 41152484.753456116 82197528.187024117 0 0 0 0 39693622.426117003 71796336.306917191 0 71796336.306917191 -72704814.927581787 0 0 0 0 -2798912.9529504776 40669291.27746582 0 40669291.27746582 71127.376426696777 0 0 0 0 -5970163.2734829187 26376496.425546646 0 26376496.425546646 -64205457.686828613 0 0 0 0 -107920233.6232183 28155852.106544495 0 28155852.106544495 23279133.550323486 0 0 0 0 46446653.922464371 50625490.878501892 0 50625490.878501892 -144518599.90342712 0 0 0 0 -53448760.724326134 12580555.99307251 0 12580555.99307251 -68073835.078582764 0 0 0 0 -66852400.398687899 -32005593.124879837 0 -32005593.124879837 -145850777.31011963 0 0 0 0 -13646775.455907822 11164361.748962402 0 11164361.748962402 -147242631.43794107 0 0 0 0 -12799983.657885551 2529927.531829834 0 2529927.531829834 -181751956.10238647 0 0 0 0 48520915.821346283 81816873.422813416 0 81816873.422813416 -64271303.930587769 0 0 0 0 -178545853.66946214 77474101.480455399 0 77474101.480455399 -88661458.849853516 0 0 0 0 -199646349.76375687 139550448.83813667 0 139550448.83813667 -72123176.257537842 0 0 0 0 -81064859.900400162 136833845.03991699 0 136833845.03991699 -177390299.77572632 0 0 0 0 -121965383.4963913 134806987.32211304 0 134806987.32211304 -177342486.70041656 0 0 0 0 -450826525.8768816 174428655.70375061 0 174428655.70375061 -117478590.41573715 0 0 0 0 -160852737.49383497 104108207.64167786 0 104108207.64167786 -66025356.531143188 0 0 0 0 -93898280.787000179 24594229.486541748 0 24594229.486541748 -19466844.537791252 0 0 0 0 -239758151.69410133 17286633.866600037 0 17286633.866600037 -19765569.44468689 0 0 0 0 -169455162.40735245 66233242.308853149 0 66233242.308853149 37672066.7684021 0 0 0 0 -116797743.84195518 101658819.34208679 0 101658819.34208679 -14102101.673332214 0 0 0 0 -177589707.06901407 85868171.857307434 0 85868171.857307434 -18156361.651260376 0 0 0 0 -108074118.74579096 115288705.93241119 0 115288705.93241119 -69099670.04083252 0 0 0 0 -111564061.57659578 71215417.57875824 0 71215417.57875824 26475869.308013916 0 0 0 0 -91224240.847478092 78523693.66661644 0 78523693.66661644 63420667.237106323 0 0 0 0 -118272492.58046484 96049107.563964844 0 96049107.563964844 57758495.916732788 0 0 0 0 -96317657.607896328 29614725.319168091 0 29614725.319168091 92209353.103820801 0 0 0 0 -92272314.464911938 69663455.853675842 0 69663455.853675842 68989287.816940308 0 0 0 0 -108496182.08934024 46009383.732421875 0 46009383.732421875 42869015.240661621 0 0 0 0 -85082909.580784798 39816254.236557007 0 39816254.236557007 159206830.81763458 0 0 0 0 -73736276.279623151 61126229.958770752 0 61126229.958770752 128328588.90579224 0 0 0 0 -101151766.742208 44148812.0650177 0 44148812.0650177 122206158.51098633 0 0 0 0 -79179029.768910885 46903492.63079834 0 46903492.63079834 120261024.98272705 0 0 0 0 -78838591.939255714 94837971.376533508 0 94837971.376533508 72113586.267112732 0 0 0 0 -49990472.57275629 68550481.928672791 0 68550481.928672791 42460840.651374817 0 0 0 0 -26653258.216187477 89035614.906154633 0 89035614.906154633 -20319041.836654663 0 0 0 0 -21794089.403655052 46398728.1769104 0 46398728.1769104 30379391.908874512 0 0 0 0 -35626865.789273262 74750717.900913239 0 74750717.900913239 37293074.578087807 0 0 0 0 -9758757.7264316529 29720389.352528095 0 29720389.352528095 10616488.811576843 0 0 0 0 -12072988.854478359 52252829.042030334 0 52252829.042030334 -63181537.732719421 0 0 0 0 -10502755.896623373 48325603.662218094 0 48325603.662218094 -59970036.055641174 0 0 0 0 -80399662.313573837 110173142.63650513 0 110173142.63650513 -23986292.929107666 0 0 0 0 -30989260.64903307 87617594.304840088 0 87617594.304840088 -54608122.273391724 0 0 0 0 -84595249.27972436 112275726.18008423 0 112275726.18008423 1977793.4257507324 0 0 0 0 -114711681.21142101 117466812.50802612 0 117466812.50802612 -25282347.267684937 0 0 0 0 -29968200.836511135 93634828.059196472 0 93634828.059196472 -21808851.240280151 0 0 0 0 -53934005.197912216 117992035.04219818 0 117992035.04219818 -94360832.494659424 0 0 0 0 -81210914.405133247 124052479.40718079 0 124052479.40718079 -95660731.062210083 0 0 0 0 -4314352.6850452423 58855053.810577393 0 58855053.810577393 -141170619.46360779 0 0 0 0 29805070.064248085 43289397.076263428 0 43289397.076263428 -186703916.28961182 0 0 0 0 -60047870.712526321 152462113.22387695 0 152462113.22387695 -286231154.72521973 0 0 0 0 -14248819.481196404 72201787.336517334 0 72201787.336517334 -150972202.31161499 0 0 0 0 28726835.020691872 74386616.0754776 0 74386616.0754776 -287358072.93414307 0 0 0 0 35492373.026854515 64494631.887695312 0 64494631.887695312 -290256205.33502197 0 0 0 0 -52058.903265739093 13311713.458214387 0 13311713.458214387 9676079.2213456891 0 0 0 0 3526949.7521221638 27058595.056123734 0 27058595.056123734 -18414300.850280762 0 0 0 0 -21341488.174350619 27963690.819417953 0 27963690.819417953 16885171.167037964 0 0 0 0 -15968083.244966984 18685394.613121033 0 18685394.613121033 4830721.3312530518 0 0 0 0 13459359.81239149 4743478.6692194939 0 4743478.6692194939 -14644729.97505188 0 0 0 0 4138481.9583218098 37895969.49581337 0 37895969.49581337 4191994.8789787292 0 0 0 0 11395335.295979261 41246980.998924255 0 41246980.998924255 30210001.01424408 0 0 0 0 -6915835.5025167465 25162513.256278992 0 25162513.256278992 21993566.940452576 0 0 0 0 4727150.3174703121 44225465.8328228 0 44225465.8328228 99956128.463783264 0 0 0 0 -14480113.119870663 36534361.872993469 0 36534361.872993469 26399142.409965515 0 0 0 0 -2745985.8985342979 29244663.576080322 0 29244663.576080322 10479331.869174957 0 0 0 0 -12780533.856194258 17676828.112678528 0 17676828.112678528 36929609.009685516 0 0 0 0 -11314221.97045517 21418052.155643463 0 21418052.155643463 5692046.541633606 0 0 0 0 -18165959.988920748 35045141.166550636 0 35045141.166550636 18351386.202064514 0 0 0 0 -54119389.152099133 -71288452.539344788 0 -71288452.539344788 -138789389.49984789 0 0 0 0 1486389.3708702922 138701556.70039368 0 138701556.70039368 -114698685.70477295 0 0 0 0 -38449219.8596766 62840918.267311096 0 62840918.267311096 192473538.40412903 0 0 0 0 1524310.3452135145 889234.54554665461 0 889234.54554665461 -22937.002650588751 0 0 0 0 -22144841.050555944 146713150.76835632 0 146713150.76835632 28643694.784988403 0 0 0 0 508633.95136070251 246074455.64363098 0 246074455.64363098 244893779.68883133 0 0 0 0 88026748.303286076 214491145.75091553 0 214491145.75091553 5152597.5215110779 0 0 0 0 45507066.048313379 122871058.19749093 0 122871058.19749093 -96357397.33581543 0 0 0 0 206379624.50506306 366393153.58019257 0 366393153.58019257 9400142.0141143799 0 0 0 0 114434831.3109647 156516863.30947876 0 156516863.30947876 -278758681.26776123 0 0 0 0 314658358.78611743 110755241.74982071 0 110755241.74982071 -577168000.40066528 0 0 0 0 -364189410.39842892 -214354986.39543915 0 -214354986.39543915 -251375922.87260437 0 0 0 0 -151529.13889300535 12519830.84747649 0 12519830.84747649 21261595.270743549 0 0 0 0 -161811886.71576941 246817676.27541733 0 246817676.27541733 215140443.35343933 0 0 0 0 -392266635.76824856 -168740118.19549561 0 -168740118.19549561 -105199335.35336304 0 0 0 0 -207867896.92420149 237843496.60574341 0 237843496.60574341 -300421137.80926514 0 0 0 0 -84737803.644380569 185013902.97332764 0 185013902.97332764 -376891930.84273148 0 0 0 0 -1340355.5299371886 1424083.6914232187 0 1424083.6914232187 3752443.0009593777 0 0 0 0 -24371663.299942017 55419105.926757812 0 55419105.926757812 166262654.85972214 0 0 0 0 -195375178.42950058 164976535.63079071 0 164976535.63079071 103222659.71761322 0 0 0 0 20013524.740231991 -411871413.31345749 0 -411871413.31345749 -193335266.33821869 0 0 0 0 190269801.42151833 176076948.93832779 0 176076948.93832779 -295585955.32487774 0 0 0 0 192797164.5281105 200422245.66711044 0 200422245.66711044 -131763840.89977169 0 0 0 0 175571749.51747131 41803328.862716675 0 41803328.862716675 -6404625.8782501221 0 0 0 0 154333035.39582443 -18242125.075962067 0 -18242125.075962067 -123610573.88785064 0 0 0 0 153197735.7070961 -31587016.113288879 0 -31587016.113288879 -260611918.43021774 0 0 0 0 -11109121.077939034 30665962.328353882 0 30665962.328353882 20484795.989349365 0 0 0 0 203860802.47177029 74884433.489671707 0 74884433.489671707 23508349.108322144 0 0 0 0 166254100.59949017 -42079489.608200073 0 -42079489.608200073 85410154.75037384 0 0 0 0 176431018.50687599 -29622666.724983215 0 -29622666.724983215 21737384.460441589 0 0 0 0 201503947.44763565 32205502.667633057 0 32205502.667633057 128874548.03894806 0 0 0 0 519964501.81427765 268468423.50229263 0 268468423.50229263 -63733826.3853302 0 0 0 0 128173904.42902696 228328324.67991912 0 228328324.67991912 -49950108.628723145 0 0 0 0 127512118.33289909 39803409.677101135 0 39803409.677101135 7997688.0806655884 0 0 0 0 -383822967.60172486 456035933.47577667 0 456035933.47577667 108705576.10162354 0 0 0 0 23650063.931680679 236600975.60175323 0 236600975.60175323 -20514186.557296753 0 0 0 0 141832469.28131294 560941550.67556 0 560941550.67556 -76363364.669036865 0 0 0 0 245584906.6729393 463705433.46841431 0 463705433.46841431 -39799084.272052765 0 0 0 0 202874889.9589448 438741531.95131302 0 438741531.95131302 -8673464.1067352295 0 0 0 0 747059710.22413158 490105300.42267609 0 490105300.42267609 -15514634.581890106 0 0 0 0 2019279.3558881171 1312135.273263691 0 1312135.273263691 -424503.43715476617 0 0 0 0 -20849437.14330864 280325435.89699173 0 280325435.89699173 -6912586.8945045471 0 0 0 0 256468476.79643726 -356048422.25224304 0 -356048422.25224304 -390730557.58267212 0 0 0 0 -125063157.03943324 792282990.70214272 0 792282990.70214272 -346456870.59386444 0 0 0 0 -239881439.48976305 765960727.72668266 0 765960727.72668266 -7606889.0855865479 0 0 0 0 135374199.09408271 604047883.39905167 0 604047883.39905167 -409283130.54576111 0 0 0 0 134510611.06594837 702395124.27369881 0 702395124.27369881 18908881.374923706 0 0 0 0 -710559.84395074844 99447695.47290802 0 99447695.47290802 -897805804.39962769 0 0 0 0 75736430.406627178 66567452.49048233 0 66567452.49048233 -18242094.542320251 0 0 0 0 56134602.455587864 13915231.288597107 0 13915231.288597107 -86217098.984523773 0 0 0 0 149181997.94771323 655744486.5829556 0 655744486.5829556 191687168.86484528 0 0 0 0 15241552.58884573 -13580752.856742859 0 -13580752.856742859 -42533803.592926025 0 0 0 0 21451139.291999817 28651995.512512207 0 28651995.512512207 3520925.796049118 0 0 0 0 10465837.356445312 14825995.087968826 0 14825995.087968826 -29277412.173267365 0 0 0 0 412806.13935998274 7445122.5298118107 0 7445122.5298118107 -977512.08628484607 0 0 0 0 -1016630.1150460448 12345867.553051788 0 12345867.553051788 9972969.7049103715 0 0 0 0 -9078183.125494957 -3503143.9021854401 0 -3503143.9021854401 -15984689.481456757 0 0 0 0 208356096.37820196 507162157.43832016 0 507162157.43832016 -356182010.39694595 0 0 0 0 -182520833.06235147 -153705682.24662781 0 -153705682.24662781 401158065.39028168 0 0 0 0 34794011.802481174 24829386.023078918 0 24829386.023078918 47466585.168514252 0 0 0 0 -4510300.3207406998 40787263.748477936 0 40787263.748477936 114380137.34718704 0 0 0 0 -687590.80183933931 -1485516.0162209198 0 -1485516.0162209198 5204438.5183397532 0 0 0 0 -39508468.784193039 42712782.733764648 0 42712782.733764648 5280641.4168014526 0 0 0 0 -5788296.785041674 8889074.0712027214 0 8889074.0712027214 22970865.532763019 0 0 0 0 -167094662.22549248 28896222.562171936 0 28896222.562171936 62641735.184200287 0 0 0 0 -47357058.792149901 55150980.099020004 0 55150980.099020004 17673163.738777161 0 0 0 0 135659011.01748991 127261687.51631546 0 127261687.51631546 44108556.367473602 0 0 0 0 303221628.15977669 218629232.64255524 0 218629232.64255524 82858432.846244812 0 0 0 0 52908912.601226807 182671316.7897377 0 182671316.7897377 172534187.9286499 0 0 0 0 110620078.28196526 162156127.06871033 0 162156127.06871033 197668848.35320282 0 0 0 0 30987235.06842804 190425602.54252625 0 190425602.54252625 187642636.01555252 0 0 0 0 173859952.27487659 215487356.8924675 0 215487356.8924675 223995968.85831451 0 0 0 0 55343525.942184925 194312584.66717529 0 194312584.66717529 221591650.67852783 0 0 0 0 301110874.93159103 -35586648.753559113 0 -35586648.753559113 -781516848.64699554 0 0 0 0 -31912777.229897499 56868401.549488068 0 56868401.549488068 315890419.7756691 0 0 0 0 648563.87750825845 -2168534.4743157849 0 -2168534.4743157849 1167082.379950189 0 0 0 0 104948002.18073845 159750382.84197235 0 159750382.84197235 200325328.30549622 0 0 0 0 55627269.933461189 173181082.44249535 0 173181082.44249535 465414588.29224396 0 0 0 0 98355879.206027508 168091497.12470818 0 168091497.12470818 297443992.05609131 0 0 0 0 251027704.55813026 80159482.283298492 0 80159482.283298492 115507760.30891418 0 0 0 0 199786079.26680374 257432922.43057251 0 257432922.43057251 366504626.7133255 0 0 0 0 359008491.56902885 201597734.65057373 0 201597734.65057373 225455969.06259155 0 0 0 0 -164661531.58987999 -22566977.549020767 0 -22566977.549020767 19959240.208404541 0 0 0 0 -20395802.340265352 -7045810.1278280579 0 -7045810.1278280579 76378064.909904748 0 0 0 0 234195732.71646404 197803874.86898041 0 197803874.86898041 177923989.87902069 0 0 0 0 -144783594.68245518 -54827245.681389928 0 -54827245.681389928 11080938.008834839 0 0 0 0 208238052.82677174 166905938.00343895 0 166905938.00343895 242452618.38096619 0 0 0 0 -224836546.62682343 -52604737.875362396 0 -52604737.875362396 30568241.188137054 0 0 0 0 -317365516.85118103 -353553034.11258507 0 -353553034.11258507 -246694779.60176468 0 0 0 0 -13014686.001893997 76452778.825191498 0 76452778.825191498 -99775722.745502472 0 0 0 0 -232569096.08818722 -11426030.22755146 0 -11426030.22755146 51769952.904403687 0 0 0 0 188948344.09784722 80019050.695028305 0 80019050.695028305 100396501.12675476 0 0 0 0 71923530.308375835 221132165.72935867 0 221132165.72935867 169402388.20294189 0 0 0 0 -115654588.90786672 208779997.23927307 0 208779997.23927307 241368545.48428345 0 0 0 0 -183194030.94430932 204580376.81511211 0 204580376.81511211 261427170.22109985 0 0 0 0 -120019719.86228466 -19985388.765190125 0 -19985388.765190125 108034942.195611 0 0 0 0 -384931048.62333012 48028492.353668213 0 48028492.353668213 254866082.81660461 0 0 0 0 -320836877.74945068 -400645063.16083527 0 -400645063.16083527 -30697440.918731689 0 0 0 0 -152295338.76708221 -148378823.89603424 0 -148378823.89603424 198592379.80099487 0 0 0 0 -1875841.488889724 -430431.45927229989 0 -430431.45927229989 2473010.9672718197 0 0 0 0 -18790502.390835769 -10240212.582074067 0 -10240212.582074067 79866949.635397941 0 0 0 0 -499809730.8224206 294690188.10474396 0 294690188.10474396 228901263.91397095 0 0 0 0 -450384503.98458862 228009214.22920227 0 228009214.22920227 318292070.93869019 0 0 0 0 -404532866.81582558 462965041.74708939 0 462965041.74708939 -58139391.387817383 0 0 0 0 -51047706.151199341 -129046990.39722443 0 -129046990.39722443 126326547.1945343 0 0 0 0 -43676863.256271362 81303548.848228455 0 81303548.848228455 -377535867.76690292 0 0 0 0 -135213968.73844528 -117330053.20016861 0 -117330053.20016861 173994003.54859543 0 0 0 0 -139455321.97777557 -112484028.4561348 0 -112484028.4561348 168589929.93548584 0 0 0 0 -157916751.80932617 -151996018.57168961 0 -151996018.57168961 232187971.18400574 0 0 0 0 -138629131.52822495 -107362312.88158798 0 -107362312.88158798 200115742.8516407 0 0 0 0 -134379291.04814911 -149953622.04653549 0 -149953622.04653549 359693840.06908798 0 0 0 0 11398443.863853455 -199415863.72430515 0 -199415863.72430515 231193181.60332489 0 0 0 0 -192677437.19018936 -29566036.085607529 0 -29566036.085607529 93481927.33454895 0 0 0 0 -2695122.7373971278 4660940.7888730923 0 4660940.7888730923 14095532.228334323 0 0 0 0 -87545007.540112734 82072541.39950943 0 82072541.39950943 83915365.345420837 0 0 0 0 142696492.69505918 266632658.6444931 0 266632658.6444931 150327762.03227997 0 0 0 0 429561635.50004363 205643146.28168488 0 205643146.28168488 154544180.58227682 0 0 0 0 85982668.685294867 205836812.66554642 0 205836812.66554642 166356467.03189564 0 0 0 0 -224449636.61392194 336998063.03005791 0 336998063.03005791 384427518.99383545 0 0 0 0 -7513747.8089120984 502201368.5389843 0 502201368.5389843 277635852.79046631 0 0 0 0 -194190590.68297648 279228973.30584717 0 279228973.30584717 102354579.94610596 0 0 0 0 -101665977.3709414 -383345055.75352478 0 -383345055.75352478 -450864170.7609005 0 0 0 0 84002931.185844421 122413264.35227966 0 122413264.35227966 153290346.22067261 0 0 0 0 -152063695.47454643 169915495.23956299 0 169915495.23956299 -533197255.11245728 0 0 0 0 -169830905.58337143 190293916.78708458 0 190293916.78708458 189844535.04559326 0 0 0 0 -195590138.58667266 -468503647.6852417 0 -468503647.6852417 -10253543.032363892 0 0 0 0 80927388.892704725 641344486.40345383 0 641344486.40345383 1266163102.6108398 0 0 0 0 332956043.11526489 384377361.62007904 0 384377361.62007904 351694172.31025696 0 0 0 0 1315428372.6103725 710862372.43177795 0 710862372.43177795 190644429.69264221 0 0 0 0 -86705618.264646053 -271978681.02267075 0 -271978681.02267075 396802934.14453888 0 0 0 0 -748267.34769764123 1873850.7154606017 0 1873850.7154606017 4865296.007025443 0 0 0 0 487984757.8357563 650501928.63789749 0 650501928.63789749 558739611.53717041 0 0 0 0 62314319.413766861 -551169527.51152802 0 -551169527.51152802 1587153138.7689571 0 0 0 0 91849000.460010529 329386169.27375793 0 329386169.27375793 -224286943.94224548 0 0 0 0 875840777.35159159 -114077741.22667313 0 -114077741.22667313 644874.40783691406 0 0 0 0 -290362313.9866333 -15135691.388511658 0 -15135691.388511658 113237493.70002747 0 0 0 0 -560133983.09943628 -738900602.19791031 0 -738900602.19791031 226080789.54451752 0 0 0 0 -701837606.98939514 -426524072.90552521 0 -426524072.90552521 227094135.06384277 0 0 0 0 -14352063.822019614 -15641531.25760043 0 -15641531.25760043 76042013.962184966 0 0 0 0 -749128853.88175392 -382002053.10370636 0 -382002053.10370636 493848773.05448151 0 0 0 0 -544627744.38013172 -150011912.77049255 0 -150011912.77049255 623851821.33226776 0 0 0 0 -12225137.965555191 -223755914.34107208 0 -223755914.34107208 469710334.89306641 0 0 0 0 -597757758.95863771 -625327655.3244524 0 -625327655.3244524 603147416.15814209 0 0 0 0 -227904783.76691842 -292087942.26382446 0 -292087942.26382446 921120172.59512329 0 0 0 0 -183371172.77209693 -590239129.31903458 0 -590239129.31903458 511691922.17868042 0 0 0 0 -248143439.02626801 -19279299.876403809 0 -19279299.876403809 76560043.005054474 0 0 0 0 -220407392.15550995 22289879.819610596 0 22289879.819610596 26778947.396793365 0 0 0 0 -675852041.07700634 -267386822.51708221 0 -267386822.51708221 -1462892128.890625 0 0 0 0 -650703139.56199265 -223544401.52424622 0 -223544401.52424622 111919633.34408569 0 0 0 0 -5783057.7907621656 -2143859.9049991295 0 -2143859.9049991295 7424506.7239327356 0 0 0 0 -10016792.913156165 -2646710.5045884103 0 -2646710.5045884103 77321950.689127684 0 0 0 0 -190674705.8187356 -243097245.08237457 0 -243097245.08237457 -49568732.68737793 0 0 0 0 -20653258.519465923 -318129110.05960846 0 -318129110.05960846 -549582823.42004395 0 0 0 0 34780279.406252652 -54677331.855048418 0 -54677331.855048418 -92052433.183273315 0 0 0 0 224022115.36813354 139416976.89896393 0 139416976.89896393 45075066.375801086 0 0 0 0 -153718388.76692581 -5456378.5212745667 0 -5456378.5212745667 185068917.29898548 0 0 0 0 -54158075.294342041 19641743.183344841 0 19641743.183344841 246048660.92596436 0 0 0 0 -105749381.91596603 -45614988.517490387 0 -45614988.517490387 163508053.58596039 0 0 0 0 -149414981.98194885 -44217596.309074402 0 -44217596.309074402 191654785.87485695 0 0 0 0 -114573929.51859093 -9427439.4621424675 0 -9427439.4621424675 120937842.88780975 0 0 0 0 -170663080.38818169 17516143.59106636 0 17516143.59106636 43772389.81048584 0 0 0 0 -309004789.32458115 79185392.080265045 0 79185392.080265045 86721015.476486206 0 0 0 0 -229178292.06363297 -7070625.1307449341 0 -7070625.1307449341 141601571.03752136 0 0 0 0 -186657793.19275284 7306563.5734462738 0 7306563.5734462738 100333958.0287323 0 0 0 0 -244751386.09649658 27260415.210235596 0 27260415.210235596 128957341.63626862 0 0 0 0 -180154014.5577507 28197216.514707565 0 28197216.514707565 157636284.90549278 0 0 0 0 -199301211.09324265 82412127.906832218 0 82412127.906832218 72065152.615402222 0 0 0 0 -202287462.63157272 73972341.085891724 0 73972341.085891724 49564867.63130188 0 0 0 0 -186560935.86153364 37826184.67699194 0 37826184.67699194 119324163.91919708 0 0 0 0 -218484501.03231049 39414429.484714508 0 39414429.484714508 133039459.51818657 0 0 0 0 -107514023.13092232 62742874.489212036 0 62742874.489212036 111094106.70276642 0 0 0 0 -85722987.917824268 -34095932.315530062 0 -34095932.315530062 221681685.33356094 0 0 0 0 -9041359.3719730377 -12386639.888804436 0 -12386639.888804436 191368598.18487167 0 0 0 0 8595685.4951639175 -80668079.365809917 0 -80668079.365809917 222346011.12702179 0 0 0 0 123377282.46539021 33584271.601270676 0 33584271.601270676 281245605.5575676 0 0 0 0 242500935.62735271 113326456.28583908 0 113326456.28583908 213170573.60131073 0 0 0 0 -44527668.627072334 18639281.381025314 0 18639281.381025314 341583403.81504059 0 0 0 0 460613914.92579031 502947433.7773037 0 502947433.7773037 509984786.07728386 0 0 0 0 145768005.86820269 204629435.24373722 0 204629435.24373722 241215734.78491211 0 0 0 0 836746692.91615582 320552463.46306992 0 320552463.46306992 11634593.048957586 0 0 0 0 111221151.05326653 61489604.766635895 0 61489604.766635895 45377599.683364868 0 0 0 0 1555678.2103169584 1610832.0761899594 0 1610832.0761899594 825447.66312799975 0 0 0 0 -4850909.3266000748 -180241264.78803635 0 -180241264.78803635 751618149.27415466 0 0 0 0 20352815.712867737 422194348.60614395 0 422194348.60614395 943975667.61486673 0 0 0 0 876090005.59209442 140492153.7914238 0 140492153.7914238 241342541.53410721 0 0 0 0 -48340504.16199398 70413672.460008621 0 70413672.460008621 793757289.35129642 0 0 0 0 340569754.2117238 -135213266.7843399 0 -135213266.7843399 -202301549.35512924 0 0 0 0 187302.66122967564 -2875693.8325459138 0 -2875693.8325459138 1915578.3282261062 0 0 0 0 -71116283.884539366 119940294.6513176 0 119940294.6513176 269551966.57113647 0 0 0 0 -1699771.1532974243 45240520.268354416 0 45240520.268354416 115778587.979743 0 0 0 0 -6501245.0473079681 36347012.147386551 0 36347012.147386551 124071494.0242033 0 0 0 0 -8286544.9071159363 -72224964.981155396 0 -72224964.981155396 9171227.1501235962 0 0 0 0 41144916.582207203 6886842.7375178337 0 6886842.7375178337 -38748354.327415466 0 0 0 0 -82940358.593812943 -175494172.20395279 0 -175494172.20395279 -160685273.38242722 0 0 0 0 -134106334.31280518 -39691546.57611084 0 -39691546.57611084 15804478.210987091 0 0 0 0 78689606.835345268 -19546232.583705425 0 -19546232.583705425 -11571674.143226624 0 0 0 0 -43614253.3655653 64734641.455226898 0 64734641.455226898 179610041.7701149 0 0 0 0 -19216678.860385895 -130963109.23412895 0 -130963109.23412895 167602725.80092049 0 0 0 0 -348652.8794518169 -1829556.9243068397 0 -1829556.9243068397 1257437.3042039089 0 0 0 0 -186945452.97979927 1223237.4966125488 0 1223237.4966125488 328876441.7467289 0 0 0 0 91282909.718882203 31168508.298067093 0 31168508.298067093 121836252.88824081 0 0 0 0 102940640.50381136 -28846013.366937637 0 -28846013.366937637 3348703.2694978714 0 0 0 0 35534217.109375954 8548218.9676809311 0 8548218.9676809311 102607373.97046852 0 0 0 0 -379622.73949833843 -310035.13573360257 0 -310035.13573360257 1503684.0791683067 0 0 0 0 62138476.676017106 57313062.299601555 0 57313062.299601555 43007347.238147736 0 0 0 0 99106920.725565434 108464388.51902485 0 108464388.51902485 208863459.19353294 0 0 0 0 112474371.00102568 178695086.64273071 0 178695086.64273071 252389357.45866489 0 0 0 0 -24451299.223696709 88055857.619470596 0 88055857.619470596 278706812.07563925 0 0 0 0 7778812.7930111885 75472431.461392403 0 75472431.461392403 121732342.86642456 0 0 0 0 -22299039.277339935 60789056.678426743 0 60789056.678426743 49743613.35616684 0 0 0 0 41355312.852713585 -78473187.184711456 0 -78473187.184711456 93102426.227701187 0 0 0 0 -4918150.8854866028 276498645.94992447 0 276498645.94992447 410840337.95550728 0 0 0 0 -38548073.959668159 15439114.034080505 0 15439114.034080505 556939614.1181488 0 0 0 0 99267377.314175367 277691642.58197975 0 277691642.58197975 328033986.26105881 0 0 0 0 399293.24153881893 -2277664.7693581302 0 -2277664.7693581302 1624662.5300286692 0 0 0 0 267849426.88940144 171189887.70039749 0 171189887.70039749 -14772585.418048859 0 0 0 0 -24289.704954561777 -1069503.6748093031 0 -1069503.6748093031 861286.91820199974 0 0 0 0 129314589.7834816 342889719.36568451 0 342889719.36568451 438483452.78802299 0 0 0 0 26626500.837807894 251480674.45310688 0 251480674.45310688 347498904.63501167 0 0 0 0 63588080.722354829 120939392.08954811 0 120939392.08954811 230542062.38874435 0 0 0 0 266088181.75393486 232012501.43313599 0 232012501.43313599 224252573.28964972 0 0 0 0 159437839.03507626 150566050.88032341 0 150566050.88032341 157099708.61359596 0 0 0 0 149944409.84681535 138946427.98324108 0 138946427.98324108 279789376.93227386 0 0 0 0 168829135.20027566 230091188.07608414 0 230091188.07608414 273264556.3877449 0 0 0 0 155284608.14147091 212195731.2928257 0 212195731.2928257 250220818.27338696 0 0 0 0 268523499.63020825 220299365.32468081 0 220299365.32468081 248945949.57418823 0 0 0 0 167456240.76892066 231847696.45833874 0 231847696.45833874 271031088.77987671 0 0 0 0 136074469.28811479 82909222.742809296 0 82909222.742809296 106624129.82357025 0 0 0 0 -16691463.672497928 119536074.0948863 0 119536074.0948863 239841631.25704575 0 0 0 0 31550233.052194595 29973192.135463715 0 29973192.135463715 87745228.046711922 0 0 0 0 16686703.583990812 50026557.096078396 0 50026557.096078396 111565391.68496704 0 0 0 0 -59977151.369562149 14142396.800445557 0 14142396.800445557 146458483.73662186 0 0 0 0 -39780818.063692093 25115192.33624649 0 25115192.33624649 152078442.81653595 0 0 0 0 -134561213.90420687 6748192.8067536354 0 6748192.8067536354 193480771.7371521 0 0 0 0 -193817946.26272297 -165775910.47456169 0 -165775910.47456169 10392771.863918304 0 0 0 0 -218095615.79415798 -13741974.202484131 0 -13741974.202484131 134372451.10570908 0 0 0 0 -77407020.795009136 -98988029.247169495 0 -98988029.247169495 -31443917.115768433 0 0 0 0 -47687477.974680901 -25449132.376491547 0 -25449132.376491547 89297265.491329193 0 0 0 0 -70976497.665148735 -10018453.46321106 0 -10018453.46321106 116160783.43563271 0 0 0 0 -100636696.97417331 1727049.799580574 0 1727049.799580574 224963515.57577896 0 0 0 0 829528.38551902771 117224215.29542351 0 117224215.29542351 315080614.80964279 0 0 0 0 130549850.29084015 143225070.71400833 0 143225070.71400833 184392529.77247047 0 0 0 0 -36700927.764997959 -112373335.48610306 0 -112373335.48610306 240765615.74577618 0 0 0 0 115814294.99513268 -170952213.43799019 0 -170952213.43799019 625620887.17007446 0 0 0 0 144435646.47447348 216983403.50260544 0 216983403.50260544 357903617.08765793 0 0 0 0 327939205.16811299 306713376.22780466 0 306713376.22780466 378976228.56831741 0 0 0 0 -47363287.239286423 117311274.54512596 0 117311274.54512596 176817155.79934502 0 0 0 0 -60895951.537666321 -148786614.16211319 0 -148786614.16211319 -83496413.406230927 0 0 0 0 -1749321.7802660652 -232240.39580449555 0 -232240.39580449555 2144857.0811724029 0 0 0 0 -228773484.68706512 -111962810.30661774 0 -111962810.30661774 117800510.71031952 0 0 0 0 -114504407.08879852 -46687883.268493652 0 -46687883.268493652 9476291.9561805725 0 0 0 0 -48550270.046882629 -41671597.335609436 0 -41671597.335609436 7927552.8467559814 0 0 0 0 -3872448.5302391052 -61646452.177833557 0 -61646452.177833557 -21727917.775901794 0 0 0 0 -182285351.47231483 -95239025.690322876 0 -95239025.690322876 2733091.5288925171 0 0 0 0 -3006678.6028100196 -675608.7525546914 0 -675608.7525546914 4024621.3376536295 0 0 0 0 -103804263.3729248 -90328333.511566162 0 -90328333.511566162 -16827131.017028809 0 0 0 0 -45580332.744735718 -86817224.86050415 0 -86817224.86050415 -17342070.916854858 0 0 0 0 -145178915.03986132 -67672772.607885361 0 -67672772.607885361 13083192.301727295 0 0 0 0 -44486895.605984688 24266359.298667908 0 24266359.298667908 -24887373.071567535 0 0 0 0 24258393.317975044 24718676.841493607 0 24718676.841493607 41293445.604888916 0 0 0 0 -36721911.319921494 -57120099.442304611 0 -57120099.442304611 60172924.272535324 0 0 0 0 -27534450.642280102 -27698923.636192322 0 -27698923.636192322 128045772.21298981 0 0 0 0 -36201744.126955032 -70739983.267612457 0 -70739983.267612457 107443009.74694061 0 0 0 0 -185520.16254997253 -50663702.666351318 0 -50663702.666351318 114417250.19509697 0 0 0 0 -58556957.775681496 -90939671.981773376 0 -90939671.981773376 110982638.27413177 0 0 0 0 -52420087.638654709 -46913694.560676575 0 -46913694.560676575 106660980.34684372 0 0 0 0 -90816768.079345703 -48591957.424777985 0 -48591957.424777985 134066467.22010994 0 0 0 0 -110030717.7615912 -68774606.495358944 0 -68774606.495358944 112867142.52016449 0 0 0 0 -42844803.129189014 -106463736.38762474 0 -106463736.38762474 -142179819.27696991 0 0 0 0 -119636910.45171928 -64936029.430770874 0 -64936029.430770874 111595407.54182434 0 0 0 0 -84043136.41565752 -106153051.25055122 0 -106153051.25055122 8223811.9918670654 0 0 0 0 -17452877.077991486 -35062758.985183716 0 -35062758.985183716 -15092910.011584282 0 0 0 0 -12296238.192045212 -35068973.355646133 0 -35068973.355646133 19288518.616142273 0 0 0 0 1934781.6747349566 -6489017.6689243987 0 -6489017.6689243987 -17953446.099852309 0 0 0 0 -17380776.929870605 -37597125.803970337 0 -37597125.803970337 18234944.690238953 0 0 0 0 95016320.232741117 -33495137.880028725 0 -33495137.880028725 83878547.859298706 0 0 0 0 -18662299.880608141 -9355669.7292292975 0 -9355669.7292292975 57879261.357026689 0 0 0 0 -27842452.415874004 -53434442.814872265 0 -53434442.814872265 223996056.67607117 0 0 0 0 -46436811.90691185 -300411090.22108459 0 -300411090.22108459 100860854.52569199 0 0 0 0 -152605835.60964584 -119157918.70554352 0 -119157918.70554352 -106218472.31687546 0 0 0 0 -196585.79127935134 -2354296.1665422637 0 -2354296.1665422637 -4743481.0473671593 0 0 0 0 -94845683.464797974 -47119716.344875336 0 -47119716.344875336 263357279.48498917 0 0 0 0 75677652.626598358 -190394461.20157623 0 -190394461.20157623 130480921.4032135 0 0 0 0 167919291.01335907 -39336735.104406357 0 -39336735.104406357 -321435726.57250977 0 0 0 0 -123820336.17742157 28547729.55329895 0 28547729.55329895 113945732.64100647 0 0 0 0 70428965.674377441 -129279802.5954113 0 -129279802.5954113 81840340.526855469 0 0 0 0 -21149317.465600662 -6183348.7987345494 0 -6183348.7987345494 70645515.673697308 0 0 0 0 253409589.6272133 158486518.75492465 0 158486518.75492465 -14380226.644447327 0 0 0 0 -285471255.69426346 -99138424.481445312 0 -99138424.481445312 145170998.09095001 0 0 0 0 -314473826.92156601 67329936.81092453 0 67329936.81092453 127835008.08402634 0 0 0 0 159517883.9665947 44438303.874462128 0 44438303.874462128 109213307.7062149 0 0 0 0 90580952.312196732 -5513207.5662250519 0 -5513207.5662250519 73287422.484760284 0 0 0 0 161263393.05303574 -2555204.3670463562 0 -2555204.3670463562 82645071.759577751 0 0 0 0 157865174.33294106 -8955864.3233795166 0 -8955864.3233795166 72827101.894541264 0 0 0 0 150655920.76259613 -20705173.660839081 0 -20705173.660839081 89378070.668075562 0 0 0 0 150952048.79784775 -26250161.437229156 0 -26250161.437229156 70102707.598098755 0 0 0 0 120850381.28508091 -29934171.125915527 0 -29934171.125915527 63076074.830451965 0 0 0 0 12364339.26598338 2183943.5490582958 0 2183943.5490582958 17485057.630836472 0 0 0 0 -99490420.35257411 34368981.901184082 0 34368981.901184082 355179211.6423912 0 0 0 0 -51073790.634942532 -15699562.403402328 0 -15699562.403402328 406741374.10833931 0 0 0 0 2213763.7060899734 -93663487.082126617 0 -93663487.082126617 273958755.94237518 0 0 0 0 16253984.789952755 30587241.526807785 0 30587241.526807785 255589356.89260864 0 0 0 0 -19995408.597129822 8038098.8472328186 0 8038098.8472328186 399717584.65897274 0 0 0 0 50524445.246814728 -299013330.66752815 0 -299013330.66752815 558302598.19238663 0 0 0 0 216047.77261051303 729958.96918702219 0 729958.96918702219 1060697.6948996 0 0 0 0 -143460580.46874905 190729756.49391937 0 190729756.49391937 914345302.3850174 0 0 0 0 73289536.136383295 355981551.51954699 0 355981551.51954699 96714464.620391846 0 0 0 0 42461120.779545784 472375731.48792458 0 472375731.48792458 707130501.98148727 0 0 0 0 -27755971.274256229 30173965.576814651 0 30173965.576814651 -60263111.486878157 0 0 0 0 -51317984.896799088 -19521197.146606445 0 -19521197.146606445 -70824528.487926483 0 0 0 0 -17455103.490368195 -22416023.723311961 0 -22416023.723311961 55271487.755545385 0 0 0 0 -940203.91450424027 1462373.8689678237 0 1462373.8689678237 10630168.929104485 0 0 0 0 -142430904.82249165 -6121066.3127555847 0 -6121066.3127555847 89540917.434156895 0 0 0 0 24773984.543492436 -145902539.86420059 0 -145902539.86420059 20711455.069229126 0 0 0 0 -12835616.947668126 -27665479.115189109 0 -27665479.115189109 32777896.102924708 0 0 0 0 -7681184.0039048195 117169465.81168842 0 117169465.81168842 -23204421.651603699 0 0 0 0 -88754997.690543175 -28342996.344284058 0 -28342996.344284058 517117535.7986412 0 0 0 0 5336728.1855250252 -6565436.7895829165 0 -6565436.7895829165 -7536251.4918965623 0 0 0 0 379477558.34308529 17372145.007228851 0 17372145.007228851 971248815.69337463 0 0 0 0 307405132.29133725 319106735.0488205 0 319106735.0488205 296419318.47650528 0 0 0 0 36842351.273683071 -86914038.373636246 0 -86914038.373636246 56281231.232200623 0 0 0 0 123622375.55759144 -24208991.530667305 0 -24208991.530667305 -45007043.61555481 0 0 0 0 265433494.41297102 218665673.83768272 0 218665673.83768272 142094905.9696846 0 0 0 0 -21124239.436369896 18823731.452821732 0 18823731.452821732 51086958.9272995 0 0 0 0 -13081457.718086243 253374364.41994858 0 253374364.41994858 444553344.79640388 0 0 0 0 86944431.471350193 119702761.66194344 0 119702761.66194344 101641957.63527107 0 0 0 0 -115877143.24030209 97572538.038087845 0 97572538.038087845 276761177.12077713 0 0 0 0 -123360686.02405667 17981425.856814265 0 17981425.856814265 635541555.12974167 0 0 0 0 874824.65987111814 -678093.98126827553 0 -678093.98126827553 589959.51803656295 0 0 0 0 -15998069.832797766 61672901.707091093 0 61672901.707091093 -38332987.859947205 0 0 0 0 27127088.175795555 32197601.951873779 0 32197601.951873779 -32796812.888059616 0 0 0 0 574268.13858083542 368543.25545016117 0 368543.25545016117 194652.67152081989 0 0 0 0 9823183.6264576912 -10402557.188138962 0 -10402557.188138962 -57637122.017539978 0 0 0 0 936573.74517250061 1574443.0430641174 0 1574443.0430641174 -581807.158618927 0 0 0 0 -225584.42092653224 -953524.53567579389 0 -953524.53567579389 976736.84422822203 0 0 0 0 39721859.673099279 -14886403.516343117 0 -14886403.516343117 -45962997.86268425 0 0 0 0 -96535.677494049072 -688710.21841430664 0 -688710.21841430664 -1215789.8483657837 0 0 0 0 1242344.7748699007 1246673.8764733225 0 1246673.8764733225 1639681.2450714633 0 0 0 0 -87909.057865142822 762086.51531410217 0 762086.51531410217 -494494.89124751091 0 0 0 0 -11514624.864505768 -11772308.606464386 0 -11772308.606464386 -17784014.115365982 0 0 0 0 646762.21199490863 2130753.4570470806 0 2130753.4570470806 1243790.0929202028 0 0 0 0 45897208.80576992 49010975.041187286 0 49010975.041187286 -71277111.793279648 0 0 0 0 -2929598.1094923019 -1407475.5116081238 0 -1407475.5116081238 12081641.828611374 0 0 0 0 13748.300260441843 -767308.36971869692 0 -767308.36971869692 1096670.7866145214 0 0 0 0 -28707515.598558426 22546593.490175247 0 22546593.490175247 26553835.014209747 0 0 0 0 19532646.139769793 51644758.153143883 0 51644758.153143883 56559712.513595581 0 0 0 0 8615674.9700021744 -23220351.997615814 0 -23220351.997615814 107211123.51428986 0 0 0 0 85783083.808568001 -30621343.9899683 0 -30621343.9899683 36935403.410388947 0 0 0 0 47921048.575296879 9722360.8707256317 0 9722360.8707256317 252648480.15995026 0 0 0 0 52459213.678246915 21351359.74476862 0 21351359.74476862 137601693.11683655 0 0 0 0 274065.88976668043 1562421.0111391968 0 1562421.0111391968 2571942.5897121355 0 0 0 0 -61361465.023600578 -27047560.964010239 0 -27047560.964010239 35755640.431789398 0 0 0 0 1750923.588859722 -45590192.476754621 0 -45590192.476754621 92618011.453792572 0 0 0 0 -17608509.476325035 53000897.23456192 0 53000897.23456192 61251531.812082291 0 0 0 0 -82701305.414566755 31244426.637434006 0 31244426.637434006 59609287.175003052 0 0 0 0 129564473.29572085 -157415584.13154244 0 -157415584.13154244 -55550828.912826538 0 0 0 0 -46938304.141932011 -84910549.234764099 0 -84910549.234764099 155623845.38566017 0 0 0 0 110338622.67207479 -25790731.601521492 0 -25790731.601521492 122409079.21483612 0 0 0 0 -4957781.2816463709 -143730675.76947117 0 -143730675.76947117 -7414404.1801147461 0 0 0 0 -175281278.85426235 -129651287.85625839 0 -129651287.85625839 2414687.8240604401 0 0 0 0 -115060200.42052078 -231585468.07674408 0 -231585468.07674408 -65944540.549775124 0 0 0 0 102681010.55187845 -284639702.61076784 0 -284639702.61076784 157661472.53236008 0 0 0 0 -12595630.631668244 -26215744.245438918 0 -26215744.245438918 37367684.7380808 0 0 0 0 -92946632.804964781 -149891279.92527771 0 -149891279.92527771 -49225563.207077026 0 0 0 0 -114437048.48733377 -149959875.82420158 0 -149959875.82420158 87828815.211021423 0 0 0 0 -136980352.36425114 -154892274.99608231 0 -154892274.99608231 -5505345.0211191177 0 0 0 0 -258624126.2984848 157670609.98866653 0 157670609.98866653 367267177.08552551 0 0 0 0 25883908.862521172 155215492.14649963 0 155215492.14649963 365125946.96006966 0 0 0 0 -133342593.34697485 -69416723.605311394 0 -69416723.605311394 395108468.91691589 0 0 0 0 -66955049.551008701 128897618.83238411 0 128897618.83238411 510023376.37397003 0 0 0 0 640287.57533355476 -160163.52576635219 0 -160163.52576635219 65672.116750456393 0 0 0 0 -43454619.968679428 65568659.176387787 0 65568659.176387787 -99318996.322498322 0 0 0 0 13210808.531424999 -44959972.530433655 0 -44959972.530433655 135239843.58479691 0 0 0 0 18322475.004496574 15287433.156694412 0 15287433.156694412 -8388928.9999771118 0 0 0 0 61509601.729943275 -5507820.079875946 0 -5507820.079875946 -10327720.970609188 0 0 0 0 81981.223576316144 1700670.3227654197 0 1700670.3227654197 3254481.9734373726 0 0 0 0 19306369.54899025 -54175835.728232384 0 -54175835.728232384 28695769.201408386 0 0 0 0 780133065.70111084 -214654533.01787567 0 -214654533.01787567 70533463.844654083 0 0 0 0 138100898.38379908 536610436.09296703 0 536610436.09296703 191109610.22294116 0 0 0 0 -13838800.35495073 -23867236.830535281 0 -23867236.830535281 38659775.340529367 0 0 0 0 -27877420.250198364 -197993379.91516685 0 -197993379.91516685 -232929877.15756607 0 0 0 0 63123684.801953793 41078537.304577827 0 41078537.304577827 127385089.4200058 0 0 0 0 -8735713.9716565609 -11117849.552219391 0 -11117849.552219391 -102858176.19833755 0 0 0 0 -93874634.86484313 -140395135.21491051 0 -140395135.21491051 -40466705.935256958 0 0 0 0 43520514.635904312 27417790.318850517 0 27417790.318850517 48266579.324132442 0 0 0 0 48499914.031728745 23082180.815138817 0 23082180.815138817 19419232.312854767 0 0 0 0 41472282.568155289 43654916.120890617 0 43654916.120890617 40692614.217586517 0 0 0 0 28878120.772168159 40564737.133979321 0 40564737.133979321 96783319.309612274 0 0 0 0 29679312.296046257 36767579.177093506 0 36767579.177093506 97583566.320344925 0 0 0 0 29344872.615548134 36905660.667018533 0 36905660.667018533 130299211.28739738 0 0 0 0 44278748.394155145 57640066.461321473 0 57640066.461321473 110370936.25814247 0 0 0 0 1833009.408479475 4276035.1399556678 0 4276035.1399556678 8937899.5640878789 0 0 0 0 83506355.904604435 64763048.631184578 0 64763048.631184578 50357416.472969532 0 0 0 0 -57518617.940558434 -26276917.097885132 0 -26276917.097885132 29506067.803764343 0 0 0 0 38664911.36643219 8922266.6164608002 0 8922266.6164608002 15186383.938007355 0 0 0 0 -35237457.239974976 -2534506.5194473267 0 -2534506.5194473267 -16281041.50831604 0 0 0 0 -33860981.305587769 9406136.9969329834 0 9406136.9969329834 -12271294.487573624 0 0 0 0 -32358106.332397461 14052397.496196747 0 14052397.496196747 377808.07905006409 0 0 0 0 -37873595.430549622 -8112328.1504364014 0 -8112328.1504364014 9913726.5233879089 0 0 0 0 -36243380.712799072 -15115755.984886169 0 -15115755.984886169 -6477224.8506851196 0 0 0 0 -38510969.428409576 -15609739.298042297 0 -15609739.298042297 1009740.548915863 0 0 0 0 -21668945.722458035 6817349.5700637102 0 6817349.5700637102 42788286.700775146 0 0 0 0 -40399060.513805389 -7013735.8451499939 0 -7013735.8451499939 26662156.572738647 0 0 0 0 -21745729.152236938 4034697.7729797363 0 4034697.7729797363 9656281.8080673218 0 0 0 0 -33178446.193920135 11260632.277751923 0 11260632.277751923 25335464.25592041 0 0 0 0 2061479.4828867912 5501097.6678495407 0 5501097.6678495407 39769481.342010498 0 0 0 0 -5486379.0870132446 -5926681.4065818787 0 -5926681.4065818787 28431017.249694824 0 0 0 0 -11023659.486825466 -13222088.425538063 0 -13222088.425538063 39464878.654975891 0 0 0 0 -25557830.789691925 1585391.0179824829 0 1585391.0179824829 27699946.604579926 0 0 0 0 -10035822.131103516 -13742857.714569092 0 -13742857.714569092 27566113.879778937 0 0 0 0 21258744.740386963 14672388.138076782 0 14672388.138076782 -18863442.90672493 0 0 0 0 -65777592.005350113 12047414.178189039 0 12047414.178189039 31958085.262126923 0 0 0 0 5910215.1910934448 -3016442.2928237915 0 -3016442.2928237915 13427262.664230347 0 0 0 0 76907352.502399445 -10458044.425094604 0 -10458044.425094604 -4224746.7907295227 0 0 0 0 43666196.261797428 -13879063.497729301 0 -13879063.497729301 2617210.0036125183 0 0 0 0 65880174.388479888 43250847.194850683 0 43250847.194850683 45022200.202335358 0 0 0 0 682681.86173716467 651557.13048265688 0 651557.13048265688 -512137.13517123833 0 0 0 0 22674726.916208982 97153146.387358069 0 97153146.387358069 116303372.82266998 0 0 0 0 8058167.9562139511 -17108885.202280045 0 -17108885.202280045 47352514.237926483 0 0 0 0 -8556243.4078197479 -6379991.0857543945 0 -6379991.0857543945 87015569.65422821 0 0 0 0 24055614.714651585 -20874419.241475105 0 -20874419.241475105 -133290096.1797142 0 0 0 0 113464917.81637049 31537904.972996235 0 31537904.972996235 5785283.2638263702 0 0 0 0 530009.43872922705 1068512.6440610173 0 1068512.6440610173 -165926.73593594134 0 0 0 0 38053590.965332985 62122106.919635773 0 62122106.919635773 76761831.994865417 0 0 0 0 50242368.99829483 2033339.254491806 0 2033339.254491806 2103966.541261673 0 0 0 0 30043991.628439665 5998409.0570664406 0 5998409.0570664406 -10727245.409793854 0 0 0 0 11529125.11222887 14266625.892132759 0 14266625.892132759 1757072.9361877441 0 0 0 0 24358670.820690632 19454551.882082462 0 19454551.882082462 -18834584.26190567 0 0 0 0 -21864976.19530201 26043987.775960922 0 26043987.775960922 13301383.450670242 0 0 0 0 -17867833.355217934 35158424.484332085 0 35158424.484332085 25590505.585548401 0 0 0 0 20031500.999451637 49584689.793540478 0 49584689.793540478 34546361.240261078 0 0 0 0 -826154.52093887329 26755056.981063843 0 26755056.981063843 11952173.825300217 0 0 0 0 -10169700.492624283 29635755.205862045 0 29635755.205862045 35678862.16282177 0 0 0 0 4696232.9354400635 19085371.531886101 0 19085371.531886101 30981074.709712982 0 0 0 0 -16845040.337716103 17972427.985975266 0 17972427.985975266 19125126.145195007 0 0 0 0 -33632326.119018555 16549305.3919487 0 16549305.3919487 24429542.087056875 0 0 0 0 808013.57788276672 3360844.153339386 0 3360844.153339386 3194999.6839027405 0 0 0 0 766412.16508975672 5078448.3914934453 0 5078448.3914934453 10547775.138606701 0 0 0 0 -41860415.99407959 14608777.144896507 0 14608777.144896507 16986844.39528656 0 0 0 0 -36412246.202939987 22521829.171684265 0 22521829.171684265 13825177.882888794 0 0 0 0 4680312.4954705648 1021392.6460760667 0 1021392.6460760667 4211037.2833257914 0 0 0 0 21154680.61901474 3259249.9403839111 0 3259249.9403839111 23774514.589036942 0 0 0 0 9774263.6684101298 4885636.7112455033 0 4885636.7112455033 5368845.0812582141 0 0 0 0 -29984364.010398865 19550308.502370834 0 19550308.502370834 5565205.2018508911 0 0 0 0 -3583767.9225273132 -42257799.177896857 0 -42257799.177896857 -151592336.73946118 0 0 0 0 11833111.284757614 -83264.640211999416 0 -83264.640211999416 -137462611.74682832 0 0 0 0 -18636098.910148621 34131870.469116926 0 34131870.469116926 9466695.7278862 0 0 0 0 9557266.8996908199 9867890.5543573052 0 9867890.5543573052 11097447.615649821 0 0 0 0 18752169.775816917 13718757.249353141 0 13718757.249353141 26001928.047299862 0 0 0 0 1652892.5209048192 4031898.0639904956 0 4031898.0639904956 2158774.5724272588 0 0 0 0 7164024.9382410264 1288378.9378324375 0 1288378.9378324375 3025994.3697600085 0 0 0 0 24330089.9801054 67449472.905611992 0 67449472.905611992 -6246937.0771785751 0 0 0 0 8502891.8263826855 -776540.9522694042 0 -776540.9522694042 5319128.2233369304 0 0 0 0 15654361.603755951 10006567.662278175 0 10006567.662278175 15844180.780832291 0 0 0 0 28416469.930206299 20416890.449768066 0 20416890.449768066 19268626.262064934 0 0 0 0 36385309.235040665 13606646.412540436 0 13606646.412540436 24344947.783044815 0 0 0 0 41796691.595230103 2191805.0142211914 0 2191805.0142211914 -2186752.6165962219 0 0 0 0 24713187.542566299 20015679.6882236 0 20015679.6882236 11838068.560862541 0 0 0 0 16527386.917531133 -5081095.823284328 0 -5081095.823284328 7996754.369392395 0 0 0 0 19407994.200198412 20928414.379176617 0 20928414.379176617 31610315.318206787 0 0 0 0 2461502.9444831908 -573659.97427628655 0 -573659.97427628655 -1645664.3681299044 0 0 0 0 2289973.7263195515 3054401.6969919205 0 3054401.6969919205 -11011029.799663544 0 0 0 0 1688108.0508298906 4566696.2308077989 0 4566696.2308077989 4212388.7201242149 0 0 0 0 -3082819.8274190426 -14118142.903298378 0 -14118142.903298378 25451210.984370232 0 0 0 0 -26439349.321852088 12384384.238537788 0 12384384.238537788 17311094.66317749 0 0 0 0 4065142.5057573318 -3708020.2920761108 0 -3708020.2920761108 -21311580.492053986 0 0 0 0 -38904198.256153584 -26790995.933486938 0 -26790995.933486938 -2406845.275428772 0 0 0 0 14648094.410661697 10581437.232922316 0 10581437.232922316 5293787.1561851501 0 0 0 0 -18858262.890852451 1486481.4545173645 0 1486481.4545173645 13979069.489776611 0 0 0 0 -1629311.1870866781 -909804.06102752127 0 -909804.06102752127 1097419.7553460784 0 0 0 0 -17029127.335177183 995288.91357946396 0 995288.91357946396 5749037.1413726807 0 0 0 0 -15857967.793605328 39899006.762779236 0 39899006.762779236 -21741051.131381989 0 0 0 0 16228609.146593094 -37464466.698745728 0 -37464466.698745728 41087476.196627021 0 0 0 0 -34885823.810001969 9019636.1530296803 0 9019636.1530296803 45768174.732702255 0 0 0 0 -25826631.605146408 4396246.7201223373 0 4396246.7201223373 103925404.77926826 0 0 0 0 5122613.5183825493 4338116.5577526093 0 4338116.5577526093 27849954.792678833 0 0 0 0 728141.77179895947 26474.687327130698 0 26474.687327130698 -669879.45534086227 0 0 0 0 39059630.066262722 -35937374.297263145 0 -35937374.297263145 21760951.966508865 0 0 0 0 -13696840.805517733 36028089.558647633 0 36028089.558647633 390453.11948394775 0 0 0 0 -10043411.669142723 9356992.4909439087 0 9356992.4909439087 15495998.908557892 0 0 0 0 971848.88310623169 -17482175.930141449 0 -17482175.930141449 1099589.7868226469 0 0 0 0 1164106.33754376 69021.12473622337 0 69021.12473622337 -1008966.7832955457 0 0 0 0 -5849219.5562188625 -9342974.2053527832 0 -9342974.2053527832 5599904.4138622284 0 0 0 0 -15507635.370896935 -2359079.4184012413 0 -2359079.4184012413 9218359.4944152832 0 0 0 0 -4940191.5772967339 -6860238.4637260437 0 -6860238.4637260437 12354706.69954586 0 0 0 0 22252974.939732075 -1043163.6259040833 0 -1043163.6259040833 5554508.1542053223 0 0 0 0 -47714856.379027843 -2177896.201130867 0 -2177896.201130867 12407235.486290932 0 0 0 0 1035350.4594046199 1001426.2355766483 0 1001426.2355766483 -791648.45042639785 0 0 0 0 -6884410.2578134537 -14884242.185809135 0 -14884242.185809135 5231220.53515625 0 0 0 0 -72780605.978698254 13235096.939723015 0 13235096.939723015 59443102.099380493 0 0 0 0 1261699.3742884395 2573028.7663899255 0 2573028.7663899255 -28275.815033152699 0 0 0 0 -2824924.393185854 -18773963.906075478 0 -18773963.906075478 -14558423.68396759 0 0 0 0 6855223.2238419056 -6982626.4658212662 0 -6982626.4658212662 1555049.9577007294 0 0 0 0 -2572122.8327485323 -17417545.959040165 0 -17417545.959040165 -8040000.7731513977 0 0 0 0 2913892.8676412106 -11010274.275105476 0 -11010274.275105476 -13075509.710617065 0 0 0 0 420120.40938133164 121025.69926077127 0 121025.69926077127 -141958.210138347 0 0 0 0 5317578.7925471663 -1896021.5012936592 0 -1896021.5012936592 -14825873.464393616 0 0 0 0 23794727.002592221 -3920646.3711550236 0 -3920646.3711550236 -15025160.117891312 0 0 0 0 -13642450.734714508 1124544.740152359 0 1124544.740152359 10364267.41427803 0 0 0 0 -84119847.30853641 6764808.1779947281 0 6764808.1779947281 29264665.810268402 0 0 0 0 2455118.189870676 4894523.6432244927 0 4894523.6432244927 2716824.9905169122 0 0 0 0 15407090.358515739 49470890.801206589 0 49470890.801206589 -9181517.332493782 0 0 0 0 47933569.575182885 113576839.58072233 0 113576839.58072233 56184787.594470978 0 0 0 0 180501801.1770848 113560721.87011909 0 113560721.87011909 -54943517.486567497 0 0 0 0 -3460746.13667427 86365043.394903183 0 86365043.394903183 52877330.948713303 0 0 0 0 -84170723.506559372 3880203.0837974548 0 3880203.0837974548 39605433.033158302 0 0 0 0 -6833626.7551722527 73473386.176735878 0 73473386.176735878 102084142.63302994 0 0 0 0 -117967.23837265116 -622980.61242315359 0 -622980.61242315359 -137906.09080182388 0 0 0 0 -183260200.11631489 -59189096.557853699 0 -59189096.557853699 129873242.28636885 0 0 0 0 -14227975.595435679 -43948222.262131214 0 -43948222.262131214 -44121384.389469147 0 0 0 0 -59299630.969330311 -69666536.973484993 0 -69666536.973484993 -30432024.332393646 0 0 0 0 2430745.2452114522 22613113.81188488 0 22613113.81188488 -51302705.810512543 0 0 0 0 36619156.353476882 -241561893.70607376 0 -241561893.70607376 41254396.238147259 0 0 0 0 173012231.35998443 -115887182.70303631 0 -115887182.70303631 3411390.6200065613 0 0 0 0 -55101556.708657742 -33923266.276454926 0 -33923266.276454926 6788236.8337554932 0 0 0 0 -71915194.186909199 716095.11851882935 0 716095.11851882935 -3533725.4059829712 0 0 0 0 -114571135.62507081 -35865892.51460743 0 -35865892.51460743 18153547.21288681 0 0 0 0 228419.97882193932 -536162.5604483746 0 -536162.5604483746 146355.36097910348 0 0 0 0 17847383.819798112 792454.9517621994 0 792454.9517621994 -10099791.738155365 0 0 0 0 137003941.30705202 -99386146.487419128 0 -99386146.487419128 10352068.90749836 0 0 0 0 385326896.12756681 -5829847.1916065216 0 -5829847.1916065216 40562256.53146553 0 0 0 0 329302299.71113139 -234614954.16483593 0 -234614954.16483593 30064276.1475811 0 0 0 0 78490337.335838675 -161350427.35814381 0 -161350427.35814381 392957147.305439 0 0 0 0 186938155.31570792 88343829.164152145 0 88343829.164152145 310371066.24461365 0 0 0 0 1384580.206342685 893540.20154151134 0 893540.20154151134 716156.06796919182 0 0 0 0 168886528.93869126 -261670228.34208012 0 -261670228.34208012 581581839.06667137 0 0 0 0 244989892.71415365 215384025.89054489 0 215384025.89054489 -73240872.246580124 0 0 0 0 80950390.473009408 242251005.3653183 0 242251005.3653183 319867543.28382516 0 0 0 0 164398311.52936244 76942610.350642204 0 76942610.350642204 -104851810.42733765 0 0 0 0 2821858.7240228252 2393445.4250680525 0 2393445.4250680525 2943651.4699520804 0 0 0 0 134155301.50002432 -178882939.87487888 0 -178882939.87487888 228518580.1854763 0 0 0 0 -8044500.9750282764 -107008283.98862553 0 -107008283.98862553 196452166.68385887 0 0 0 0 134911872.489645 -112912582.58715534 0 -112912582.58715534 202634017.08152199 0 0 0 0 22032225.197908878 -74484876.220731735 0 -74484876.220731735 226572870.98723915 0 0 0 0 -27649560.868482113 8247606.2584562302 0 8247606.2584562302 133592364.77098846 0 0 0 0 38137911.384590864 -62581981.077990532 0 -62581981.077990532 170080316.12016296 0 0 0 0 -37079645.808983803 4468388.5965881348 0 4468388.5965881348 165406796.89626312 0 0 0 0 -12519876.345948219 -29280602.284486771 0 -29280602.284486771 202281086.20985413 0 0 0 0 -105050133.36126709 2902149.1846942902 0 2902149.1846942902 191156507.67362022 0 0 0 0 -34788759.024007797 57883100.152740002 0 57883100.152740002 209957022.20293045 0 0 0 0 -21815143.474232435 35014283.076198578 0 35014283.076198578 138869785.46940994 0 0 0 0 -19150961.899272919 76956724.181156158 0 76956724.181156158 199336248.04751587 0 0 0 0 -21645884.524988294 39913630.876729965 0 39913630.876729965 130639180.72483826 0 0 0 0 -19074869.120158672 71169446.64352417 0 71169446.64352417 105611794.34618187 0 0 0 0 -28111564.629910946 24329105.279022217 0 24329105.279022217 121569208.18446159 0 0 0 0 76843380.226910591 168233396.56174469 0 168233396.56174469 101625963.90025616 0 0 0 0 870413.85889734305 424382.26728686877 0 424382.26728686877 -890850.68895326555 0 0 0 0 -26971615.945940018 -468818222.80580139 0 -468818222.80580139 570666098.93061829 0 0 0 0 26063673.941820621 127444219.14051437 0 127444219.14051437 83966703.281234741 0 0 0 0 -160414906.21875834 5599803.8553152084 0 5599803.8553152084 49238721.843635559 0 0 0 0 -477273.88932738756 247389.27251142263 0 247389.27251142263 1954456.3976979293 0 0 0 0 -19411649.256150484 136782015.48097897 0 136782015.48097897 234452519.80377579 0 0 0 0 -141939525.15845013 -28362469.381059647 0 -28362469.381059647 -7667919.9223461151 0 0 0 0 -9797.4676785401534 4185294.7605831344 0 4185294.7605831344 6752735.4335858896 0 0 0 0 -124900224.04484797 15817608.617256165 0 15817608.617256165 20663551.416044235 0 0 0 0 -116355424.32397747 63304764.418937683 0 63304764.418937683 81593592.967942238 0 0 0 0 -1076365.5188319683 2549116.4158649445 0 2549116.4158649445 13532979.21181488 0 0 0 0 -600252.36894324422 4313644.5783472061 0 4313644.5783472061 10433987.060592651 0 0 0 0 -90908.544351942837 2260103.1311364174 0 2260103.1311364174 12835106.569450378 0 0 0 0 -797984.70684528351 62912583.333351135 0 62912583.333351135 218563920.01662636 0 0 0 0 -21869268.263718605 -99879942.367567062 0 -99879942.367567062 313278364.58308411 0 0 0 0 -40274448.989980698 2216257.142496109 0 2216257.142496109 136531665.70345974 0 0 0 0 -170751864.96866417 29894312.745069504 0 29894312.745069504 194829295.05768585 0 0 0 0 -221465723.0820241 48379767.784963608 0 48379767.784963608 100437488.95658875 0 0 0 0 -10969803.928647041 18673427.9120121 0 18673427.9120121 72438179.752902985 0 0 0 0 -119235324.64415121 135060398.7161684 0 135060398.7161684 -64034807.858695984 0 0 0 0 77664113.946868658 19789918.975652695 0 19789918.975652695 59976021.510332108 0 0 0 0 134420924.77060723 -25161990.044557571 0 -25161990.044557571 69410872.427181244 0 0 0 0 7577775.7223308086 -47817831.351941109 0 -47817831.351941109 7418411.7657546997 0 0 0 0 53514416.427163005 7563260.5003089905 0 7563260.5003089905 1732880.0849525928 0 0 0 0 258182.57540217927 -219791.27836029418 0 -219791.27836029418 -682965.74573012441 0 0 0 0 -251954326.71021679 128537009.08587557 0 128537009.08587557 -59968011.367847443 0 0 0 0 451574.55218684417 3906292.6150703542 0 3906292.6150703542 6415330.9923090488 0 0 0 0 2939475.0710246563 -2626515.1963500977 0 -2626515.1963500977 16011809.730865479 0 0 0 0 12654755.098580122 -11042986.339952469 0 -11042986.339952469 21635286.006347656 0 0 0 0 4818727.294754982 -4030071.0914669037 0 -4030071.0914669037 15359848.631584167 0 0 0 0 -252504647.9808985 118000457.75136232 0 118000457.75136232 -110057072.95907211 0 0 0 0 -262639890.66366529 335286728.66067696 0 335286728.66067696 -78034087.071117878 0 0 0 0 -587824.14768075943 554129.07473945618 0 554129.07473945618 13786969.11907196 0 0 0 0 -2061223.9221701622 68933.85620880127 0 68933.85620880127 16645747.120816231 0 0 0 0 -425704.75691008568 -372130.65709877014 0 -372130.65709877014 16504782.177192688 0 0 0 0 2866314.698618412 -2916465.6605758667 0 -2916465.6605758667 15499986.018356323 0 0 0 0 1539448.3593893051 -345361.44087219238 0 -345361.44087219238 10725278.575603485 0 0 0 0 -4170960.9218435287 -3409766.4023170471 0 -3409766.4023170471 26082516.639320374 0 0 0 0 2593490.603071928 -5916134.2631835938 0 -5916134.2631835938 21768754.743759155 0 0 0 0 -1008867.5668429136 -2011896.4429512024 0 -2011896.4429512024 19690116.905708313 0 0 0 0 -703742.19404602051 -2004230.298915863 0 -2004230.298915863 17174103.805416107 0 0 0 0 -4947439.3988461494 555916.17603302002 0 555916.17603302002 21520764.32824707 0 0 0 0 -3988598.9831314087 2323634.0787658691 0 2323634.0787658691 18933206.842617035 0 0 0 0 -1555970.4444487095 927445.82329750061 0 927445.82329750061 17937485.476997375 0 0 0 0 -2228226.696728453 1900732.7036437988 0 1900732.7036437988 18790254.887290955 0 0 0 0 -3574774.0588436425 4375964.9959142208 0 4375964.9959142208 21075113.65965271 0 0 0 0 -7157407.3114142418 6808359.5611248016 0 6808359.5611248016 19504612.5313797 0 0 0 0 -12493243.382851124 3654457.5343399048 0 3654457.5343399048 26672766.460366249 0 0 0 0 -3631840.8506481647 -1686824.5121269226 0 -1686824.5121269226 24637650.420379639 0 0 0 0 -2474908.4421944618 -4252571.5025978088 0 -4252571.5025978088 26483842.345695496 0 0 0 0 -8624400.6327762604 -2748470.3238830566 0 -2748470.3238830566 35264783.175354004 0 0 0 0 -17625764.866360664 7787592.623210907 0 7787592.623210907 30355296.794418335 0 0 0 0 -15932768.663365364 8730623.2695732117 0 8730623.2695732117 30370904.722011566 0 0 0 0 295069.33161694091 9970434.5532760862 0 9970434.5532760862 19510719.129065201 0 0 0 0 -18987846.765032053 16834799.186210632 0 16834799.186210632 23117205.89175415 0 0 0 0 -122014109.82702953 140815506.01885319 0 140815506.01885319 -74172701.788726807 0 0 0 0 1091464.5726341326 3694511.1877626358 0 3694511.1877626358 5326552.2035135478 0 0 0 0 12727963.037851334 -14602398.898435593 0 -14602398.898435593 31249608.042449951 0 0 0 0 10324498.170334101 -9613006.6023521423 0 -9613006.6023521423 33430590.464681625 0 0 0 0 -1826162.8539466858 -8044177.737953186 0 -8044177.737953186 33431475.633045197 0 0 0 0 8433439.676363945 -13461102.076087952 0 -13461102.076087952 36291410.097442627 0 0 0 0 -13325448.505990505 19000638.071813583 0 19000638.071813583 39532267.171413422 0 0 0 0 -11786127.833417475 -3335364.3452363014 0 -3335364.3452363014 53429199.305416107 0 0 0 0 45405510.30207634 -46814483.05865097 0 -46814483.05865097 68954861.567218781 0 0 0 0 -7892275.759999752 5247610.5959014893 0 5247610.5959014893 69228828.512752533 0 0 0 0 -6958624.9738047123 15918052.270048141 0 15918052.270048141 98018663.402679443 0 0 0 0 24186798.023015976 2400237.2021636963 0 2400237.2021636963 96566390.855316639 0 0 0 0 2056385.1067529158 2965380.420937892 0 2965380.420937892 2590065.4957666844 0 0 0 0 -63485301.827619076 30909016.502555847 0 30909016.502555847 335167591.3985548 0 0 0 0 37365113.231582403 -100836494.47752762 0 -100836494.47752762 211831874.03138733 0 0 0 0 -660948208.02925587 407356446.19574547 0 407356446.19574547 -26537698.69960022 0 0 0 0 22366280.309684753 487194393.62389755 0 487194393.62389755 -115668146.53497505 0 0 0 0 1012915.4927431369 -411572.5009069331 0 -411572.5009069331 -1545228.7080662996 0 0 0 0 -216104415.19722021 -132253835.37840152 0 -132253835.37840152 -38704813.115196228 0 0 0 0 716448611.65767646 -143816796.7023735 0 -143816796.7023735 -257634398.33718109 0 0 0 0 171422660.10743368 -402260439.90363312 0 -402260439.90363312 -131074589.81773853 0 0 0 0 1319536896.874073 1115319648.1430054 0 1115319648.1430054 1349147281.0830383 0 0 0 0 1328109.9378411146 -239586.10135466605 0 -239586.10135466605 -1401037.729368642 0 0 0 0 61127724.932323337 -317430376.86331844 0 -317430376.86331844 -204419719.59950256 0 0 0 0 -87916210.444082022 -380891362.02150726 0 -380891362.02150726 351818579.4651413 0 0 0 0 -374628221.57680207 -309458609.29172897 0 -309458609.29172897 119806049.82542419 0 0 0 0 -352041110.59644943 -352991424.62926483 0 -352991424.62926483 -309057248.54446411 0 0 0 0 -12236079.489349961 253583309.94161987 0 253583309.94161987 -381791285.17750549 0 0 0 0 -46422482.3740201 273271997.4044075 0 273271997.4044075 125538004.18194675 0 0 0 0 -945977278.69218731 -1358309698.1640587 0 -1358309698.1640587 -334855154.60437012 0 0 0 0 114473307.77837658 533082519.37529755 0 533082519.37529755 456968576.02680969 0 0 0 0 564162006.638906 -99782582.157346249 0 -99782582.157346249 175945900.05775452 0 0 0 0 4411519.2587191323 -1221014.3857287802 0 -1221014.3857287802 4735163.2571999216 0 0 0 0 90523179.018424511 283359155.49752808 0 283359155.49752808 839404687.42272615 0 0 0 0 -183808012.88312531 -278665947.9708252 0 -278665947.9708252 613868996.39590549 0 0 0 0 153287172.49669266 12752963.567635059 0 12752963.567635059 155203519.85478973 0 0 0 0 322605891.67742825 106476569.26452446 0 106476569.26452446 160047024.80403519 0 0 0 0 -57567483.789538085 34184844.922480345 0 34184844.922480345 486868466.14772415 0 0 0 0 103076252.72164583 155299830.63923645 0 155299830.63923645 434246091.60644817 0 0 0 0 759830688.28783631 418096295.99108505 0 418096295.99108505 265181558.47909927 0 0 0 0 282497361.92297029 1908768.1470108032 0 1908768.1470108032 37488306.383353233 0 0 0 0 235932168.79191232 -77365698.641462326 0 -77365698.641462326 -5315416.6491966248 0 0 0 0 438240707.88845253 -53570245.107854843 0 -53570245.107854843 -32495243.213054657 0 0 0 0 167491294.8557111 -157340649.01107407 0 -157340649.01107407 -29884378.86315918 0 0 0 0 183911702.38987017 34832685.452285767 0 34832685.452285767 78545580.201194763 0 0 0 0 169054114.73603964 -28296549.359882355 0 -28296549.359882355 58098762.884960175 0 0 0 0 118230082.28045654 -46209247.08915329 0 -46209247.08915329 65355150.637529373 0 0 0 0 126215072.82919121 14265964.077693939 0 14265964.077693939 82005117.149060726 0 0 0 0 113880182.53746414 -86179025.395437241 0 -86179025.395437241 -8153625.823507309 0 0 0 0 100685261.87177539 -94101122.58482933 0 -94101122.58482933 -6736027.138168335 0 0 0 0 127020334.98094833 -181373219.92641258 0 -181373219.92641258 1062684.1708080173 0 0 0 0 172107230.72897047 -116445571.52102232 0 -116445571.52102232 7803012.0733833313 0 0 0 0 164288667.49126872 -170664543.11573029 0 -170664543.11573029 -14667639.987560272 0 0 0 0 20392078.340568721 -130713392.86330032 0 -130713392.86330032 16123243.767856598 0 0 0 0 43346897.221316442 -35982525.434466839 0 -35982525.434466839 14628855.244483948 0 0 0 0 179611836.67083579 -34049379.599355698 0 -34049379.599355698 3292456.3393325806 0 0 0 0 -100838797.50190622 -35820585.42083168 0 -35820585.42083168 19601691.268802643 0 0 0 0 76847637.704570562 -60623958.290380478 0 -60623958.290380478 22473193.829502106 0 0 0 0 -143897565.34433085 -232154460.20337009 0 -232154460.20337009 40840444.108768463 0 0 0 0 143016395.23610368 -206682818.39861774 0 -206682818.39861774 24682462.411895752 0 0 0 0 177059884.27516747 -169559046.89898491 0 -169559046.89898491 -14951957.133946896 0 0 0 0 
</DataArray>
<DataArray type="Float64" Name="cross_section_updated" format="ascii">
1 1 1 1 1 0.049785972814294741 1 1 1 1 1 1 1 0.052179674947935281 1 1 1 1 0.055488553030482723 1 1 0.051162611089095145 1 1 1 1 0.061856381283757506 1 1 1 1 0.048827251192196344 1 1 1 1 1 1 1 1 1 1 1 1 1 0.050302797147603683 1 1 0.04995475914821812 1 1 1 1 1 0.051810734586976326 1 1 1 1 1 1 1 0.060793984712116791 1 1 1 1 0.049585493397420008 1 1 1 1 1 1 1 1 1 0.049371401316396883 1 1 0.049665257881293001 1 1 0.050865320891929786 1 1 1 1 0.052882668546881048 1 1 1 1 1 1 1 0.049945081647757614 0.049994023892909342 0.050185771795533567 1 1 0.050056829585080502 1 1 1 1 1 0.049997589599481695 1 1 1 1 1 1 1 1 1 1 1 1 1 0.050036691248469468 1 1 1 0.052391658239256685 1 1 1 1 1 1 0.051016022094112455 1 1 1 1 1 1 1 1 1 1 1 1 1 1 1 1 1 1 1 1 1 1 1 1 1 0.049930780363171362 1 1 1 0.050862059737177362 1 1 0.050697978834095297 1 1 1 1 1 1 1 1 1 1 1 0.050786571817657583 1 1 1 1 1 1 1 1 0.051809752018921802 1 1 1 1 1 1 1 1 0.051897220617970814 1 1 1 1 1 1 1 1 1 0.050306637870864354 1 1 1 1 1 1 1 1 1 1 1 1 1 1 1 1 1 1 1 1 1 1 1 0.049996397667362476 1 1 1 0.059449629007644458 1 0.049958466489484987 1 0.056012109461785677 1 1 0.051711715397797106 1 1 1 0.052716566246878011 1 0.048995333571604613 1 0.049564334021154087 1 0.055679129135576683 0.049397864210431054 1 0.049686117739115632 1 1 0.049691793639059699 1 0.05033360895749911 1 1 1 0.0528729576368904 1 0.052354247210822442 0.050126244856651535 1 1 0.050182061700940202 1 1 1 0.051631506667200504 1 0.050508342607975154 0.050945660480780364 0.050738588825267432 1 0.050045459413715208 1 1 1 0.050044743222166149 1 0.051174837444982801 0.051563076935016251 0.049743949368820817 1 1 0.050774776957109261 0.051261217762803769 1 1 1 1 0.052295654782376778 1 0.049766497863007318 1 1 0.051690261475559808 1 1 1 0.05022292554654148 1 0.050944711972192122 0.050684225774120781 0.050350678068793508 1 1 1 0.049726580638158525 1 0.051265274525426001 0.052607081413717879 0.049604048371481198 0.050716179324854935 1 1 1 0.052810348960016185 0.050000076340498946 1 1 0.050995189928600228 0.052180024718224742 0.049687367824148287 1 0.049520918630021504 1 1 1 1 0.050005360883583837 1 1 1 1 1 1 1 0.050432144268631338 1 1 1 1 1 1 0.051484285931574808 0.050001052303394494 1 1 1 0.050205457545714469 1 1 1 0.050042612568549555 1 0.04971564756734085 1 0.048971506153721735 0.055157430741156213 1 1 1 1 0.049641941026264888 1 1 0.054815453891326534 1 1 1 1 0.050017221640298419 1 0.049994334693796251 1 1 1 1 1 0.052767069915889177 0.052401393365020886 1 1 1 1 1 1 1 1 0.050450939444391031 1 1 1 0.049494189997727811 1 1 0.054377818054279173 1 0.049995150765049429 1 1 1 1 1 1 1 1 1 1 1 0.05418726921154142 1 0.051043183857730323 1 0.0539331708114522 1 1 1 0.051256481994979383 1 0.050009857413792269 1 0.051064565168198676 1 1 1 1 1 1 0.052887774864388885 1 0.053737795435058175 1 1 1 0.053000430514095045 1 1 1 0.056118747772057928 1 0.051433597931860073 0.051457612214858915 1 1 1 1 0.056193003778139419 1 1 1 1 0.052730846188652217 0.051462084052848946 1 1 0.049431126046461445 1 0.052350338995272375 1 0.049878672074571286 0.049979666137741782 1 1 1 0.050077517479737731 1 1 1 1 0.053646256543299388 1 1 1 1 1 1 1 1 1 1 1 0.050002952247174076 1 1 1 1 0.051553848231422159 1 1 1 0.051959312676168282 1 0.051525021093244132 0.052780418036940252 0.049998445771557848 1 1 1 0.052899902172862452 0.058786670995290884 1 0.059285861047747815 1 1 0.04970461398721808 1 1 1 1 0.059764250919874085 1 1 1 1 1 1 1 1 1 1 1 0.060311572045999504 0.059861501231678931 1 1 0.051772427928890238 1 1 1 0.050014280218055096 1 1 1 1 1 1 0.06252920398534223 1 1 1 0.047443976324101425 1 1 1 0.054891365490968722 1 1 1 1 1 1 1 1 1 1 1 0.062741651854994834 1 1 1 0.062786833484743454 1 1 1 1 1 1 1 0.050337284762473733 1 1 1 1 1 0.050940640928938102 1 1 1 1 1 1 1 1 1 1 1 1 1 1 1 1 1 1 1 0.049775302568017751 1 1 1 1 0.049965913450260066 1 1 0.050020665922527574 1 1 1 1 1 1 1 0.050134421855891606 1 1 1 1 1 1 1 1 0.049996603072661044 1 0.050389851092466409 1 1 0.05011847903725427 1 1 1 0.050130875577795109 1 1 0.04956805169832193 1 1 1 0.052341949072607509 1 0.053902066007542188 1 1 0.050001920288810314 1 0.048048914733411642 1 1 1 1 1 1 1 1 1 1 1 1 1 1 1 1 1 1 1 1 1 1 0.050174025577634916 1 0.049816431732990968 1 0.049937668349430663 1 1 1 1 1 1 1 1 1 1 1 1 1 1 1 0.050086516418065101 1 1 1 1 1 1 1 1 1 0.050087509159569818 1 1 1 1 1 1 1 1 1 1 1 1 1 1 1 1 1 1 1 1 1 1 1 1 1 1 1 1 1 0.049998014331095381 1 1 0.049999592892524383 1 1 1 0.049784189301375945 0.051778777566347564 1 0.051389762828988154 1 1 1 1 1 0.050115235626470453 1 1 1 1 1 0.05043753353629625 1 1 1 1 1 1 1 1 1 1 1 1 1 1 1 1 1 1 1 1 1 1 1 1 1 1 1 1 1 1 1 1 1 1 1 1 1 1 1 1 1 1 1 1 1 1 1 1 1 0.050076121170879929 1 1 1 1 1 1 1 1 1 1 1 1 1 1 1 0.050949605307862245 1 1 1 1 0.050355318910673068 1 1 1 1 1 1 1 1 1 1 1 1 1 1 1 1 1 1 1 1 1 1 1 1 1 1 1 0.055151105446283391 1 1 0.051486542471030482 1 0.05178102760254627 0.050283983742134795 0.045770388944495852 0.060492680914343212 1 1 0.050025544044407497 1 1 1 1 1 1 1 1 1 1 1 1 1 1 1 1 1 0.051768059802075564 1 1 0.047694230332603373 1 0.051031900584628968 1 1 1 1 0.053988461027326663 1 0.050308072940422568 1 1 1 1 0.050188395271321809 1 1 1 0.053635229342635787 1 1 1 1 1 0.049983523865527575 1 0.050163952424268299 1 1 0.051603105338271962 0.053045405371371909 1 0.049364511884070657 1 1 1 1 1 1 1 1 1 1 1 0.061375969514543723 1 1 1 0.061210093119984647 1 1 1 0.051064698494208555 1 1 0.060472585679065702 0.049813040329630597 0.049941517189903931 1 1 1 1 1 1 1 1 1 1 1 0.050042014090687856 1 1 1 1 1 1 1 1 0.060156652145070752 0.057632050789548889 0.059782846977479834 1 1 1 1 1 1 1 1 0.055982554101921239 0.050036003856230374 1 1 1 0.049704384427402833 1 1 0.050866490297052314 1 1 1 1 1 1 1 1 1 1 1 0.050288103007967273 1 1 1 1 1 1 1 1 0.050355440716298744 1 1 1 1 1 1 1 1 1 1 0.049947209628197251 1 0.06650731119575673 0.046776821693661853 0.050809040891566695 1 1 1 1 1 1 1 0.063182678108005569 0.055794244890999614 1 0.051157085437505301 1 1 1 1 1 0.050271321490658868 1 0.049961466511058539 0.050831572807407271 1 1 1 0.050597564135397573 1 0.050324644306031507 1 1 1 1 0.050050266797553061 1 1 1 1 1 1 1 1 1 1 1 1 1 1 1 1 1 0.049503855963244164 1 1 1 0.050903576045254147 1 1 1 1 1 0.049843748278049299 1 1 1 1 1 1 0.050660214005721682 1 0.050252612563913349 1 1 1 1 1 1 1 1 0.051129262000691095 1 1 1 0.063632114313650706 1 1 1 1 1 1 1 1 1 1 1 1 1 1 1 1 1 1 1 1 1 1 1 1 1 0.051995355671857785 0.054705061591218504 0.05431088305459001 1 1 1 1 0.053105736800897502 1 1 1 1 0.052422383646769218 1 1 1 1 1 1 1 0.050128084770188236 1 1 1 1 1 1 1 1 0.050328948281101571 1 1 1 1 1 1 1 1 1 1 1 1 0.050993956171111521 1 1 1 1 1 1 0.049892755393113691 1 1 1 1 1 1 1 1 0.057679150722209596 1 1 1 0.052804153756349025 1 1 1 1 1 1 1 1 1 1 1 1 0.050200863510913324 1 1 1 1 1 1 1 1 1 1 1 1 1 1 1 1 1 1 1 1 1 1 1 1 1 1 1 1 1 1 1 1 1 1 1 1 1 1 1 1 1 1 1 1 1 1 1 0.050260534983600405 1 1 1 1 1 1 1 1 1 1 1 1 1 1 1 1 1 1 1 1 1 1 1 1 0.050171618451048228 1 1 1 1 1 1 1 1 1 1 0.049966931654910937 1 1 0.050474467347998833 1 1 1 1 1 1 1 1 1 0.049878795784198099 1 0.049784868871717729 1 1 1 1 0.050699768729328978 1 1 0.050010346732425888 1 0.050179599531069895 1 1 1 1 1 0.050729337029281237 1 1 1 1 1 1 1 1 0.049114813998574869 1 1 1 1 1 1 1 1 1 1 1 1 1 1 0.051040059171955657 1 0.050268900564132246 0.050100549455855924 1 1 1 1 1 0.050041603895963599 1 1 1 1 1 1 1 1 1 1 1 1 1 1 1 0.050974087677553175 1 1 1 1 1 1 1 1 1 1 1 1 1 1 1 1 0.05074594538018555 1 1 1 1 1 0.052768423214010658 0.049987263464590197 1 1 0.052430173935552313 1 1 1 1 1 1 1 1 1 1 0.050973187222270455 1 1 1 1 1 1 1 1 1 0.05083639616853864 1 0.064180774698365375 1 1 1 1 1 0.049586110217536832 1 1 1 1 0.066113687577119259 1 1 1 0.048482872031758523 1 1 1 0.064183910270637884 1 1 0.051747856148361297 1 1 1 1 1 1 1 1 1 1 1 1 1 1 1 1 0.05041319023048433 1 1 1 1 1 1 1 0.049489222425363147 1 1 1 1 1 1 1 1 1 1 1 1 1 1 1 1 1 1 1 1 1 1 1 1 1 1 1 0.056186281962047641 1 1 1 1 0.050579302172710505 1 1 1 0.056768100866352873 1 1 1 1 1 1 1 1 1 0.057554835683948806 1 0.04999850788705406 1 1 1 1 1 1 1 1 1 1 1 1 1 1 1 1 1 1 0.049991846125648831 0.054415938887661885 1 1 1 0.050178325485082297 1 1 0.052847981943607292 1 1 0.050308349442279181 1 1 1 0.050549177511920916 1 1 0.050146747811634272 1 1 1 1 1 1 1 1 1 1 1 1 1 1 1 1 1 1 1 1 0.051295122892106464 1 0.05164243092320437 1 1 1 1 1 1 1 1 1 1 1 0.054368296533581967 1 0.056364398023290463 1 1 1 0.076775534799695108 1 1 1 1 1 0.049863923864610596 1 1 1 1 1 1 0.045387213203173973 1 1 1 1 1 1 1 1 1 1 1 0.044730491344622994 1 1 1 1 1 1 1 1 0.07570533199616937 1 1 1 0.067199198042277669 1 1 0.044050954884681623 1 1 1 1 1 0.055499655678396875 1 1 1 1 1 1 1 1 1 0.050170247869666007 1 1 0.061414416700876565 1 0.056812463642954017 1 0.053916282952078814 0.055691537413178907 0.050665517525582709 1 0.049986568797247298 1 1 1 1 1 1 0.064888035978575814 1 1 1 1 1 1 0.050462881961388824 1 1 1 1 1 1 1 0.062285074775943063 1 1 1 1 0.059429305801359605 1 1 1 1 1 0.061729553054802697 1 0.050004547762957555 1 1 1 1 1 1 1 1 1 1 0.05125540939549126 1 1 1 1 1 1 1 0.052396642635810002 1 1 1 1 1 1 1 0.050002984376275893 1 0.051867559406729699 1 1 1 1 1 1 1 1 0.055286266916594641 1 1 1 0.056979438191303085 0.050041861868779798 1 1 1 1 1 0.054294461761406114 0.050088476412672181 1 0.053796035964279565 1 1 0.048273868032775856 1 1 0.051781538584971143 1 1 1 1 1 1 1 1 0.055780270974816679 1 1 1 1 1 0.062665704763792796 1 1 1 1 0.060339125878338583 1 1 0.058907107829794296 1 1 1 1 1 1 1 1 1 1 1 1 1 1 1 1 1 1 1 1 1 1 1 1 1 1 1 1 1 1 1 1 1 1 1 1 1 1 1 1 1 0.050343622677304821 1 1 0.050175686026684339 1 1 1 1 1 0.050316922156041076 1 1 1 1 0.050561037388664333 1 1 1 1 1 1 1 1 1 1 1 1 1 1 1 1 1 1 1 1 1 1 1 1 0.050374399702555368 1 1 1 0.050186633182641126 1 1 1 1 1 1 0.050072270917599311 1 1 1 1 1 1 1 1 1 1 1 0.063233541180398381 1 0.053906418286535723 0.050225693393187346 1 1 0.053922434202618025 1 1 1 1 1 1 1 1 1 1 1 0.060521303669645379 1 1 0.051348296355322134 1 1 1 1 1 1 1 1 1 1 1 1 1 1 1 0.05786152266377622 1 1 1 1 1 1 1 0.049944451909619311 1 0.050386442682186776 1 1 1 1 0.05622685610915977 1 0.050423205938054314 1 1 1 1 1 1 1 1 1 0.049463271601070197 1 1 1 1 1 1 1 1 1 1 1 1 1 1 1 1 1 0.053422139221657942 1 1 1 1 1 1 1 1 1 1 1 1 1 1 1 1 1 1 1 1 1 1 1 1 1 0.049914385151891096 0.049938142607808864 1 1 1 1 1 1 1 1 1 1 1 0.05004107988005585 1 1 1 1 0.049667896990409813 1 1 1 1 0.049774602037176166 1 1 1 1 1 1 1 1 0.048412399553534005 1 1 1 1 1 1 1 1 1 0.049463236397125548 1 1 1 1 1 1 1 1 1 1 1 1 1 1 1 1 1 1 1 1 0.055031678707941123 1 1 1 1 1 1 1 1 1 1 1 1 1 1 0.063559546806178327 1 0.050104627104393173 1 1 1 1 1 1 1 1 0.06339394884948879 1 1 0.050176898021992489 1 1 1 1 1 1 1 1 1 1 1 1 1 1 1 1 1 1 1 1 1 1 1 1 1 1 1 1 1 1 1 1 1 1 1 1 0.050280324323031721 1 1 0.050038201116866077 1 1 1 1 0.053670980540362262 1 0.047997043970653894 1 1 0.048241497899550831 1 0.050779804176491229 1 1 1 1 1 0.05035060062553473 1 1 1 1 1 1 1 1 1 1 1 1 0.05024057896368625 1 1 1 0.054337234052969051 1 1 1 1 1 1 1 1 1 0.052489402892006598 1 1 1 1 0.052037156425477994 0.053063064807951074 1 1 1 1 1 1 1 1 0.050079973555799843 1 1 1 1 1 0.05693979943097198 1 1 1 0.056856355031085645 1 1 1 0.053587612042941407 1 1 1 1 0.063512550898776429 1 1 1 1 1 1 1 1 1 1 1 1 1 1 0.054537534368317916 1 1 1 1 1 1 0.054111522808245015 1 0.056633849567863215 0.050002665658555337 1 0.064371138280904475 1 0.050169903222080155 1 1 1 1 0.050234784960580876 1 1 1 1 0.05055663166359825 1 1 1 1 1 1 1 1 1 0.050331528584294863 1 1 1 1 1 1 1 1 1 1 1 1 1 1 0.050760732135251355 1 1 1 0.050214015323365252 1 1 1 0.050568930036214342 1 0.049996400981377559 1 1 1 1 1 1 1 1 1 1 1 1 1 1 1 1 0.05039732281822152 1 1 1 1 1 1 0.051240286194140491 1 1 1 1 1 1 1 1 1 1 1 1 1 1 1 1 1 1 0.05260767892234483 1 1 1 1 1 1 1 1 1 1 1 1 1 1 1 1 1 1 1 1 1 1 1 1 1 1 1 1 1 1 1 1 1 1 0.04970915049103071 1 1 1 1 0.04992583683436632 1 1 1 1 1 1 1 0.052452090417880799 1 1 1 1 1 1 1 1 1 0.04996106130095207 1 1 0.054086716983035056 1 1 1 1 1 0.049974706642635237 1 1 1 0.05039443929154902 1 1 0.052209808615633804 1 1 1 1 1 1 1 1 1 1 1 1 1 1 1 1 1 1 1 1 0.049062879575629104 1 1 1 1 1 1 1 1 1 1 0.054857707556031823 0.047458745204902966 1 0.052095245691809643 1 1 1 1 1 0.052406283882910007 1 1 1 1 0.05306213756409317 1 1 1 1 1 0.049964789248830251 1 0.049993677339102122 1 1 0.048758665938048562 1 1 1 1 1 1 1 1 0.049602495845320262 1 1 1 1 1 1 0.049947459191485126 1 1 1 1 1 1 0.049939776257906195 1 1 1 1 0.04903447869689645 1 1 0.051763224994625406 1 0.049132725012055983 1 1 0.050140425541215082 1 1 1 1 1 1 0.05108950183310812 1 1 1 1 0.050105670454669349 1 1 1 1 1 1 1 1 0.056044655277304893 0.048239181239987987 1 1 1 1 1 1 1 1 0.053199811825840659 1 1 1 1 1 1 0.051490755096398853 1 1 1 1 1 1 1 0.049499468924134718 1 1 1 0.050947509570867536 1 1 1 1 1 1 1 1 1 1 1 1 0.053306731619971889 1 1 1 1 0.053409636822161689 1 1 0.049663983032262014 1 1 1 1 0.052124342021736797 1 1 1 0.050029113574452874 0.053172535666737575 1 1 1 0.050266111519515481 1 1 1 0.054425520966181251 1 1 1 1 1 1 1 1 1 0.05467570084902755 1 1 1 0.04999658614013585 1 1 1 1 1 1 1 1 1 1 1 1 0.053420857150836151 1 0.050034388216526955 1 1 0.051925901849866757 1 1 0.051114861352316077 1 1 1 1 1 1 1 0.049994064562256295 1 1 1 1 1 0.050032443444916759 1 0.051272959643429386 1 1 1 0.051113522053873983 0.049921814390449605 1 0.051389900218841711 0.053617845971562904 1 0.051901261156946016 1 1 1 1 1 1 0.050373476821508258 1 0.057444655597936635 1 1 1 1 1 1 1 1 1 1 1 1 1 0.050084246336391011 1 1 0.052777716328398061 1 0.051173810896953047 1 1 0.055923547241420776 1 1 1 0.051339121314249128 0.048921909580800831 1 1 0.056749212329474802 1 1 1 1 1 1 1 1 1 1 1 1 1 1 1 1 1 1 1 1 1 1 1 0.051039890821744163 0.050064283760060523 1 0.049424481824546215 1 0.050068138085517182 1 1 0.050002042997212316 0.054652145291788704 1 1 0.049997736238030215 1 1 0.050622981015613334 1 1 0.054686699338191078 1 0.050621866082090204 1 1 1 1 0.050041962812092909 1 1 1 1 0.050385238716154995 1 0.051135208346722257 0.052511700073042976 1 0.052619075887447561 1 1 0.050946663319574377 0.050812115975431504 1 1 1 0.050116287279600609 1 1 1 1 0.052711536642627732 0.050345861924657412 1 1 1 1 1 0.050666989902403189 1 1 1 1 1 1 1 1 1 1 1 0.050566300118641536 1 0.052374164934919601 1 0.05318993567829388 1 1 0.050003090456791403 1 0.052596811109116973 1 1 1 1 1 1 1 1 0.05049601582252685 1 1 0.051677715330605972 1 1 1 1 0.050161213567641035 1 1 1 1 1 1 1 1 1 1 1 1 0.050964694564878253 1 1 1 1 1 1 1 1 1 1 1 0.049922894518905379 1 1 1 1 1 1 0.050987618681050402 1 0.050989368978254151 1 1 0.049973446126007057 1 1 1 1 1 1 1 1 1 1 1 1 1 1 1 1 1 0.050071135155732457 0.051181299673554059 1 1 1 0.049776073426522863 1 1 0.050686610476048284 1 1 1 1 1 1 1 1 1 1 1 1 1 1 1 1 1 1 1 1 1 1 1 1 1 0.049957959758938769 0.049059926549391439 1 1 1 1 1 1 1 1 1 1 1 0.047475679255283135 1 1 1 1 1 1 1 1 1 1 1 1 1 1 1 1 1 1 1 1 1 1 1 1 1 1 1 1 1 1 1 1 1 0.050020839487353551 1 1 1 1 1 0.049908838649501998 1 1 0.050417010606100793 1 1 0.048610337522767867 0.061727670235501214 1 1 1 1 1 1 1 1 1 1 1 1 1 0.061436201453196872 1 1 0.050141817190226055 1 1 1 1 1 1 0.050004488253095614 1 1 0.060368319772048887 1 1 1 1 1 1 1 1 1 1 1 1 1 0.054742259211261017 1 1 1 1 1 1 1 0.050053107067277849 1 1 1 1 1 1 1 1 1 1 1 1 0.051941796984951064 1 1 0.050954178303900678 1 1 1 1 1 1 1 1 1 1 1 1 1 1 1 1 1 1 1 1 0.053556504242150409 1 1 0.052380286355474565 1 0.053177860911944472 1 1 1 0.049647745523195633 1 1 0.050188511065222957 1 0.050476516154900362 1 1 1 0.050915778553617466 1 1 1 1 0.049998330489149485 1 1 1 1 1 1 1 0.050012158785088349 1 1 1 0.049679785468435642 1 1 1 1 1 1 1 1 1 1 1 1 0.051264814944738023 1 1 1 1 1 1 1 1 0.049559261561902504 1 1 1 1 1 1 1 1 1 1 1 0.049928866632333146 1 1 1 1 1 1 1 1 1 1 1 1 1 1 1 1 1 1 1 0.048682058161230772 0.050466150532047185 1 1 1 0.050175081633778776 1 1 1 1 1 1 1 1 1 1 1 1 0.050204246460664612 1 1 1 1 1 1 1 1 1 0.050559647363455723 1 1 1 1 1 1 1 1 1 1 1 1 1 1 1 1 0.050014969152914181 1 0.050166908032624254 1 1 1 1 1 0.050151776997072239 1 1 1 1 0.049991747344757143 1 1 1 0.049989736997361867 1 1 1 0.050327659080672937 1 1 1 1 1 1 1 1 1 0.050076626931570251 1 1 1 0.050172782546891975 1 1 0.050036160925275089 1 1 1 1 1 1 0.050021216183252393 1 1 1 1 1 1 1 1 0.050000868216992157 1 1 1 0.05001480807789168 1 1 1 1 1 1 1 1 1 1 1 1 1 1 1 1 1 1 1 1 1 1 1 1 1 1 1 0.050287579851792968 1 1 1 1 1 1 1 0.050102802787538286 1 1 1 1 1 1 1 1 1 1 1 1 1 1 1 1 1 1 1 1 1 1 1 1 1 0.050749035579767586 1 0.050253282783586747 1 1 1 1 1 1 0.051197848362908603 1 1 1 0.050462072290878054 1 1 0.051331042341238795 1 1 1 1 1 1 1 1 1 1 1 1 0.056919760703801885 1 1 1 1 1 0.056370928004068552 1 1 1 1 1 1 1 1 1 1 1 1 1 0.050702095566727771 1 1 1 0.050437568101024052 1 1 1 1 1 1 1 1 1 1 1 1 0.051262073461972792 0.054399760174862907 1 1 1 1 0.056047232280409857 1 1 1 1 1 1 1 1 1 0.050144438469822743 0.047542023152164908 1 1 1 1 1 0.046859505358485681 1 1 1 1 1 0.04998333646549695 1 1 1 1 1 0.04999310412299756 1 0.055422031495648852 1 1 1 1 0.049549477441136289 1 0.051656292575709882 1 0.054208967842306791 0.049982634968881064 1 1 1 1 1 1 1 0.050043345796995806 0.049937623631986394 1 1 1 1 1 1 0.050000116914201496 0.050174613616754946 0.049975652552625267 1 0.051983245783375209 0.052162838042288849 1 1 1 0.05095287906135542 1 1 1 1 1 0.052168723432728527 0.049950360261629904 0.050000071074876175 1 0.053860865029876241 1 1 1 0.0499654977530547 1 0.048774928030173539 0.050258807430242025 1 1 1 1 1 1 1 0.049739245837999789 0.05124003065844164 1 1 0.05035684828524007 0.04970443733544868 0.052938094183404116 1 1 1 1 1 1 1 1 1 1 1 1 1 1 1 1 1 1 1 1 1 1 1 1 1 1 1 1 1 1 1 1 1 1 1 1 1 1 1 1 0.050039920139671248 1 1 1 1 1 1 1 1 1 1 0.050443952557603103 1 1 1 1 1 1 0.051306188042190851 1 1 0.052062352987944108 1 1 1 1 1 1 1 1 1 1 1 1 1 0.051983370384489108 1 0.054754049587889916 1 1 1 1 0.049836553738037428 1 1 1 0.050071879786545946 1 1 0.049265503886615374 1 1 1 0.050000298682350106 1 1 0.054027059914471071 1 1 1 1 1 0.05340146674516745 1 1 1 1 1 1 1 0.051463357857279735 1 1 1 1 1 1 1 0.05017693709459542 1 1 0.050766211033630944 1 1 1 1 0.050279033799780437 1 0.050566321463327693 1 1 1 1 1 0.050793809438008264 1 1 1 1 0.050426152936187581 1 1 1 1 1 1 0.051245903517227791 0.049367294816226565 1 1 1 1 1 0.052794267782728291 1 1 0.054527865292428049 1 1 1 1 1 1 1 1 1 1 0.049783390609272865 1 1 1 1 1 1 1 1 1 1 1 1 1 1 1 1 1 1 0.049904886746981493 1 1 1 1 1 1 0.050012048799043217 1 1 1 1 1 1 1 0.055705847632977042 0.050104665806543783 1 1 1 1 0.05001451632248146 1 1 1 1 1 1 1 0.05277823218212923 1 1 0.050250154829429468 1 0.04978838541083918 0.051566893603967101 0.049019407142851669 1 1 1 1 1 1 0.050289615235985567 1 1 1 1 1 0.05000210814610663 1 1 1 1 0.049652736876172887 1 1 1 0.052082962198334165 1 1 1 0.051562935805865302 1 1 1 1 1 1 1 1 1 1 1 1 1 1 1 1 1 1 1 1 1 1 1 1 1 0.055750118774139955 1 1 1 1 1 1 1 0.051784095658166968 1 0.056299797517940536 1 1 1 1 1 1 0.051604175760805282 1 1 0.050452101913830233 1 1 1 0.049967225289053847 1 1 0.05413654315077629 1 1 1 1 1 0.048485491384835558 1 1 1 0.049558379258318443 0.051808074658694955 1 1 1 1 1 1 1 1 1 1 1 1 0.050686741010003776 1 1 1 1 1 1 1 1 1 0.051621238165886249 1 1 1 1 1 0.050001627347930871 0.050470832003929329 1 1 1 1 1 1 1 1 1 0.050065799411094847 1 1 1 1 1 1 1 1 0.050853860736296955 1 1 1 1 1 1 1 1 1 1 1 1 1 1 1 1 1 1 0.049775118892535462 1 1 1 1 0.049454904360971101 1 0.050450641200569718 1 0.050763968833244057 1 1 1 1 1 1 1 1 1 1 1 1 1 1 1 1 1 0.051515434499090802 1 1 1 1 1 0.04980905188132892 1 1 1 0.051473833032374273 0.049719062052219418 1 1 1 1 1 0.050227182221289024 1 1 1 1 0.050318240702816423 1 1 1 1 1 1 1 1 0.050683127503674097 1 1 1 1 1 1 1 0.050489237842419168 1 1 1 1 1 1 1 1 1 0.050007004053803678 1 1 1 1 1 1 1 1 1 1 1 1 1 1 1 1 1 1 0.050156832446741816 1 1 1 1 1 1 1 1 1 1 1 1 1 0.049814888807928337 1 1 1 1 1 1 0.050082317944592239 1 1 0.049986060139100487 1 1 0.050182395443975542 1 1 1 1 1 1 1 1 1 1 1 1 1 1 1 1 1 1 1 1 1 1 1 1 1 1 0.050038203177411103 1 0.047273828735112045 1 0.050001124829688992 0.053529698820727042 1 1 1 0.047582607299009573 1 1 1 1 1 1 1 1 1 0.050475300636361173 0.049447383178184444 1 0.059860378651318873 1 1 1 1 1 1 1 1 1 1 1 1 1 1 0.049995501961958691 1 0.055402649653121111 0.051674474162916456 1 0.05355338370429498 1 1 1 1 1 1 1 1 1 0.059500187028658877 0.049713430301000512 1 1 1 1 1 1 1 1 1 1 1 1 1 1 1 1 1 1 1 1 1 1 0.050935419191293255 1 1 1 1 1 0.049942298626789498 1 1 1 1 1 0.049801196410270192 1 1 1 0.052807676956183318 1 1 1 1 1 1 1 1 1 0.050262583711374584 1 1 1 1 0.059257134360790914 1 1 1 1 1 1 0.058882374645245671 1 1 1 1 1 1 1 0.050186532268181011 1 1 1 1 0.057489948413380704 1 1 1 1 1 1 1 1 1 1 0.050093222563344184 1 1 1 1 0.052811687998346062 1 1 1 0.053055871240119928 1 1 1 1 1 0.050231909583254006 1 1 1 1 1 1 1 1 1 1 1 1 1 1 0.050660459671908076 0.055658713504796065 1 1 0.054384851873359126 1 1 1 1 1 1 1 0.050301419469216097 1 1 1 1 1 1 0.050363288109400085 1 1 1 1 1 1 1 1 1 1 1 1 1 1 1 1 1 1 1 1 1 1 1 0.050802702452558024 1 1 1 1 1 1 1 1 0.050324184138009168 1 1 1 1 0.050922687678459026 1 1 1 1 1 0.050885987632737786 1 0.050014130801880496 1 0.052383337497850443 1 1 1 1 1 1 1 0.050019433766295147 1 1 1 0.048846739310624027 1 1 1 1 1 0.050299099112572833 1 1 1 1 1 0.050041996249187121 1 0.050000403774199335 1 1 0.049989049391163706 1 0.051337204165691958 1 1 1 1 1 0.050281409671109611 1 1 1 0.050578989765869935 1 1 1 1 1 1 1 1 1 1 0.050050581815973175 1 1 1 1 1 1 1 1 1 1 1 1 1 1 1 1 1 1 1 1 1 1 0.050138651435241807 1 1 1 1 1 1 1 1 1 1 1 1 1 1 1 1 1 1 0.05027966844518502 1 1 1 0.050245781773752142 1 1 1 1 1 1 0.048843331158156353 1 1 1 0.049257922495989093 0.051292728398553998 1 0.048864423828232986 1 0.050856239345997117 0.049014116373521092 1 0.048675714394132992 1 1 0.049996515203764566 1 1 0.05016510723203927 0.04997084551408032 1 1 1 1 1 1 1 1 0.049989466731768406 1 0.049998320705699338 1 1 1 1 1 1 1 1 1 1 1 1 1 1 1 1 1 1 1 1 1 1 0.052753145750965444 1 1 1 1 1 1 1 1 0.053081688122189677 1 1 0.050052424778326429 1 1 0.053327606607600747 0.050059383477984866 1 1 0.050024010578852418 1 1 1 1 1 1 1 1 1 1 1 1 1 1 1 1 1 1 1 1 1 1 1 1 1 1 1 1 1 1 1 1 1 1 1 1 1 1 1 0.049684500663800875 1 0.049275823233317639 1 1 1 1 1 1 1 1 1 1 1 1 1 1 1 1 1 1 1 1 1 1 1 1 1 1 1 1 1 1 1 1 1 1 1 1 1 1 1 1 0.050120052889613999 1 1 0.050075961660027764 1 1 1 1 1 0.050273603101388162 1 0.050261763549366102 1 1 0.051769082119532253 1 1 1 1 1 1 0.052846765067207993 1 1 1 1 1 1 1 1 1 1 1 0.049909873712805503 1 1 0.055687991649983143 0.049641252585790156 1 0.050484064134524463 1 1 0.053190901720375931 1 1 1 1 0.050074465414627747 1 1 1 1 1 1 1 1 1 0.050004075851711419 1 0.05808290756348955 1 1 1 1 1 1 1 0.049897035931122248 1 0.058128899898821161 1 1 1 1 1 1 1 1 1 0.05056725128640157 1 0.059219900113515932 1 1 1 1 1 1 1 1 1 1 0.051765673286189084 1 1 1 0.05674647521893756 1 1 0.049998077758887649 1 1 0.049768216270508349 1 1 1 1 0.049864589837725265 1 1 1 0.050100077499383305 1 1 1 1 1 1 1 1 1 1 1 1 1 1 0.049954566363589595 1 1 1 1 1 1 0.049720010513885242 1 0.050358728269024544 1 0.05099048046947606 1 1 1 0.049992283689356563 1 1 1 1 1 1 1 1 0.0510524805495381 1 1 1 1 1 0.049987922856893671 1 1 0.051292491911499323 1 1 1 1 1 1 1 1 1 0.050899881078681299 1 1 1 0.050400193718777339 1 1 1 1 1 1 0.051092809187604435 1 1 1 1 1 1 1 1 1 1 1 1 1 1 1 1 1 1 1 1 1 1 1 1 1 1 1 1 1 1 1 0.050147305080905459 1 1 1 1 1 0.049848617263499984 1 1 0.050912461205133222 0.050279831444492259 1 1 1 1 0.049565736266519965 1 1 1 1 1 0.050955489443121067 1 1 1 1 1 1 1 1 1 1 1 1 1 1 1 1 0.04999831498212931 1 1 1 1 1 1 1 1 0.050174652855433474 0.050421214609883393 1 1 1 1 1 1 0.050464135860317366 1 1 1 1 0.049927846387667722 1 1 1 1 1 1 1 1 1 1 1 1 1 1 1 1 1 1 1 1 1 1 1 1 0.050411204020544428 1 1 0.050262213921768273 1 1 1 1 1 1 1 1 1 1 1 1 1 1 1 1 1 1 1 1 1 1 1 1 1 1 1 0.050046281966132047 1 0.050132459104656246 1 1 1 1 1 0.050260340866235959 1 1 1 1 1 1 1 1 1 1 1 1 1 1 1 1 1 1 1 1 0.049939924756075262 0.050342404603487378 1 0.050003897757171047 1 1 1 1 1 1 1 1 1 1 1 1 1 1 1 1 0.050022946338765126 1 1 1 0.050012133276260959 1 1 1 1 1 1 1 1 1 1 1 1 1 0.050127881761579729 1 1 1 1 1 1 1 1 1 1 1 1 1 1 1 1 1 1 1 1 1 1 0.049381958544643265 1 1 1 1 1 1 1 1 1 1 1 1 1 0.051648170231551702 1 0.051652101285218285 1 1 0.049261250289215477 0.056554697131584529 1 1 1 1 1 1 1 1 1 1 1 1 1 1 1 1 1 1 1 1 0.05228689475908932 1 1 0.061943324941014413 1 1 1 0.050190802423984188 1 1 1 1 1 1 0.059460157451181987 1 1 1 0.0499121436295012 1 1 1 1 1 1 1 1 0.049995263078399521 1 1 0.047663133519838238 1 1 0.05453613264247277 1 0.055019746941222393 1 1 1 1 0.048360538891151481 0.04867597018288658 1 1 0.051593113101180824 0.048678913601834628 1 1 0.048848665942161418 1 1 1 1 0.051268594097390638 1 1 0.049505397685589439 0.053505382434429753 1 0.049981866168562213 1 1 1 1 1 1 1 1 1 1 1 1 1 1 1 1 1 1 1 1 0.051366945866735486 1 1 1 1 0.050420537362207481 1 1 1 1 0.050186530345525601 0.051900769783502422 1 1 1 1 1 1 1 1 1 1 1 1 0.050638223266184015 1 1 1 0.056338588807414894 1 1 1 1 1 1 1 0.054270632479242464 1 1 1 0.052167865852848674 1 1 0.050452863273083084 0.051762075007366654 1 1 1 0.052542428118978898 1 1 1 0.050580644223024607 1 1 1 1 1 1 1 1 1 1 1 1 1 1 1 1 1 1 0.049962806356231834 1 1 1 1 1 1 1 1 1 1 1 1 1 1 1 1 1 1 0.050084603196861019 0.04986769344140804 1 1 1 1 1 0.04977362466817363 0.050236104212455376 1 0.049727745674977807 1 1 1 1 1 1 1 1 1 0.050589484401869333 1 1 1 0.05019810718983473 1 1 1 1 1 1 1 1 1 1 1 1 1 1 0.051271979543205948 1 1 1 1 1 1 1 0.049525508359382631 1 1 0.049838380768911401 1 1 1 1 1 1 0.055856327380566284 1 1 1 1 0.056364949629176861 1 1 1 1 1 1 0.051631997522159065 1 1 1 1 1 1 1 1 0.050055463111732763 0.055138920488946939 1 1 1 0.049523136207090895 0.053035932374571527 1 1 1 1 1 0.049847201182693715 1 1 1 1 1 1 0.051608065981554062 1 1 1 1 0.049803830632434251 1 1 1 1 1 0.050518838210378628 1 1 1 1 0.052562406910651782 1 1 1 1 1 1 1 1 1 1 1 1 1 1 1 1 1 1 1 1 1 1 1 1 1 0.05019395011416207 1 1 1 1 0.048755649072330876 1 0.054377826452086893 1 0.047162732788147269 1 1 0.055605034912157368 1 1 0.052382373795534079 1 1 0.049615616507578883 1 1 1 1 1 1 0.05628162949244804 1 1 0.053280484484821838 1 0.050143419528786155 0.051721227535321143 0.05214873468701995 1 1 0.048284859757139156 1 0.049707897799027664 0.049550325031606314 1 1 1 0.050578543204912639 1 0.050026777435847422 1 1 1 1 1 1 0.050977182159699062 1 1 1 0.049976710531786164 1 1 1 1 1 1 1 0.051773382793031127 1 1 1 0.048586425470304256 1 0.063033957311384656 0.062188637859830365 1 1 1 1 1 1 1 0.0502502624033778 1 1 1 1 1 1 1 1 0.050123579132820784 0.049378628287215551 1 1 1 1 0.048241336537810077 1 1 0.048352823543283428 1 1 1 0.050000225293170865 1 1 1 0.049212595874448116 0.050174794243937712 1 1 1 1 0.05007694694321943 1 1 1 1 1 0.049468024864875865 0.049255983272197844 1 1 1 1 1 1 1 1 1 1 1 1 1 1 1 1 1 1 1 1 1 1 1 1 1 1 1 1 1 1 1 0.050298536183776194 1 1 1 0.049938436929234234 1 1 1 1 1 1 1 1 1 1 1 1 1 1 1 0.049838760372856374 1 0.050188967692224154 0.050167622543126539 1 1 0.049674370784598874 1 1 1 1 1 1 1 1 1 1 1 1 1 1 1 1 1 1 1 1 1 1 1 0.050484111526630918 1 1 0.04910020914677031 0.049953217943047842 1 1 1 1 1 1 1 0.049288780021283674 1 1 1 0.050864337544317087 1 1 1 1 0.050235540835131313 0.050079232929888626 1 1 1 1 1 1 1 0.048803629778445094 1 1 1 1 0.049392853718388564 1 1 1 1 0.049827209058941682 1 1 1 1 1 1 1 1 1 1 1 1 1 1 1 1 1 1 1 0.050561952864205541 1 1 1 1 1 1 1 1 1 1 1 1 1 1 1 1 0.051476825456224465 1 1 1 0.050520918384430034 1 1 1 1 1 1 1 1 1 0.049847065095109791 1 1 1 1 1 1 1 1 1 1 1 1 1 1 1 1 1 1 1 1 1 0.049851967343435444 1 1 1 1 1 1 1 1 1 1 1 1 1 1 1 1 1 0.049567984984836937 1 1 1 1 1 0.050019927391695682 1 1 1 1 1 1 1 1 1 1 1 1 1 1 1 1 1 1 1 1 1 1 1 1 1 1 1 0.050091255436676779 1 1 0.055039032712891386 1 1 1 0.055177513531166067 1 1 1 1 1 1 1 1 1 1 1 1 1 1 1 0.060205732714783189 1 0.047853274725399159 1 1 1 1 1 1 1 1 1 0.058285092650672929 1 1 1 1 1 1 1 1 1 0.051415766677437774 0.0552960171724904 1 1 1 1 1 1 1 1 1 1 1 1 1 1 1 1 1 1 1 1 1 1 1 1 1 1 1 1 1 1 1 1 1 1 1 1 1 1 1 1 1 1 1 1 1 1 1 1 1 1 1 1 1 1 1 1 1 1 1 1 1 1 1 1 1 1 1 1 1 1 1 0.051664657678983032 1 1 1 1 1 1 0.054198819286161139 1 1 1 1 1 1 1 1 1 0.051743794011189254 1 0.053949928284615874 1 1 1 1 1 1 1 1 1 1 1 1 1 1 1 1 1 1 1 1 1 1 1 1 1 1 1 1 1 1 1 1 1 1 0.050132345550019289 1 1 1 0.050013917178583091 0.049830935976783147 1 1 1 1 1 1 1 1 1 1 1 1 1 1 1 1 1 1 1 1 1 1 0.049963762724086494 0.049347444298981857 1 1 1 1 1 1 1 1 0.049710292716482876 1 1 1 1 1 1 0.04953011491103148 1 1 1 1 1 0.050313286086613965 1 1 1 1 0.050106747563361344 1 1 1 0.060938633086974059 1 1 1 0.058715274844867403 1 1 0.055211800385507888 1 1 1 1 1 1 1 1 1 1 1 1 1 0.050012970175518159 1 1 1 1 1 1 1 1 0.0506411926931081 1 1 1 1 1 1 1 1 1 1 1 0.052894151572361991 1 1 1 0.051022110969053541 1 1 1 1 0.04954331346594032 1 1 1 1 1 1 1 1 0.048446870629419984 1 0.05607704607067035 1 1 0.047979358008096266 1 1 1 1 1 0.055545441339423039 1 1 1 1 1 1 1 1 1 1 1 1 0.050602363732018395 1 1 1 1 1 1 1 1 1 0.049269940551921361 1 1 1 1 1 1 0.051580001924540764 1 1 1 1 1 1 1 0.050903868706184595 1 1 1 1 1 0.05150623243820298 1 1 1 1 1 1 1 1 1 1 1 1 1 1 1 1 1 1 1 1 1 1 1 1 1 1 1 1 1 1 1 1 1 1 1 1 1 1 1 1 1 1 1 1 1 1 1 0.051679873165193436 1 0.054277297275621743 1 1 1 1 1 1 1 1 1 1 1 1 1 1 0.049752535068500449 1 1 1 1 1 1 1 1 1 1 1 1 1 1 1 0.050258621006447332 1 1 0.051124767533997757 1 0.051991123303670894 1 1 1 1 1 0.053143099952359649 1 1 1 1 1 1 1 1 1 1 1 1 1 1 1 1 1 1 1 1 0.054630629329656739 1 1 1 1 1 1 1 1 1 1 1 0.055315018472638242 1 0.050045239525281268 1 1 0.055722615407160135 1 0.046494507030326822 1 1 1 1 1 1 1 0.050120757742792101 1 0.060075925078320241 1 1 1 1 0.062755834732243401 1 1 1 1 0.050125542335533957 0.052575603929010034 1 1 0.056077350357005486 1 1 1 1 1 1 1 1 1 1 1 1 1 1 1 1 0.050879792330848182 1 1 1 1 1 1 1 1 1 1 1 1 1 1 0.052549539651601126 1 0.050037951256923605 1 1 1 1 1 1 1 0.060119966146732713 1 0.064812229925003476 1 1 1 1 1 1 1 1 1 0.05008410827824987 0.057103177600880475 1 1 1 0.055925930545409328 1 1 1 1 0.046321476997471661 1 0.052055314230270544 1 1 0.052187327495572762 1 0.039686438373133306 0.046350561300843307 0.049429661760906428 1 1 0.049990278536931228 1 1 1 0.044261651920852831 0.054061941537466414 0.056072041441116285 1 1 1 1 1 1 1 1 1 1 1 0.054428101373314629 1 1 1 1 1 1 0.059712255683728697 1 1 1 0.049829288021233924 1 1 1 1 1 1 1 1 0.05274939638351174 1 1 1 0.050954837614355958 1 1 1 1 1 1 1 1 1 1 1 1 1 1 1 1 1 1 1 1 1 1 1 1 1 1 1 1 1 1 1 1 1 1 1 1 1 1 1 1 1 1 1 1 1 1 1 1 1 1 1 1 1 1 1 1 1 1 1 1 0.050179973536966779 1 1 1 1 1 0.050119256642383134 1 1 1 1 0.049869238406808278 1 1 1 0.047734967045070242 1 1 1 1 1 1 1 1 1 1 1 1 1 1 1 1 1 1 1 1 1 1 1 1 1 1 1 1 1 1 1 1 1 1 1 1 1 1 1 1 0.050186399052460619 1 1 0.050502537133457516 1 1 1 1 1 1 1 0.049990223456650905 1 1 1 1 1 1 1 1 1 1 1 0.049966460317333192 1 1 0.050004502006736659 1 0.049572520339435037 1 1 1 0.050701225712924264 1 1 1 1 1 1 1 1 0.050050564349936842 1 1 1 1 0.05003775971541613 1 1 1 1 0.05109405836081491 1 0.04957719721440508 1 1 1 1 1 1 1 1 1 1 1 1 0.051027531826138346 1 0.051120647250540524 1 1 1 1 1 1 1 1 1 1 1 1 1 0.049908104758548177 1 1 1 1 1 1 1 1 1 0.04982999522057157 1 1 1 0.049921890462023416 1 1 1 1 1 1 1 1 1 1 1 1 1 1 1 1 1 1 1 1 1 1 1 1 1 1 1 1 1 1 1 1 1 1 1 0.050037218916426603 1 1 0.050006400083991528 1 1 1 1 0.050122130365498993 1 1 1 1 1 1 1 1 1 1 1 1 1 1 1 0.050194374506500626 1 1 1 1 1 1 1 1 1 0.05039093028973031 1 0.05011389932663024 1 1 1 1 1 1 1 0.050008424599725196 1 1 1 1 1 1 1 1 1 1 1 1 1 1 0.052125478172267363 1 1 1 1 1 1 1 1 1 1 1 0.055680073793140702 1 1 1 1 1 1 1 1 1 1 1 1 1 1 1 1 1 1 1 1 1 1 1 0.049879431042800973 1 0.050145953512140976 1 1 1 1 1 1 0.049656859994460616 1 0.052195944748802833 1 1 1 0.048494775307079976 1 1 1 0.05666339718173212 1 1 1 0.047311807664163458 1 1 0.054297394689092407 1 1 1 1 1 1 1 0.051489780810985417 1 1 1 1 1 1 1 0.05786910647646909 1 1 1 1 1 1 1 1 1 1 1 1 1 0.05067070335432005 1 1 1 1 1 1 1 1 0.055770857212573501 1 1 1 1 1 1 1 1 1 1 1 1 1 1 1 1 1 1 1 1 0.057915417055729362 1 1 1 1 1 1 1 1 1 1 1 1 1 1 1 1 1 1 1 1 1 1 1 1 1 1 1 1 1 1 1 1 1 1 1 1 1 1 1 1 1 1 1 1 1 1 1 1 1 1 0.050413295353987642 1 0.051666244853386986 1 1 1 0.049772703757456564 1 1 0.050005850717432229 0.052251942025828439 1 0.051095248765089737 1 1 1 1 1 1 1 1 1 1 1 1 1 1 1 1 1 1 1 1 1 1 1 1 1 1 1 1 1 1 1 1 1 1 1 0.050145720729058027 1 1 1 1 0.050391866935771218 1 1 0.015128722968773559 1 1 1 0.049973593437138905 1 1 1 1 0.050693762039076412 1 0.049993101594958421 0.049915286244877011 1 1 1 1 0.050031596797603883 1 1 1 0.050568706169015432 1 1 1 0.049934979872955851 1 1 1 1 1 1 0.050000671017146218 1 1 1 1 1 1 1 1 1 1 1 1 1 1 1 1 1 1 1 1 0.050299938424866145 1 1 1 1 1 1 1 1 1 1 1 1 1 1 1 1 1 1 0.050173537261039146 1 1 0.050462841245054013 1 1 0.051521884460619026 1 1 1 1 1 1 1 1 1 1 1 0.050680999125595073 1 1 1 1 0.050796832676577142 1 1 1 1 0.049670585687514202 1 1 1 0.050223913439521345 1 1 1 1 1 1 1 1 1 1 1 1 1 1 1 1 1 1 1 1 1 1 1 1 1 0.050067543329313804 1 1 1 1 1 1 1 1 0.050223936492327745 1 1 1 0.050276833591688212 1 1 1 1 1 1 1 1 1 1 1 1 1 1 1 1 1 1 1 1 1 1 1 1 0.048517421423773077 1 1 1 0.049841374093565469 1 1 1 1 1 1 1 1 0.048500437670690948 1 1 0.054436568775399638 1 1 1 1 0.051638910208696542 1 1 1 1 1 1 1 0.049432457333157293 1 0.053579179103711544 1 1 0.054828403856330879 1 1 0.049029075809416622 0.049982251777197728 1 1 1 1 1 1 1 1 1 1 1 1 1 1 1 1 1 1 1 1 1 0.050248886068515818 1 1 1 1 0.049878556908227463 1 1 1 1 1 1 1 1 1 1 1 1 1 0.04947585313745588 1 1 0.050060624153281469 1 1 1 1 1 1 1 1 1 1 1 1 1 1 1 1 1 1 1 1 1 1 1 1 1 1 1 1 1 1 1 1 1 1 1 1 1 1 1 1 1 1 1 1 1 1 1 1 1 1 1 1 1 1 1 1 1 1 1 1 1 1 1 1 1 1 1 1 1 1 1 1 1 1 1 1 1 1 1 1 1 1 1 1 1 1 1 1 1 1 1 1 1 1 1 1 1 1 1 1 1 1 1 1 1 1 1 1 1 1 1 1 1 1 1 1 1 1 1 1 1 1 1 1 1 1 1 1 0.051223802123932086 1 1 1 1 1 1 1 0.049918669791304923 1 1 1 1 1 1 1 1 1 0.049336625231603488 1 0.051894088515421273 1 1 1 0.051049388726828945 1 1 0.052262572170960406 1 1 1 1 1 1 1 1 1 1 1 1 1 1 1 1 1 1 1 1 1 1 1 1 1 1 1 1 1 1 1 1 1 1 1 1 1 0.051351172439279773 1 1 0.049710396916724783 0.054961281248643634 1 1 0.049801594108940264 1 1 0.051233004912737329 1 1 1 0.051715528558053246 1 1 1 1 1 1 1 1 1 0.05288301761445563 1 1 1 1 1 1 0.050812264857803005 1 1 1 1 1 1 1 1 1 1 1 1 1 1 1 1 1 1 1 1 1 1 1 1 1 1 1 1 1 1 1 0.049509029252850112 1 1 1 1 1 1 1 1 1 1 1 1 1 1 1 1 1 1 1 1 1 1 1 1 1 1 1 1 1 1 1 1 1 1 1 1 1 1 1 1 1 1 1 1 1 1 0.053421106924051082 1 0.05454396284509188 1 1 1 1 0.05022568132496024 1 1 1 1 0.057377801271240536 1 1 1 1 0.049881405681853334 1 1 1 1 1 1 1 1 0.056360966532379743 1 1 0.050785385685411501 1 0.04974756375520805 1 1 1 1 0.048231419860304103 1 1 0.05838200228656109 0.047164562440406288 1 1 1 1 1 1 0.050079896344567332 1 1 1 1 1 1 1 1 1 1 0.058665323909765435 0.049919543954082601 1 1 1 1 1 0.050057138364506579 1 1 0.057824354602425188 1 1 1 1 0.053847737419323194 1 1 0.050880813943605836 1 1 1 1 1 1 1 1 1 1 1 1 1 1 1 1 1 1 1 1 1 1 1 1 1 1 1 1 1 0.055370170017342193 1 0.052236264110289927 1 1 1 1 1 1 1 1 1 1 1 1 1 0.049986472122709152 1 1 1 1 0.05110132317362278 0.049859106747296995 1 1 1 1 1 1 1 1 1 1 1 1 1 1 1 1 1 1 1 1 1 1 1 1 1 1 1 1 1 1 1 1 1 1 1 1 1 1 1 1 1 1 0.049972368323075229 1 1 1 0.049985896200366059 1 1 1 1 1 1 1 1 1 1 1 1 1 1 1 1 1 1 1 1 0.051707399188386842 1 1 0.051467319715553024 1 1 1 1 1 1 1 1 1 0.051666152744115637 1 1 1 1 1 0.054085997515017109 1 1 1 1 1 0.050009743842883508 1 0.049999981078932103 1 1 1 1 1 1 1 1 1 1 1 1 1 0.049213256098267391 1 1 1 0.049780195919592908 0.053098671658844424 1 1 1 1 1 1 1 1 0.054002927038541551 1 1 0.05199242037027086 1 1 0.049953819410964141 0.050900685885615249 1 1 1 1 1 0.050986959622191012 1 1 1 1 1 1 1 0.050433100231085687 1 1 0.050821191776976957 0.051560575256826273 1 1 1 1 1 1 0.049922532715831656 0.050059418757817074 1 1 1 0.049983103610320656 1 1 1 1 1 1 1 0.049943283869941416 1 1 1 1 1 1 1 1 1 1 1 1 1 1 1 1 1 1 1 1 1 1 1 1 1 1 0.069516279590099317 1 1 1 1 1 1 1 0.049753092749746639 1 1 1 1 1 1 1 1 1 1 1 0.064750638793727361 1 1 1 1 1 1 1 1 0.048981671256526624 1 1 1 1 1 1 1 1 1 1 1 1 1 1 1 1 0.050812724151891621 1 1 1 0.049447639750844055 1 1 1 1 1 0.052702411784093392 1 1 1 1 1 1 1 1 1 1 1 1 1 1 0.051223185115579821 1 1 1 1 0.053447482669891896 1 1 0.055182761672830635 1 1 1 1 1 0.04993027077394082 1 1 1 1 1 1 1 1 1 1 1 1 1 1 0.049759868703492374 1 0.04526813244431796 1 1 1 0.05518622527760822 1 0.059883166821320513 1 0.042943956827396483 1 1 1 1 1 1 0.049987974955993768 0.071290135205666447 1 1 1 1 1 1 0.070404722872535658 1 0.049552144271247836 1 1 1 1 1 1 1 1 1 1 1 1 1 1 1 1 1 0.045470376859032768 1 1 1 0.04994851883735197 0.047074703636319805 1 1 1 1 1 0.048539152887019495 1 1 0.04996162602415833 0.049510602209521859 1 1 1 1 1 1 1 1 1 1 1 1 1 1 1 1 1 1 1 1 1 1 1 1 1 1 1 1 1 1 1 1 1 1 1 1 1 1 1 1 1 1 1 1 0.057863555730840073 1 1 0.048035309175730803 0.049551965691783467 0.049982473750816853 1 1 1 1 1 1 0.049890188997410573 1 1 1 1 1 1 1 1 1 0.050005539242517577 1 1 1 0.057251014746235035 1 1 1 1 1 1 1 1 1 1 1 1 1 1 1 1 1 1 1 1 0.055302189142091118 1 1 1 1 0.051939724615458482 1 1 1 1 1 1 1 1 1 1 1 1 1 1 1 1 1 1 1 1 1 1 1 1 1 1 1 1 1 1 1 1 1 1 0.051475423135772733 1 0.050663127594203279 1 1 1 1 1 1 1 1 0.051691177490396152 1 1 1 0.054416825182051501 1 0.051028049896192869 1 1 1 1 1 1 1 1 0.058795156585316345 1 1 1 1 0.052777784791182961 1 1 1 1 0.057153233589590687 1 1 1 1 1 1 1 0.057604700276501053 1 1 1 1 0.053392868733189144 1 1 1 1 1 1 1 1 1 1 1 1 1 1 1 1 1 1 1 1 1 1 1 1 1 1 1 1 1 1 1 1 1 1 1 1 1 1 1 1 1 1 1 1 1 1 0.051290183023019346 1 1 1 1 0.051984095021418958 0.053576370444578615 1 1 0.054133828354722448 0.051483135609913348 1 1 1 1 1 1 1 1 1 1 1 1 1 1 1 1 1 1 1 0.050752656947345251 1 1 1 0.051575656814030792 0.051106807766903663 1 1 1 1 1 1 1 1 1 1 1 1 1 1 1 1 1 1 1 1 1 1 1 1 1 1 1 0.050646771514319629 1 1 1 1 1 1 1 0.051007198363838685 1 1 1 1 1 1 1 1 1 1 1 1 1 1 1 0.051474969883801611 1 1 1 1 1 1 1 1 0.050653787707983219 1 0.050270682630232329 0.051667319319545248 1 1 1 1 1 1 1 1 1 1 1 1 0.049534031505682571 1 1 1 1 1 1 1 1 1 1 1 1 1 1 1 1 1 1 0.046707039315722787 1 1 1 0.045918541525730383 1 1 1 1 1 1 1 1 0.048567143543866965 1 1 1 1 1 1 1 1 1 1 1 1 1 1 1 0.050171132447286715 1 1 1 0.050234123278686357 1 1 1 1 1 1 1 1 1 1 1 1 1 1 1 1 1 1 1 1 1 1 1 1 1 1 1 1 1 1 1 1 1 0.051103796607042826 1 0.050457737524739851 1 1 1 1 1 1 1 1 0.049856862362173425 1 1 1 1 1 1 1 1 1 0.051574795978351122 1 1 0.048373971544834693 1 1 1 1 1 0.049157596577550512 1 1 1 1 0.050059169180734227 1 1 1 1 0.047268379338805337 1 1 1 0.047350025005831374 1 0.057509243843552271 1 1 0.05805703409476818 1 1 1 1 1 1 1 1 1 1 1 1 1 1 0.049842919885978214 1 1 0.051330646685661188 1 0.049730767426888804 1 1 1 0.053657570636156345 1 1 0.052364502022107393 1 1 1 1 0.057901530764125554 1 0.048811598565184217 1 1 1 1 1 1 0.04960772023187221 1 0.050138564083145098 1 1 1 1 1 0.050202448764308856 1 1 1 1 0.058490801827127667 1 1 1 1 1 1 0.049729031240168003 1 1 1 1 1 1 1 1 1 1 1 1 1 1 1 1 1 1 1 1 1 1 1 1 1 1 1 1 1 1 1 1 1 0.050200200606107373 0.049990543134746268 1 1 1 1 1 1 1 1 1 1 0.048191585035784072 1 1 0.05895791454933496 0.049016225730819533 1 0.049995616566647312 1 1 1 1 1 1 1 0.047477568111227823 1 1 1 1 1 1 1 1 1 1 1 1 0.052630708883327243 1 1 1 1 0.050889985418011902 1 1 1 1 1 1 1 1 1 1 1 1 0.053008483054182182 1 1 1 1 1 1 1 1 1 1 1 1 1 1 1 1 1 0.052206037153034401 1 1 1 1 1 0.05055497826730234 1 1 1 0.053345031899706803 1 1 1 1 1 1 0.052607599161693816 1 0.053575785359657367 1 1 1 0.051796181042060213 1 1 1 1 1 1 1 1 1 0.055031168858919483 1 1 0.049907588536206013 1 1 1 1 1 1 1 0.051035002289871498 1 1 1 1 1 1 1 1 1 1 1 1 1 0.049575830554130923 1 1 0.050968542696385483 1 1 1 1 1 1 0.050041454468495825 1 1 1 1 1 1 0.055519787342698967 1 1 1 1 1 1 1 0.057740436521795967 1 1 1 1 1 1 1 1 1 1 1 1 1 1 1 1 1 1 1 1 1 1 0.051083756580256871 1 1 1 1 1 1 1 1 1 1 0.04716754260429952 1 1 1 1 0.045987265257093901 0.056111338628871472 1 1 1 1 0.054978477441519291 1 1 1 1 1 1 1 1 1 0.053818935820613444 1 1 1 1 1 1 1 1 1 1 1 0.052528463809453425 1 1 1 0.049706077554309863 1 1 1 0.05088575783188036 1 1 1 1 1 1 1 1 1 1 1 1 0.048611310441773393 1 1 1 1 1 0.04999871830825698 1 1 0.050019521189998736 1 1 1 1 1 1 1 1 1 1 1 1 1 1 0.050874723556263046 1 1 1 1 1 1 1 0.051727040106672603 1 1 1 0.050946530842111711 1 1 1 1 1 0.050046433157664515 1 1 1 1 1 1 1 1 1 0.050025630275922772 1 1 1 1 1 1 1 1 0.049310032589952563 1 1 1 1 1 0.050480778472942196 1 1 1 1 1 1 1 0.050164409516279512 1 1 1 1 1 1 1 1 1 1 1 1 1 1 1 1 1 1 1 1 1 1 1 1 1 1 1 1 1 1 1 1 1 1 1 1 1 1 1 1 1 1 1 1 1 1 1 1 0.051772435027884492 1 1 1 1 1 1 1 0.051881974080438251 1 1 1 1 1 1 1 1 1 1 1 1 1 1 1 1 1 1 1 1 1 1 0.053253240079993346 0.049742291340462673 1 1 0.055100805505049436 0.047910476465782531 1 1 1 1 1 1 1 0.049672258142781651 1 1 1 1 1 1 1 1 1 1 1 1 1 1 0.05346945053217711 1 1 1 1 1 1 1 1 0.051644826128157184 1 1 0.050310792713569759 1 1 1 0.050447348582199937 1 1 1 1 1 1 1 1 1 1 1 1 1 1 1 1 1 1 1 1 1 1 1 1 1 1 1 1 0.053040253227872328 1 1 1 1 1 1 1 1 0.049902626503130189 1 1 1 1 1 1 0.0582751480955482 0.049242665556001854 1 1 1 1 0.049552166928653225 1 1 0.055243526080041287 1 1 0.054746073074519772 1 1 1 1 1 1 0.050224699477090802 1 1 1 1 1 1 1 1 0.050330178576275454 1 1 1 1 1 1 1 1 1 1 1 0.050759588745877507 1 1 0.050429943996056027 1 1 1 1 1 1 1 0.051208037594997841 1 1 1 0.050389378765891404 1 0.05073852263531111 1 0.050755129188186685 1 1 1 1 1 1 1 1 1 1 1 1 1 1 1 1 1 0.053950130439524693 1 0.049998424574111903 1 1 1 1 1 1 1 1 1 1 0.052678472714550818 1 1 1 1 1 1 1 0.05028040385101306 1 1 1 0.049984032289069294 1 0.050361321950506716 0.049451467383978216 1 1 0.045861409493280755 1 1 1 1 0.053578217830471918 1 1 1 0.04878995718824896 1 1 1 0.049652511521865922 1 0.051052229709198149 0.058240008379886576 1 1 1 1 1 1 0.050598744565285028 1 1 1 1 1 1 1 1 0.058849036108286873 0.049998448692012885 0.053056428499489758 1 0.063933024693795748 1 1 0.047153895597675528 0.050000638646425732 1 1 0.047441238688917996 1 1 1 1 1 1 1 1 1 1 1 0.050146932458757121 1 1 1 1 1 1 1 1 1 1 1 1 1 0.054361269047850116 0.056515577635135761 1 1 1 1 0.055682842988554526 1 1 1 0.050783425205591794 1 1 1 1 1 0.054401221320336604 0.050005183228888556 1 1 1 0.048744258773108458 1 1 1 1 1 1 1 1 1 1 1 1 1 1 1 0.050160262714241052 1 1 1 0.052001304392247288 1 1 1 0.050095623851598617 1 1 1 1 1 1 0.054686514370234786 1 1 1 1 1 0.054287492579886742 1 1 1 1 1 1 1 1 0.052253071468600976 1 1 1 1 1 1 1 1 1 0.050358883166987611 1 1 1 1 0.05527328405261546 1 0.04983863417047589 1 1 0.055026315985277588 1 0.050317973915066448 1 1 1 1 1 1 0.050648300891184828 1 0.049958974577603177 0.05968454070057426 1 1 1 1 1 1 1 1 0.046943462807106276 1 0.049922233754178771 1 0.050007921795356805 1 0.05909715990346668 1 1 1 1 1 1 1 1 1 1 1 0.050155407723346486 1 1 1 0.050384710427458054 1 1 1 1 1 1 1 1 0.050229302704111564 1 1 1 1 1 1 1 1 1 0.050064775983714636 1 1 1 1 0.049859775938619497 1 1 0.049623541576915169 1 1 1 1 1 1 1 1 1 0.049900609419525205 1 1 1 0.049586529850454912 1 1 1 1 1 1 1 1 1 1 1 1 1 1 1 1 1 1 1 0.050436731455223628 1 1 1 1 1 1 1 1 1 1 0.050324536888814234 1 1 1 1 1 1 1 1 1 1 1 1 1 1 1 1 1 1 1 1 1 1 1 1 1 1 1 1 1 1 1 1 1 1 1 1 1 1 1 1 1 1 1 1 1 0.06100597223724593 0.049751651221904281 1 1 1 1 1 1 1 1 1 1 1 1 1 0.068018409025776411 0.048159795726748736 1 1 1 0.049581970062079435 1 1 0.055544242865135901 1 1 1 0.057611210353146203 1 1 1 0.063027762827028544 1 1 1 1 1 1 1 1 0.049057053074804818 1 1 0.051472767630039593 1 0.057480213428274751 0.051740776954645462 1 1 1 1 1 1 0.058312454927603043 1 0.048742973292629305 0.051303490142050663 0.050333796375944456 1 1 0.055223483400185694 1 1 0.05494110927408534 0.055500006052633229 1 1 1 1 1 1 1 1 1 1 1 1 1 1 1 1 1 1 1 1 1 0.050889075643231807 1 1 1 1 1 1 1 1 1 0.051599555535204775 1 1 1 1 1 1 1 0.04896034588855782 0.050943416124747079 1 1 1 1 1 1 1 1 1 1 1 1 1 1 1 1 1 1 1 1 1 1 1 0.051101608493633828 1 0.049959515663672446 1 1 1 1 1 1 1 0.050902697300075739 1 1 1 0.052651610981962485 0.049393570824358184 1 1 0.049598782586536855 1 1 1 1 0.053311299955250038 1 1 1 0.05220442435326466 1 1 1 0.067673209785493793 1 1 1 1 1 1 1 1 1 0.070384689032599868 0.04688500533910387 1 1 1 1 1 0.053348669646374053 1 1 0.048340942338911036 0.060102755003581212 0.069665969529402044 1 1 1 1 1 0.049382529226018504 1 1 1 1 1 1 1 1 1 0.049514735478965705 1 0.049793899672280956 1 1 1 1 1 1 1 1 1 1 1 1 1 1 1 1 1 1 1 1 1 1 1 1 0.049536796448275973 1 1 1 1 0.04861036105922785 0.048638851198143443 1 1 1 0.049469542305823566 1 1 1 1 1 1 1 1 1 1 1 1 1 1 1 1 0.058875421374344844 1 1 1 0.050029593864420963 1 1 0.043366799725898339 1 1 1 1 1 1 1 1 1 1 1 1 1 0.047839180769753027 1 1 0.05811459935419757 1 1 1 0.045584301774779443 1 0.06484394076037639 1 0.050014483815274874 1 0.051566937561565128 0.057105187952060397 0.050005683105384349 1 1 1 1 1 1 1 1 0.049876953253650866 1 1 1 1 1 1 1 1 0.055100157938588794 1 1 0.051700101015889233 1 1 1 1 1 1 1 1 1 1 1 1 1 1 1 1 1 1 1 1 1 0.04980722744278214 1 1 1 1 1 1 1 1 1 1 0.049850071081253722 1 0.050186622512513761 1 1 0.050682296226316391 1 0.049807696255785232 1 0.050007797129062434 1 1 0.050047155540556318 1 0.055347017305195007 1 1 0.049664188930509251 1 1 1 0.049964577098185692 1 1 1 1 1 1 1 1 1 1 1 1 1 1 1 1 1 1 1 1 1 1 1 1 1 1 1 1 1 1 1 1 1 1 1 1 1 1 1 1 1 1 1 1 1 1 1 1 1 1 1 1 1 1 1 1 1 1 1 1 1 0.052343432771482526 1 1 0.058498844438271809 1 1 1 1 1 1 0.049913031679587126 0.053868283809715353 1 1 1 1 1 1 1 1 1 1 1 1 1 1 1 1 1 1 0.056289144411913995 1 1 1 0.0501939129423154 1 1 1 1 1 1 1 1 1 1 1 1 1 1 1 1 0.049924072404558886 1 1 1 1 1 1 1 0.057030355809383967 1 1 1 1 1 1 1 1 0.05521290637785984 1 0.050148740770291092 1 1 1 1 1 1 1 1 1 1 1 1 1 1 1 1 0.049988906988508143 1 1 1 1 1 1 1 0.049960063652939757 1 1 1 1 0.050003146947216963 1 1 1 1 1 1 1 0.050006877721795927 1 1 0.052035249198674499 0.050150503118287677 1 1 0.04902259984038658 1 1 1 1 1 1 0.049915318227699838 1 1 1 1 1 1 1 1 1 0.050105401028411128 1 1 0.050019079010189774 1 1 0.050006036312125898 1 1 0.052631896374880811 1 1 1 1 1 0.053067150676532032 1 1 1 1 1 1 1 1 0.050114827407257381 1 1 1 1 1 1 1 0.050322748746626046 1 1 1 1 1 1 1 1 1 1 1 1 0.049937242398918252 1 1 1 1 1 1 1 0.050019192147237004 0.049996975156618606 1 0.053061491381809565 1 0.052943567475510517 1 1 1 1 1 1 1 1 1 1 1 1 1 1 1 0.050005598930562133 1 0.052906680838021448 1 1 1 1 1 1 1 1 0.04932862906212953 1 0.050997023275098134 1 0.051840157222117156 1 0.04993587863992506 1 0.049977409811920032 1 1 0.050106470304689815 1 1 1 1 1 0.050368381586998863 1 1 1 1 1 1 1 1 0.049944821559841146 1 1 1 1 1 0.049835689910079153 1 1 0.052972094272348995 1 0.049712400744748669 0.051198992908317517 1 1 1 1 1 1 1 1 0.049999975438646642 1 1 1 1 1 1 1 1 1 1 1 1 1 0.050033220683547562 1 1 1 1 1 1 1 0.050000325485941161 1 1 1 0.050000321616456941 1 1 1 1 1 1 1 1 1 1 1 1 1 1 1 1 1 0.050090731631501156 1 1 1 1 1 1 1 0.050043920862028898 1 1 0.050031398496225683 1 1 1 1 1 1 1 1 1 1 1 1 1 1 1 0.050084807986993586 1 1 1 1 0.049961821457992925 1 1 1 1 1 1 1 1 1 1 1 1 1 1 1 1 1 1 1 1 1 1 1 1 1 0.050803964738188392 1 1 1 1 1 1 0.050028086086953305 1 1 1 1 1 1 1 1 1 0.051646463831697617 0.050382441132173252 1 1 1 0.050556734464371464 1 0.050003064177623138 1 1 1 1 1 1 1 1 1 1 1 1 1 1 1 0.05004175382540843 1 1 1 1 1 1 1 1 1 1 1 1 0.049999915430094521 0.050011668582174727 1 1 1 1 1 1 1 1 0.05007119796877129 1 1 0.049998884774687752 1 1 0.05063635504506428 0.049685934425074012 1 1 1 1 1 1 1 0.050205612079237516 1 1 1 1 1 1 1 1 1 0.050011753152080202 1 1 1 0.050776404922488215 1 1 1 1 1 0.050630197231379598 1 1 1 1 1 1 1 1 1 1 1 1 0.050600714641012248 1 1 1 0.050019047059909505 1 1 1 0.050008965386160703 1 1 1 1 1 1 1 1 1 1 1 1 1 1 1 1 1 1 1 1 1 1 1 1 1 1 1 1 1 1 1 1 0.049963683969205377 1 1 1 1 1 1 1 1 1 1 1 1 1 1 1 1 1 1 1 1 1 1 1 1 0.050046253939275913 1 0.050002703825089201 1 1 0.052588106019878046 1 1 1 1 1 1 1 1 1 0.050045769450290843 1 1 1 1 1 1 1 1 1 1 1 1 1 1 0.052221997380193959 1 1 1 1 0.051705477900342925 1 1 1 0.050694830705786925 1 1 1 1 1 1 1 1 1 1 1 1 1 1 1 1 1 1 1 1 1 1 1 1 1 1 1 1 1 1 1 1 1 1 1 1 1 1 1 1 1 1 1 1 1 1 1 1 1 1 1 1 1 1 1 1 1 1 1 1 1 1 1 1 1 1 1 1 1 1 1 1 1 1 1 1 1 1 1 1 1 1 1 1 1 1 1 1 1 1 1 1 1 1 1 1 1 1 1 1 1 1 1 1 1 1 1 1 1 1 1 1 1 1 1 1 1 1 1 1 1 1 1 1 1 1 1 1 1 1 1 1 1 1 1 1 1 1 1 1 1 1 1 1 1 1 1 1 1 1 1 1 1 1 1 1 1 1 1 1 1 1 1 1 1 1 1 1 1 1 1 1 1 1 1 1 1 1 1 1 1 1 1 1 1 1 1 1 1 0.051162401517851064 1 1 1 1 1 1 1 1 1 1 1 1 1 1 1 1 0.05078516373610123 1 1 1 1 1 1 1 1 0.062155458278595942 1 1 1 1 0.049504717916566944 1 1 1 1 1 1 1 1 1 1 1 1 1 1 1 1 1 1 1 1 1 1 0.050905943124118343 1 1 1 1 1 1 1 1 1 1 1 1 1 0.049017128563587246 0.050624700800902526 1 1 1 1 1 0.049567603804294202 1 0.060242144959751068 1 1 1 1 1 1 1 1 1 1 1 0.05012373444795571 1 1 1 1 1 1 1 0.077962740305245137 1 1 1 1 1 1 1 1 1 1 1 1 1 1 1 0.050390624344262031 0.080712886806107484 1 1 1 1 1 1 1 1 1 1 1 1 0.056342601679100907 1 1 1 1 1 1 1 1 1 1 1 1 1 1 1 1 0.052171172282261979 1 1 1 1 1 1 1 0.082068546006027365 1 1 1 1 1 1 1 1 1 1 0.049798554048261209 0.07771123954473752 1 1 1 1 1 1 1 1 1 1 1 1 1 1 1 1 1 1 1 1 1 1 1 1 1 1 1 1 1 1 0.051091019037957645 1 1 1 1 1 0.050947399230330398 1 1 1 1 1 1 1 1 1 1 0.050401705354528141 1 1 1 1 0.050100857306964411 1 1 1 1 1 1 1 1 1 1 0.050863719474984026 1 0.050318025599181755 1 1 1 1 1 1 1 1 1 1 1 1 1 1 1 1 1 1 1 1 1 1 1 1 1 1 1 1 1 1 1 0.050243759181109904 1 1 1 1 1 0.050634383525371932 1 1 1 1 1 1 1 1 1 1 1 1 1 1 1 1 1 1 0.050772264610353599 1 1 0.072461264081110005 1 1 1 0.050259215004659213 1 1 1 1 1 0.075460728557348089 1 1 1 1 1 1 1 1 1 1 0.056056579772848544 1 1 1 1 1 1 0.050639924071879658 1 1 1 1 1 0.040289332193443099 0.049687006532261976 1 1 0.063135043949306496 1 1 0.050603220732731512 1 1 1 1 1 1 1 1 1 1 0.050253566289552618 1 1 0.050378709108250791 1 1 0.049710012629106237 1 1 0.051117802356485748 1 1 0.051033369780881618 1 1 0.049862994227693878 1 1 1 1 1 1 0.051500866860635319 1 1 1 1 1 1 1 1 1 1 1 0.063268369606322469 1 1 1 1 1 1 1 0.050184751807208126 1 1 1 1 0.050870058609215341 1 1 1 0.062019417845635347 1 1 1 1 1 1 1 1 1 1 1 0.052593630951915021 1 1 1 1 1 1 1 1 1 1 1 1 1 1 1 1 1 1 1 1 1 1 1 1 0.050082590199372772 1 1 1 1 1 0.050153249194030081 1 1 1 1 1 1 1 1 1 1 1 1 1 1 0.052976678748249816 1 1 0.051622408986268783 1 0.056014728775836534 1 1 1 1 0.059566788401801393 1 0.049790456115595634 0.051505140127787057 1 0.053370243224191517 1 1 1 1 1 1 1 0.050007543341320841 1 0.052919599096696052 1 1 1 1 1 1 0.049145804082739539 1 1 1 1 1 1 0.050023696029462078 1 1 1 1 0.050065478940616595 1 1 1 1 1 0.0501240446678686 1 1 0.050537100177732691 1 1 1 1 0.050122739652681318 1 1 1 1 0.052335167152834441 1 1 1 1 1 1 0.049698970110586632 1 1 1 1 1 1 1 1 1 0.049984043800778574 1 1 1 1 1 1 0.050898826882075816 1 1 1 1 0.052505085766532678 1 1 1 1 1 1 1 1 1 1 1 1 1 1 1 1 0.050129213664203795 1 1 1 0.049887158827643011 1 1 0.053825567673782243 1 1 1 1 1 1 1 1 1 1 1 1 1 1 1 1 0.049806618769829614 1 0.053694140341164445 1 1 1 1 1 1 1 1 1 1 1 1 1 1 1 1 1 1 1 1 1 1 1 1 1 1 0.060534089932663716 1 1 0.053423340203385017 1 1 1 1 1 1 1 1 1 1 0.05252089357169952 1 1 1 1 0.049710898512004276 1 1 1 1 0.049904279742174665 1 1 1 1 1 1 1 1 1 0.052014841147429991 1 1 1 1 1 1 1 1 1 1 1 1 1 1 1 1 1 1 1 1 1 1 1 1 1 1 1 1 
</DataArray>
</CellData>
</Piece>
</UnstructuredGrid>
</VTKFile>
